##TITLE=Library Entry 7237
##JCAMP-DX=Revision 4.10 
##DATA TYPE=MASS SPECTRUM
##SAMPLE DESCRIPTION=M.MEOT-NER THE ROCKEFELLER UNIV., NEW YORK, N.Y., USA
##NAMES=HP
##CAS NAME=Cholestan-3-ol, 5-chloro-6-nitro-, (3.beta.,5.alpha.,6.beta.)-
##MOLFORM=C27H46ClNO3
##CAS REGISTRY NO=15505-91-6
##MP= -300
##BP= -300
##MW= 467
##$RETENTION INDEX=0
##$CONDENSED SPECTRUM=NO
##NPOINTS= 377
##XYDATA=(XY..XY) 1 
    15         12
    17         40
    18        185
    26         18
    27         54
    28        124
    29        189
    30         43
    31         25
    32          2
    35         41
    36        357
    37         15
    38        115
    39         49
    40          4
    41        569
    42         58
    43        999
    44         35
    45         13
    50         10
    51          8
    52          6
    53         93
    54         25
    55        918
    56        139
    57        810
    58         38
    59          7
    60          3
    63          3
    65         43
    66         23
    67        392
    68        115
    69        669
    70        107
    71        402
    72         22
    73          6
    74          4
    75          4
    77        140
    78         33
    79        360
    80         64
    81        677
    82        106
    83        390
    84         41
    85         66
    86          5
    87          4
    89          8
    90          3
    91        367
    92         78
    93        447
    94        120
    95        709
    96         89
    97        212
    98         23
    99         17
   100          3
   101         40
   102          5
   103         35
   104         33
   105        378
   106        107
   107        417
   108        104
   109        312
   110         54
   111        114
   112         16
   113         25
   114          4
   115         46
   116         31
   117        135
   118         74
   119        334
   120        137
   121        245
   122         71
   123        149
   124         48
   125         40
   126         25
   127         19
   128         46
   129         94
   130         50
   131        202
   132         71
   133        251
   134         74
   135        197
   136         72
   137         86
   138         34
   139         17
   140         14
   141         56
   142         48
   143        146
   144         71
   145        247
   146         74
   147        163
   148         56
   149        107
   150         37
   151         64
   152         71
   153         18
   154         36
   155         55
   156         31
   157        194
   158         85
   159        247
   160         79
   161        134
   162         38
   163         83
   164         23
   165         27
   166         13
   167         28
   168         17
   169         53
   170         30
   171        104
   172         51
   173        125
   174         56
   175        116
   176         48
   177         60
   178         29
   179         25
   180         13
   181         23
   182         21
   183         48
   184         29
   185        109
   186         47
   187        114
   188         39
   189         55
   190         33
   191         40
   192         16
   193         30
   194         10
   195         24
   196         15
   197         64
   198         31
   199         88
   200         36
   201         67
   202         32
   203         38
   204         21
   205         40
   206         20
   207         23
   208          8
   209         16
   210         11
   211        227
   212         69
   213        204
   214         55
   215         69
   216         34
   217         35
   218         21
   219         33
   220         13
   221         13
   222          6
   223         12
   224          9
   225        293
   226         72
   227        112
   228         41
   229        125
   230         95
   231        114
   232         51
   233         23
   234         22
   235         11
   236          5
   237         12
   238         10
   239         31
   240         14
   241         33
   242         32
   243         45
   244         68
   245         86
   246         43
   247         70
   248         29
   249         35
   250         12
   251         18
   252          9
   253         80
   254         28
   255         76
   256         29
   257         25
   258         31
   259         35
   260         55
   261         45
   262         21
   263         20
   264          6
   265        226
   266         54
   267        118
   268         26
   269         24
   270         20
   271         74
   272         36
   273         94
   274         70
   275         76
   276         21
   277         10
   278          4
   279         18
   280         14
   281         51
   282         24
   283         15
   284         18
   285         14
   286         17
   287         19
   288         23
   289         17
   290         13
   291         10
   292          3
   293         12
   295         13
   296          5
   297          8
   298          7
   299         26
   300         26
   301         40
   302         27
   303         12
   304          5
   305          7
   306          3
   307         24
   308          7
   309         16
   310          7
   311          9
   312          8
   313         21
   314         21
   315         15
   316         15
   317         12
   318         22
   319          8
   321          3
   323          5
   324          4
   325         13
   326         19
   327         20
   328         19
   329         18
   330         25
   331         17
   332         11
   333          5
   335          5
   337          5
   338          5
   339          8
   340         13
   341         37
   342         21
   343         11
   344         15
   345          8
   346         22
   347          8
   348          4
   349          4
   350         10
   351         97
   352         37
   353         34
   354         20
   355         20
   356         45
   357         18
   358         26
   359         11
   360          8
   361          3
   363          4
   364          3
   365        407
   366        158
   367        224
   368        112
   369        104
   370         60
   371         41
   372         41
   373         14
   374         67
   375         21
   376          8
   377          4
   378          8
   379          5
   380          8
   381          9
   382         13
   383        148
   384        457
   385        529
   386        334
   387         82
   388         25
   389          6
   396         68
   397         31
   398         57
   399         24
   400         19
   401         84
   402         40
   403         55
   404         17
   405         18
   406          4
   407          5
   412          6
   413         20
   414        708
   415        216
   416         58
   417         13
   419        305
   420        150
   421        131
   422         53
   423         11
   431        192
   432         59
   433         10
   467          3