##TITLE=Library Entry 8337
##JCAMP-DX=Revision 4.10 
##DATA TYPE=MASS SPECTRUM
##SAMPLE DESCRIPTION=NIST Mass Spectrometry Data Center, 2009
##NAMES=HP
##CAS NAME=2,2-Difluoroethyl acetate
##MOLFORM=C4H6F2O2
##CAS REGISTRY NO=1550-44-3
##MP= -300
##BP= -300
##MW= 124
##$RETENTION INDEX=709
##$CONDENSED SPECTRUM=NO
##NPOINTS= 31
##XYDATA=(XY..XY) 1 
    14          5
    15         29
    25          1
    26          5
    27          3
    28          1
    29         24
    30          5
    31         16
    32          4
    33          9
    41          4
    42         52
    43        999
    44         32
    45         37
    46         12
    47          1
    50          2
    51         55
    52          1
    61          4
    62          3
    63          3
    64         49
    65        119
    66          3
    73        117
    74          4
    75          1
   104          2