##TITLE=Library Entry 66704
##JCAMP-DX=Revision 4.10 
##DATA TYPE=MASS SPECTRUM
##SAMPLE DESCRIPTION=Chemical Concepts
##NAMES=HP
##CAS NAME=Butanediamide, N,N'-diphenyl-
##MOLFORM=C16H16N2O2
##CAS REGISTRY NO=15510-09-5
##MP= -300
##BP= -300
##MW= 268
##$RETENTION INDEX=0
##$CONDENSED SPECTRUM=NO
##NPOINTS= 106
##XYDATA=(XY..XY) 1 
    26          7
    27         47
    28         55
    29          5
    30          1
    31          0
    36          0
    37          5
    38         14
    39         56
    40          7
    41         11
    42          4
    43          1
    44          1
    45          0
    46          1
    47          0
    49          0
    50         13
    51         45
    52         13
    53          3
    54          9
    55        181
    56         33
    57          4
    60          0
    61          2
    62          5
    63         19
    64         24
    65         82
    66         75
    67          9
    68          0
    72          0
    73          1
    74          3
    75          3
    76          6
    77        152
    78         16
    79          3
    80          0
    82          1
    83          0
    87          0
    88          0
    89          0
    90          2
    91         27
    92         75
    93        999
    94        111
    95          7
    96          0
   101          0
   102          0
   103          6
   104         10
   105          5
   106         12
   107          1
   115          0
   116          0
   117          1
   118          9
   119         53
   120        104
   121          8
   122          0
   128          2
   129          0
   130         18
   131          4
   132          5
   133          1
   134          2
   145          0
   146         13
   147         17
   148         49
   149          5
   150          0
   158          0
   167          0
   168          0
   173          0
   174          4
   175         85
   176        254
   177         27
   178          2
   179          0
   194          0
   195          0
   207          0
   221          0
   249          4
   250          4
   251          1
   252          0
   268         18
   269          3
   270          0