##TITLE=Library Entry 73948
##JCAMP-DX=Revision 4.10 
##DATA TYPE=MASS SPECTRUM
##SAMPLE DESCRIPTION=V.G.Zaikin, TIPS, Russian Acad. Sci.
##NAMES=HP
##CAS NAME=3-n-Butylthiolane
##MOLFORM=C8H16S
##CAS REGISTRY NO=1551-24-2
##MP= -300
##BP= -300
##MW= 144
##$RETENTION INDEX=0
##$CONDENSED SPECTRUM=NO
##NPOINTS= 54
##XYDATA=(XY..XY) 1 
    51         40
    52         10
    53        210
    54        230
    55        990
    56        200
    57         60
    58         60
    59        230
    60        590
    61        210
    62         30
    65         40
    66         10
    67        300
    68        200
    69        210
    70         40
    71         30
    72         10
    73        110
    74        100
    75         30
    77         10
    79         30
    80         10
    81        770
    82        240
    83        110
    84         30
    85        150
    86         40
    87        630
    88        210
    89         60
    95        240
    96         40
    97         80
    98         10
    99         40
   101        999
   102        140
   103         60
   110        100
   111         10
   115        340
   116         60
   117         10
   129         30
   143         30
   144        830
   145         81
   146         40
   147          3