##TITLE=Library Entry 21544
##JCAMP-DX=Revision 4.10 
##DATA TYPE=MASS SPECTRUM
##SAMPLE DESCRIPTION=Chemical Concepts
##NAMES=HP
##CAS NAME=Cyclopentane-2,5-dicarboxylic acid, 1-oxo-, dimethyl ester
##MOLFORM=C9H12O5
##CAS REGISTRY NO=155191-86-9
##MP= -300
##BP= -300
##MW= 200
##$RETENTION INDEX=0
##$CONDENSED SPECTRUM=NO
##NPOINTS= 135
##XYDATA=(XY..XY) 1 
    25          2
    26         63
    27        408
    28         24
    29        100
    30         17
    31        116
    32         62
    33          5
    34          0
    35          2
    36          1
    37          6
    38         15
    39        136
    40         26
    41        253
    42         57
    43         39
    44         50
    45         35
    46          1
    47          1
    48          0
    49          3
    50         23
    51         47
    52         54
    53        265
    54         94
    55        999
    56         50
    57         15
    58         21
    59        271
    60         10
    61          3
    62          2
    63          4
    64          3
    65          9
    66          7
    67         13
    68        121
    69        111
    70         10
    71         49
    72          5
    73          1
    74          8
    75          4
    76          0
    77          2
    78          1
    79         13
    80        109
    81        210
    82         77
    83         25
    84          8
    85         55
    86        117
    87        673
    88         29
    89          4
    90          1
    91          0
    92          1
    93          2
    94          0
    95         12
    96          7
    97         28
    98         13
    99         12
   100         44
   101         21
   102          1
   103          0
   104          0
   105          0
   106          1
   107         32
   108        413
   109        386
   110         58
   111         42
   112        126
   113        159
   114        100
   115          7
   116          2
   117          5
   119          0
   121          0
   122          0
   123          2
   124          9
   125         11
   126         22
   127          7
   128          0
   129          1
   132         62
   133          6
   134          1
   135         10
   136         40
   137        385
   138         30
   139         10
   140        764
   141        130
   142         17
   143          1
   145          2
   151          0
   152          0
   153          2
   154          0
   155          0
   157          1
   164          0
   166          1
   167         12
   168        474
   169        354
   170         32
   171          3
   172          7
   173          0
   185          1
   200        122
   201         12
   202          2