##TITLE=Library Entry 57019
##JCAMP-DX=Revision 4.10 
##DATA TYPE=MASS SPECTRUM
##SAMPLE DESCRIPTION=V.A.KOPTYUG, ATLAS OF MASS SPECTRA OF ORGANIC COMPOUNDS
##NAMES=HP
##CAS NAME=Thiophane, propyl-
##MOLFORM=C7H14S
##CAS REGISTRY NO=1551-34-4
##MP= -300
##BP= -300
##MW= 130
##$RETENTION INDEX=1044
##$CONDENSED SPECTRUM=NO
##NPOINTS= 33
##XYDATA=(XY..XY) 1 
    15         37
    26         26
    27        216
    39        198
    41        250
    42         34
    43         20
    45        237
    46         38
    47         92
    53         86
    54         37
    55        132
    56         12
    57          3
    58         43
    59        117
    60         52
    61         31
    67         92
    68         22
    69         11
    73         31
    81         42
    85         59
    87        999
    88         55
   101        163
   102          6
   115          6
   116          6
   129          3
   130        183