##TITLE=Library Entry 3588
##JCAMP-DX=Revision 4.10 
##DATA TYPE=MASS SPECTRUM
##SAMPLE DESCRIPTION=Exported from NIST MS Search
##NAMES=HP
##CAS NAME=Propane, 2-(methylthio)-
##MOLFORM=C4H10S
##CAS REGISTRY NO=1551-21-9
##MP= -300
##BP= -300
##MW= 90
##$RETENTION INDEX=675
##$CONDENSED SPECTRUM=NO
##NPOINTS= 60
##XYDATA=(XY..XY) 1 
     1         30
     2          3
    12          4
    13          8
    14         37
    15        220
    16          5
    25          2
    26         47
    27        538
    28         34
    29         26
    32         10
    33          9
    34          7
    35         18
    36          1
    37         23
    38         56
    39        430
    40         62
    41        999
    42        224
    43        816
    44         35
    45        334
    46        130
    47        503
    48        771
    49        413
    50         42
    51         18
    52          1
    53          2
    54          1
    55          8
    56          2
    57         18
    58         65
    59        146
    60         30
    61         71
    62          4
    63          2
    68          1
    69          7
    70          2
    71         12
    72          3
    73         10
    74          9
    75        945
    76         44
    77         43
    78          1
    89         14
    90        859
    91         45
    92         39
    93          2