##TITLE=Library Entry 57226
##JCAMP-DX=Revision 4.10 
##DATA TYPE=MASS SPECTRUM
##SAMPLE DESCRIPTION=Exported from NIST MS Search
##NAMES=HP
##CAS NAME=Thiophene, 2-ethyltetrahydro-
##MOLFORM=C6H12S
##CAS REGISTRY NO=1551-32-2
##MP= -300
##BP= -300
##MW= 116
##$RETENTION INDEX=932
##$CONDENSED SPECTRUM=NO
##NPOINTS= 69
##XYDATA=(XY..XY) 1 
    25          3
    26         46
    27        259
    28         81
    29         90
    30          3
    31          1
    32         14
    33          8
    34          6
    35         10
    36          1
    37          9
    38         22
    39        199
    40         24
    41        239
    42         36
    43         10
    44          3
    45        303
    46         74
    47        100
    48          6
    49          7
    50         14
    51         21
    52          7
    53         80
    54         29
    55         91
    56         11
    57         12
    58         53
    59        127
    60         85
    61         55
    62          7
    63          6
    64          1
    65          8
    66          3
    67        100
    68         10
    69         29
    70          5
    71         17
    72          4
    73         40
    74         29
    75         24
    76          3
    77          4
    78          1
    79          5
    80          1
    81         16
    82         30
    83         11
    84          2
    85         41
    86         11
    87        999
    88         58
    89         43
   101        154
   102          5
   103          5
   116        265