##TITLE=Library Entry 25722
##JCAMP-DX=Revision 4.10 
##DATA TYPE=MASS SPECTRUM
##SAMPLE DESCRIPTION=NIST Mass Spectrometry Data Center, 1990.
##NAMES=HP
##CAS NAME=Pentanoic acid, cyclohexyl ester
##MOLFORM=C11H20O2
##CAS REGISTRY NO=1551-43-5
##MP= -300
##BP= -300
##MW= 184
##$RETENTION INDEX=1305
##$CONDENSED SPECTRUM=NO
##NPOINTS= 57
##XYDATA=(XY..XY) 1 
    15         22
    16         12
    26         43
    27        381
    28        180
    29        548
    30         14
    31         20
    39        327
    40         83
    41        857
    42        153
    43        139
    44         42
    45         27
    50         14
    51         22
    52         16
    53         95
    54        270
    55        829
    56        153
    57        999
    58         76
    59         28
    60        173
    61         51
    65         17
    67        831
    68         46
    69         13
    70          8
    71         14
    72         14
    73         83
    74         19
    75         52
    77         15
    79         37
    80         22
    81        174
    82        873
    83        455
    84          8
    85        766
    86         40
    87         16
    99         67
   100         24
   102        206
   103        870
   104         45
   114         10
   124         14
   127         14
   141         16
   142          9