##TITLE=Library Entry 70470
##JCAMP-DX=Revision 4.10 
##DATA TYPE=MASS SPECTRUM
##SAMPLE DESCRIPTION=NIST Mass Spectrometry Data Center, 1990.
##NAMES=HP
##CAS NAME=Thiophene, 2-propyl-
##MOLFORM=C7H10S
##CAS REGISTRY NO=1551-27-5
##MP= -300
##BP= -300
##MW= 126
##$RETENTION INDEX=961
##$CONDENSED SPECTRUM=NO
##NPOINTS= 75
##XYDATA=(XY..XY) 1 
    15          4
    17          0
    19          0
    25          1
    26          9
    27         43
    28          4
    29          9
    33          1
    37          7
    38         16
    39         68
    40          5
    41         20
    42          1
    43          1
    44          1
    45        123
    46          3
    47          9
    49          2
    50         14
    51         27
    52         11
    53         81
    54          4
    57         11
    58         24
    59          8
    60          2
    61          5
    62         10
    63         18
    64          3
    65         19
    66          8
    67          5
    69         25
    70          9
    71         16
    72          1
    73          1
    74          3
    75          1
    76          1
    77         17
    78          6
    79          4
    81          5
    82          7
    83          5
    84         13
    85          9
    86          1
    91          6
    92          2
    93          3
    94          1
    95          7
    96          1
    97        999
    98         72
    99         43
   100          2
   108          2
   109          6
   110          6
   111         12
   112          1
   121          1
   123          3
   124          1
   126        231
   127         21
   128         11