##TITLE=Library Entry 47155
##JCAMP-DX=Revision 4.10 
##DATA TYPE=MASS SPECTRUM
##SAMPLE DESCRIPTION=K.YAMADA CHIBA UNIVERSITY, YAYOI-CHO, CHIBA, JAPAN
##NAMES=HP
##CAS NAME=Diazene, (4-methoxyphenyl)phenyl-, (Z)-
##MOLFORM=C13H12N2O
##CAS REGISTRY NO=15516-72-0
##MP= -300
##BP= -300
##MW= 212
##$RETENTION INDEX=0
##$CONDENSED SPECTRUM=NO
##NPOINTS= 16
##XYDATA=(XY..XY) 1 
    77        999
    92        333
   105         71
   107        683
   115        388
   135        344
   139         60
   141         60
   149        125
   151         92
   152         16
   153         76
   168         21
   169          5
   197         98
   212        431