##TITLE=Library Entry 38209
##JCAMP-DX=Revision 4.10 
##DATA TYPE=MASS SPECTRUM
##SAMPLE DESCRIPTION=R.T.HOLMAN,UNIVERSITY OF MINNESOTA
##NAMES=HP
##CAS NAME=Ether, 1-hexadecenyl methyl
##MOLFORM=C17H34O
##CAS REGISTRY NO=15519-14-9
##MP= -300
##BP= -300
##MW= 254
##$RETENTION INDEX=0
##$CONDENSED SPECTRUM=NO
##NPOINTS= 69
##XYDATA=(XY..XY) 1 
    27         60
    28         25
    29        140
    31         19
    32         11
    39         33
    41        330
    42         34
    43        170
    44        110
    45         47
    53         20
    54         32
    55        110
    56         32
    57         65
    58         81
    59         22
    66         22
    67        120
    68        140
    69         56
    70         17
    71        999
    72         57
    73          5
    79         10
    80         14
    81         96
    82        270
    83         73
    84         20
    85         88
    86          7
    93          5
    94          9
    95         89
    96        150
    97         49
    98          8
    99          6
   107          1
   108          4
   109         45
   110         38
   111         15
   112          5
   113         19
   123         24
   124         22
   125          7
   126          3
   127         20
   128          3
   135          2
   136          2
   137         14
   138         13
   141          5
   151          5
   152          7
   165          6
   166          8
   180          5
   194          8
   222         33
   223          6
   254         12
   255          3