##TITLE=Library Entry 49598
##JCAMP-DX=Revision 4.10 
##DATA TYPE=MASS SPECTRUM
##SAMPLE DESCRIPTION=D. GAMES, M. HEWLINS, A. JACKSON, CHEM DEPT, UNIV COLL,
 CARDIFF, U.K.
##NAMES=HP
##CAS NAME=1H-Pyrrole, 3-ethyl-
##MOLFORM=C6H9N
##CAS REGISTRY NO=1551-16-2
##MP= -300
##BP= -300
##MW= 95
##$RETENTION INDEX=950
##$CONDENSED SPECTRUM=NO
##NPOINTS= 24
##XYDATA=(XY..XY) 1 
    41         53
    42         11
    46         11
    47         26
    50         16
    51         29
    52         38
    53        210
    54         15
    63         13
    65         52
    66         20
    67         71
    68         10
    77         20
    78         50
    79         17
    80        999
    81         58
    92         18
    93         39
    94        113
    95        535
    96         36