##TITLE=Library Entry 49599
##JCAMP-DX=Revision 4.10 
##DATA TYPE=MASS SPECTRUM
##SAMPLE DESCRIPTION=W.Baltes ET AL.J.Agric.Food Chem.,35,340(1987)
##NAMES=HP
##CAS NAME=1H-Pyrrole, 2-ethyl-
##MOLFORM=C6H9N
##CAS REGISTRY NO=1551-06-0
##MP= -300
##BP= -300
##MW= 95
##$RETENTION INDEX=938
##$CONDENSED SPECTRUM=NO
##NPOINTS= 18
##XYDATA=(XY..XY) 1 
    38         45
    39         69
    40         62
    50         38
    51         45
    52         72
    53        121
    54         28
    63         28
    64         17
    65         34
    66         38
    67         38
    78         38
    80        999
    81         69
    94        114
    95        566