##TITLE=Library Entry 56155
##JCAMP-DX=Revision 4.10 
##DATA TYPE=MASS SPECTRUM
##SAMPLE DESCRIPTION=Div. of Experiment Therapeutics WRAIR, WRAMC, Washingto
n DC 20307
##NAMES=HP
##CAS NAME=8-Chloro-N,N-diethyl-11H-indolo[3,2-c]quinoline-11-ethanamine
##MOLFORM=C21H22ClN3
##CAS REGISTRY NO=155249-70-0
##MP= -300
##BP= -300
##MW= 351
##$RETENTION INDEX=0
##$CONDENSED SPECTRUM=NO
##NPOINTS= 96
##XYDATA=(XY..XY) 1 
    41          7
    42         54
    43         19
    44          8
    47          5
    48          2
    49         15
    50          0
    51          7
    54          6
    55          2
    56         47
    57         15
    58         69
    59          1
    63          2
    68          0
    70         10
    71          7
    72          0
    74          0
    75          3
    76          1
    77          2
    84         17
    86        999
    87         51
    88          3
    89          2
    98          2
    99          5
   100          1
   101          2
   102          1
   114          0
   115          1
   123          2
   125          1
   126          2
   127          0
   132          0
   133          0
   137          1
   138          0
   149          1
   150          3
   151          2
   161          1
   162          6
   163          2
   164          3
   174          4
   175          7
   176         12
   177          3
   188          8
   189          5
   190          3
   200          1
   201         11
   202         11
   203         20
   204          4
   214          2
   215          6
   216          5
   217          1
   224          1
   227          2
   228          5
   229         23
   230         12
   231          3
   237          1
   238          2
   240          0
   241          1
   242          4
   243          5
   244          2
   251          3
   252          1
   253          0
   263          5
   264          6
   265         54
   266         12
   267         18
   268          4
   277          5
   278          1
   279          5
   351         33
   352          9
   353         12
   354          3