##TITLE=Library Entry 15712
##JCAMP-DX=Revision 4.10 
##DATA TYPE=MASS SPECTRUM
##SAMPLE DESCRIPTION=Humboldt-Universitat zu Berlin, Department of Chemistry
, Analytical Group
##NAMES=HP
##CAS NAME=4-(4-Methylaminobutyl)-5-(4-nitrophenyl)-2-(2-piperidino-1-(4-chl
orpheny)vinyl-thiazole
##MOLFORM=C27H31ClN4O2S
##CAS REGISTRY NO=155243-64-4
##MP= -300
##BP= -300
##MW= 510
##$RETENTION INDEX=0
##$CONDENSED SPECTRUM=NO
##NPOINTS= 342
##XYDATA=(XY..XY) 1 
    15         37
    16         21
    17         77
    18        262
    26         18
    27         69
    28        173
    29        111
    30        135
    31         62
    32         14
    36         15
    38         11
    39         47
    40         16
    41        150
    42        140
    43         99
    44        999
    45         59
    50          8
    51         13
    53         16
    54         28
    55        103
    56        126
    57        120
    58         55
    59         29
    60          9
    63         10
    65         12
    67         21
    68         25
    69         49
    70        353
    71         35
    73          9
    75         11
    76         12
    77         21
    78          9
    79         67
    80        159
    81         74
    82        181
    83         77
    84        308
    85         81
    86         12
    89         22
    90         14
    91         15
    93         11
    94         16
    95         10
    96         73
    97         19
    98         67
    99         17
   101         21
   102         86
   103         23
   108         12
   111         15
   112         17
   113        210
   114         33
   115         68
   116         24
   117         13
   118         20
   120         47
   121         18
   125         31
   126         15
   127         36
   128         47
   129         22
   130         19
   131         11
   134         21
   135         10
   136         28
   137         21
   138         15
   139         19
   140         15
   141         21
   142         15
   143         15
   145         33
   146         71
   147         28
   148         29
   149         21
   150         15
   151         17
   152         14
   153         15
   154         21
   155         43
   156         21
   157         13
   158         12
   159         16
   160         22
   161         10
   162         15
   163         12
   164         19
   165         10
   166         21
   167         13
   168         20
   169         15
   170          9
   171         17
   172         12
   173         12
   174         10
   175         11
   176         10
   177         14
   178         12
   179         12
   180         10
   181         15
   182         10
   183         11
   184         13
   185         13
   186         11
   187          9
   189         15
   190         23
   191         17
   192         21
   193         12
   194         11
   195         10
   196          9
   199          7
   201         12
   202         12
   203         21
   204         12
   205         11
   206         11
   209         12
   210         10
   215          9
   216         15
   217         19
   218         21
   219         12
   220         19
   221         11
   222          7
   227         13
   228         11
   229         14
   230         86
   231        179
   232         75
   233         67
   234         17
   243         10
   244         17
   245        108
   246         98
   247         61
   248         39
   249         14
   255         23
   256         14
   257          6
   260         15
   261         65
   262         37
   263         40
   264         22
   265          7
   269          6
   271          6
   272          8
   273         14
   274          9
   275          8
   277          6
   283          8
   284          6
   285         31
   286         11
   287         15
   288          6
   290          7
   297          6
   299          7
   301          5
   308          9
   309          9
   310          7
   311         15
   312          6
   313          9
   314          5
   320          5
   322          7
   323          9
   324          6
   325          7
   326          5
   329          5
   334          5
   335          6
   336          6
   337          9
   338          6
   339          6
   340          9
   341         17
   342         87
   343         30
   344         55
   345         15
   346         12
   347          6
   348          9
   349          6
   350          6
   351          7
   352          6
   353          7
   354          5
   355          9
   356         15
   357         14
   358         10
   359          7
   360          4
   363          4
   364          6
   365         10
   366          6
   367          9
   368          6
   369         15
   370          8
   371          7
   372          6
   373          4
   374          6
   376          4
   380          4
   381         11
   382          7
   383         12
   384          8
   385          9
   386          5
   390          3
   392          4
   393          3
   394          6
   395          6
   396          6
   397         12
   398         24
   399         10
   400         11
   401          4
   403          3
   404          6
   405          6
   406         12
   407          9
   408         23
   409          9
   410         15
   411          6
   412          5
   415          6
   416         15
   417          7
   418         10
   420         62
   421         20
   422         24
   423          9
   424          9
   425          4
   426          9
   427          4
   428         11
   429          5
   430          6
   432         10
   433          9
   434         29
   435         12
   436         27
   437          9
   438         15
   439         19
   440         19
   441         11
   442          7
   446         32
   447         11
   448         14
   449          5
   450          6
   452         59
   453         21
   454         26
   455          9
   456          5
   459          5
   462         10
   463          5
   464          5
   466         17
   467          7
   468          7
   475          3
   477         76
   478         34
   479         37
   480         21
   481          7
   482          5
   493        131
   494         45
   495         59
   496         18
   497          6
   510        114
   511         40
   512         47
   513         15
   514          4