##TITLE=Library Entry 18703
##JCAMP-DX=Revision 4.10 
##DATA TYPE=MASS SPECTRUM
##SAMPLE DESCRIPTION=Exported from NIST MS Search
##NAMES=HP
##CAS NAME=1,5-Cyclooctadiene, (Z,Z)-
##MOLFORM=C8H12
##CAS REGISTRY NO=1552-12-1
##MP= -300
##BP= -300
##MW= 108
##$RETENTION INDEX=916
##$CONDENSED SPECTRUM=NO
##NPOINTS= 29
##XYDATA=(XY..XY) 1 
    39        570
    40         50
    41        180
    42         20
    43         50
    44         20
    50         80
    51        150
    52         80
    53        170
    54        999
    55         80
    56         20
    57         40
    65        120
    66        200
    67        790
    68         70
    69         20
    77        160
    78         80
    79        420
    80        490
    91        100
    92         20
    93        150
    94         30
   108        120
   109         20