##TITLE=Library Entry 56343
##JCAMP-DX=Revision 4.10 
##DATA TYPE=MASS SPECTRUM
##SAMPLE DESCRIPTION=Div. of Experiment Therapeutics WRAIR, WRAMC, Washingto
n DC 20307
##NAMES=HP
##CAS NAME=3-Chloro-N,N-diethyl-7,8,9,10-tetrahydro-1H-indolo[3,2-c]quinolin
e-11-ethanamine
##MOLFORM=C21H26ClN3
##CAS REGISTRY NO=155250-03-6
##MP= -300
##BP= -300
##MW= 355
##$RETENTION INDEX=0
##$CONDENSED SPECTRUM=NO
##NPOINTS= 121
##XYDATA=(XY..XY) 1 
    41          6
    42         21
    43          7
    44         11
    45          0
    49          1
    51          2
    52          1
    53          1
    54          2
    55          3
    56         24
    57          8
    58         55
    59          1
    63          1
    65          1
    67          1
    68          1
    69          1
    70          6
    71          4
    72          3
    75          1
    76          0
    77          3
    78          1
    84         12
    86        999
    87         58
    88          1
    89          1
    91          1
    95          1
    96          0
    98          2
    99          3
   100          5
   101          0
   102          0
   109          0
   110          0
   114          1
   115          0
   123          0
   125          1
   126          1
   127          0
   128          0
   137          0
   138          1
   139          1
   140          1
   148          0
   149          1
   150          2
   151          3
   152          3
   153          1
   160          1
   162          1
   163          1
   164          2
   165          2
   166          2
   174          1
   176          1
   177          2
   178          3
   179          2
   190          1
   191          2
   192          3
   193          1
   200          1
   201          1
   202          1
   203          1
   204          1
   205          4
   206          2
   213          1
   214          1
   215          1
   216          1
   217          1
   218          3
   219          3
   220          1
   226          1
   227          2
   228          3
   229          2
   230          1
   231          1
   233          1
   239          2
   240          2
   241          6
   242          2
   243          2
   248          1
   252          2
   253          5
   254          2
   255          5
   256          2
   257          1
   265          1
   267          3
   268          1
   269         10
   270          3
   271          3
   272          1
   283          1
   354          1
   355         22
   356          5
   357          8
   358          1