##TITLE=Library Entry 29507
##JCAMP-DX=Revision 4.10 
##DATA TYPE=MASS SPECTRUM
##SAMPLE DESCRIPTION=Div. of Experiment Therapeutics WRAIR, WRAMC, Washingto
n DC 20307
##NAMES=HP
##CAS NAME=3-Chloro-N,N-dimethyl-6-phenyl-11H-indolo[3,2-c]quinoline-11-etha
namine, 5-oxide
##MOLFORM=C25H22ClN3O
##CAS REGISTRY NO=155249-75-5
##MP= -300
##BP= -300
##MW= 415
##$RETENTION INDEX=0
##$CONDENSED SPECTRUM=NO
##NPOINTS= 231
##XYDATA=(XY..XY) 1 
    42         40
    43         13
    44         10
    45          1
    47          1
    49          9
    50          1
    51          6
    54          1
    56         18
    58        999
    59         33
    63          1
    65          0
    70          6
    71          8
    72         13
    74          1
    75          2
    76          2
    77         11
    78          1
    84          8
    86          8
    87          0
    88          2
    89          2
    99          1
   100          0
   101          0
   102          1
   103          0
   105          5
   106          1
   111          0
   112          1
   113          1
   115          1
   118          1
   119          0
   121          0
   123          1
   124          1
   125          2
   126          3
   127          1
   130          0
   132          3
   133          0
   137          1
   138          3
   139          1
   140          5
   145          2
   146          6
   147          1
   149          2
   150          5
   151          5
   152          5
   153          3
   157          2
   158          0
   159          4
   161          0
   162          0
   163          8
   164          6
   165          2
   167          1
   170          1
   171          3
   174          3
   175          5
   176         10
   177          8
   178          1
   179          3
   185          1
   187          2
   188          4
   189          4
   190         10
   191          3
   192          1
   198          1
   199          6
   200          1
   201          9
   202          5
   203          8
   204          2
   207          1
   211          1
   212          2
   213          2
   214          4
   215          3
   216          3
   217          2
   218          2
   219          4
   220          1
   223          0
   224          3
   225          4
   226          3
   227          4
   228          6
   229          6
   231          6
   232          4
   233          0
   236          2
   237          3
   238          6
   239          4
   240          4
   241          3
   242          1
   243          0
   248          1
   249          3
   250          6
   251          6
   252          6
   253          6
   254          5
   256          1
   261          1
   262          5
   263         10
   264          9
   265         10
   266          6
   267          2
   268          2
   273          1
   274          1
   275          9
   276          8
   277         14
   278         10
   279         11
   280          3
   281          1
   287          2
   288          3
   289         12
   290         14
   291         16
   292         13
   293          9
   294          3
   295          1
   300          2
   301          3
   302          7
   303         21
   304         18
   305         20
   306          7
   307          3
   308          2
   312          2
   313          7
   314         10
   315          8
   316          7
   317          6
   318          2
   319          3
   320          2
   321          3
   322          2
   323          1
   324          1
   325          2
   326         10
   327         15
   328          9
   329          8
   330          2
   331          1
   333          0
   334          0
   335          2
   336          2
   337          2
   338          2
   339         29
   340         12
   341         50
   342         22
   343         23
   344         11
   345          4
   346          2
   352          0
   353         11
   354          7
   355         11
   356          4
   357         31
   358         20
   359         13
   360          6
   361          1
   369          4
   370          7
   371          3
   372          3
   373          1
   380          1
   381          2
   382          0
   384          0
   396          1
   397          2
   398          2
   399         23
   400          7
   401          9
   402          2
   413          1
   414          1
   415        177
   416         52
   417         65
   418         17
   419          2