##TITLE=Library Entry 56113
##JCAMP-DX=Revision 4.10 
##DATA TYPE=MASS SPECTRUM
##SAMPLE DESCRIPTION=Div. of Experiment Therapeutics WRAIR, WRAMC, Washingto
n DC 20307
##NAMES=HP
##CAS NAME=3,6-Dichloro-N,N-diethyl-11H-indolo[3,2-c]quinoline-11-ethanamine
##MOLFORM=C21H21Cl2N3
##CAS REGISTRY NO=155249-52-8
##MP= -300
##BP= -300
##MW= 385
##$RETENTION INDEX=0
##$CONDENSED SPECTRUM=NO
##NPOINTS= 98
##XYDATA=(XY..XY) 1 
    41          5
    42         43
    43         11
    44          6
    51          0
    54          5
    55          3
    56         38
    57         12
    58         64
    59          2
    63          0
    68          0
    70          8
    71          7
    72          0
    74          0
    75          2
    77          0
    84         13
    86        999
    87         53
    88          2
    98          0
    99          4
   100          3
   101          0
   108          0
   114          0
   123          0
   149          0
   150          1
   151          0
   162          0
   163          0
   174          3
   175          4
   176          4
   177          0
   187          0
   188          4
   189          2
   190          0
   199          0
   200          3
   201         14
   202          6
   203          3
   213          0
   214          2
   215          9
   216          2
   224          1
   226          1
   227          6
   228         21
   229         18
   230          2
   236          5
   237          4
   238          2
   239          1
   240          1
   241          3
   242          4
   243          1
   249          0
   250          3
   251          1
   252          1
   262          1
   263         21
   264         11
   265         11
   266          4
   267          1
   276          3
   277          4
   278          3
   279          5
   280          1
   281          0
   285          1
   286          3
   287          1
   288          2
   298          1
   299         23
   300          7
   301         15
   302          4
   303          2
   312          0
   313          1
   385         10
   386          3
   387          6
   388          1