##TITLE=Library Entry 21142
##JCAMP-DX=Revision 4.10 
##DATA TYPE=MASS SPECTRUM
##SAMPLE DESCRIPTION=NIST Mass Spectrometry Data Center, 1994
##NAMES=HP
##CAS NAME=2-Hexenoic acid, ethyl ester
##MOLFORM=C8H14O2
##CAS REGISTRY NO=1552-67-6
##MP= -300
##BP= -300
##MW= 142
##$RETENTION INDEX=1037
##$CONDENSED SPECTRUM=NO
##NPOINTS= 67
##XYDATA=(XY..XY) 1 
    14          5
    15         35
    16          0
    26         58
    27        378
    28         84
    29        453
    30         17
    31         20
    32          3
    37         10
    38         41
    39        357
    40        121
    41        458
    42        167
    43        113
    44          8
    45         58
    46          3
    50         16
    51         27
    52         15
    53         95
    54          3
    55        999
    56         72
    57         72
    58         14
    59         46
    60         52
    61         10
    62          5
    63          8
    64          3
    65         22
    66         15
    67         79
    68        335
    69        216
    70         51
    71         85
    72          3
    73        450
    74         16
    75          3
    79          6
    81         94
    82         16
    83         23
    84          3
    85         52
    86         41
    87         21
    88         56
    95         27
    97        985
    99        837
   100         63
   101        105
   102          6
   113         59
   114        124
   115         25
   127         24
   142         38
   143          6