##TITLE=Library Entry 58253
##JCAMP-DX=Revision 4.10 
##DATA TYPE=MASS SPECTRUM
##SAMPLE DESCRIPTION=Japan AIST/NIMC Database- Spectrum MS-IW- 894
##NAMES=HP
##CAS NAME=Nickel, bis(dimethylcarbamodithioato-S,S')-, (SP-4-1)-
##MOLFORM=C6H12N2NiS4
##CAS REGISTRY NO=15521-65-0
##MP= -300
##BP= -300
##MW= 298
##$RETENTION INDEX=2833
##$CONDENSED SPECTRUM=NO
##NPOINTS= 164
##XYDATA=(XY..XY) 1 
    14          1
    15         14
    27          3
    28          5
    29          3
    30          9
    32          4
    33          1
    34          4
    35          1
    38          2
    39          1
    40          5
    41          9
    42         51
    43         11
    44         93
    45         15
    46          5
    47         15
    48          1
    54          1
    55          4
    56         20
    57          5
    58         16
    59          1
    60          7
    61          7
    64         35
    66          3
    67          1
    68          5
    69          4
    70          4
    71          4
    72         23
    73         71
    74          8
    75          3
    76         48
    77          4
    78          4
    81          1
    82          1
    83          2
    84          1
    85          2
    87          1
    88        999
    89         81
    90         49
    91          4
    92          2
    93          1
    95          1
    96          1
    97         11
    98          1
    99         22
   100          7
   101         13
   102         11
   103          6
   104          5
   105          3
   106          1
   111          2
   112         17
   113          2
   114          1
   115          1
   116          1
   117          1
   118          2
   119          2
   120          2
   121         11
   122          8
   123          1
   124          4
   131         25
   132         16
   133         12
   134         13
   135          8
   136          7
   137          3
   138          2
   140          1
   141          1
   143          1
   144         16
   145         43
   146         63
   147         36
   148         27
   149         21
   150          9
   151          3
   152          1
   161          9
   162          1
   163         27
   164          2
   165         12
   166          2
   167          3
   176         44
   177          4
   178        103
   179        119
   180         55
   181         58
   182         13
   183         10
   184          2
   185          2
   187         18
   188          4
   189         15
   190          6
   191          7
   192          2
   193          2
   195          2
   197          1
   208          1
   210          3
   212          2
   219         52
   220          4
   221         27
   222         24
   223          8
   224         10
   225          3
   226          2
   234         81
   235          8
   236         38
   237          5
   238          7
   240          1
   251          1
   254          4
   255          1
   256          2
   266         50
   267          5
   268         25
   269          3
   270          6
   272          1
   296          1
   298        629
   299         67
   300        356
   301         46
   302         85
   303          9
   304         17
   305          1
   306          2