##TITLE=Library Entry 56124
##JCAMP-DX=Revision 4.10 
##DATA TYPE=MASS SPECTRUM
##SAMPLE DESCRIPTION=Div. of Experiment Therapeutics WRAIR, WRAMC, Washingto
n DC 20307
##NAMES=HP
##CAS NAME=3-Chloro-N,N-diethyl-11H-indolo[3,2-c]quinolin-11-ethanamine
##MOLFORM=C21H22ClN3
##CAS REGISTRY NO=155249-37-9
##MP= -300
##BP= -300
##MW= 351
##$RETENTION INDEX=0
##$CONDENSED SPECTRUM=NO
##NPOINTS= 115
##XYDATA=(XY..XY) 1 
    42         27
    43          8
    44          7
    45          1
    47          3
    48          1
    49         16
    50          0
    51          8
    54          2
    55          3
    56         25
    57         10
    58         57
    59          1
    62          0
    63          2
    67          0
    68          0
    69          1
    70          6
    71          5
    72          1
    73          0
    74          1
    75          3
    76          1
    77          3
    78          0
    81          0
    82          1
    83          0
    84         27
    86        999
    87         51
    88          1
    89          4
    93          1
    94          0
    95          1
    97          0
    98          2
    99          3
   100          0
   101          3
   102          1
   106          2
   107          0
   108          0
   109          0
   111          0
   114          1
   115          1
   121          2
   122          0
   123          0
   125          0
   126          1
   127          0
   128          3
   129          0
   137          0
   149          1
   150          1
   151          1
   162          0
   163          1
   164          1
   168          0
   174          1
   175          3
   176          5
   177          1
   187          0
   188          3
   189          2
   190          2
   200          0
   201          4
   202          4
   203          6
   204          1
   214          1
   215          2
   216          2
   217          1
   218          0
   224          0
   227          0
   228          1
   229          8
   230          4
   231          0
   236          1
   241          0
   242          4
   243          4
   244          2
   251          1
   252          3
   253          0
   254          0
   263          2
   264          2
   265         13
   266          5
   267          4
   268          1
   277          0
   278          0
   279          2
   281          2
   351         10
   352          2
   353          3