##TITLE=Library Entry 20500
##JCAMP-DX=Revision 4.10 
##DATA TYPE=MASS SPECTRUM
##SAMPLE DESCRIPTION=Japan AIST/NIMC Database- Spectrum MS-NW-6162
##NAMES=HP
##CAS NAME=5.beta.-Cholan-24-oic acid, 3-oxo-
##MOLFORM=C24H38O3
##CAS REGISTRY NO=1553-56-6
##MP= -300
##BP= -300
##MW= 374
##$RETENTION INDEX=0
##$CONDENSED SPECTRUM=NO
##NPOINTS= 350
##XYDATA=(XY..XY) 1 
    12          2
    14          3
    15          7
    16          4
    17          1
    18          4
    25          1
    26          7
    27        102
    28         44
    29        268
    30         10
    31         18
    36          1
    37          1
    38          4
    39        117
    40         33
    41        682
    42         50
    43        178
    44          9
    45         44
    46          2
    47          3
    48          1
    49          1
    50          4
    51         23
    52         16
    53        226
    54         64
    55        999
    56         65
    57         78
    58          9
    59         90
    60         89
    61          7
    62          2
    63          7
    64          4
    65         83
    66         48
    67        631
    68        357
    69        316
    70         32
    71         49
    72         22
    73         32
    74         13
    75          3
    76          3
    77        209
    78         57
    79        523
    80        108
    81        830
    82        179
    83        167
    84         20
    85         76
    86          7
    87         10
    88          9
    89          5
    90          4
    91        349
    92         78
    93        535
    94        160
    95        615
    96        139
    97        114
    98         17
    99         26
   100          6
   101         31
   102          9
   103         27
   104         25
   105        340
   106        140
   107        451
   108        298
   109        332
   110        232
   111         93
   112         23
   113         14
   114          9
   115         33
   116         19
   117         78
   118         95
   119        236
   120        170
   121        314
   122        321
   123        253
   124        170
   125         60
   126         12
   127         36
   128         35
   129         39
   130         16
   131        120
   132         63
   133        179
   134        119
   135        188
   136         87
   137         99
   138         23
   139         10
   140         29
   141         30
   142         14
   143         54
   144         25
   145        136
   146         59
   147        171
   148         62
   149        116
   150         34
   151         32
   152          9
   153         11
   154          6
   155         12
   156          8
   157         59
   158         37
   159        204
   160        102
   161        354
   162        203
   163        169
   164         70
   165        128
   166         20
   167          9
   168          5
   169          9
   170          7
   171         50
   172         34
   173        122
   174        101
   175        173
   176        339
   177         88
   178         39
   179         66
   180         11
   181         14
   182          4
   183          9
   184          4
   185         31
   186         19
   187         64
   188         47
   189        123
   190         54
   191         39
   192         16
   193         13
   194         12
   195         16
   196         15
   197         21
   198          9
   199         77
   200         24
   201         41
   202         15
   203         71
   204         38
   205         16
   206          4
   207         10
   208          5
   209          8
   210          3
   211         17
   212         12
   213        293
   214         92
   215        114
   216         46
   217         95
   218         48
   219         28
   220          7
   221          6
   222          3
   223          7
   224          4
   225          7
   226          8
   227         29
   228         71
   229         71
   230         48
   231        554
   232        221
   233         96
   234         25
   235         17
   236          8
   237          5
   238          6
   239          7
   240          6
   241         12
   242          7
   243         19
   244         70
   245         56
   246        455
   247        108
   248         92
   249         25
   250         14
   251         39
   252         12
   253         10
   254          5
   255         80
   256         30
   257         26
   258         30
   259         14
   260         56
   261         22
   262         10
   263         19
   264          9
   265          6
   266          3
   267          9
   268          6
   269          9
   270         97
   271        373
   272        135
   273        305
   274         73
   275         18
   276          7
   277          6
   278          3
   279          3
   280          3
   281         12
   282          5
   283         13
   284          9
   285         56
   286         48
   287         15
   288          8
   289         12
   290          5
   291          3
   292          4
   293          2
   294          2
   295         16
   296          7
   297         20
   298          9
   299         34
   300         19
   301         31
   302         62
   303         49
   304        251
   305         59
   306         12
   307          3
   308          2
   309          2
   310          5
   311          4
   312          6
   313         18
   314         54
   315         82
   316         30
   317         49
   318         15
   319          9
   320          6
   321          6
   322          4
   323         31
   324          9
   325          4
   326          6
   327          9
   328        180
   329         48
   330         20
   331          9
   332          4
   333          3
   334          2
   335          2
   336          4
   337          6
   338         50
   339         31
   340         10
   341        157
   342         47
   343          9
   344          5
   345          7
   346          4
   347          3
   348          2
   349          3
   350          2
   351          3
   352          3
   353          3
   354          7
   355         11
   356        568
   357        163
   358         32
   359         65
   360         20
   361          4
   362          1
   367          4
   369          3
   370          3
   371          3
   372          9
   373          3
   374        508
   375        136
   376         26
   377          4