##TITLE=Library Entry 12043
##JCAMP-DX=Revision 4.10 
##DATA TYPE=MASS SPECTRUM
##SAMPLE DESCRIPTION=Chemical Concepts
##NAMES=HP
##CAS NAME=3-Acetoxy-3-phenyl-2-fluoroprop-1-ene
##MOLFORM=C11H11FO2
##CAS REGISTRY NO=155337-03-4
##MP= -300
##BP= -300
##MW= 194
##$RETENTION INDEX=0
##$CONDENSED SPECTRUM=NO
##NPOINTS= 83
##XYDATA=(XY..XY) 1 
    26          5
    27         15
    28         43
    29          8
    31          3
    32          8
    33          2
    36          1
    37          2
    38          9
    39         50
    40          3
    41          3
    43        999
    44         23
    45         31
    46          2
    50         50
    51        105
    52         14
    53          4
    55          2
    57         30
    58          2
    59          2
    61          4
    62         16
    63         43
    64          7
    65         10
    67         11
    68          1
    69          1
    70          4
    73         36
    74         52
    75         17
    76         15
    77        132
    78         42
    79         33
    80          2
    81          7
    82          2
    83         24
    84          1
    85          1
    86          4
    87          6
    88          4
    89         32
    90         23
    91          9
    94          1
    95          1
    96          5
   101          4
   102          8
   103         40
   104        247
   105         62
   106          7
   107         35
   108          6
   109         77
   110          8
   113          5
   115        197
   116         17
   120          4
   121          1
   123          6
   131         27
   132         43
   133        478
   134        207
   135         72
   136          5
   151         24
   152        226
   153         18
   174          2
   194          1