##TITLE=Library Entry 17632
##JCAMP-DX=Revision 4.10 
##DATA TYPE=MASS SPECTRUM
##SAMPLE DESCRIPTION=Fac. Chem., Univ. Santiago de Compostela, Spain
##NAMES=HP
##CAS NAME=(1H)Pyrrole-3-carboxylic acid, 5-(hydroxymethyl)-1-(methoxymethyl
)-, methyl ester
##MOLFORM=C9H13NO4
##CAS REGISTRY NO=155345-20-3
##MP= -300
##BP= -300
##MW= 199
##$RETENTION INDEX=0
##$CONDENSED SPECTRUM=NO
##NPOINTS= 79
##XYDATA=(XY..XY) 1 
    31         22
    32         15
    37          3
    38         18
    39         47
    40          9
    41         20
    42         12
    43          5
    44          3
    45        999
    46         24
    47          2
    50         12
    51         36
    52         32
    53         35
    54          6
    55          7
    57          7
    59         24
    62          2
    63          7
    64          7
    65         14
    66         19
    67         18
    68          6
    69         53
    71          1
    76          1
    77          3
    78         25
    79         27
    80         60
    81          9
    82          6
    91         17
    92          6
    93          7
    94         38
    95         10
    96          3
   100          1
   106        186
   107         23
   108         29
   109         15
   110         27
   111          3
   119         18
   120          9
   122         31
   123          5
   124         18
   125          1
   126          6
   131         12
   136         46
   137         33
   138        303
   139         48
   140         10
   151          4
   152         24
   153          5
   154          7
   166         29
   167         47
   168        132
   169        113
   170         12
   181          8
   182         28
   183          4
   197          1
   199        278
   200         29
   201          5