##TITLE=Library Entry 88092
##JCAMP-DX=Revision 4.10 
##DATA TYPE=MASS SPECTRUM
##SAMPLE DESCRIPTION=Japan AIST/NIMC Database- Spectrum MS-IW- 765
##NAMES=HP
##CAS NAME=2-Acetyl-N-tert-butyl-2-butenamide
##MOLFORM=C10H17NO2
##CAS REGISTRY NO=15539-68-1
##MP= -300
##BP= -300
##MW= 183
##$RETENTION INDEX=0
##$CONDENSED SPECTRUM=NO
##NPOINTS= 88
##XYDATA=(XY..XY) 1 
    14          1
    15         15
    26          2
    27         17
    28         18
    29         57
    30          9
    31          3
    37          1
    38          4
    39         51
    40         18
    41        156
    42         37
    43        279
    44         15
    45          3
    50          2
    51          3
    52          3
    53         14
    54         10
    55         21
    56         62
    57        147
    58        604
    59         23
    60          2
    63          1
    64          1
    65          4
    66          7
    67         13
    68         42
    69        580
    70         39
    71          9
    72         13
    73          2
    74          1
    76          5
    77          1
    79          1
    80          1
    81          2
    82        137
    83         13
    84         81
    85         22
    86          4
    87          1
    91          1
    94          4
    95          3
    96          2
    97          2
    98          2
    99          2
   100          1
   108          1
   109          9
   110        123
   111        999
   112         80
   113          8
   114          1
   123          1
   124          3
   125          2
   126         97
   127        362
   128        217
   129         15
   130          1
   139          1
   140         19
   141          8
   142          2
   150          3
   151          5
   152          1
   157          1
   168        343
   169         35
   170          3
   183        109
   184         24
   185          2