##TITLE=Library Entry 73183
##JCAMP-DX=Revision 4.10 
##DATA TYPE=MASS SPECTRUM
##SAMPLE DESCRIPTION=M.A.BALDWIN UNIVERSITY COLLEGE, LONDON, UK
##NAMES=HP
##CAS NAME=Urea, N'-(3,4-dichlorophenyl)-N,N-diethyl-
##MOLFORM=C11H14Cl2N2O
##CAS REGISTRY NO=15545-50-3
##MP= -300
##BP= -300
##MW= 260
##$RETENTION INDEX=0
##$CONDENSED SPECTRUM=NO
##NPOINTS= 52
##XYDATA=(XY..XY) 1 
    28        110
    29        292
    30        128
    32         18
    36         30
    37         11
    38         12
    39         12
    41         21
    42         61
    43         31
    44        160
    50         12
    56         34
    57         11
    58        148
    61         14
    62         23
    63         25
    70         16
    72        547
    73         32
    74         13
    75         12
    88         16
    90         12
    97         17
    98          9
    99         12
   100        999
   101         64
   109         13
   124         81
   125         19
   126         29
   133         17
   135         11
   159         31
   160         17
   161         35
   162         12
   163         14
   187        181
   188         20
   189        118
   190         13
   191         20
   260        145
   261         21
   262         94
   263         13
   264         16