##TITLE=Library Entry 51173
##JCAMP-DX=Revision 4.10 
##DATA TYPE=MASS SPECTRUM
##SAMPLE DESCRIPTION=V.Zaikin,Inst.Petrochem.Synth.,RAS,Moscow
##NAMES=HP
##CAS NAME=5-Bromopentanoic acid, cyclohexyl ester
##MOLFORM=C11H19BrO2
##CAS REGISTRY NO=1554-79-6
##MP= -300
##BP= -300
##MW= 262
##$RETENTION INDEX=0
##$CONDENSED SPECTRUM=NO
##NPOINTS= 98
##XYDATA=(XY..XY) 1 
    25          3
    26         42
    27        252
    28         30
    29        178
    30          8
    39        185
    40         48
    41        422
    42        200
    43         92
    44          8
    50         17
    51         35
    52         24
    53         71
    54        237
    55        810
    56        137
    57         43
    58          7
    59         25
    60          4
    61          2
    63          3
    64          3
    65         11
    66         13
    67        531
    68         41
    69         17
    70         32
    71         14
    72          4
    73         33
    74          4
    75          3
    76          2
    77         18
    78          7
    79         38
    80          8
    81         90
    82        999
    83        428
    84         26
    85          7
    87          3
    91          9
    93          7
    94          3
    95          6
    96          5
    97         16
    98          6
    99         56
   100         62
   101        176
   102         13
   103          4
   104          2
   105         14
   106          4
   107         13
   108          4
   109         14
   110          5
   111          4
   112          3
   113          6
   117          4
   118          3
   119         15
   121          6
   123          2
   127         16
   133          6
   134          4
   135        132
   136          7
   137        121
   138          7
   139          3
   149          2
   150          4
   151          3
   152          3
   162          7
   163        129
   164         14
   165        142
   166         10
   178          5
   180         27
   181        116
   182         35
   183        119
   184          8