##TITLE=Library Entry 73203
##JCAMP-DX=Revision 4.10 
##DATA TYPE=MASS SPECTRUM
##SAMPLE DESCRIPTION=M.A.BALDWIN UNIVERSITY COLLEGE, LONDON, UK
##NAMES=HP
##CAS NAME=Urea, 3-(5-chloro-o-tolyl)-1,1-diethyl-
##MOLFORM=C12H17ClN2O
##CAS REGISTRY NO=15545-54-7
##MP= -300
##BP= -300
##MW= 240
##$RETENTION INDEX=0
##$CONDENSED SPECTRUM=NO
##NPOINTS= 43
##XYDATA=(XY..XY) 1 
    28        114
    29         99
    30        161
    39         27
    41         19
    42         53
    44        122
    50         30
    51         55
    52         26
    56         33
    58        244
    63         26
    72        449
    73         62
    75         24
    76         26
    77         89
    78         24
    89         33
   100        999
   101         69
   102         28
   103         16
   104         41
   106         14
   112         33
   119         21
   125         27
   132        157
   133         19
   138         94
   139         61
   140         57
   141         33
   166         46
   167        224
   168         41
   169         76
   192         20
   240        241
   241         37
   242         81