##TITLE=Library Entry 11898
##JCAMP-DX=Revision 4.10 
##DATA TYPE=MASS SPECTRUM
##SAMPLE DESCRIPTION=M.A.BALDWIN UNIVERSITY COLLEGE, LONDON, UK
##NAMES=HP
##CAS NAME=Urea, 3-(3,4-dichlorophenyl)-1,1-dipropyl-
##MOLFORM=C13H18Cl2N2O
##CAS REGISTRY NO=15545-57-0
##MP= -300
##BP= -300
##MW= 288
##$RETENTION INDEX=0
##$CONDENSED SPECTRUM=NO
##NPOINTS= 58
##XYDATA=(XY..XY) 1 
    29         35
    30        295
    36         46
    37         13
    38         16
    39         46
    40         11
    41        192
    42         77
    43        999
    44         57
    50         14
    55         23
    56         22
    57         26
    58         77
    60         13
    61         15
    62         23
    63         25
    64         12
    69         16
    70         38
    71         13
    72        152
    73         26
    74         14
    86        267
    87         16
    88         16
    90         18
    97         16
    99         19
   100         24
   101         31
   123         83
   124         24
   125         31
   126         13
   128        552
   129         51
   153         43
   155         15
   159         34
   160         19
   161         43
   162         13
   163         19
   187        194
   188         21
   189        128
   190         14
   191         21
   288        110
   289         19
   290         73
   291         11
   292         12