##TITLE=Library Entry 35089
##JCAMP-DX=Revision 4.10 
##DATA TYPE=MASS SPECTRUM
##SAMPLE DESCRIPTION=A.A.Kutin, Moscow, Russia
##NAMES=HP
##CAS NAME=1H-Pyrano[3,4-c]pyridine-5-carbonitrile, 3,4,6,7-tetrahydro-3,3-d
imethyl-8-(1-piperazinyl)-6-thioxo-
##MOLFORM=C15H20N4OS
##CAS REGISTRY NO=155473-95-3
##MP= -300
##BP= -300
##MW= 304
##$RETENTION INDEX=0
##$CONDENSED SPECTRUM=NO
##NPOINTS= 230
##XYDATA=(XY..XY) 1 
    33          6
    34          6
    36          1
    37          2
    39         71
    40         66
    41        117
    42        225
    43        382
    44        205
    45         69
    46         14
    47          4
    50          5
    51         31
    52         24
    53         24
    54         46
    56        899
    57        308
    58        107
    59         47
    60         11
    61          3
    62          4
    63         20
    64         30
    65         26
    66         17
    69        999
    70        129
    71         28
    72         16
    73          4
    74          5
    75          8
    76         22
    77         34
    78         22
    79         15
    80         17
    81         17
    82         17
    83         45
    84         38
    85         59
    86         22
    87          5
    88         13
    89         16
    90         25
    91         31
    92         19
    93         16
    94         13
    95         13
    96         15
    97          6
    98          6
    99          8
   100          4
   101          9
   102         22
   103         31
   104         28
   105         19
   106         16
   107         20
   108         24
   109         19
   110          7
   111          4
   112          4
   113          2
   114         10
   115         16
   116         28
   117         24
   118         22
   119         18
   120         41
   121         23
   122         23
   123         16
   124          7
   125          3
   126          1
   127          5
   128         19
   129         49
   130         32
   131         24
   132         16
   133         17
   134         39
   135         30
   136         22
   137         11
   138          7
   139          2
   140          7
   141         10
   142         17
   143         21
   144         18
   145         18
   146         19
   147         14
   148         19
   149         16
   150         15
   151          6
   152          3
   153          3
   154          7
   155         16
   156         26
   157         26
   158         16
   159         15
   160         15
   161         35
   162         25
   163         27
   164         14
   165         71
   166         10
   167          8
   168          9
   169         13
   170         18
   171         18
   172         13
   173         17
   174         22
   175         27
   176         22
   177         41
   178         84
   179        125
   180         25
   181         11
   182          9
   183          7
   184          9
   185         11
   186         11
   187         12
   188         32
   189         46
   190         93
   191         81
   192         57
   193         21
   194          6
   195          3
   196          5
   197          5
   198          7
   199          6
   200         12
   201         16
   202         44
   203         58
   204         63
   205         64
   206         85
   207        117
   208         28
   209          8
   210          4
   211          3
   212          4
   213          8
   214         15
   215         13
   216         40
   217         37
   218         37
   219         24
   220        119
   221         44
   222         12
   223          3
   226          3
   227          3
   228         11
   229          9
   230         54
   231         28
   232         94
   233         37
   234        104
   235        114
   236        367
   237         53
   238         20
   239          3
   240          4
   241          3
   242          8
   243          6
   244         36
   245         22
   246         53
   247         22
   248        143
   249         44
   250         11
   251          2
   256          9
   257          2
   258          8
   259          5
   260         51
   261         35
   262         96
   263         22
   264          6
   271          4
   272          2
   273          3
   274         21
   275         12
   276          7
   289         11
   303         10
   304        118
   305         23
   306          7