##TITLE=Library Entry 71747
##JCAMP-DX=Revision 4.10 
##DATA TYPE=MASS SPECTRUM
##SAMPLE DESCRIPTION=Div. of Experiment Therapeutics WRAIR, WRAMC, Washingto
n DC 20307
##NAMES=HP
##CAS NAME=5-[3,4-Dichlorophenyl]-N-[3-piperidinopropyl]-2,4-pentadieamide
##MOLFORM=C19H24Cl2N2O
##CAS REGISTRY NO=15542-57-1
##MP= -300
##BP= -300
##MW= 366
##$RETENTION INDEX=0
##$CONDENSED SPECTRUM=NO
##NPOINTS= 139
##XYDATA=(XY..XY) 1 
    41         76
    42         58
    43         18
    44         46
    45          2
    49          2
    50          1
    51          6
    53          3
    54          4
    55         72
    56         37
    57         11
    58          4
    59          1
    63          5
    65          0
    67          5
    68         12
    69         29
    70         30
    71          3
    74          2
    75          4
    76          1
    77          5
    78          2
    79          1
    80          4
    81          8
    82         39
    83         25
    84        140
    85         16
    86          4
    87          0
    94          2
    95          4
    96         80
    97         14
    98        999
    99         74
   100          4
   101          3
   109          4
   110         39
   111         14
   112        151
   113         14
   114          0
   115          2
   122          5
   123         25
   124        190
   125         28
   126         19
   127         20
   128          4
   135          2
   136          4
   137          1
   138          3
   139          7
   140         13
   141          8
   142          0
   145          0
   149          3
   150          2
   151          1
   152          1
   155          4
   159          5
   160          2
   161         15
   162         48
   163         13
   164         16
   165          3
   167          2
   168          2
   169          3
   170          2
   172          1
   173          2
   175          2
   176          2
   177          2
   179          1
   180          1
   183          4
   184          0
   185          2
   187          0
   189          3
   190          6
   191          3
   192          3
   193          1
   195          0
   196          5
   197          3
   198          4
   199          2
   200          1
   207          4
   211          2
   213          1
   221          2
   225         24
   226          5
   227         15
   228          3
   229          3
   242          2
   244          1
   248          1
   254         11
   255          2
   256          9
   257          2
   258          1
   278          0
   280          2
   282         13
   283         17
   284         13
   285         11
   286          4
   287          2
   331          4
   333          1
   365          4
   366        191
   367         47
   368        131
   369         29
   370         20
   371          5