##TITLE=Library Entry 89103
##JCAMP-DX=Revision 4.10 
##DATA TYPE=MASS SPECTRUM
##SAMPLE DESCRIPTION=Chemical Concepts
##NAMES=HP
##CAS NAME=Phosphinic acid, (ethyl)(hexyl)[.alpha.-(triethoxysilyl)oxybenzyl
]-
##MOLFORM=C21H39O7PSi
##CAS REGISTRY NO=155505-77-4
##MP= -300
##BP= -300
##MW= 462
##$RETENTION INDEX=0
##$CONDENSED SPECTRUM=NO
##NPOINTS= 308
##XYDATA=(XY..XY) 1 
    26          0
    27         18
    29         33
    30          0
    31          5
    38          0
    39          9
    40          2
    41         45
    42         15
    43        113
    44          3
    45          4
    46          1
    47          3
    48          0
    49          0
    50          2
    51         11
    52          3
    53          4
    54          3
    55         37
    56         36
    57         12
    58          0
    59          0
    60          1
    61          0
    62          1
    63          5
    64          0
    65         24
    66          1
    67          3
    68          0
    69         13
    70          1
    71          1
    72          0
    73          2
    74          1
    75          0
    76          1
    77         79
    78         12
    79         87
    80          7
    81          9
    82         88
    83        261
    84         15
    85         10
    86          0
    87          0
    89          4
    90          4
    91         54
    92          5
    93          7
    94          1
    95          0
    96          1
    97          3
    98          0
    99          1
   101          0
   102          0
   103          1
   104          0
   105         41
   106         12
   107        115
   108          9
   109          5
   110         57
   111        999
   112         21
   113          6
   114          0
   115          1
   116          1
   117         29
   118         11
   119         19
   120          2
   121          4
   122          0
   123          4
   124          1
   125          6
   126          0
   127          1
   128          0
   129          1
   130          0
   131          0
   132          0
   133          2
   134          0
   135          7
   136          1
   137          6
   138          7
   142          0
   143          5
   144          0
   145          0
   147          0
   148          0
   150          0
   151         16
   152         10
   153          3
   154          2
   155          0
   156          0
   159          0
   161          0
   162          0
   163         17
   164          2
   165         22
   166          2
   167          6
   168          0
   169          1
   170          0
   171          3
   172          2
   173          6
   174          0
   175          0
   177          0
   178          0
   179          4
   180          1
   181         30
   182          5
   183          1
   184          0
   185          0
   187          7
   188          8
   189          0
   190          0
   191          0
   192          0
   193          0
   194         24
   195         15
   196          2
   197          0
   198          0
   199         13
   200          3
   201          2
   202          0
   203          0
   205          0
   207          0
   208          0
   209          1
   210          0
   211          0
   213          0
   214          0
   215          5
   216         33
   217          7
   218          1
   219          0
   223          0
   224          1
   225         11
   226          2
   227         10
   228          1
   229          1
   231          0
   232          0
   236          0
   239          1
   240          0
   241          3
   242          0
   243          0
   244          0
   245          1
   247          0
   250          0
   251          0
   255          1
   256          0
   257          0
   258          0
   259          1
   260          0
   261          0
   262          0
   263          0
   265          0
   266          0
   267          0
   269        265
   270         47
   271         15
   272          4
   273         32
   274          4
   275          1
   276          0
   277          1
   279          0
   281          0
   282          0
   283          0
   284          1
   285          0
   287          0
   288          0
   289          0
   291          0
   300         78
   301         13
   302          1
   303          1
   304          0
   305          1
   306          0
   307          0
   311          0
   312          0
   313          0
   314          0
   315          0
   316          0
   317          0
   319          0
   321          0
   325          0
   326          0
   327          0
   328          0
   329          0
   331          1
   332          4
   333          7
   334          1
   335          0
   337          0
   339          0
   345          0
   347          0
   355          0
   356         41
   357          8
   358          2
   359          0
   360          0
   361          1
   362          0
   365          0
   368          0
   374          0
   375          0
   379          0
   383          0
   384          0
   386          0
   387          0
   389          1
   391          0
   392          0
   393          0
   394          0
   403          4
   404          1
   405          0
   406          0
   407          0
   411          0
   412          0
   415          1
   416          5
   417          7
   418          2
   419          0
   420          0
   421          0
   422          0
   423          0
   429          0
   431          0
   439          0
   443          0
   447          0
   448          0
   455          0
   461          0
   462          5
   463          1
   464          0
   465          0
   466          0
   467          0
   468          0
   469          0