##TITLE=Library Entry 34096
##JCAMP-DX=Revision 4.10 
##DATA TYPE=MASS SPECTRUM
##SAMPLE DESCRIPTION=A.J. LORQUET UNIVERSITY OF LIEGE, LIEGE, BELGIUM
##NAMES=HP
##CAS NAME=Cyclopentane, iodo-
##MOLFORM=C5H9I
##CAS REGISTRY NO=1556-18-9
##MP= -300
##BP= -300
##MW= 196
##$RETENTION INDEX=0
##$CONDENSED SPECTRUM=NO
##NPOINTS= 45
##XYDATA=(XY..XY) 1 
    12          0
    14          1
    15         19
    26         13
    27        114
    28         62
    29         22
    30          0
    37          2
    38         16
    39        284
    40         61
    41        809
    42         43
    43         21
    50          3
    51         10
    52          6
    53         45
    54         10
    55          3
    56          1
    57          4
    62          1
    63          3
    64          1
    65         18
    66         12
    67         96
    68         19
    69        999
    70         56
    71          1
   127         31
   128         16
   141          1
   152          0
   153          0
   154          3
   155          0
   165          0
   167          1
   168          1
   196        211
   197         10