##TITLE=Library Entry 36323
##JCAMP-DX=Revision 4.10 
##DATA TYPE=MASS SPECTRUM
##SAMPLE DESCRIPTION=NIST Mass Spectrometry Data Center
##NAMES=HP
##CAS NAME=Oligandrol
##MOLFORM=C22H32O2
##CAS REGISTRY NO=155661-15-7
##MP= -300
##BP= -300
##MW= 328
##$RETENTION INDEX=2710
##$CONDENSED SPECTRUM=NO
##NPOINTS= 186
##XYDATA=(XY..XY) 1 
    27          9
    29         14
    38          2
    39         36
    40         11
    41        350
    42         16
    43         90
    44          3
    50          2
    51         10
    52          7
    53         63
    54         10
    55        107
    56          6
    57         19
    60          2
    62          1
    63          4
    64          2
    65         38
    66         14
    67        131
    68         37
    69        999
    70         56
    71          9
    73          2
    74          1
    75          2
    76          1
    77         79
    78         15
    79         97
    80         22
    81        274
    82         23
    83         32
    84          3
    85          3
    87          1
    89          4
    90          5
    91         91
    92         14
    93         90
    94         21
    95        124
    96         16
    97         31
    98          4
   101          2
   102          3
   103         19
   104          6
   105         55
   106         10
   107        147
   108         53
   109        215
   110         21
   111         11
   115         35
   116         12
   117         21
   118          6
   119         39
   120         10
   121        235
   122         43
   123        146
   124         31
   125         10
   126          2
   127         12
   128         28
   129         32
   130         15
   131         42
   132         13
   133         21
   134          9
   135        103
   136        231
   137        876
   138        164
   139         17
   140          2
   141          8
   142          3
   143          9
   144          7
   145         32
   146          7
   147         39
   148         27
   149        129
   150         53
   151         27
   152          6
   153          3
   154          1
   155          6
   156          1
   157         17
   158         27
   159         15
   160         15
   161         93
   162         33
   163        109
   164         17
   165          5
   166          1
   169          1
   171          5
   172          4
   173         22
   174         20
   175        280
   176         85
   177        269
   178         43
   179          5
   180          2
   181          1
   182          1
   183          1
   185          2
   186          1
   187         14
   188         11
   189         85
   190         26
   191        145
   192        177
   193         23
   194          3
   196          1
   199          1
   201          6
   202          5
   203         45
   204         32
   205          8
   206         10
   207          2
   213          1
   214          1
   215         25
   216          5
   217         25
   218          7
   219          1
   220          2
   225          1
   228          1
   229          4
   230          1
   231          4
   232          2
   241          1
   243          7
   244          2
   245         15
   246         21
   247          3
   248          1
   257          3
   258          1
   259         13
   260          6
   261          1
   264          1
   271          1
   285          4
   286          1
   311          1
   313          4
   314          1
   326          1
   328        295
   329         73
   330          9
   331          1