##TITLE=Library Entry 30189
##JCAMP-DX=Revision 4.10 
##DATA TYPE=MASS SPECTRUM
##SAMPLE DESCRIPTION=A.A.Kutin, Moscow, Russia
##NAMES=HP
##CAS NAME=4,5'-Dipyrimidine-2,2'-dithione, 1,2,3,4,5,6,1',2',3',6'-decahydr
o-6,6'-dimethyl-
##MOLFORM=C10H16N4S2
##CAS REGISTRY NO=155645-37-7
##MP= -300
##BP= -300
##MW= 256
##$RETENTION INDEX=0
##$CONDENSED SPECTRUM=NO
##NPOINTS= 129
##XYDATA=(XY..XY) 1 
    33        131
    34         39
    36         23
    37         11
    38         29
    39        201
    40        141
    41        169
    42        190
    43        294
    44        204
    45         24
    46         14
    47          7
    48         14
    50         34
    51         61
    52         63
    53         75
    54         72
    55         34
    56         35
    59        999
    60        159
    61         46
    62         20
    63         23
    64         19
    65         53
    66         28
    67         41
    68         83
    69         45
    70         39
    71         16
    72         14
    73          4
    74          8
    76        307
    77        109
    78         62
    79        120
    80         44
    81         23
    82         16
    83         15
    84         14
    86         73
    87          4
    88          2
    89          2
    90          9
    91         35
    92         16
    93         51
    94         37
    95         25
    96         37
    98         10
   100          5
   101          1
   102          4
   103         16
   104         41
   105         71
   106        270
   107         53
   108         13
   109          7
   110         12
   111         16
   113        202
   115         37
   116          2
   117          9
   118          7
   119         28
   120        101
   121        123
   122         50
   123         18
   124          5
   125          4
   126          9
   127         42
   128        130
   129         24
   130         25
   131          2
   132          7
   134          1
   135          3
   136          1
   137          5
   138          9
   139         45
   140         19
   141          9
   142          5
   144          3
   146          7
   147          8
   148          4
   149          2
   150          6
   151         10
   152         14
   153        116
   154         32
   155         17
   156          8
   157          1
   158          1
   163          3
   164         11
   165         42
   166          6
   167         12
   171          5
   172          2
   178          3
   179          9
   180         66
   181         14
   182         19
   197          5
   256         72
   257          9
   258          3