##TITLE=Library Entry 69641
##JCAMP-DX=Revision 4.10 
##DATA TYPE=MASS SPECTRUM
##SAMPLE DESCRIPTION=Tox21 Consortium/NIST Mass Spectrometry Data Center, 20
12
##NAMES=HP
##CAS NAME=Pizotyline
##MOLFORM=C19H21NS
##CAS REGISTRY NO=15574-96-6
##MP= -300
##BP= -300
##MW= 295
##$RETENTION INDEX=2375
##$CONDENSED SPECTRUM=NO
##NPOINTS= 247
##XYDATA=(XY..XY) 1 
    15          5
    26          1
    27         10
    28          6
    29          5
    30          5
    38          1
    39         20
    40          3
    41         17
    42        242
    43        113
    44        312
    45         45
    46          1
    47          4
    50          5
    51         20
    52          6
    53         19
    54          7
    55         10
    56         14
    57        141
    58        565
    59         30
    60          1
    61          1
    62          5
    63         25
    64          5
    65         18
    66          5
    67          9
    68          8
    69         15
    70        294
    71         74
    72         15
    73          2
    74          5
    75         12
    76         13
    77         29
    78          9
    79          9
    80          7
    81         14
    82         35
    83         22
    84          7
    85          5
    86          4
    87          9
    88         13
    89         32
    90          6
    91         32
    92          8
    93         10
    94         63
    95         36
    96        999
    97        176
    98        130
    99         16
   100          5
   101         21
   102         18
   103         12
   104         18
   105          8
   106          5
   107          8
   108         12
   109         20
   111         31
   112          7
   113         10
   114          8
   115         85
   116         19
   117         28
   118          9
   120          3
   121         13
   122         15
   123         16
   124          6
   125          9
   126         19
   127         29
   128         43
   129         18
   130          7
   131          8
   132          4
   133          2
   134         13
   135         14
   136          3
   137         11
   138         10
   139         53
   140         16
   141         38
   142         11
   143          3
   144          3
   145          7
   147         26
   149          5
   150         21
   151         43
   152        110
   153         48
   154         14
   155         21
   156          4
   157          2
   158          6
   159          3
   160          3
   161          7
   162          5
   163         35
   164         34
   165        168
   166         36
   167         19
   168          5
   169          6
   170          6
   171         30
   172          6
   173          4
   174          5
   175          6
   176         42
   177         23
   178        137
   179         85
   180         16
   181          5
   182          6
   183          7
   184         51
   185         16
   186          6
   187         12
   188         13
   189        169
   190        114
   191        127
   192         36
   193         15
   194          6
   195         19
   196         18
   197        223
   198         59
   199         29
   200         12
   201         11
   202         99
   203        106
   204         61
   205         47
   206         15
   207          9
   208        109
   209         70
   210         30
   211         26
   212         10
   213          8
   214          3
   215         17
   216         10
   217         28
   218         17
   219         38
   220         13
   221        187
   222         84
   223        179
   224         68
   225         35
   226          8
   227          3
   228          1
   229          2
   230          2
   231          3
   232          7
   233          8
   234         30
   235         46
   236         24
   237         74
   238         23
   239         18
   240          4
   241          2
   242          1
   243          1
   244          1
   245          4
   246          4
   247          7
   248          7
   249         15
   250          6
   251         72
   252         24
   253          7
   254          2
   255          1
   258          1
   259          1
   260          4
   261          3
   262         56
   263         15
   264          4
   265          2
   266          8
   267          3
   268          1
   274          1
   276          1
   277          1
   278          2
   279          1
   280         15
   281          3
   282          1
   290          1
   291          1
   292         11
   293         20
   294        160
   295        750
   296        167
   297         50
   298          8
   299          1