##TITLE=Library Entry 51553
##JCAMP-DX=Revision 4.10 
##DATA TYPE=MASS SPECTRUM
##SAMPLE DESCRIPTION=NIST Mass Spectrometry Data Center, 1998.
##NAMES=HP
##CAS NAME=N-(1-Benzylpiperidin-4-yl)-4-iodobenzamide
##MOLFORM=C19H21IN2O
##CAS REGISTRY NO=155798-08-6
##MP= -300
##BP= -300
##MW= 420
##$RETENTION INDEX=0
##$CONDENSED SPECTRUM=NO
##NPOINTS= 99
##XYDATA=(XY..XY) 1 
    27          6
    29          8
    30          5
    37          1
    39         13
    40          5
    41         21
    42         44
    43         13
    44         20
    50         38
    51         16
    52          5
    53          9
    54         18
    55         26
    56         41
    57          9
    58          1
    63          7
    64          2
    65         69
    66          5
    68          6
    69         24
    70         16
    73          1
    74         13
    75         23
    76        135
    77         21
    78         11
    79          6
    80         18
    81          1
    82        999
    83         48
    91        814
    93          5
    95          3
    96         36
    97          5
    98          1
   100          1
   101          1
   103          6
   104         82
   105         25
   107          3
   111          1
   115          4
   118         50
   119         23
   120         18
   121          4
   127          4
   128          5
   130         12
   131          6
   132        182
   134          6
   142          1
   144         34
   146         36
   148          1
   152          2
   153          1
   156          3
   157          1
   158         12
   160          4
   161          2
   167          1
   170         15
   172        107
   173        168
   174         18
   187          4
   188          1
   203         68
   207          1
   217          1
   230          2
   231        164
   232         13
   233          1
   247          9
   248         10
   287          2
   288          2
   300          8
   302          2
   316          1
   343          2
   377          1
   391          1
   404          1
   420         20
   422          1