##TITLE=Library Entry 98117
##JCAMP-DX=Revision 4.10 
##DATA TYPE=MASS SPECTRUM
##SAMPLE DESCRIPTION=Chemical Concepts
##NAMES=HP
##CAS NAME=3-(4-Bromophenyl)-1-methyl-4,6-diphenyl-1,2,3,4-tetrahydro-[1,2,4
,5]tetrazine
##MOLFORM=C21H19BrN4
##CAS REGISTRY NO=155828-44-7
##MP= -300
##BP= -300
##MW= 406
##$RETENTION INDEX=0
##$CONDENSED SPECTRUM=NO
##NPOINTS= 216
##XYDATA=(XY..XY) 1 
    25          2
    26         14
    27         50
    28         47
    29         36
    30         20
    31          1
    33          0
    34          1
    36          1
    37          1
    38          6
    39         43
    40          5
    41         19
    42         19
    43         37
    44         15
    45          1
    49          1
    50         31
    51         86
    52         18
    53          5
    54          2
    55         11
    56          4
    57         12
    58          0
    59          3
    60          2
    61          1
    62          6
    63         28
    64         36
    65        127
    66         13
    67          3
    68          1
    69          6
    70          3
    71          5
    72          0
    73          4
    74          7
    75         27
    76         47
    77        359
    78         47
    79          6
    80          2
    81          4
    82          5
    83          7
    84          2
    85          3
    86          1
    87          2
    88          3
    89         81
    90         18
    91        241
    92        398
    93         86
    94          7
    95          4
    96          1
    97          4
    98          0
    99          1
   100          0
   101          1
   102         20
   103         46
   104        102
   105         33
   106          6
   107          3
   108          1
   109          1
   110          1
   111          2
   112          1
   113          0
   114          0
   115          1
   116          8
   117         13
   118        999
   119         90
   120         10
   121          3
   122          2
   123          1
   124          1
   125          1
   126          0
   127          1
   128          1
   129          1
   130          2
   131         13
   132        115
   133         15
   134          2
   135          1
   137          2
   138          1
   139          0
   141          1
   145          0
   146          1
   147          1
   148          3
   149          4
   150          2
   151          2
   152          4
   153          1
   154          1
   155         13
   156          3
   157         10
   158          3
   159          0
   160          7
   161          1
   163          0
   164          0
   165          2
   166          3
   167          5
   168         11
   169          3
   170          5
   171          1
   175          0
   177          1
   178          3
   179          5
   180          5
   181         10
   182         19
   183         18
   184         20
   185          9
   186          2
   189          1
   190          0
   191          0
   192          4
   193          7
   194         62
   195         49
   196          9
   197          1
   198          2
   199          0
   203          8
   204          8
   205          0
   206          0
   207          2
   208          3
   209         10
   210          6
   211         90
   212         16
   213         88
   214         12
   215          1
   219          0
   220          0
   221          8
   222         13
   223          7
   224        137
   225         31
   226          2
   235          4
   236          1
   237          0
   244          5
   245          6
   247          1
   249          0
   250          0
   251         53
   252          9
   253          0
   257          0
   258         11
   259          5
   260         11
   261          4
   262          1
   271          1
   273          1
   304          0
   305          0
   312          1
   313         10
   314        112
   315         29
   316        112
   317         18
   318          1
   326          6
   327          2
   404          2
   405          7
   406        177
   407         48
   408        170
   409         42
   410          4