##TITLE=Library Entry 90325
##JCAMP-DX=Revision 4.10 
##DATA TYPE=MASS SPECTRUM
##SAMPLE DESCRIPTION=RADIAN CORP
##NAMES=HP
##CAS NAME=Silane, dichloro(chloromethyl)methyl-
##MOLFORM=C2H5Cl3Si
##CAS REGISTRY NO=1558-33-4
##MP= -300
##BP= -300
##MW= 162
##$RETENTION INDEX=786
##$CONDENSED SPECTRUM=NO
##NPOINTS= 53
##XYDATA=(XY..XY) 1 
    14          4
    15          7
    27          8
    28          5
    29          7
    35          7
    41         11
    42         14
    43          9
    47          5
    48          5
    49         34
    51          9
    53          9
    63        256
    64         20
    65         95
    66          6
    67          2
    76         10
    77         24
    78          9
    79          8
    98         54
    99         73
   100         39
   101         49
   102          8
   103          8
   111          7
   112         25
   113        999
   114         78
   115        672
   116         42
   117        120
   118          6
   119          2
   127         29
   129         19
   131          2
   133         14
   135         13
   137          4
   146          1
   147         68
   148          7
   149         66
   150          4
   151         23
   162         27
   164         26
   166          8