##TITLE=Library Entry 84634
##JCAMP-DX=Revision 4.10 
##DATA TYPE=MASS SPECTRUM
##SAMPLE DESCRIPTION=Japan AIST/NIMC Database- Spectrum MS-NW-5646
##NAMES=HP
##CAS NAME=Pyrimidine, 4,6-dimethyl-
##MOLFORM=C6H8N2
##CAS REGISTRY NO=1558-17-4
##MP= -300
##BP= -300
##MW= 108
##$RETENTION INDEX=1372
##$CONDENSED SPECTRUM=NO
##NPOINTS= 56
##XYDATA=(XY..XY) 1 
    13          1
    14          3
    15         28
    25          2
    26         16
    27         31
    28         57
    29          2
    30          3
    31          3
    36          2
    37         29
    38         64
    39        250
    40        245
    41         80
    42        380
    43         14
    44          3
    45         13
    49          4
    50         13
    51         21
    52         36
    53         32
    54         32
    55          9
    56          2
    57          1
    60          1
    61          2
    62          4
    63          7
    64         18
    65         16
    66        134
    67         39
    68         23
    69          4
    75          3
    76          2
    77          1
    78          2
    79          4
    80        102
    81        105
    82         12
    91          4
    92          1
    93         64
    94          5
   106          2
   107        129
   108        999
   109         78
   110          3