##TITLE=Library Entry 4441
##JCAMP-DX=Revision 4.10 
##DATA TYPE=MASS SPECTRUM
##SAMPLE DESCRIPTION=J.MOLLER, UNIV. OF COPENHAGEN, DENMARK
##NAMES=HP
##CAS NAME=1,2,4,5-Tetrazine, 3,6-dimethyl-
##MOLFORM=C4H6N4
##CAS REGISTRY NO=1558-23-2
##MP= -300
##BP= -300
##MW= 110
##$RETENTION INDEX=0
##$CONDENSED SPECTRUM=NO
##NPOINTS= 14
##XYDATA=(XY..XY) 1 
    14        104
    15        366
    25         22
    26         75
    27         58
    28        199
    38         61
    39        111
    40        382
    41        625
    42        999
    43         31
    82         29
   110        199