##TITLE=Library Entry 37421
##JCAMP-DX=Revision 4.10 
##DATA TYPE=MASS SPECTRUM
##SAMPLE DESCRIPTION=Exported from NIST MS Search
##NAMES=HP
##CAS NAME=Butane, 2-isocyanato-
##MOLFORM=C5H9NO
##CAS REGISTRY NO=15585-98-5
##MP= -300
##BP= -300
##MW= 99
##$RETENTION INDEX=0
##$CONDENSED SPECTRUM=NO
##NPOINTS= 20
##XYDATA=(XY..XY) 1 
    26         26
    27        110
    28         91
    29         86
    39         41
    40         24
    41        130
    42        173
    43         12
    44         62
    55         24
    56        149
    57        313
    58          9
    69         48
    70        999
    71         43
    84        103
    85          7
    99         48