##TITLE=Library Entry 97433
##JCAMP-DX=Revision 4.10 
##DATA TYPE=MASS SPECTRUM
##SAMPLE DESCRIPTION=Exported from NIST MS Search
##NAMES=HP
##CAS NAME=1,2,4-Metheno-3H-cyclobuta[cd]pentalen-3-one, octahydro-
##MOLFORM=C10H10O
##CAS REGISTRY NO=15584-52-8
##MP= -300
##BP= -300
##MW= 146
##$RETENTION INDEX=0
##$CONDENSED SPECTRUM=NO
##NPOINTS= 54
##XYDATA=(XY..XY) 1 
    26         20
    27         45
    28         28
    29         10
    31         10
    33         20
    35         12
    36         10
    37         16
    38         32
    39        143
    40         34
    41         30
    50         45
    51         96
    52         61
    53          8
    54         28
    55         10
    56         28
    57         57
    58         75
    59         16
    61         14
    62         26
    63         49
    64         14
    65         92
    66        204
    67         20
    68         26
    77         75
    78         82
    79         34
    80          8
    89         36
    90         32
    91        282
    92         41
   101         12
   102         24
   103         92
   104        159
   105         24
   115        184
   116         61
   117        999
   118        418
   119         45
   120         26
   131         57
   145         61
   146        256
   147         34