##TITLE=Library Entry 908
##JCAMP-DX=Revision 4.10 
##DATA TYPE=MASS SPECTRUM
##SAMPLE DESCRIPTION=Chemical Concepts
##NAMES=HP
##CAS NAME=Noxytiolin
##MOLFORM=C3H8N2OS
##CAS REGISTRY NO=15599-39-0
##MP= -300
##BP= -300
##MW= 120
##$RETENTION INDEX=2370
##$CONDENSED SPECTRUM=NO
##NPOINTS= 72
##XYDATA=(XY..XY) 1 
    26          4
    27         49
    28        225
    29        993
    30        999
    31        112
    33         33
    34         11
    35          3
    38          7
    39         14
    40         22
    41         37
    42        176
    43        170
    44         20
    45         96
    46        150
    47         67
    48         13
    49          2
    50          2
    51          6
    53         14
    54          4
    55         78
    56         24
    57        429
    58         36
    59        104
    60        444
    61         55
    62         58
    63          5
    64          1
    65          2
    67          1
    68          1
    69          8
    70          7
    71          7
    72         60
    73         51
    74        336
    75        109
    76         20
    77          8
    79          6
    81          1
    83          3
    84          7
    85          3
    86         12
    87         57
    88          2
    89          5
    90        816
    91         34
    92         35
    97          3
   102        183
   103         12
   104         11
   105         20
   107         23
   117          1
   118          2
   119          1
   120        314
   121         15
   122         14
   123          5