##TITLE=Library Entry 82895
##JCAMP-DX=Revision 4.10 
##DATA TYPE=MASS SPECTRUM
##SAMPLE DESCRIPTION=H. Fales, LC, NHLBI, NIH, Bethesda, MD 20892
##NAMES=HP
##CAS NAME=2,2'-Bipyridine, 1,2,3,4,5,6-hexahydro-1-methyl-
##MOLFORM=C11H16N2
##CAS REGISTRY NO=15598-39-7
##MP= -300
##BP= -300
##MW= 176
##$RETENTION INDEX=0
##$CONDENSED SPECTRUM=NO
##NPOINTS= 90
##XYDATA=(XY..XY) 1 
    41         29
    42        266
    43         63
    45         12
    48         74
    50         51
    52         80
    53         18
    55         71
    56         19
    57         11
    60         49
    63         33
    65         77
    66         44
    67         34
    68         45
    69         27
    70        155
    71         66
    74         20
    75         15
    77         25
    78        107
    79         85
    80         53
    82         35
    90         33
    92         56
    93        223
    94         65
    96         76
    97         25
    98        394
    99         53
   100         15
   102         12
   103         24
   104         54
   106        999
   107        115
   109         29
   112         11
   113         14
   114         16
   116         14
   117         95
   118        151
   119        409
   120         60
   123         14
   124         12
   125         44
   128         30
   129         18
   130         36
   131         25
   132         82
   133         50
   134         12
   136         24
   137         13
   139         17
   140         14
   141         28
   144         47
   145         54
   146         58
   147         44
   148         29
   149         27
   150         14
   152         14
   154         14
   156         12
   158         14
   160         15
   161         53
   162         14
   164         16
   165         11
   166         31
   169         27
   170         11
   172         14
   173         14
   174         26
   175         44
   176        144
   177         29