##TITLE=Library Entry 19962
##JCAMP-DX=Revision 4.10 
##DATA TYPE=MASS SPECTRUM
##SAMPLE DESCRIPTION=NIST Mass Spectrometry Data Center
##NAMES=HP
##CAS NAME=1-Heneicosanol
##MOLFORM=C21H44O
##CAS REGISTRY NO=15594-90-8
##MP= -300
##BP= -300
##MW= 312
##$RETENTION INDEX=2380
##$CONDENSED SPECTRUM=NO
##NPOINTS= 117
##XYDATA=(XY..XY) 1 
    15          1
    19          1
    26          2
    27         37
    28         10
    29        143
    30          5
    31         79
    39         52
    41        588
    42        155
    43        867
    44         37
    45         14
    46          1
    50          1
    51          2
    52          2
    53         37
    54        108
    55        999
    56        433
    57        927
    58         43
    59          2
    65          7
    66         14
    67        159
    68        299
    69        731
    70        348
    71        394
    72         21
    73         14
    77          5
    78          1
    79         16
    80          8
    81        110
    82        412
    83        886
    84        263
    85        263
    86         16
    87          3
    91          2
    92          1
    93          4
    94          3
    95         64
    96        177
    97        808
    98        176
    99         66
   100          5
   108          1
   109         28
   110         78
   111        444
   112        118
   113         37
   114          3
   122          2
   123         16
   124         49
   125        218
   126         74
   127         22
   128          2
   136          1
   137         10
   138         30
   139         75
   140         45
   141         13
   142          2
   151          2
   152         19
   153         37
   154         29
   155          9
   156          1
   165          1
   166         14
   167         22
   168         19
   169          5
   180          8
   181         12
   182         13
   183          3
   194          7
   195          7
   196          9
   197          2
   208          5
   209          4
   210          7
   211          2
   222          4
   223          3
   224          4
   225          2
   236          2
   237          2
   238          5
   239          1
   250          1
   251          1
   252          1
   264          1
   265          1
   266         15
   267          4
   292          1
   294          9
   295          2