##TITLE=Library Entry 47733
##JCAMP-DX=Revision 4.10 
##DATA TYPE=MASS SPECTRUM
##SAMPLE DESCRIPTION=NIST Mass Spectrometry Data Center, 1994
##NAMES=HP
##CAS NAME=5-Chlorosalicylidene aniline
##MOLFORM=C13H10ClNO
##CAS REGISTRY NO=15597-76-9
##MP= -300
##BP= -300
##MW= 231
##$RETENTION INDEX=0
##$CONDENSED SPECTRUM=NO
##NPOINTS= 130
##XYDATA=(XY..XY) 1 
    16          3
    17          2
    18         12
    26         12
    27         42
    28         65
    32          3
    35          7
    36          6
    37         33
    38         98
    39        213
    40         19
    41          7
    42          4
    47          6
    49         23
    50        229
    51        665
    52         98
    53         52
    54          7
    55          6
    56          4
    58          6
    59          3
    60          4
    61         38
    62         77
    63        231
    64         76
    65        111
    66         25
    67          5
    68          2
    69          2
    70         53
    72         13
    73         87
    74         79
    75        216
    76         98
    77        999
    78        184
    79         16
    83         28
    84        153
    85         24
    86         15
    87         23
    88         21
    89         44
    90         54
    91         22
    92         10
    93          8
    98         38
    99         67
   100         39
   101         34
   102         22
   103          8
   104        165
   105         20
   109          3
   110          5
   111         46
   112         14
   113         25
   114         21
   115         55
   117         23
   118          5
   119          2
   123          3
   124          5
   125         45
   126         23
   127         28
   128         47
   129          8
   130         18
   131          2
   136         23
   137          6
   138         13
   139         78
   140         45
   141         41
   142          9
   149          7
   150          5
   151         11
   152          5
   153         68
   154        180
   155         32
   156         53
   157          4
   164          5
   166         58
   167        173
   168         74
   169         11
   175          4
   176          5
   177         12
   178         11
   179          5
   186         11
   188          5
   194          8
   195         33
   196        140
   197         21
   201          6
   202         28
   203          8
   204         10
   214         78
   215         36
   216         31
   217         12
   228          2
   230        762
   231        991
   232        380
   233        336
   234         46
   235          4