##TITLE=Library Entry 60784
##JCAMP-DX=Revision 4.10 
##DATA TYPE=MASS SPECTRUM
##SAMPLE DESCRIPTION=Chemical Concepts
##NAMES=HP
##CAS NAME=D-Mannononitrile, 4-O-benzyl-2,3:5,6-di-O-isopropylidene-
##MOLFORM=C19H25NO5
##CAS REGISTRY NO=155936-43-9
##MP= -300
##BP= -300
##MW= 347
##$RETENTION INDEX=0
##$CONDENSED SPECTRUM=NO
##NPOINTS= 184
##XYDATA=(XY..XY) 1 
    26          1
    27         13
    29          7
    31         11
    38          1
    39         25
    40          7
    41         53
    42         32
    43        305
    44          9
    45          2
    47          0
    50          1
    51          9
    52          4
    53          7
    54         15
    55         24
    56          3
    57         12
    58          7
    59         89
    60          6
    61         17
    62          1
    63          6
    64          2
    65         64
    66          5
    67          0
    68         14
    69         15
    70          6
    71          5
    72         42
    73         64
    74          3
    75          0
    76          0
    77         18
    78          4
    79          9
    80          7
    81          5
    82          3
    83         20
    84          2
    85         36
    86         10
    87          4
    89         11
    90         10
    91        999
    92         88
    93          2
    94          1
    95          2
    96          5
    97         32
    98          5
    99          4
   100        138
   101        734
   102         39
   103          6
   104          3
   105         27
   106          8
   107         31
   108          9
   109          1
   110          2
   111          1
   112          1
   113          2
   114          1
   115         25
   116          4
   117         16
   118          2
   119          1
   120          1
   121          1
   122          1
   123          3
   124          2
   125          4
   126        143
   127         17
   128          4
   129          5
   130          3
   131          2
   132          1
   133          9
   134          9
   135          3
   136          0
   137          1
   138          0
   139          1
   140          2
   141          1
   142          1
   143          5
   144          1
   145         22
   146          4
   147          1
   148          1
   149          5
   150          0
   152          0
   154          0
   155         11
   156          2
   157         14
   158          3
   159          2
   160          6
   161          3
   162          4
   163         30
   164          3
   165          5
   166          1
   168          3
   171          3
   172          1
   173          1
   174          1
   175          1
   176          0
   180          0
   181          1
   182          0
   183          4
   184          3
   185          3
   186          1
   187          1
   188          1
   189          0
   191          2
   196          0
   197          2
   198          3
   199         27
   200          6
   201          1
   202          5
   203          2
   204          2
   213          1
   214          2
   215         32
   216          4
   217          0
   221         12
   222          1
   226          1
   230          2
   231         29
   232          6
   233          1
   244          0
   246          1
   247          1
   251          0
   256          1
   262          0
   274         21
   275          5
   284          0
   288         15
   289        124
   290         24
   291          3
   332         76
   333         16
   334          2
   347         11
   348          2