##TITLE=Library Entry 767
##JCAMP-DX=Revision 4.10 
##DATA TYPE=MASS SPECTRUM
##SAMPLE DESCRIPTION=Chemical Concepts
##NAMES=HP
##CAS NAME=Diethyl 1,1-cyclopropanedicarboxylate
##MOLFORM=C9H14O4
##CAS REGISTRY NO=1559-02-0
##MP= -300
##BP= -300
##MW= 186
##$RETENTION INDEX=0
##$CONDENSED SPECTRUM=NO
##NPOINTS= 82
##XYDATA=(XY..XY) 1 
    25          2
    26         61
    27        410
    28        111
    29        999
    30         39
    31         64
    37         13
    38         47
    39        336
    40        293
    41        282
    42         47
    43         99
    44         12
    45        123
    46          3
    47          3
    50          1
    51          5
    52          2
    53         54
    54         28
    55         32
    56         10
    57         33
    58         20
    59         21
    60          2
    63          2
    65          2
    66          8
    67         26
    68        161
    69        158
    70         12
    71         17
    72          5
    73          6
    77          0
    82         79
    83         20
    84         70
    85        153
    86        200
    87         18
    88          1
    95        171
    96         22
    97         64
    98          4
    99         42
   100          7
   101          2
   109          1
   110          7
   112        572
   113        657
   114        248
   115         20
   116          1
   122          1
   123          0
   124          0
   125          1
   127         11
   128          3
   130        439
   131         45
   132          5
   139          3
   140         59
   141        999
   142         74
   143         10
   144          1
   158        230
   159        271
   160         20
   161          2
   186         35
   187          4