##TITLE=Library Entry 72708
##JCAMP-DX=Revision 4.10 
##DATA TYPE=MASS SPECTRUM
##SAMPLE DESCRIPTION=Chuck Anderson, Aldrich Chemical Co.
##NAMES=HP
##CAS NAME=1-Bromo-2,3,4,6-tetrafluorobenzene
##MOLFORM=C6HBrF4
##CAS REGISTRY NO=1559-86-0
##MP= -300
##BP= -300
##MW= 228
##$RETENTION INDEX=0
##$CONDENSED SPECTRUM=NO
##NPOINTS= 100
##XYDATA=(XY..XY) 1 
    24          0
    25          0
    31        107
    32          1
    36          8
    37         17
    38          0
    43          2
    44          5
    48          5
    49          8
    50          2
    51          2
    55         30
    56         22
    57          0
    60         14
    61         60
    62          5
    63          0
    65          3
    67          6
    68         36
    69         12
    72          2
    74         46
    75         92
    76          3
    79        132
    80        162
    81         33
    82          0
    86         43
    87          9
    88          0
    89          1
    90          1
    91          8
    92         20
    93         41
    94          1
    99        999
   100         45
   101          0
   103          0
   104          0
   105         14
   106          3
   110         22
   111         16
   112          1
   114         46
   115         45
   117         39
   118         14
   119          0
   122          2
   124          2
   129         18
   130         73
   131          5
   134          3
   135          2
   136          3
   137          3
   139          0
   140          1
   141          0
   142          1
   146          1
   149        441
   150         22
   151          0
   153          5
   155          5
   158          1
   159          7
   160          1
   161          6
   162          0
   177          2
   179          2
   180          0
   184          0
   186          0
   197         15
   198          0
   199         15
   200          0
   208          1
   209          8
   210          1
   211          8
   212          0
   227         15
   228        613
   229         45
   230        562
   231         31
   232          0