##TITLE=Library Entry 24836
##JCAMP-DX=Revision 4.10 
##DATA TYPE=MASS SPECTRUM
##SAMPLE DESCRIPTION=NIST Mass Spectrometry Data Center
##NAMES=HP
##CAS NAME=Butyric acid, heptafluoro-, butyl ester
##MOLFORM=C8H9F7O2
##CAS REGISTRY NO=1559-07-5
##MP= -300
##BP= -300
##MW= 270
##$RETENTION INDEX=763
##$CONDENSED SPECTRUM=NO
##NPOINTS= 79
##XYDATA=(XY..XY) 1 
    15          5
    26         15
    27        155
    28        106
    29        399
    30         13
    31         23
    33          5
    37          2
    38          8
    39        136
    40         30
    41        862
    42         52
    43        165
    44         14
    45          9
    47          8
    49          1
    50         19
    51         10
    52          3
    53         19
    54         20
    55        202
    56        925
    57        999
    58         44
    59          6
    61          9
    62          3
    64          1
    67          2
    69        502
    70          6
    71          4
    72          3
    73          1
    74          1
    75          1
    77          1
    78         10
    80          1
    81         13
    82          1
    85          1
    90          1
    93         11
    95          1
    97          1
   100        168
   101          7
   109         45
   110          1
   112          2
   113          1
   119        110
   120          2
   122          1
   127          1
   128          1
   131         15
   147          5
   150         17
   151          1
   159          1
   169        398
   170         13
   178          3
   195          1
   197         17
   198          1
   199          3
   213          2
   215          4
   227          1
   241         10
   242          1
   255          1