##TITLE=Library Entry 75673
##JCAMP-DX=Revision 4.10 
##DATA TYPE=MASS SPECTRUM
##SAMPLE DESCRIPTION=Chemical Concepts
##NAMES=HP
##CAS NAME=D-Mannononitrile, 4-O-(diphenylmethylsilyl)-2,3:5,6-di-O-isopropy
lidene-
##MOLFORM=C25H31NO5Si
##CAS REGISTRY NO=155936-44-0
##MP= -300
##BP= -300
##MW= 453
##$RETENTION INDEX=0
##$CONDENSED SPECTRUM=NO
##NPOINTS= 231
##XYDATA=(XY..XY) 1 
    27         10
    28         11
    29         11
    31         12
    39         11
    40          9
    41         61
    42         47
    43        491
    44         10
    45         28
    51         10
    53         11
    54         17
    55         39
    57         11
    58          5
    59         79
    60          4
    61         44
    65          5
    67          3
    68         16
    69          6
    70          4
    71          9
    72         57
    73        100
    74          5
    77         38
    78         16
    79          5
    83         36
    84          3
    85         46
    86          8
    91        115
    92         13
    93         20
    95        239
    96         18
    97         39
    98          4
    99          8
   100         56
   101        999
   102         71
   103         12
   104          3
   105         78
   106         21
   107          9
   111          3
   112          3
   113         47
   114         11
   115         63
   116         13
   117         16
   118          4
   119         50
   120          8
   121         58
   122          7
   123         10
   124          6
   126         23
   127         10
   128         30
   129         63
   130          8
   131         28
   132          7
   133          5
   135          5
   137        119
   138         17
   139         25
   140          9
   141          7
   142          4
   143          9
   144          5
   145          9
   146         10
   147          9
   148          6
   149          4
   152         11
   153          5
   154         15
   155         54
   156         11
   157         15
   160          4
   161         24
   162          8
   163         36
   164          8
   165         32
   166         11
   167         15
   168          6
   169          5
   170          7
   171          8
   172          5
   173          5
   174          6
   175          6
   176          4
   177         10
   178         14
   179         59
   180         21
   181         60
   182        105
   183         56
   184         14
   185          5
   186          4
   187          6
   188        171
   189         37
   190         28
   191        111
   192         23
   193         24
   194          5
   195         55
   196         16
   197        604
   198        133
   199         92
   200         17
   201          8
   202          6
   203          7
   204          8
   205         15
   206          7
   207          9
   208          9
   212          5
   213          4
   214          6
   215          6
   216         48
   217         23
   218         11
   219          8
   220          4
   221         11
   222          9
   223         12
   224         12
   225         13
   226          3
   227          8
   228          3
   230         72
   231         20
   232         12
   233         17
   234          5
   235          6
   237          5
   239         12
   240          6
   241         13
   242         18
   243          4
   244         32
   245          7
   246         25
   247          6
   248          3
   249          8
   250         80
   251         24
   252          9
   253         27
   254          7
   255         10
   258          3
   260        122
   261         30
   262          9
   263          5
   264          9
   265          5
   266          5
   267         12
   268          3
   269         25
   270          6
   276          7
   277          5
   278         13
   279         17
   280          7
   288          3
   292         15
   293         11
   294          8
   295          4
   297          4
   298         19
   299          4
   300          5
   304          4
   317          3
   318        159
   319         37
   320         23
   321          5
   322         32
   323          8
   352          8
   353          4
   360          7
   376        371
   377         98
   378         35
   379          6
   380         51
   381         17
   382          3
   438         94
   439         29
   440         10