##TITLE=Library Entry 17049
##JCAMP-DX=Revision 4.10 
##DATA TYPE=MASS SPECTRUM
##SAMPLE DESCRIPTION=NIST Mass Spectrometry Data Center, 2007
##NAMES=HP
##CAS NAME=3,6,9,12-Tetraoxahexadecan-1-ol
##MOLFORM=C12H26O5
##CAS REGISTRY NO=1559-34-8
##MP= -300
##BP= -300
##MW= 250
##$RETENTION INDEX=1748
##$CONDENSED SPECTRUM=NO
##NPOINTS= 99
##XYDATA=(XY..XY) 1 
    14          1
    15          9
    16          1
    18          1
    19         12
    26          5
    27         52
    28         69
    29        165
    30         14
    31         55
    32          2
    33          2
    38          1
    39         19
    40          3
    41        178
    42         27
    43        124
    44        125
    45        999
    46         24
    47          3
    51          2
    53          3
    54          2
    55         42
    56        117
    57        430
    58        110
    59        155
    60         11
    61         10
    62          2
    63          3
    67          1
    68          1
    69          9
    70         13
    71         29
    72         92
    73         86
    74          7
    75        106
    76          8
    77         22
    78          1
    81          1
    82          3
    83         10
    84          2
    85         96
    86         14
    87        181
    88         95
    89        401
    90         28
    91          3
    98          7
    99          8
   100         69
   101        168
   102         28
   103         86
   104          7
   105          3
   107          4
   113          1
   114          1
   115         16
   116          7
   117         29
   118          3
   119         26
   120          2
   121          5
   129          4
   130          1
   131         32
   132          5
   133         40
   134          3
   135         22
   136          1
   144          8
   145         17
   146          1
   147          6
   148          1
   149          2
   151          1
   160          1
   161         10
   162          1
   163         12
   164          1
   175          1
   188          1
   207          1