##TITLE=Library Entry 53377
##JCAMP-DX=Revision 4.10 
##DATA TYPE=MASS SPECTRUM
##SAMPLE DESCRIPTION=NIST Mass Spectrometry Data Center
##NAMES=HP
##CAS NAME=(Z)-Cnidimine
##MOLFORM=C21H22O7
##CAS REGISTRY NO=15591-75-0
##MP= -300
##BP= -300
##MW= 386
##$RETENTION INDEX=2822
##$CONDENSED SPECTRUM=NO
##NPOINTS= 146
##XYDATA=(XY..XY) 1 
    27         19
    28          6
    29         47
    30          1
    38          3
    39         50
    40          6
    42          6
    43        233
    44          8
    45          7
    50          8
    51         23
    52          8
    53         51
    54         33
    55        509
    56         26
    58          3
    59         45
    60          4
    61          2
    62          8
    63         32
    64         14
    65         15
    66          5
    71          8
    72          6
    74          7
    75         13
    76         18
    77         31
    78         10
    79         14
    82         56
    83        999
    84         54
    86          6
    87          4
    88          5
    89         27
    90         10
    91         23
    92         11
    99          5
   100          7
   101         13
   102         34
   103         10
   104          4
   105         13
   106          4
   114          2
   115         24
   116          6
   117         10
   118          9
   127         13
   128         32
   129         17
   130         11
   131         29
   132         10
   133         13
   134         20
   139          3
   141         11
   142          3
   143          6
   144          3
   145         12
   146          9
   147         11
   153          2
   155          8
   156          2
   157          4
   158         65
   159         16
   160         20
   161         12
   162         18
   163          5
   171         11
   172          3
   173         11
   174         10
   175         24
   176          5
   181          2
   183          6
   184          8
   185         13
   186         59
   187         68
   188         21
   189         38
   190         52
   191         62
   192          9
   193          1
   197          9
   198         30
   199         33
   200          6
   201         33
   203         44
   204         11
   205          3
   212          3
   213         35
   214          6
   215         20
   216         24
   217          6
   226         86
   227        352
   228         56
   229        558
   230         79
   231         11
   242          2
   243        187
   244        265
   245        109
   246         17
   247          2
   256          2
   261         26
   262          4
   271         16
   272          3
   273         13
   274          5
   275          1
   286         44
   287         44
   288          8
   303          7
   311         44
   312          8
   313          1
   386         48
   387         11
   388          2