##TITLE=Library Entry 60436
##JCAMP-DX=Revision 4.10 
##DATA TYPE=MASS SPECTRUM
##SAMPLE DESCRIPTION=C.M.WILLIAMS VETERANS ADMIN. HOSP., GAINESVILLE, FLORID
A, USA
##NAMES=HP
##CAS NAME=Benzenepropanoic acid, .alpha.-oxo-
##MOLFORM=C9H8O3
##CAS REGISTRY NO=156-06-9
##MP= -300
##BP= -300
##MW= 164
##$RETENTION INDEX=0
##$CONDENSED SPECTRUM=NO
##NPOINTS= 72
##XYDATA=(XY..XY) 1 
    14          5
    15          5
    16          4
    17          7
    18         18
    26         15
    27         39
    28         92
    29         24
    30          1
    31          5
    36          7
    37         31
    38         75
    39        294
    40         31
    41         61
    42          7
    43         22
    44         29
    45        111
    46         12
    49         15
    50        101
    51        166
    52         34
    53         14
    59         91
    60          7
    61         32
    62         84
    63        196
    64         72
    65        303
    66         22
    67          2
    73          8
    74         27
    75         24
    76         14
    77         38
    78         18
    79         17
    82         10
    83          2
    84          5
    86         17
    87         14
    89        226
    90        732
    91        999
    92        162
    93          8
   101          5
   102          7
   103          5
   104          1
   105         11
   106          1
   107         10
   117          4
   118        717
   119        243
   120         28
   145          4
   146          1
   147          5
   148          4
   149          2
   164        406
   165         44
   166          7