##TITLE=Library Entry 62387
##JCAMP-DX=Revision 4.10 
##DATA TYPE=MASS SPECTRUM
##SAMPLE DESCRIPTION=Virginia Division of Forensic Science
##NAMES=HP
##CAS NAME=Benzphetamine
##MOLFORM=C17H21N
##CAS REGISTRY NO=156-08-1
##MP= -300
##BP= -300
##MW= 239
##$RETENTION INDEX=1830
##$CONDENSED SPECTRUM=NO
##NPOINTS= 91
##XYDATA=(XY..XY) 1 
    15          2
    17          1
    26          1
    27          3
    28          6
    29          2
    30          1
    31          1
    37          1
    38          2
    39         32
    40          3
    41         18
    42         45
    43          1
    44          3
    50          7
    51         22
    52          6
    53          2
    54          3
    56         35
    57          4
    58          1
    61          1
    62          4
    63         21
    65        127
    66          7
    68          1
    70          1
    71          1
    73          1
    74          1
    75          2
    76          3
    77         21
    78          9
    79          4
    80          1
    81          1
    85          1
    86          1
    87          1
    89         26
    91        999
    92         78
    93          2
   101          1
   102          2
   103          7
   104          5
   105          8
   106          1
   115          9
   116          3
   117         13
   118          6
   119          2
   120          3
   121          1
   127          1
   128          1
   129          1
   130          3
   131          3
   132          9
   133          1
   134          1
   143          1
   144          2
   146         10
   148        783
   149         87
   150          4
   151          1
   152          1
   162          1
   165          1
   166          1
   167          1
   177          1
   178          1
   179          1
   181          1
   222          1
   224          3
   225          1
   236          1
   237          1
   238          1