##TITLE=Library Entry 888
##JCAMP-DX=Revision 4.10 
##DATA TYPE=MASS SPECTRUM
##SAMPLE DESCRIPTION=Japan AIST/NIMC Database- Spectrum MS-NW-8463
##NAMES=HP
##CAS NAME=1-Propanol, 3-amino-
##MOLFORM=C3H9NO
##CAS REGISTRY NO=156-87-6
##MP= -300
##BP= -300
##MW= 75
##$RETENTION INDEX=773
##$CONDENSED SPECTRUM=NO
##NPOINTS= 32
##XYDATA=(XY..XY) 1 
    14          2
    15         13
    16          1
    17         11
    18          6
    26          9
    27         34
    28        111
    29         50
    30        999
    31         72
    32          1
    38          2
    39          8
    40          6
    41         17
    42         36
    43         23
    44         77
    45         24
    46          6
    52          2
    53          1
    54          4
    55          3
    56         41
    57         24
    58          9
    72          2
    74          3
    75         15
    76          3