##TITLE=Library Entry 31309
##JCAMP-DX=Revision 4.10 
##DATA TYPE=MASS SPECTRUM
##SAMPLE DESCRIPTION=NIST Mass Spectrometry Data Center, 1998.
##NAMES=HP
##CAS NAME=Ethylene, 1,2-dichloro-, (Z)-
##MOLFORM=C2H2Cl2
##CAS REGISTRY NO=156-59-2
##MP= -300
##BP= -300
##MW= 96
##$RETENTION INDEX=609
##$CONDENSED SPECTRUM=NO
##NPOINTS= 29
##XYDATA=(XY..XY) 1 
    12          2
    13          3
    24         12
    25         53
    26        119
    27          2
    35         37
    36         12
    37         13
    38          4
    47         61
    48         52
    49         36
    50         15
    51          2
    59         32
    60        269
    61        999
    62        108
    63        325
    64          7
    94         10
    95         29
    96        634
    97         33
    98        401
    99         13
   100         64
   101          2