##TITLE=Library Entry 84169
##JCAMP-DX=Revision 4.10 
##DATA TYPE=MASS SPECTRUM
##SAMPLE DESCRIPTION=Patti Price, Georgia Bureau of Investigation, Decatur,
 Georgia
##NAMES=HP
##CAS NAME=Benzenepropanoic acid, 4-hydroxy-.alpha.-oxo-
##MOLFORM=C9H8O4
##CAS REGISTRY NO=156-39-8
##MP= -300
##BP= -300
##MW= 180
##$RETENTION INDEX=1356
##$CONDENSED SPECTRUM=NO
##NPOINTS= 77
##XYDATA=(XY..XY) 1 
    37          6
    38         17
    39         56
    40          6
    41          8
    42          7
    43         12
    44         11
    45        108
    46         11
    47          1
    48          1
    49          7
    50         65
    51        147
    52         71
    53         77
    54          8
    55         34
    56          2
    61         12
    62         30
    63         62
    64         10
    65         14
    66         16
    67         30
    68          4
    69          9
    71          2
    73          6
    74         19
    75         13
    76         18
    77        409
    78        260
    79         74
    80          6
    81         15
    83          2
    84          5
    85          5
    86          6
    87          7
    88          2
    89         20
    90          5
    91          5
    93          5
    94          4
    95          9
    96          1
    97          2
   103          1
   104          2
   105        204
   106        425
   107        999
   108         69
   109          6
   119          2
   121         11
   123          6
   128          1
   131          1
   133         58
   134        677
   135         72
   136          6
   145          3
   149          3
   151          2
   152         11
   161          1
   165          1
   180        281
   181         26