##TITLE=Library Entry 86983
##JCAMP-DX=Revision 4.10 
##DATA TYPE=MASS SPECTRUM
##SAMPLE DESCRIPTION=Div. of Experiment Therapeutics WRAIR, WRAMC, Washingto
n DC 20307
##NAMES=HP
##CAS NAME=2,4-Diaminopyrimidine
##MOLFORM=C4H6N4
##CAS REGISTRY NO=156-81-0
##MP= -300
##BP= -300
##MW= 110
##$RETENTION INDEX=0
##$CONDENSED SPECTRUM=NO
##NPOINTS= 24
##XYDATA=(XY..XY) 1 
    41        143
    42         98
    43        207
    44         17
    51          7
    52         22
    53         19
    54          5
    55         44
    56         17
    66         43
    67        104
    68         97
    69        138
    70          3
    82         13
    83        150
    84          4
    93          3
    94         26
    95          1
   110        999
   111         58
   112          2