##TITLE=Library Entry 84627
##JCAMP-DX=Revision 4.10 
##DATA TYPE=MASS SPECTRUM
##SAMPLE DESCRIPTION=A.A.Kutin, Moscow, Russia
##NAMES=HP
##CAS NAME=Benzene, 1-methyl-4-(2-pentenyloxy)-
##MOLFORM=C12H16O
##CAS REGISTRY NO=156089-29-1
##MP= -300
##BP= -300
##MW= 176
##$RETENTION INDEX=0
##$CONDENSED SPECTRUM=NO
##NPOINTS= 53
##XYDATA=(XY..XY) 1 
    38         14
    39        139
    40         34
    41        322
    42         14
    43         10
    44          6
    50         26
    51         61
    52         36
    53         64
    54         16
    55         18
    57          1
    61          0
    62          5
    63         19
    64          4
    65         39
    66          5
    67         32
    68         23
    69         85
    70          4
    75          2
    77        146
    78         39
    79         60
    80         34
    81          2
    89         10
    90         27
    91         43
    92          3
    93          1
   105          6
   107        253
   108        999
   109         80
   110          4
   115          2
   119          1
   121          4
   131          1
   132          0
   133          0
   135          2
   145          1
   147          5
   149          3
   161          0
   176         91
   177         12