##TITLE=Library Entry 24267
##JCAMP-DX=Revision 4.10 
##DATA TYPE=MASS SPECTRUM
##SAMPLE DESCRIPTION=NIST Mass Spectrometry Data Center, 1990.
##NAMES=HP
##CAS NAME=Octadecane, 2-methyl-
##MOLFORM=C19H40
##CAS REGISTRY NO=1560-88-9
##MP= -300
##BP= -300
##MW= 268
##$RETENTION INDEX=1863
##$CONDENSED SPECTRUM=NO
##NPOINTS= 51
##XYDATA=(XY..XY) 1 
    27         47
    28         47
    29        105
    32          8
    39         55
    41        465
    42        154
    43        889
    44         35
    53         30
    54         41
    55        354
    56        248
    57        999
    58         47
    67         46
    68         40
    69        200
    70        132
    71        632
    72         36
    81         15
    82         29
    83        112
    84         66
    85        422
    86         31
    96         12
    97         73
    98         33
    99        150
   100         13
   110          6
   111         32
   112         20
   113         79
   114          8
   125         16
   126         13
   127         57
   140         10
   141         37
   154          7
   155         32
   169         26
   183         15
   197          8
   224         38
   225         79
   226         14
   253         11