##TITLE=Library Entry 24367
##JCAMP-DX=Revision 4.10 
##DATA TYPE=MASS SPECTRUM
##SAMPLE DESCRIPTION=V.G. Zaikin, R.S.Borisov, TIPS RAS, Moscow, Russia
##NAMES=HP
##CAS NAME=2-Methyltetracosane
##MOLFORM=C25H52
##CAS REGISTRY NO=1560-78-7
##MP= -300
##BP= -300
##MW= 352
##$RETENTION INDEX=2462
##$CONDENSED SPECTRUM=NO
##NPOINTS= 81
##XYDATA=(XY..XY) 1 
    26          3
    27         53
    28         53
    29        133
    39         57
    40          6
    41        395
    42         91
    43        790
    44         14
    53         14
    54         93
    55        441
    56        204
    57        999
    58         32
    65          2
    66          3
    67        151
    68         86
    69        269
    70        109
    71        662
    72         26
    73          1
    77          3
    79         17
    80          7
    81        103
    82        128
    83        198
    84         56
    85        496
    86         18
    91          2
    93          3
    95         64
    96         95
    97        149
    98         29
    99        176
   100          3
   109         24
   110         23
   111         58
   112         17
   113        111
   114          2
   123          8
   124          6
   125         20
   126          8
   127         73
   128          6
   137          2
   138          5
   139          3
   140          5
   141         49
   142          4
   152          1
   153          1
   154          2
   155         35
   156          3
   168          2
   169         22
   170          2
   183         18
   184          1
   197         13
   198          1
   211          6
   225          5
   239          4
   253          2
   267          1
   308          2
   309         21
   310          1
   337          6