##TITLE=Library Entry 24319
##JCAMP-DX=Revision 4.10 
##DATA TYPE=MASS SPECTRUM
##SAMPLE DESCRIPTION=H.PICHLER THE UNIV. KARLSRUHE, KARLSRUHE, GERMANY, F.R.
G.
##NAMES=HP
##CAS NAME=Tetradecane, 2-methyl-
##MOLFORM=C15H32
##CAS REGISTRY NO=1560-95-8
##MP= -300
##BP= -300
##MW= 212
##$RETENTION INDEX=1463
##$CONDENSED SPECTRUM=NO
##NPOINTS= 116
##XYDATA=(XY..XY) 1 
     2          7
    12          0
    13          0
    14          0
    15          3
    16          0
    19          0
    24          0
    25          0
    26          5
    27         91
    28         23
    29        204
    30          4
    31          0
    32          0
    36          0
    37          0
    38          1
    39         50
    40         11
    41        373
    42        161
    43        976
    44         32
    45          0
    48          0
    49          0
    50          0
    51          1
    52          1
    53         17
    54         17
    55        188
    56        179
    57        999
    58         45
    59          1
    63          0
    65          2
    66          1
    67         16
    68         15
    69         92
    70         85
    71        552
    72         30
    73          0
    77          1
    78          0
    79          2
    80          0
    81          4
    82         14
    83         50
    84         41
    85        364
    86         24
    87          0
    91          0
    92          0
    93          0
    94          0
    95          1
    96          7
    97         36
    98         26
    99        151
   100         10
   101          1
   105          0
   109          0
   110          4
   111         21
   112         16
   113         99
   114          8
   115          0
   117          0
   122          0
   123          0
   124          1
   125         11
   126         10
   127         62
   128          6
   129          0
   138          0
   139          4
   140         10
   141         32
   142          3
   143          0
   152          0
   153          0
   154          3
   155         16
   156          2
   157          0
   167          0
   168         72
   169        164
   170         24
   171          1
   172          0
   182          0
   183          2
   184          0
   196          7
   197         51
   198          4
   210          0
   211          0
   212         17
   213          3
   214          0