##TITLE=Library Entry 7640
##JCAMP-DX=Revision 4.10 
##DATA TYPE=MASS SPECTRUM
##SAMPLE DESCRIPTION=Exported from NIST MS Search
##NAMES=HP
##CAS NAME=Pentadecane, 2-methyl-
##MOLFORM=C16H34
##CAS REGISTRY NO=1560-93-6
##MP= -300
##BP= -300
##MW= 226
##$RETENTION INDEX=1563
##$CONDENSED SPECTRUM=NO
##NPOINTS= 91
##XYDATA=(XY..XY) 1 
    37          1
    38          3
    39         88
    40         18
    41        483
    42        176
    43        999
    44         32
    45          1
    49          1
    50          1
    51          3
    52          2
    53         23
    54         22
    55        223
    56        172
    57        786
    58         33
    59          1
    65          3
    66          2
    67         18
    68         16
    69         98
    70         72
    71        422
    72         22
    73          1
    77          2
    78          1
    79          2
    80          1
    81          5
    82         11
    83         47
    84         33
    85        282
    86         18
    87          1
    91          1
    95          1
    96          5
    97         30
    98         20
    99         93
   100          7
   101          1
   109          1
   110          3
   111         16
   112         13
   113         61
   114          5
   115          1
   124          1
   125          8
   126          8
   127         44
   128          4
   138          1
   139          3
   140          6
   141         30
   142          3
   143          1
   152          1
   153          1
   154          6
   155         16
   156          2
   167          1
   168          2
   169          8
   170          1
   171          1
   182         38
   183        104
   184         15
   185          1
   196          1
   197          1
   198          1
   210          4
   211         32
   212          5
   213          1
   224          1
   225          1
   226         13
   227          2