##TITLE=Library Entry 32351
##JCAMP-DX=Revision 4.10 
##DATA TYPE=MASS SPECTRUM
##SAMPLE DESCRIPTION=NIST Mass Spectrometry Data Center, 1994
##NAMES=HP
##CAS NAME=1-Cyclopentene-1-carboxylic acid
##MOLFORM=C6H8O2
##CAS REGISTRY NO=1560-11-8
##MP= -300
##BP= -300
##MW= 112
##$RETENTION INDEX=0
##$CONDENSED SPECTRUM=NO
##NPOINTS= 56
##XYDATA=(XY..XY) 1 
    11          2
    12          3
    14          9
    15         17
    18          6
    19          4
    25          6
    26         35
    27        138
    28         12
    29         33
    32          8
    37         37
    38         92
    39        306
    40         87
    41        268
    42         22
    43         22
    44          8
    45         75
    46          6
    47          4
    49          6
    50         26
    51         35
    52         13
    53         36
    54         14
    55         50
    56         12
    57          6
    60          5
    61         17
    62         28
    63         39
    64          4
    65        160
    66        225
    67        999
    68         75
    69         19
    70          5
    71          3
    81          4
    83         25
    84         11
    92          4
    93         14
    94         29
    95         25
    96          4
    97         90
    98          5
   112        300
   113         20