##TITLE=Library Entry 43281
##JCAMP-DX=Revision 4.10 
##DATA TYPE=MASS SPECTRUM
##SAMPLE DESCRIPTION=V.G. Zaikin, TIPS RAS, Moscow, Russia
##NAMES=HP
##CAS NAME=Pentamethyldisilaethane, 1,1'-oxybis-
##MOLFORM=C10H30OSi4
##CAS REGISTRY NO=1560-31-2
##MP= -300
##BP= -300
##MW= 278
##$RETENTION INDEX=0
##$CONDENSED SPECTRUM=NO
##NPOINTS= 103
##XYDATA=(XY..XY) 1 
    26          5
    27          7
    29         23
    31         17
    41          8
    42          8
    43         75
    44         34
    45        178
    46         12
    47         12
    51          6
    53          6
    55         16
    57         18
    58         21
    59         78
    60         14
    61          6
    65          6
    66          6
    67          6
    69          6
    70          6
    71         13
    72         18
    73        999
    74         79
    75         42
    77          5
    79          5
    81          5
    83          5
    85         17
    87         21
    88          6
    89          6
    93          8
    95          5
    97          5
    99         12
   101         19
   102          5
   103         19
   105         28
   107          5
   113         14
   115         27
   116        183
   117        209
   118         42
   119         26
   129         29
   130          6
   131        112
   132         26
   133         29
   134          5
   135          5
   139          5
   143          5
   144          3
   145         29
   146         13
   147        498
   148         74
   149         41
   151          9
   153         29
   154          5
   155         15
   159          9
   161          5
   167          5
   173         13
   174          5
   175         78
   176         21
   177         13
   181         18
   182          6
   183          9
   187         13
   188          6
   189         77
   190         26
   191         18
   192          5
   193          5
   203         12
   204         12
   205        743
   206        157
   207         89
   208         18
   221          5
   247          6
   263        122
   264         38
   265         29
   278         68
   279         24
   280         14