##TITLE=Library Entry 25521
##JCAMP-DX=Revision 4.10 
##DATA TYPE=MASS SPECTRUM
##SAMPLE DESCRIPTION=NIST Mass Spectrometry Data Center
##NAMES=HP
##CAS NAME=Octacosane, 2-methyl-
##MOLFORM=C29H60
##CAS REGISTRY NO=1560-98-1
##MP= -300
##BP= -300
##MW= 408
##$RETENTION INDEX=2859
##$CONDENSED SPECTRUM=NO
##NPOINTS= 126
##XYDATA=(XY..XY) 1 
    27          6
    29         25
    39         12
    40          3
    41        147
    42         59
    43        521
    44         17
    53          9
    54         20
    55        227
    56        176
    57        999
    58         42
    65          2
    66          3
    67         39
    68         40
    69        236
    70         83
    71        832
    72         43
    79          4
    81         23
    82         47
    83        180
    84         68
    85        569
    86         41
    95         14
    96         45
    97        195
    98         58
    99        263
   100         23
   109          6
   110         17
   111        115
   112         46
   113        190
   114         19
   123          5
   124         11
   125         60
   126         35
   127        140
   128         13
   137          3
   138          8
   139         24
   140         28
   141        103
   142         13
   152          6
   153         14
   154         24
   155         77
   156          9
   166          5
   167         10
   168         19
   169         62
   170          9
   180          3
   181          7
   182         18
   183         51
   184          7
   194          3
   195          6
   196         15
   197         51
   198          6
   210         14
   211         41
   212          7
   222          2
   223          4
   224         10
   225         37
   226          6
   236          2
   237          3
   238         11
   239         31
   240          5
   251          2
   252          9
   253         26
   254          5
   266          9
   267         23
   268          4
   278          1
   279          1
   280          7
   281         23
   292          1
   294          7
   295         19
   296          4
   307          1
   308          5
   309         16
   310          3
   320          1
   322          5
   323         13
   324          4
   336          5
   337          8
   338          2
   350          6
   351         10
   352          2
   364         47
   365        147
   366         44
   367          7
   390          1
   392          4
   393         39
   394         13
   395          2
   408          8
   409          3