##TITLE=Library Entry 97548
##JCAMP-DX=Revision 4.10 
##DATA TYPE=MASS SPECTRUM
##SAMPLE DESCRIPTION=NIST Mass Spectrometry Data Center, 1992
##NAMES=HP
##CAS NAME=Benzene, 2-butenyl-
##MOLFORM=C10H12
##CAS REGISTRY NO=1560-06-1
##MP= -300
##BP= -300
##MW= 132
##$RETENTION INDEX=1024
##$CONDENSED SPECTRUM=NO
##NPOINTS= 72
##XYDATA=(XY..XY) 1 
    15         10
    26         15
    27         76
    28         42
    29         16
    32          6
    37          6
    38         23
    39        146
    40         11
    41         26
    42          1
    44          1
    49          5
    50         67
    51        138
    52         34
    53         37
    54         23
    55          9
    56          0
    58         11
    61          7
    62         28
    63         82
    64         35
    65        152
    66         11
    67          1
    73          4
    74         26
    75         21
    76         26
    77        110
    78         94
    79         17
    80          1
    85          2
    86          5
    87          8
    88          1
    89         50
    90          1
    91        418
    92         35
    93          1
    97          0
    98          4
    99          2
   100          1
   101          5
   102         33
   103         51
   104         48
   105         18
   106          1
   110          0
   113          3
   115        435
   116        151
   117        999
   118         92
   119          4
   126          6
   127         24
   128         49
   129         53
   130         19
   131        146
   132        580
   133         59
   134          3