##TITLE=Library Entry 24245
##JCAMP-DX=Revision 4.10 
##DATA TYPE=MASS SPECTRUM
##SAMPLE DESCRIPTION=NIST Mass Spectrometry Data Center, 1990.
##NAMES=HP
##CAS NAME=Nonadecane, 2-methyl-
##MOLFORM=C20H42
##CAS REGISTRY NO=1560-86-7
##MP= -300
##BP= -300
##MW= 282
##$RETENTION INDEX=1963
##$CONDENSED SPECTRUM=NO
##NPOINTS= 58
##XYDATA=(XY..XY) 1 
    27         61
    28         64
    29        167
    32         10
    39         50
    41        442
    42        148
    43        919
    44         32
    53         17
    54         29
    55        271
    56        195
    57        999
    58         42
    66          2
    67         28
    68         25
    69        131
    70         92
    71        563
    72         27
    79          3
    81          9
    82         24
    83         72
    84         42
    85        355
    86         23
    96         12
    97         54
    98         23
    99        152
   100         12
   110          6
   111         27
   112         14
   113         84
   114          8
   124          3
   125         14
   126          9
   127         59
   128          4
   139          5
   140          6
   141         36
   154          4
   155         31
   156          4
   169         21
   183         16
   197          8
   211          5
   238         20
   239         48
   240          8
   267          7