##TITLE=Library Entry 78629
##JCAMP-DX=Revision 4.10 
##DATA TYPE=MASS SPECTRUM
##SAMPLE DESCRIPTION=Chemical Concepts
##NAMES=HP
##CAS NAME=5(4H)-Oxazolone, 4-(2-furanylmethylene)-2-phenyl-
##MOLFORM=C14H9NO3
##CAS REGISTRY NO=15601-47-5
##MP= -300
##BP= -300
##MW= 239
##$RETENTION INDEX=0
##$CONDENSED SPECTRUM=NO
##NPOINTS= 48
##XYDATA=(XY..XY) 1 
    34          5
    35          4
    37         23
    38         42
    39         74
    40         45
    41          9
    42          6
    43          8
    44         24
    50        205
    51        328
    52         43
    53          9
    54          3
    55          6
    56          3
    57          4
    61         14
    62         23
    63         39
    64         15
    66          3
    67          3
    69          2
    70          2
    71          2
    72          2
    74         38
    75         42
    77        647
    78         46
    79          5
    81          4
    86          2
    87          2
    88          2
    89          2
    91          2
    92          5
   100          2
   105        999
   106         84
   120          7
   127          2
   236          3
   239        110
   240         12