##TITLE=Library Entry 25528
##JCAMP-DX=Revision 4.10 
##DATA TYPE=MASS SPECTRUM
##SAMPLE DESCRIPTION=NIST Mass Spectrometry Data Center
##NAMES=HP
##CAS NAME=Nonacosane, 2-methyl-
##MOLFORM=C30H62
##CAS REGISTRY NO=1560-75-4
##MP= -300
##BP= -300
##MW= 422
##$RETENTION INDEX=2961
##$CONDENSED SPECTRUM=NO
##NPOINTS= 113
##XYDATA=(XY..XY) 1 
    27          6
    29         22
    30          1
    39         12
    40          3
    41        145
    42         58
    43        503
    44         18
    53          7
    54         18
    55        223
    56        180
    57        999
    58         47
    67         39
    68         37
    69        231
    71        849
    72         44
    79          4
    81         17
    82         46
    83        185
    84         68
    85        567
    86         38
    95         12
    97        154
    98         54
    99        264
   100         22
   109          6
   110         17
   111        115
   112         46
   113        188
   114         16
   123          5
   124         13
   125         61
   126         35
   127        136
   128         12
   137          3
   138          9
   139         23
   140         26
   141        101
   142         11
   152          6
   153         14
   154         21
   155         76
   156         10
   166          4
   167         10
   168         19
   169         64
   170          8
   180          3
   181          7
   182         17
   183         52
   184          6
   195          5
   196         14
   197         47
   198          7
   210         13
   211         38
   212          6
   222          3
   224         13
   237          2
   238          9
   239         30
   240          5
   252          8
   253         28
   254          6
   264          2
   266          7
   267         26
   268          3
   281         17
   292          2
   294          6
   295         19
   296          4
   309         15
   310          3
   321          1
   322          5
   323         16
   335          1
   336          4
   337         13
   338          3
   364          7
   365         11
   366          3
   378         42
   379        150
   380         45
   381          7
   382          1
   406          3
   407         37
   408         11
   409          2
   422          7
   423          2