##TITLE=Library Entry 24298
##JCAMP-DX=Revision 4.10 
##DATA TYPE=MASS SPECTRUM
##SAMPLE DESCRIPTION=H.PICHLER THE UNIV. KARLSRUHE, KARLSRUHE, GERMANY, F.R.
G.
##NAMES=HP
##CAS NAME=Hexadecane, 2-methyl-
##MOLFORM=C17H36
##CAS REGISTRY NO=1560-92-5
##MP= -300
##BP= -300
##MW= 240
##$RETENTION INDEX=1664
##$CONDENSED SPECTRUM=NO
##NPOINTS= 129
##XYDATA=(XY..XY) 1 
     2         10
    12          0
    13          0
    14          0
    15          4
    16          0
    19          0
    24          0
    25          0
    26          5
    27         73
    28         23
    29        188
    30          4
    31          0
    32          0
    36          0
    37          1
    38          1
    39         39
    40          9
    41        349
    42        140
    43        926
    44         34
    45          0
    48          0
    50          0
    51          1
    52          1
    53         15
    54         19
    55        204
    56        188
    57        999
    58         47
    59          1
    63          0
    65          2
    66          1
    67         19
    68         19
    69        111
    70         83
    71        582
    72         33
    73          0
    77          1
    78          0
    79          2
    80          0
    81          7
    82         19
    83         69
    84         46
    85        403
    86         27
    87          0
    91          0
    92          0
    93          0
    94          0
    95          2
    96          9
    97         49
    98         28
    99        155
   100         11
   101          0
   105          0
   107          1
   109          0
   110          5
   111         26
   112         20
   113        105
   114          9
   115          0
   117          0
   119          0
   120          0
   122          0
   123          0
   124          3
   125         14
   126         14
   127         80
   128          8
   129          0
   134          0
   137          0
   138          1
   139          6
   140          9
   141         63
   142          7
   143          0
   152          1
   153          3
   154          7
   155         41
   156          5
   157          0
   166          0
   167          1
   168          8
   169         23
   170          3
   171          0
   181          0
   182          3
   183         13
   184          1
   196         59
   197        169
   198         24
   199          1
   210          1
   211          2
   212          0
   224          6
   225         52
   226          9
   227          0
   238          0
   239          0
   240         19
   241          3
   242          0