##TITLE=Library Entry 24227
##JCAMP-DX=Revision 4.10 
##DATA TYPE=MASS SPECTRUM
##SAMPLE DESCRIPTION=NIST Mass Spectrometry Data Center, 1990.
##NAMES=HP
##CAS NAME=Eicosane, 2-methyl-
##MOLFORM=C21H44
##CAS REGISTRY NO=1560-84-5
##MP= -300
##BP= -300
##MW= 296
##$RETENTION INDEX=2063
##$CONDENSED SPECTRUM=NO
##NPOINTS= 62
##XYDATA=(XY..XY) 1 
    27         62
    28         62
    29        164
    30          4
    32          9
    39         45
    41        452
    42        148
    43        885
    44         32
    53         15
    54         31
    55        271
    56        198
    57        999
    58         45
    65          3
    67         30
    68         25
    69        143
    70         93
    71        577
    72         33
    81         11
    82         24
    83         79
    84         46
    85        355
    86         23
    95          4
    96         15
    97         63
    98         25
    99        161
   100         12
   110          7
   111         33
   112         16
   113         98
   114          8
   124          4
   125         17
   126         10
   127         63
   128          5
   139          6
   140          7
   141         44
   142          4
   153          3
   154          5
   155         32
   156          4
   169         25
   170          3
   183         18
   197         12
   211          8
   252         21
   253         48
   254          9
   281          7