##TITLE=Library Entry 7886
##JCAMP-DX=Revision 4.10 
##DATA TYPE=MASS SPECTRUM
##SAMPLE DESCRIPTION=J. Klune, Insect Chem. Ecol. Lab., USDA, Beltsville, MD
 20705
##NAMES=HP
##CAS NAME=2-Methyldocosane
##MOLFORM=C23H48
##CAS REGISTRY NO=1560-81-2
##MP= -300
##BP= -300
##MW= 324
##$RETENTION INDEX=2263
##$CONDENSED SPECTRUM=NO
##NPOINTS= 133
##XYDATA=(XY..XY) 1 
    41        412
    42        168
    43        999
    44         35
    45          0
    47          0
    49          3
    51          1
    52          0
    53         18
    54         38
    55        355
    56        261
    57        948
    58         44
    59          0
    65          3
    66          3
    67         44
    68         43
    69        220
    70        131
    71        664
    72         33
    73          0
    77          2
    79          7
    80          1
    81         19
    82         42
    83        146
    84         71
    85        486
    86         30
    87          0
    91          1
    93          0
    94          0
    95          8
    96         21
    97        117
    98         48
    99        194
   100         14
   103          0
   105          1
   109          4
   110         10
   111         59
   112         34
   113        105
   114          9
   116          0
   119          0
   123          2
   124          7
   125         27
   126         25
   127         74
   128          6
   135          5
   137          7
   138          5
   139         12
   140         21
   141         60
   142          6
   149          2
   151          1
   152          3
   153          6
   154         19
   155         51
   156          5
   165          1
   166          2
   167          4
   168         17
   169         44
   170          5
   180          1
   181          3
   182         15
   183         40
   184          5
   189          0
   191          0
   194          1
   195          2
   196         12
   197         37
   198          5
   207          0
   208          2
   209          2
   210         12
   211         34
   212          5
   222          1
   223          1
   224         11
   225         30
   226          5
   236          0
   237          1
   238          9
   239         26
   240          5
   241          0
   251          0
   252         11
   253         21
   254          4
   266         10
   267         18
   268          3
   278          1
   280        154
   281        435
   282        105
   283         10
   294          4
   295          7
   296          1
   308         11
   309        100
   310         23
   311          3
   322          3
   323          9
   324        228
   325         57
   326          7