##TITLE=Library Entry 25687
##JCAMP-DX=Revision 4.10 
##DATA TYPE=MASS SPECTRUM
##SAMPLE DESCRIPTION=NIST Mass Spectrometry Data Center, 1992
##NAMES=HP
##CAS NAME=2-Chlorocyclohexanol
##MOLFORM=C6H11ClO
##CAS REGISTRY NO=1561-86-0
##MP= -300
##BP= -300
##MW= 134
##$RETENTION INDEX=1025
##$CONDENSED SPECTRUM=NO
##NPOINTS= 95
##XYDATA=(XY..XY) 1 
    12          0
    13          1
    14          4
    15         26
    17          0
    18          1
    26         35
    27        217
    28         50
    29        191
    30         12
    31         90
    33          0
    34          0
    35          3
    36          4
    37         11
    38         32
    39        210
    40         36
    41        235
    42        107
    43        137
    44        191
    45         12
    46          0
    47          3
    48          4
    49         18
    50         20
    51         37
    52         12
    53         64
    54         68
    55         98
    56          0
    57        999
    58         37
    59          3
    60          1
    61          7
    62         27
    63         16
    64         10
    65         25
    66          8
    67         55
    68         14
    69         79
    70         62
    71         63
    72         41
    73          4
    74          3
    75         20
    76          6
    77         24
    78         22
    79         59
    80        302
    81        180
    82         14
    83         32
    84          2
    85          6
    86          0
    87          0
    88        127
    89          8
    90         39
    91         14
    92          1
    93          4
    94          1
    95          2
    96          2
    97         17
    98        107
    99         15
   100          1
   101          4
   103          1
   104          1
   105          3
   106          7
   107          1
   108          1
   116         23
   117          2
   118          7
   119          1
   134         48
   135          4
   136         16
   137          1