##TITLE=Library Entry 24380
##JCAMP-DX=Revision 4.10 
##DATA TYPE=MASS SPECTRUM
##SAMPLE DESCRIPTION=R.T.HOLMAN,UNIVERSITY OF MINNESOTA
##NAMES=HP
##CAS NAME=1,2-Propanediol, 3-(tetradecyloxy)-
##MOLFORM=C17H36O3
##CAS REGISTRY NO=1561-06-4
##MP= -300
##BP= -300
##MW= 288
##$RETENTION INDEX=0
##$CONDENSED SPECTRUM=NO
##NPOINTS= 189
##XYDATA=(XY..XY) 1 
    26         11
    27         82
    28        132
    29        238
    30          9
    31         31
    32         24
    39         49
    40         15
    41        451
    42        132
    43        734
    44         73
    45        194
    46         13
    47          4
    50          4
    51          4
    52          3
    53         26
    54         48
    55        469
    56        185
    57        999
    58         81
    59         62
    60         14
    61          6
    62          1
    63          4
    64          3
    65          7
    66          6
    67         62
    68         95
    69        318
    70        154
    71        690
    72         43
    73         23
    74          7
    75         11
    76          3
    77          7
    78          2
    79         12
    80          7
    81         43
    82        118
    83        292
    84         86
    85        442
    86        141
    87        168
    88         18
    89          9
    90          4
    91          5
    92          2
    93          4
    94          5
    95         27
    96         51
    97        230
    98         61
    99        141
   100         95
   101        256
   102         53
   103         18
   104          2
   105          3
   106          2
   107          2
   108          2
   109         15
   110         24
   111        146
   112         43
   113         73
   114         12
   115         13
   116         20
   117         54
   118         69
   119        238
   120         23
   121         11
   122          3
   123          7
   124         15
   125         69
   126         31
   127         59
   128          8
   129          8
   130         10
   131         32
   132          9
   133          7
   134          2
   135          3
   136          2
   137          5
   138         10
   139         32
   140         22
   141         41
   142          7
   143          5
   144          3
   145          6
   146          2
   147          3
   149          3
   151          3
   152          6
   153          9
   154          9
   155         20
   156          5
   157          5
   158          1
   159          2
   160          2
   161          3
   162          3
   163          5
   165          3
   166          5
   167          7
   168         94
   169         16
   170          5
   171          6
   172          2
   173          2
   174          2
   176          2
   179          3
   181          2
   182          1
   183          2
   184          3
   185          6
   186          6
   187          5
   188          3
   189          4
   190          2
   191          3
   194         10
   195          5
   196         84
   197         56
   198          7
   199          5
   200         11
   201         21
   202          6
   203          5
   211          3
   213          3
   217          6
   218         17
   219         38
   220          4
   221          3
   225          4
   226          2
   227         70
   228         15
   229          4
   230          2
   239          2
   241          2
   242          2
   243          2
   269          2
   270          1
   271          2
   272          1
   280          1
   281          1
   282          1
   283          1
   284          1
   285          1
   286          1