##TITLE=Library Entry 38958
##JCAMP-DX=Revision 4.10 
##DATA TYPE=MASS SPECTRUM
##SAMPLE DESCRIPTION=Exported from NIST MS Search
##NAMES=HP
##CAS NAME=Hexanoic acid, 4-methyl-
##MOLFORM=C7H14O2
##CAS REGISTRY NO=1561-11-1
##MP= -300
##BP= -300
##MW= 130
##$RETENTION INDEX=1927
##$CONDENSED SPECTRUM=NO
##NPOINTS= 50
##XYDATA=(XY..XY) 1 
    66          5
    67         27
    68         21
    69        233
    70         92
    71        999
    72         62
    73        646
    74        422
    75         28
    76          3
    77          4
    78          2
    79          8
    80          2
    81          9
    82         11
    83        229
    84         44
    85         12
    86         11
    87          9
    88          2
    89          1
    91          2
    92          1
    93          2
    94         26
    95         12
    96          4
    97         43
    98         12
    99          8
   100         10
   101        216
   102         13
   103          2
   104          1
   105          1
   106          1
   107          1
   108          1
   109          2
   110          3
   111          9
   112         53
   113         15
   114          2
   115          6
   116          1