##TITLE=Library Entry 25391
##JCAMP-DX=Revision 4.10 
##DATA TYPE=MASS SPECTRUM
##SAMPLE DESCRIPTION=V.G. Zaikin, R.S.Borisov, TIPS RAS, Moscow, Russia
##NAMES=HP
##CAS NAME=2-Methylhexacosane
##MOLFORM=C27H56
##CAS REGISTRY NO=1561-02-0
##MP= -300
##BP= -300
##MW= 380
##$RETENTION INDEX=2661
##$CONDENSED SPECTRUM=NO
##NPOINTS= 96
##XYDATA=(XY..XY) 1 
    26          1
    27         17
    28         18
    29         47
    39         27
    40          3
    41        211
    42         67
    43        619
    44         14
    53         10
    54         45
    55        322
    56        192
    57        999
    58         39
    66          2
    67         86
    68         61
    69        264
    70        121
    71        745
    72         34
    77          2
    79         10
    80          6
    81         74
    82        110
    83        229
    84         72
    85        562
    86         31
    91          3
    93          2
    94          2
    95         56
    96         84
    97        176
    98         40
    99        211
   100         11
   109         26
   110         30
   111         86
   112         26
   113        140
   114          6
   123         11
   124         16
   125         36
   126         17
   127        102
   128          5
   137          4
   138          9
   139         13
   140         11
   141         76
   142          6
   151          1
   152          4
   153          5
   154          7
   155         57
   156          5
   166          1
   167          2
   168          5
   169         43
   170          4
   180          1
   181          1
   182          3
   183         33
   184          3
   194          1
   196          2
   197         26
   198          2
   210          1
   211         21
   212          2
   224          1
   225         17
   226          1
   238          2
   239         12
   253          9
   267          5
   281          4
   295          2
   309          1
   336          5
   337         37
   338          5
   365         13