##TITLE=Library Entry 27124
##JCAMP-DX=Revision 4.10 
##DATA TYPE=MASS SPECTRUM
##SAMPLE DESCRIPTION=Div. of Experiment Therapeutics WRAIR, WRAMC, Washingto
n DC 20307
##NAMES=HP
##CAS NAME=4-[3-tert-Butyloxycarbamoylpropyl]-5,6-dihydro-1,2,4-3(4H)-dithia
zine-2-thione
##MOLFORM=C11H20N2O2S3
##CAS REGISTRY NO=156269-74-8
##MP= -300
##BP= -300
##MW= 308
##$RETENTION INDEX=0
##$CONDENSED SPECTRUM=NO
##NPOINTS= 152
##XYDATA=(XY..XY) 1 
    41        253
    42         55
    43         48
    44         30
    45         37
    46         10
    47          8
    49          2
    51          1
    52          1
    53          4
    54         15
    55         30
    56        170
    57        999
    58        106
    59        121
    60         48
    61         23
    62         10
    64         85
    65          7
    66          8
    67          2
    68          7
    69          5
    70         13
    71          3
    72         62
    73         14
    74        146
    75          4
    76         17
    77         16
    78          2
    79          3
    80          0
    81          3
    82          6
    83         11
    84         19
    85         13
    86         27
    87          9
    88         25
    89          3
    90          3
    91         13
    92         43
    93         66
    94          8
    95          4
    96          0
    97          3
    98          9
    99         23
   100         13
   101         13
   102        257
   103         14
   104          4
   105          2
   108          0
   109          1
   110          0
   111          2
   112          1
   113         11
   114         11
   115         14
   116         10
   117          7
   118          9
   119          4
   120          9
   122          4
   123          6
   124         25
   125          3
   126          5
   127          9
   128          2
   129          7
   130          1
   131          2
   132         12
   133         19
   134          2
   135          1
   137          4
   141         21
   142         16
   143        107
   144         13
   145          7
   146         11
   147          1
   148          2
   150          2
   151          2
   152          6
   153          1
   155          1
   158         15
   159          7
   160          3
   164          0
   165          5
   169          1
   173          2
   174          6
   175        784
   176         74
   177         81
   178         11
   179          2
   181          8
   185          2
   187         10
   190          3
   191          4
   192          6
   193          0
   194          4
   201          3
   203          3
   207         21
   208         74
   209          8
   210         10
   219        135
   220         20
   221          5
   222          0
   234          1
   235        122
   236         12
   237         18
   238          1
   243          6
   251          6
   252         29
   253         22
   254          6
   255          3
   275         10
   276          3
   277          1
   308         56
   309          9
   310          9
   311          0