##TITLE=Library Entry 66914
##JCAMP-DX=Revision 4.10 
##DATA TYPE=MASS SPECTRUM
##SAMPLE DESCRIPTION=Chuck Anderson, Aldrich Chemical Co.
##NAMES=HP
##CAS NAME=Phenyl vinylsulfonate
##MOLFORM=C8H8O3S
##CAS REGISTRY NO=1562-34-1
##MP= -300
##BP= -300
##MW= 184
##$RETENTION INDEX=0
##$CONDENSED SPECTRUM=NO
##NPOINTS= 69
##XYDATA=(XY..XY) 1 
    14          3
    15          6
    18          0
    25          4
    26         55
    27        360
    28         10
    29          8
    31          3
    32          3
    33          1
    37         34
    38        149
    39        848
    40         70
    41         18
    42          8
    43          5
    44          3
    45         11
    46          5
    47          7
    48         33
    49         12
    50         40
    51         64
    52          8
    53         32
    54          3
    55         30
    56          0
    57          5
    58          9
    59          3
    60          0
    61         13
    62         36
    63        129
    64         64
    65        669
    66        167
    67          9
    68          3
    74          5
    75          6
    76          5
    77         45
    78          7
    79          3
    81         33
    82          1
    89          0
    90          3
    91        591
    92        143
    93        523
    94        999
    95         67
    96          4
   105          4
   109         34
   110          2
   119        103
   120        105
   121          9
   184        492
   185         48
   186         25
   187          2