##TITLE=Library Entry 35104
##JCAMP-DX=Revision 4.10 
##DATA TYPE=MASS SPECTRUM
##SAMPLE DESCRIPTION=Japan AIST/NIMC Database- Spectrum MS-NW-8788
##NAMES=HP
##CAS NAME=4-Amino-2-imino-5,5-dimethyl-2,5-dihydro-1H-imidazol-1-yloxy radi
cal
##MOLFORM=C5H9N4O
##CAS REGISTRY NO=15622-62-5
##MP= -300
##BP= -300
##MW= 141
##$RETENTION INDEX=0
##$CONDENSED SPECTRUM=NO
##NPOINTS= 73
##XYDATA=(XY..XY) 1 
    13          1
    14          2
    15         57
    16          2
    17          2
    18          7
    26          8
    27         40
    28        346
    29         39
    30         44
    31          9
    32          1
    33          4
    37          4
    38         10
    39        104
    40         35
    41        196
    42        420
    43        427
    44         20
    45          1
    48          1
    51          3
    52         18
    53         16
    54        160
    55         28
    56        673
    57         39
    58        218
    59         69
    60          3
    64          1
    66          3
    67         17
    68        405
    69        999
    70         69
    71          3
    72          3
    73         27
    74        486
    75         17
    76          1
    81          2
    82          6
    83        404
    84         53
    85          6
    86          1
    93          1
    96         13
    97          3
    98          1
    99         14
   100          3
   108          4
   109          6
   110         10
   111        417
   112         29
   113          1
   123          4
   124          4
   125         53
   126         38
   127          7
   128          1
   141        193
   142         84
   143          8