##TITLE=Library Entry 15746
##JCAMP-DX=Revision 4.10 
##DATA TYPE=MASS SPECTRUM
##SAMPLE DESCRIPTION=Div. of Experiment Therapeutics WRAIR, WRAMC, Washingto
n DC 20307
##NAMES=HP
##CAS NAME=4-[2-N-Carbamoylethyl]-5,6-dihydro-1,2,4(3H)-dithiazinethione
##MOLFORM=C6H10N2OS3
##CAS REGISTRY NO=156269-76-0
##MP= -300
##BP= -300
##MW= 222
##$RETENTION INDEX=0
##$CONDENSED SPECTRUM=NO
##NPOINTS= 147
##XYDATA=(XY..XY) 1 
    41          1
    42        283
    43         64
    44        999
    45        241
    46         72
    47         38
    48          7
    49          1
    50          2
    51          4
    52         14
    53         10
    54         75
    55        210
    56        143
    57         44
    58        118
    59        330
    60        215
    61         62
    62         10
    64        463
    65         21
    66         46
    67          4
    68         13
    69         11
    70         99
    71          7
    72        956
    73         68
    74         28
    76         85
    77         58
    78         15
    79         19
    80          3
    81          4
    82          7
    83          8
    84         23
    85        269
    86        222
    87         51
    88         43
    89          5
    90         10
    91         47
    92        223
    93         31
    94         22
    95          4
    96         18
    97         11
    98          8
    99          5
   100          6
   101         13
   102         24
   103         11
   104         11
   105          1
   106          2
   108          5
   109          3
   111          1
   112         26
   113         39
   114        108
   115          8
   116         10
   117         10
   118         45
   119         39
   120         53
   121          7
   122         16
   123         40
   124        298
   125         19
   126         42
   127          3
   128         15
   129         48
   130        232
   131         35
   132         19
   133          2
   134          1
   135          1
   136          1
   140          1
   141          6
   142          2
   143          1
   144         21
   145         61
   146         73
   147         11
   148          7
   149          4
   150          4
   151         13
   152         12
   153          2
   154          1
   155          0
   156          1
   157         22
   158          7
   160         10
   161          2
   162         13
   163        141
   164         14
   165         14
   166          1
   167          0
   172         79
   173         20
   174         14
   175          2
   176          3
   177         16
   178         46
   179          6
   180          6
   181          9
   182          1
   188         11
   189        593
   190        183
   191         76
   192         27
   194         69
   195          1
   196         11
   197          0
   205         47
   206         47
   207         21
   208          7
   222        902
   223        135
   224        138
   225         16