##TITLE=Library Entry 47718
##JCAMP-DX=Revision 4.10 
##DATA TYPE=MASS SPECTRUM
##SAMPLE DESCRIPTION=NIST Mass Spectrometry Data Center, 1994
##NAMES=HP
##CAS NAME=Benzoic acid, 4-(phenylazo)-
##MOLFORM=C13H10N2O2
##CAS REGISTRY NO=1562-93-2
##MP= -300
##BP= -300
##MW= 226
##$RETENTION INDEX=0
##$CONDENSED SPECTRUM=NO
##NPOINTS= 78
##XYDATA=(XY..XY) 1 
    17          0
    18          1
    26          6
    27         26
    28         14
    29          5
    32          0
    37         16
    38         23
    39         82
    40          4
    41          1
    42          3
    43          9
    45         25
    50        114
    51        309
    52         24
    53         12
    54          5
    55          6
    61          6
    62         16
    63         42
    64         37
    65        249
    66         15
    67          4
    69          5
    73          6
    74         35
    75         64
    76        218
    77        999
    78         66
    79          2
    81          1
    82          3
    83          4
    87          5
    88          8
    89          3
    90          7
    91          4
    92          5
    93         25
    94          2
    98          0
    99          0
   101          3
   102          6
   103         22
   104         74
   105        371
   106         25
   115          7
   119          0
   121        391
   122         32
   123          7
   126         10
   127          8
   139          5
   141         10
   142          3
   149         90
   150         10
   151         19
   152         95
   153         47
   154          6
   181         13
   198          4
   209          6
   218          0
   226        522
   227         77
   228          6