##TITLE=Library Entry 61751
##JCAMP-DX=Revision 4.10 
##DATA TYPE=MASS SPECTRUM
##SAMPLE DESCRIPTION=Chemical Concepts
##NAMES=HP
##CAS NAME=Cyclopropenoic acid,1-trimethylsilyl,-2-(2-methylpropen-1-yl), me
thyl ester
##MOLFORM=C12H20O2Si
##CAS REGISTRY NO=156298-40-7
##MP= -300
##BP= -300
##MW= 224
##$RETENTION INDEX=0
##$CONDENSED SPECTRUM=NO
##NPOINTS= 90
##XYDATA=(XY..XY) 1 
    39         87
    40         11
    41         57
    43        192
    45        396
    46         20
    47         15
    50         20
    51         47
    52         15
    53         63
    54         11
    55         49
    56          5
    57         20
    58         49
    59        313
    60         22
    61         16
    62          4
    63         18
    64          6
    65         67
    66         16
    67         34
    69         44
    70          7
    71         10
    73        876
    74         80
    75         82
    76          8
    77         54
    78         10
    79         29
    80          5
    81         11
    83         92
    84          7
    85         20
    89        171
    91        999
    92        336
    93         43
    95         20
    96          4
    97         18
    98          2
    99          8
   101          2
   103          5
   105         24
   107         21
   108          4
   109         23
   110          3
   111          7
   113          4
   115          2
   117          1
   119         54
   120        923
   121         90
   122          7
   123         15
   124          1
   125         10
   131          2
   133          6
   135         16
   136          2
   137         18
   138          2
   145          1
   147          3
   149         14
   150          2
   151          2
   153          5
   163          2
   165        100
   166         12
   167          4
   181          9
   193          3
   209         19
   210          2
   224        113
   225         17
   226          4