##TITLE=Library Entry 48749
##JCAMP-DX=Revision 4.10 
##DATA TYPE=MASS SPECTRUM
##SAMPLE DESCRIPTION=Chemical Concepts
##NAMES=HP
##CAS NAME=Cycloprop-2-enecarbonic acid, 2-(2-propenyl)-, methyl ester
##MOLFORM=C8H10O2
##CAS REGISTRY NO=156298-37-2
##MP= -300
##BP= -300
##MW= 138
##$RETENTION INDEX=0
##$CONDENSED SPECTRUM=NO
##NPOINTS= 75
##XYDATA=(XY..XY) 1 
    25          3
    26         40
    27        164
    28         17
    29         45
    30          7
    31          9
    32          1
    33          1
    36          2
    37         27
    38         75
    39        230
    41        168
    42          9
    43         11
    45         32
    46          1
    48          2
    49         16
    50        127
    51        243
    52        118
    53        154
    54         17
    55         47
    56          2
    57          3
    59         79
    60          4
    61          9
    62         15
    63         31
    65         45
    66         31
    67        151
    68         22
    69         17
    70          1
    71          2
    72          1
    73          5
    74         15
    75         11
    77        860
    78        268
    79        999
    80         69
    81         14
    83          9
    84          2
    85          2
    91         10
    92          2
    93         12
    94         18
    95        135
    96         11
    97          2
   105         42
   106         35
   107         68
   108         10
   109         36
   110         26
   111         38
   112          3
   121          2
   123        125
   124          7
   125          1
   136          2
   137         34
   138          5
   139          1