##TITLE=Library Entry 55810
##JCAMP-DX=Revision 4.10 
##DATA TYPE=MASS SPECTRUM
##SAMPLE DESCRIPTION=NIST Mass Spectrometry Data Center, 2010
##NAMES=HP
##CAS NAME=Acetamide, N-acetyl-N-(1-methylethyl)-
##MOLFORM=C7H13NO2
##CAS REGISTRY NO=1563-85-5
##MP= -300
##BP= -300
##MW= 143
##$RETENTION INDEX=0
##$CONDENSED SPECTRUM=NO
##NPOINTS= 47
##XYDATA=(XY..XY) 1 
    14          3
    15         43
    18          6
    26          6
    27         36
    28         19
    29          8
    30         15
    31          4
    37          2
    38          4
    39         46
    40         15
    41         91
    42        177
    43        949
    44        752
    45         26
    54          3
    55          4
    56          9
    57         14
    58        310
    59         22
    60         65
    61          3
    68          4
    70          7
    71          2
    72         17
    73          8
    83        140
    84        100
    86        999
    87         69
    88          4
   100        836
   101        109
   102         63
   103          4
   114          1
   115          4
   125          2
   128        112
   129          8
   130          1
   143          9