##TITLE=Library Entry 48821
##JCAMP-DX=Revision 4.10 
##DATA TYPE=MASS SPECTRUM
##SAMPLE DESCRIPTION=Div. of Experiment Therapeutics WRAIR, WRAMC, Washingto
n DC 20307
##NAMES=HP
##CAS NAME=5-Nitrothiophene-2-carboxaldehyde picolinoylhydrazone
##MOLFORM=C11H8N4O3S
##CAS REGISTRY NO=156305-89-4
##MP= -300
##BP= -300
##MW= 276
##$RETENTION INDEX=0
##$CONDENSED SPECTRUM=NO
##NPOINTS= 43
##XYDATA=(XY..XY) 1 
    41          7
    42          7
    43          6
    45        124
    47          7
    51        251
    52        214
    53         17
    55          1
    57         11
    58          2
    62          4
    63          5
    64         11
    67          6
    69         41
    70         14
    71          5
    76          7
    78        580
    79        999
    80         44
    82         16
    83          3
    84          3
    93          9
    95         88
    96          6
    97         10
   105         73
   106        108
   107          8
   108          1
   109          3
   121          1
   122        308
   123         17
   124          4
   141          6
   153          4
   276         43
   277         15
   278          3