##TITLE=Library Entry 9119
##JCAMP-DX=Revision 4.10 
##DATA TYPE=MASS SPECTRUM
##SAMPLE DESCRIPTION=Exported from NIST MS Search
##NAMES=HP
##CAS NAME=Acetamide, N-acetyl-N-butyl-
##MOLFORM=C8H15NO2
##CAS REGISTRY NO=1563-86-6
##MP= -300
##BP= -300
##MW= 157
##$RETENTION INDEX=0
##$CONDENSED SPECTRUM=NO
##NPOINTS= 46
##XYDATA=(XY..XY) 1 
    27         59
    28         94
    29         65
    30        822
    31         29
    39         29
    40          5
    41        162
    42         82
    43        999
    44        103
    45         23
    55         53
    56         59
    57         65
    58         14
    59          5
    60        153
    61          5
    68          8
    69          5
    70          5
    71          5
    72        911
    73        355
    74          8
    84        349
    85         14
    86        177
    87         82
    93         14
    97         44
    98          8
   100        142
   101          5
   102        183
   103          8
   114        192
   115        118
   116         23
   128         23
   129          5
   142        340
   143         14
   157         65
   158         11