##TITLE=Library Entry 19616
##JCAMP-DX=Revision 4.10 
##DATA TYPE=MASS SPECTRUM
##SAMPLE DESCRIPTION=Chemical Concepts
##NAMES=HP
##CAS NAME=1-[3-(3-Nitrophenyl)-1-oxa-2,4-diazaspiro[4.7]dodec-2-en-4-yl]-3-
phenylurea
##MOLFORM=C22H25N5O4
##CAS REGISTRY NO=156360-51-9
##MP= -300
##BP= -300
##MW= 423
##$RETENTION INDEX=0
##$CONDENSED SPECTRUM=NO
##NPOINTS= 329
##XYDATA=(XY..XY) 1 
    25          1
    26         10
    27         84
    28         57
    29        155
    30         44
    31         27
    32        235
    33          3
    36          2
    37          8
    38         16
    39        170
    40         45
    41        573
    42        198
    43        660
    44         42
    45         26
    46          5
    48          0
    49          2
    50         34
    51         79
    52         25
    53         87
    54        142
    55        999
    56        126
    57        112
    58         35
    59         32
    60          3
    61          7
    62         12
    63         42
    64         44
    65        241
    66        105
    67        465
    68         67
    69        137
    70         48
    71         36
    72         30
    73         15
    74         87
    75         35
    76         90
    77        463
    78         49
    79         57
    80         33
    81        121
    82         91
    83        116
    84         39
    85         68
    86         16
    87          8
    88         27
    89          9
    90         50
    91         93
    92        393
    93        554
    94         88
    95         38
    96         15
    97         67
    98         48
    99         59
   100         10
   101          5
   102         73
   103        153
   104         32
   105         18
   106         18
   107         17
   108         12
   109        148
   110         33
   111         17
   112         36
   113         27
   114         16
   115          8
   116         12
   117         18
   118         40
   119        152
   120        315
   121         47
   122         27
   123         10
   124         25
   125         74
   126         13
   127        468
   128         58
   129          7
   130          6
   131          6
   132         24
   133         25
   134         13
   135         65
   136         60
   137         13
   138          6
   139         16
   140         11
   141          6
   142          2
   143          2
   144          4
   145          4
   146          5
   147          5
   148         19
   149        236
   150         35
   151         21
   152         12
   153          2
   154          2
   155          5
   156         91
   157         10
   158          3
   159          4
   160          5
   161          5
   162         15
   163         18
   164         14
   165          6
   166          7
   167         14
   168          4
   169          3
   170          2
   171          1
   172          1
   173          1
   174          5
   175         59
   176         14
   177         15
   178        191
   179         20
   180          8
   181          2
   182          3
   183          5
   184          1
   185          1
   186          1
   187          5
   188          8
   189          2
   190          6
   191         10
   192          4
   193          5
   194          7
   195          1
   196          1
   197          1
   198          1
   199          1
   200          1
   201          2
   202          2
   203          4
   204         12
   205         22
   206          8
   207          8
   208          5
   209          5
   210          2
   211          1
   212          3
   213          1
   214          1
   215          2
   216          3
   217          7
   218         20
   219         19
   220        306
   221         39
   222          6
   223          3
   224          2
   225          7
   226          2
   227          1
   228          1
   229          3
   230          3
   231          5
   232          9
   233         75
   234         13
   235          3
   236          2
   237          1
   238          0
   239          2
   240          6
   241          4
   242          1
   243          3
   244         10
   245          4
   246          7
   247         26
   248          3
   249          1
   250          8
   251          4
   252          7
   253          1
   255          1
   256          2
   257          6
   258         11
   259         19
   260          6
   261         18
   262          4
   263          1
   264          0
   265          0
   266          3
   267          3
   268          2
   269          1
   270          1
   271          2
   272          3
   273          5
   274          2
   275         15
   276          4
   277          1
   279          1
   280          7
   281          3
   282          4
   283          2
   284          0
   285          1
   286          2
   287          3
   288          5
   289          3
   290          1
   292          0
   294          0
   295          1
   296          5
   297         72
   298         86
   299         14
   300          1
   301          4
   302          2
   303          7
   304          6
   305          3
   306          0
   309          0
   310          2
   311          0
   312          0
   313          1
   315          2
   316          0
   322          1
   323          0
   326          1
   327          0
   329          1
   330          0
   331        133
   332         20
   333          3
   334          1
   336          4
   339        115
   340         23
   341          2
   342          1
   343          0
   349          0
   352        360
   353         79
   354         12
   355          1
   366         15
   367          5
   368          0
   370          0
   378          0
   379          0
   380         37
   381         10
   382          2
   384          1
   391          0
   393          1
   394         11
   395          4
   396          0
   399          0
   406          3
   407          1
   408          4
   409          1
   421          0
   422          2
   423        288
   424         81
   425         12
   426          0