##TITLE=Library Entry 20929
##JCAMP-DX=Revision 4.10 
##DATA TYPE=MASS SPECTRUM
##SAMPLE DESCRIPTION=Chemical Concepts
##NAMES=HP
##CAS NAME=1-[3-(4-Nitrophenyl)-1-oxa-2,4-diazaspiro[4.4]non-2-en-4-yl]-3-ph
enylurea
##MOLFORM=C19H19N5O4
##CAS REGISTRY NO=156360-48-4
##MP= -300
##BP= -300
##MW= 381
##$RETENTION INDEX=0
##$CONDENSED SPECTRUM=NO
##NPOINTS= 260
##XYDATA=(XY..XY) 1 
    26         10
    27         91
    28         72
    29        161
    30         96
    31         27
    32          2
    36          1
    37          5
    38         20
    39        212
    40        153
    41        406
    42         76
    43        100
    44         43
    45         11
    46          8
    49          1
    50         72
    51        143
    52         39
    53         85
    54         71
    55        999
    56        139
    57        312
    58         53
    59         12
    60          3
    61          7
    62         16
    63         67
    64         67
    65        325
    66        115
    67        293
    68         46
    69         48
    70         16
    71         13
    72         10
    73         12
    74         12
    75         73
    76        184
    77        513
    78         52
    79         12
    80         37
    81         16
    82         35
    83         52
    84         32
    85        920
    86         81
    87         11
    88         37
    89         34
    90         63
    91        110
    92        421
    93        490
    94         53
    95         13
    96          7
    97        118
    98         92
    99         21
   100          4
   101          5
   102        125
   103        226
   104         51
   105         25
   106         22
   107         12
   108          6
   109          1
   111          1
   112          1
   113          7
   114         44
   115         14
   116         11
   117         11
   118         64
   119        180
   120        387
   121         87
   122         23
   123          7
   124          2
   125         21
   126          3
   127          3
   128          6
   129          8
   130         47
   131         13
   132         27
   133         24
   134         20
   135         62
   136         34
   137          8
   138          5
   139          4
   140          5
   141          6
   142          2
   143          2
   144          7
   145          8
   146          6
   147         12
   148         24
   149        323
   150         52
   151          7
   152          9
   153          3
   154          4
   155          5
   156          2
   157          2
   158          3
   159          3
   160          8
   161          3
   162          9
   163          9
   164         12
   165          7
   166         10
   167          6
   168          4
   169         17
   170         11
   171          4
   172          3
   173          4
   174          4
   175         29
   176        106
   177         17
   178        250
   179         34
   180          8
   181          1
   182          2
   183          1
   185          2
   186          4
   187          6
   188         21
   189          9
   190          8
   191         10
   192          6
   193          5
   194          8
   195          2
   197          1
   198          1
   199          4
   200          3
   201          5
   202          3
   203          2
   204          5
   205         12
   206         11
   207          6
   208          7
   209          3
   210          2
   212          2
   213          2
   214          4
   215         18
   216         44
   217         13
   218         12
   219          2
   220         26
   221          4
   222          3
   223          2
   224          4
   225          3
   226          1
   231          1
   232          1
   233         73
   234         14
   235          2
   236          1
   237          1
   239          5
   240          7
   241          5
   245          2
   246          6
   247          1
   249          3
   250          3
   251         19
   252          8
   253          1
   259         18
   260          8
   261         66
   262         22
   263          5
   264          2
   265          1
   266          8
   267          8
   268          2
   270          1
   271          9
   273          1
   280          7
   281         35
   282          9
   283          1
   288          2
   289        110
   290         17
   291          2
   292          1
   295          1
   296         13
   297         85
   298         90
   299         13
   300          2
   306          2
   308          1
   310          1
   311          1
   312          4
   313          1
   329          1
   336          2
   337          1
   339          4
   340          1
   349          1
   351          3
   352        403
   353         81
   354         11
   355          3
   364          1
   365          1
   381        362
   382         84
   383         11