##TITLE=Library Entry 15063
##JCAMP-DX=Revision 4.10 
##DATA TYPE=MASS SPECTRUM
##SAMPLE DESCRIPTION=Exported from NIST MS Search
##NAMES=HP
##CAS NAME=Osmium, tris(2,4-pentanedionato-O,O')-, (OC-6-11)-
##MOLFORM=C15H21O6Os
##CAS REGISTRY NO=15635-86-6
##MP= -300
##BP= -300
##MW= 489
##$RETENTION INDEX=0
##$CONDENSED SPECTRUM=NO
##NPOINTS= 149
##XYDATA=(XY..XY) 1 
    41        100
    42        140
    43        999
    55         60
    57         48
    58        120
    60        160
    61         12
    64         40
    66         20
    67         32
    68         32
    69         40
    72        100
    79         12
    81         12
    85        559
    86         40
    87        280
    88         40
    91         32
    95         32
    96         20
    97         12
    98         12
    99         12
   100        480
   101         40
   116         60
   119         20
   185          8
   186         12
   187         12
   188        120
   189        120
   190        240
   191        120
   192        300
   198         12
   199         20
   200         20
   202         32
   217         12
   218         12
   219         40
   220         12
   227         12
   228         20
   229         12
   230         12
   231         32
   232         32
   233         20
   234         12
   235         20
   241         12
   242         20
   243         32
   244         40
   245         20
   246         40
   247         12
   255         20
   256         20
   257         40
   258         40
   259         40
   260         40
   261         12
   262         12
   263         12
   269         12
   270         12
   271         40
   272         20
   273         40
   274         20
   275         40
   282         12
   283         20
   284         32
   285         20
   286         20
   287         40
   288         32
   289         32
   290         20
   298         12
   299         32
   300         20
   301         40
   302         32
   303         20
   304         20
   305         12
   306         12
   307         12
   311         20
   312         20
   313         32
   314         32
   315         60
   316         32
   317         80
   318         20
   319         40
   322         12
   325         12
   326         12
   327         20
   328         40
   329         40
   330         48
   331         40
   332         40
   341         12
   342         20
   343         20
   344         40
   345         32
   346         80
   347         60
   348         80
   350         88
   355         12
   356         12
   357         12
   358         12
   359         12
   360         12
   361         12
   383         12
   386         80
   387         80
   388        140
   389         12
   390        200
   403         20
   404         20
   405         32
   407         40
   483         20
   484         20
   485        200
   486        280
   487        480
   488         72
   489        680
   490        100