##TITLE=Library Entry 72786
##JCAMP-DX=Revision 4.10 
##DATA TYPE=MASS SPECTRUM
##SAMPLE DESCRIPTION=Chemical Concepts
##NAMES=HP
##CAS NAME=2-Allyloxy-2-(6-hydroxy-2,2-dimethyltetrahydrofuro[2,3-d][1,3]dio
xol-5-yl)acetamide
##MOLFORM=C12H19NO6
##CAS REGISTRY NO=156325-49-4
##MP= -300
##BP= -300
##MW= 273
##$RETENTION INDEX=0
##$CONDENSED SPECTRUM=NO
##NPOINTS= 205
##XYDATA=(XY..XY) 1 
    36          0
    37          3
    38          7
    39        166
    40         23
    41        683
    42         68
    43        426
    44        197
    45         50
    46          8
    47          4
    48          1
    49          0
    50          1
    51          3
    52          2
    53         13
    54         13
    55        216
    56         28
    57         95
    58         48
    59        608
    60         66
    61         34
    62          1
    63          1
    64          1
    65          3
    66          4
    67         47
    68         28
    69         82
    70         29
    71        335
    72         51
    73        283
    74        520
    75         26
    76          3
    77          3
    78          2
    79         14
    80          4
    81         23
    82         13
    83        142
    84         67
    85        654
    86        150
    87         57
    88        248
    89         21
    90          2
    91          2
    92          1
    93          2
    94          3
    95         26
    96         37
    97         50
    98         24
    99         52
   100        999
   101        173
   102         18
   103          3
   104          3
   105          1
   106          1
   107          7
   108          4
   109          6
   110          5
   111         30
   112         32
   113        220
   114         77
   115        366
   116         32
   117          8
   118          2
   119          2
   120          1
   121          2
   122          2
   123         19
   124          9
   125         55
   126         12
   127         26
   128         66
   129        291
   130         37
   131         14
   132          2
   133          1
   134          1
   135          5
   136          3
   137          4
   138          2
   139         11
   140        228
   141         60
   142         18
   143          9
   144         91
   145         20
   146          6
   147          2
   148          0
   149          2
   150          1
   151          5
   152          6
   153         21
   154         16
   155          8
   156         16
   157         69
   158         20
   159        199
   160         20
   161          3
   162          1
   163          2
   164          1
   165          3
   166          1
   167          2
   168          5
   169         36
   170         10
   171         39
   172          6
   173         13
   174          3
   175          1
   176          0
   178          1
   179          1
   180          5
   181          4
   182        358
   183         39
   184          5
   185          4
   186         16
   187          3
   188          2
   189          0
   191          0
   192          0
   193          1
   194          0
   195          1
   196          1
   197          4
   198         11
   199          5
   200          8
   201          6
   202          1
   203          0
   207          0
   208          2
   209          0
   211          5
   212          4
   213          1
   214          3
   215         15
   216          8
   217          6
   218          1
   222          0
   223          0
   224          0
   225          0
   226         57
   227          8
   228          1
   229         30
   230          4
   231          1
   237          0
   238          0
   239          0
   240          5
   241         22
   242          3
   243          1
   255          1
   256          4
   257          1
   258         47
   259          6
   260          1
   265          0
   273          2
   274          5
   275          1
   281          0