##TITLE=Library Entry 6700
##JCAMP-DX=Revision 4.10 
##DATA TYPE=MASS SPECTRUM
##SAMPLE DESCRIPTION=A.A.Kutin, Moscow, Russia
##NAMES=HP
##CAS NAME=Pyrimidine-2-carboxamide, 3,4,5,6-tetrahydro-N-phenyl-
##MOLFORM=C11H13N3O
##CAS REGISTRY NO=156309-07-8
##MP= -300
##BP= -300
##MW= 203
##$RETENTION INDEX=0
##$CONDENSED SPECTRUM=NO
##NPOINTS= 100
##XYDATA=(XY..XY) 1 
    33         11
    34          1
    37          4
    39         92
    40         64
    41        188
    42        402
    43        999
    44        503
    51         66
    52         14
    54         57
    55         67
    56         40
    57         12
    58         20
    59          2
    60          0
    61          1
    63         25
    64         38
    65         54
    66         16
    68         24
    69         26
    70          2
    71          1
    72          0
    74          7
    75          3
    77        104
    78          8
    79          2
    80          2
    82         30
    84        320
    85         20
    86          1
    87          1
    89          1
    91         75
    92         33
    93         36
    94         16
    95         12
    96          0
    97          0
    98          0
    99          0
   101          3
   102          2
   103          2
   104          8
   105          3
   106          5
   107          1
   109          7
   110          1
   111          0
   112          0
   116          0
   119        100
   120         17
   121          1
   124          0
   129          1
   131          8
   132          5
   133          5
   134          1
   135          0
   144          2
   145          5
   146          1
   147          1
   157          0
   158          1
   159          2
   161         66
   162          7
   170          1
   171          0
   173          0
   174          2
   175          7
   176          0
   184          0
   185          0
   186          3
   187          1
   188          3
   189          0
   192          0
   198          0
   199          2
   202        344
   203        370
   204         38
   205          3
   206          0