##TITLE=Library Entry 97612
##JCAMP-DX=Revision 4.10 
##DATA TYPE=MASS SPECTRUM
##SAMPLE DESCRIPTION=Chemical Concepts
##NAMES=HP
##CAS NAME=Tin, chlorotris(1-propynyl)-
##MOLFORM=C9H9ClSn
##CAS REGISTRY NO=156486-60-1
##MP= -300
##BP= -300
##MW= 272
##$RETENTION INDEX=0
##$CONDENSED SPECTRUM=NO
##NPOINTS= 195
##XYDATA=(XY..XY) 1 
    23          0
    25          2
    26          9
    27         28
    29          4
    35          1
    36          4
    37         18
    38         28
    39        134
    40         10
    41         11
    42          3
    43          4
    44          2
    45          0
    49          0
    50         63
    51        173
    52        176
    53         26
    54          3
    55          5
    56          3
    57          2
    61          0
    62          5
    63         28
    64          2
    65         20
    66          1
    67          5
    68          0
    69          3
    70          1
    71          1
    72          0
    73          3
    74         18
    75         18
    76         30
    77        216
    78        300
    79         21
    81          3
    82          2
    83          1
    86          0
    87          0
    89          8
    90          0
    91         79
    92          6
    93          0
    95          1
    97          0
    98          0
   101          2
   102         14
   103          0
   107          0
   108          0
   109          2
   110          1
   112          9
   114          6
   115         95
   116        152
   117        999
   118        260
   119         99
   120        339
   121         13
   122         49
   123          0
   124         60
   125          1
   127          1
   128          1
   129          4
   130          0
   132          0
   133          0
   134          0
   135          0
   137          0
   139          0
   140          0
   141         17
   142         10
   143         28
   144         12
   145         39
   146          0
   147         12
   149         13
   150          4
   151        125
   152         66
   153        234
   154        110
   155        400
   156        117
   157        298
   158        125
   159        319
   160         15
   161         50
   162          9
   163         47
   164          1
   165          7
   166          4
   167         20
   168         12
   169         31
   170          9
   171         25
   172          1
   173          5
   175          5
   177          0
   178          4
   179         14
   180         15
   181         23
   182         17
   183         26
   184          2
   185          4
   186          1
   187          4
   188          0
   189          6
   190          8
   191         16
   192         12
   193         26
   194         28
   195         25
   196         33
   197         23
   198         37
   199          5
   200          6
   201          1
   202          6
   203          0
   205          0
   207          1
   209          0
   221          0
   225          0
   227          0
   228          3
   229         25
   230         18
   231         48
   232         47
   233         98
   234         61
   235         81
   236         69
   237         71
   238         13
   239         12
   240          9
   241         10
   242          0
   246          0
   247          0
   249          1
   251          0
   253         14
   254          7
   255         25
   256         13
   257         37
   258          6
   259         14
   260          2
   261          7
   262          0
   263          1
   268          1
   269          0
   270          4
   271          4
   272          6
   273          5
   274          3
   275          5
   276          0
   277          0
   279          0