##TITLE=Library Entry 83517
##JCAMP-DX=Revision 4.10 
##DATA TYPE=MASS SPECTRUM
##SAMPLE DESCRIPTION=Chemical Concepts
##NAMES=HP
##CAS NAME=1,3-Oxathiolan-5-one, 2-phenyl-
##MOLFORM=C9H8O2S
##CAS REGISTRY NO=1564-43-8
##MP= -300
##BP= -300
##MW= 180
##$RETENTION INDEX=0
##$CONDENSED SPECTRUM=NO
##NPOINTS= 82
##XYDATA=(XY..XY) 1 
    26          4
    27         15
    29         16
    30          1
    31          6
    33          1
    34          1
    37          6
    38         14
    39         37
    40          3
    41          3
    42         18
    43          8
    44         18
    45         58
    46        171
    47         21
    48          7
    49          6
    50         63
    51        143
    52         30
    53          3
    55          2
    56          2
    57          2
    59          2
    60          1
    61          9
    63         33
    64          9
    66          4
    67          3
    68          1
    69          9
    72          0
    73          5
    74         36
    75         17
    76         17
    77        290
    78         64
    79        258
    80         15
    82          1
    83          0
    84          1
    85          1
    86          3
    87          5
    88          1
    89         26
    90         11
    91         51
    92          4
    94          0
    95          1
    99          2
   102          3
   103          9
   104         12
   105        269
   106         46
   107        999
   108         71
   109          5
   110          2
   121         23
   122         11
   123          4
   134          6
   135         55
   136         26
   137          4
   138          0
   141          1
   145          1
   164          0
   180        173
   181         17
   182          8