##TITLE=Library Entry 79464
##JCAMP-DX=Revision 4.10 
##DATA TYPE=MASS SPECTRUM
##SAMPLE DESCRIPTION=Japan AIST/NIMC Database- Spectrum MS-NW-2003
##NAMES=HP
##CAS NAME=5-Benzamidovaleric acid
##MOLFORM=C12H15NO3
##CAS REGISTRY NO=15647-47-9
##MP= -300
##BP= -300
##MW= 221
##$RETENTION INDEX=0
##$CONDENSED SPECTRUM=NO
##NPOINTS= 112
##XYDATA=(XY..XY) 1 
    14          1
    15          4
    17          9
    18         31
    26          9
    27         35
    28         24
    29         15
    30         25
    31          2
    37          4
    38          7
    39         31
    40          5
    41         43
    42         23
    43         15
    44          8
    45          9
    49          2
    50         35
    51         92
    52         13
    53          8
    54          9
    55         25
    56         19
    57          3
    58          3
    59          1
    60          3
    61          1
    62          1
    63          4
    64          2
    65          4
    66          1
    67          1
    68          2
    69          2
    70         13
    71          3
    72          1
    73          2
    74          8
    75         10
    76         43
    77        314
    78         28
    79          6
    80          1
    81          2
    82          6
    83          1
    85          1
    90          1
    91          3
    92          1
    93          2
    94          3
    97          2
    98         24
    99         20
   100          7
   102          2
   103        102
   104         18
   105        999
   106         80
   107          5
   115          1
   116         43
   117          4
   118          2
   119         15
   120          3
   121         10
   122         41
   123          3
   129          1
   130          2
   131          1
   132          1
   134         70
   135         65
   136          6
   138          3
   139          2
   144          1
   146          7
   147         14
   148         44
   149          9
   156          2
   157          1
   158          4
   159          4
   160          1
   162        161
   163         18
   164          1
   174          4
   175         43
   176          9
   177          1
   185          2
   202         15
   203         34
   204          5
   220          4
   221         62
   222          8