##TITLE=Library Entry 5396
##JCAMP-DX=Revision 4.10 
##DATA TYPE=MASS SPECTRUM
##SAMPLE DESCRIPTION=Humboldt-Universitat zu Berlin, Department of Chemistry
, Analytical Group
##NAMES=HP
##CAS NAME=N,N-Diethyl-2-(4-chlorophenyl)-3-morpholino- thioacrylamide
##MOLFORM=C17H23ClN2OS
##CAS REGISTRY NO=156483-12-4
##MP= -300
##BP= -300
##MW= 338
##$RETENTION INDEX=0
##$CONDENSED SPECTRUM=NO
##NPOINTS= 255
##XYDATA=(XY..XY) 1 
    30        448
    31        159
    32         30
    33         11
    34         11
    35         46
    36         19
    37         12
    38         22
    39        122
    40         56
    41        469
    42        999
    43        334
    44        452
    45        670
    46         47
    47         44
    48          4
    49         13
    50         66
    51         99
    52         68
    54        293
    55        224
    56        633
    57        168
    58        125
    59        125
    60        438
    61        147
    62         48
    63         80
    64         18
    65         28
    66         18
    67         32
    68         49
    69        126
    70        142
    71         59
    72        266
    73         55
    74         58
    75        155
    76         51
    77         72
    78         31
    79         20
    80         29
    81         18
    82         37
    83         17
    84         50
    85         60
    86        217
    87         76
    88        186
    89        159
    90         40
    91         21
    92         29
    93         40
    94         41
    95         17
    96         18
    97         19
    98         66
    99         61
   100        189
   101        232
   102        186
   103         69
   104         15
   105         11
   106         12
   107         12
   108         24
   109         16
   110         29
   111         57
   112         47
   113         55
   114        129
   115        218
   116        150
   117         48
   118         15
   119         15
   120         23
   121         20
   123        107
   124         36
   125        170
   126         87
   127        169
   128        182
   129         86
   130        110
   131         33
   132         36
   133         63
   134         87
   136        139
   137        144
   138        105
   139         86
   140         62
   141         65
   142         63
   143         69
   144         39
   145         61
   146         55
   147         87
   148         38
   149        186
   150         73
   151        119
   152         58
   153         43
   154         74
   155        234
   156        115
   157         73
   158         38
   159         47
   160         67
   161         34
   162         64
   163         48
   164        106
   165         43
   166         49
   167         66
   168        106
   169        180
   170         52
   171         29
   172         48
   173         72
   174         66
   175         31
   176         38
   177         58
   178         41
   179         47
   181        122
   182         95
   183         61
   184         52
   185         20
   186         37
   187         43
   188         35
   189         45
   190         68
   191         61
   192         61
   193         34
   194         51
   195         30
   196         39
   197         23
   198         20
   199         21
   200         16
   201         20
   202         27
   203         46
   204         91
   205         67
   206         48
   207         37
   208         52
   209         24
   210         25
   211         12
   212          7
   213          5
   214          8
   215         19
   216         23
   217         30
   218        113
   219        867
   220        191
   221        303
   222         94
   223         29
   224         25
   225         12
   226          6
   227          3
   228          4
   229          7
   230          5
   232         49
   233         41
   234         80
   235         25
   236         29
   237         11
   238         45
   239          9
   240         17
   241          5
   242          2
   243          3
   244          1
   245          3
   246          4
   247          8
   248          8
   249          9
   250         20
   252        651
   253        135
   254        226
   255         43
   256         13
   257          2
   258          1
   259          6
   260          4
   261          4
   262          2
   263          2
   264          3
   266         33
   267          6
   268         12
   269          2
   270          3
   275          2
   276          3
   277          4
   278          2
   279          1
   281          1
   291          1
   293          1
   305        135
   306         26
   307         43
   308          8
   309          2
   311          1
   319          3
   321          1
   338         70
   339         19
   340         27
   341          7
   342          2