##TITLE=Library Entry 68597
##JCAMP-DX=Revision 4.10 
##DATA TYPE=MASS SPECTRUM
##SAMPLE DESCRIPTION=Humboldt-Universitat zu Berlin, Department of Chemistry
, Analytical Group
##NAMES=HP
##CAS NAME=Piperazine, N-(2-furoyl)-N'-[(4-chlorophenyl)thioacetyl]-
##MOLFORM=C17H17ClN2O2S
##CAS REGISTRY NO=156483-21-5
##MP= -300
##BP= -300
##MW= 348
##$RETENTION INDEX=0
##$CONDENSED SPECTRUM=NO
##NPOINTS= 270
##XYDATA=(XY..XY) 1 
    12          1
    14          1
    15         13
    16          2
    17          6
    18         23
    26          4
    27         23
    28         68
    29         27
    30         22
    31          1
    32          2
    35          1
    36          3
    37          6
    38         26
    39        150
    40         10
    41         32
    42         69
    43         18
    44         31
    45         15
    46          2
    47          4
    49          1
    50          7
    51         19
    52          5
    53         11
    54         26
    55         32
    56         96
    57         17
    58         19
    59         12
    60         11
    61          6
    62          5
    63         25
    64          6
    65          9
    66          9
    67         49
    68         25
    69         97
    70         35
    71          8
    72         13
    73          9
    74          6
    75         16
    76          3
    77          9
    78          3
    79          3
    80          7
    81         41
    82         20
    83         17
    84         17
    85         43
    86         26
    87          5
    88         10
    89         87
    90         27
    91         11
    92          3
    93          8
    95        999
    96         60
    97         11
    98          8
    99         22
   100          7
   101         17
   102         15
   103          8
   104          2
   105          1
   106          4
   107         10
   108         11
   109         16
   110         14
   111         25
   112         19
   113          7
   114          4
   115          7
   116          7
   117          4
   118          2
   119          4
   120          4
   121          6
   122         16
   123         22
   124         14
   125        209
   126         25
   127         66
   128         12
   129          6
   130          6
   131          2
   132          4
   133         33
   134         89
   135         34
   136         35
   137         26
   138         75
   139         18
   140         12
   141          6
   142          2
   143          3
   144          1
   145          1
   146          2
   147          2
   148          8
   149          7
   150         26
   151         11
   152         21
   153          6
   154          5
   155          8
   157         10
   158          1
   159          1
   160          2
   161          2
   162          6
   163         63
   164        104
   165         17
   166          5
   168         76
   169         24
   170         31
   171         10
   172          3
   173          2
   174          4
   175          3
   176          6
   177          4
   178         33
   179         20
   180         32
   181         76
   182         11
   183          2
   184          2
   185          2
   186         12
   187          2
   188          7
   189          2
   190          1
   191          2
   192          2
   193          2
   194          1
   195          8
   196          4
   197          3
   198          3
   199          1
   200          1
   202          0
   203          1
   204          1
   205          6
   206          2
   207         18
   208          4
   209          3
   210         22
   211         16
   212         33
   213          9
   214         10
   215          1
   217          1
   218          1
   219          3
   220          3
   221          4
   223         96
   224         16
   225          7
   226          1
   236          1
   237          2
   238          2
   239          2
   240          1
   241          1
   242          0
   245          0
   247          0
   248          0
   249          0
   250          0
   251          0
   252          0
   253          4
   254          0
   255          1
   256          0
   257          0
   260          0
   261          0
   262          0
   263          0
   264          0
   265          0
   266          0
   270          0
   274          0
   275          0
   276          1
   277          1
   278          0
   279          0
   280          1
   281          0
   282          0
   283          0
   287          1
   288          0
   289          0
   290          0
   292          0
   294          0
   296          0
   297          0
   301          0
   302          0
   303          0
   304          0
   305          1
   306          0
   307          0
   313          0
   315         10
   316          2
   317          3
   318          0
   319          0
   320          0
   321          0
   330          0
   332          4
   333          1
   334          1
   335          0
   346          0
   348         65
   349         14
   350         25
   351          5
   352          1
   353          0