##TITLE=Library Entry 1131
##JCAMP-DX=Revision 4.10 
##DATA TYPE=MASS SPECTRUM
##SAMPLE DESCRIPTION=Japan AIST/NIMC Database- Spectrum MS-IW- 903
##NAMES=HP
##CAS NAME=Cyclohexanol, 3-(aminomethyl)-3,5,5-trimethyl-
##MOLFORM=C10H21NO
##CAS REGISTRY NO=15647-11-7
##MP= -300
##BP= -300
##MW= 171
##$RETENTION INDEX=0
##$CONDENSED SPECTRUM=NO
##NPOINTS= 128
##XYDATA=(XY..XY) 1 
    12          2
    14          4
    15          4
    16          2
    17         36
    18         91
    19          2
    22          5
    26          1
    27         35
    28        260
    29         95
    30        999
    31         75
    32         54
    33          1
    38          1
    39         52
    40          9
    41        218
    42         22
    43        179
    44        407
    45         13
    46          4
    48         12
    50          2
    51          6
    52          3
    53         35
    54         12
    55        244
    56         81
    57        270
    58         17
    59         10
    60          2
    63          2
    65         13
    66          7
    67        172
    68        522
    69        190
    70         68
    71         39
    72         10
    73          2
    75          1
    77         19
    78          5
    79         52
    80         28
    81        343
    82        373
    83        117
    84         71
    85         65
    86          8
    87          1
    89          1
    90          1
    91         32
    92         14
    93         89
    94         32
    95        117
    96         87
    97         81
    98         18
    99          6
   100          7
   103          1
   104          1
   105         13
   106          5
   107        178
   108         26
   109        502
   110         55
   111         11
   112          9
   113          2
   114          1
   115          5
   117          1
   118          2
   119         12
   120          2
   121        137
   122        254
   123        322
   124        306
   125        207
   126         32
   127          3
   131          1
   133          1
   134          2
   135          4
   136         58
   137         13
   138         58
   139         74
   140         42
   141          8
   142          1
   146          1
   147          4
   148          2
   149          8
   150          3
   151          1
   152          6
   153         26
   154         11
   155          1
   156         10
   157          1
   162          1
   164          1
   165          2
   166          1
   167          5
   168          1
   170          1
   171         22
   172         13
   173          1