##TITLE=Library Entry 31775
##JCAMP-DX=Revision 4.10 
##DATA TYPE=MASS SPECTRUM
##SAMPLE DESCRIPTION=Dennis Rohrbaugh, CBDCOM/ERDEC, Edgewood, MD
##NAMES=HP
##CAS NAME=1,5-Bis(trifluoromethyl)pentasulfide
##MOLFORM=C2F6S5
##CAS REGISTRY NO=156412-87-2
##MP= -300
##BP= -300
##MW= 298
##$RETENTION INDEX=0
##$CONDENSED SPECTRUM=NO
##NPOINTS= 22
##XYDATA=(XY..XY) 1 
    47          6
    50         20
    51         11
    64        999
    66        114
    67          2
    69        665
    70          6
    82         50
    83         27
    96         66
    98          6
   100          4
   101         40
   133        109
   135          4
   165        144
   167         17
   197         56
   199          4
   298         39
   300          9