##TITLE=Library Entry 49152
##JCAMP-DX=Revision 4.10 
##DATA TYPE=MASS SPECTRUM
##SAMPLE DESCRIPTION=NIST Mass Spectrometry Data Center, 1994
##NAMES=HP
##CAS NAME=(R)-(+)-1-Phenyl-1-propanol
##MOLFORM=C9H12O
##CAS REGISTRY NO=1565-74-8
##MP= -300
##BP= -300
##MW= 136
##$RETENTION INDEX=0
##$CONDENSED SPECTRUM=NO
##NPOINTS= 71
##XYDATA=(XY..XY) 1 
    14          4
    15         19
    18          3
    19          2
    25          1
    26         27
    27        140
    28         23
    29        141
    30          6
    31         24
    37          4
    38         19
    39         94
    40          8
    41         19
    42          4
    43         33
    44          1
    49          4
    50         90
    51        226
    52         57
    53         41
    54          3
    55         12
    56          1
    57         41
    61          4
    62         17
    63         44
    64          8
    65         30
    66          5
    67          1
    73          3
    74         20
    75         17
    76          1
    77        506
    78        110
    79        999
    80         66
    81          2
    85          1
    86          4
    87          3
    89         16
    90          5
    91         54
    92          5
    93          2
   101          1
   102          5
   103         15
   104          1
   105         86
   106          1
   107        946
   108         74
   109          4
   115         20
   116          4
   117         16
   118          5
   119          3
   120          1
   133          1
   134          2
   136        111
   137         10