##TITLE=Library Entry 2067
##JCAMP-DX=Revision 4.10 
##DATA TYPE=MASS SPECTRUM
##SAMPLE DESCRIPTION=Chuck Anderson, Aldrich Chemical Co.
##NAMES=HP
##CAS NAME=1-Butanol, 2-methyl-, (S)-
##MOLFORM=C5H12O
##CAS REGISTRY NO=1565-80-6
##MP= -300
##BP= -300
##MW= 88
##$RETENTION INDEX=0
##$CONDENSED SPECTRUM=NO
##NPOINTS= 47
##XYDATA=(XY..XY) 1 
    14          2
    15         24
    16          1
    18          2
    19          7
    20          0
    25          1
    26         30
    27        246
    28         70
    29        847
    30         26
    31        410
    32          7
    33         15
    36          1
    37          6
    38         16
    39        201
    40         31
    41        999
    42        132
    43        138
    44          8
    45         77
    46          1
    49          1
    50         10
    51         14
    52          3
    53         26
    54          6
    55        203
    56        716
    57        654
    58         31
    59         22
    60          3
    65          0
    67          1
    68          0
    69         25
    70        310
    71         20
    72          0
    87          0
    88          0