##TITLE=Library Entry 23601
##JCAMP-DX=Revision 4.10 
##DATA TYPE=MASS SPECTRUM
##SAMPLE DESCRIPTION=LAC, NIDDK, NIH, Bethesda, MD 20892
##NAMES=HP
##CAS NAME=3-Azanonanedioic acid, N-trifluoroacetyl-8-trifluoroacetamido-, d
ibutyl(ester)
##MOLFORM=C20H30F6N2O6
##CAS REGISTRY NO=156549-52-9
##MP= -300
##BP= -300
##MW= 508
##$RETENTION INDEX=0
##$CONDENSED SPECTRUM=NO
##NPOINTS= 195
##XYDATA=(XY..XY) 1 
    41        762
    43        106
    44        110
    45         32
    46          2
    47          2
    48          0
    50         11
    51         13
    53         24
    55        223
    57        999
    58          3
    60         61
    61         19
    63          3
    65         13
    66         38
    67        273
    69        180
    70         48
    71         20
    72         18
    73          6
    74          3
    75          1
    76          4
    78         19
    79         22
    80         16
    82         67
    83         38
    84         41
    85         42
    86          9
    87          6
    88          9
    90          4
    91          7
    92          4
    94         26
    95         19
    96         40
    97         19
    98         15
    99          6
   100          4
   101          8
   102          1
   104          4
   105          1
   106          3
   107          1
   108          3
   110         21
   111         24
   112         14
   113         13
   114         17
   115          3
   116          2
   117          1
   118          1
   119          2
   121          1
   122          4
   123          4
   124         10
   126         72
   127         16
   128          1
   129          1
   130          1
   132          8
   133          2
   135          1
   136          1
   138         10
   140        237
   141         20
   142          6
   144          7
   145          1
   148          2
   149          1
   150          4
   152         57
   153         19
   154         13
   156         15
   157          4
   158          1
   160          1
   161          1
   162          4
   164          8
   165          1
   166         26
   167          8
   168         12
   170         15
   171         17
   172          7
   173          1
   175          1
   176          1
   178        129
   179          5
   180        187
   181         22
   182          2
   184         58
   185          4
   190          2
   191          2
   192        137
   193         34
   194          6
   195          4
   196          4
   198          8
   200          1
   206         48
   207         12
   208         21
   209         56
   210          8
   211          1
   212          1
   219          7
   220          4
   224         29
   225          1
   226          9
   227         12
   228          1
   235          4
   236          1
   237         22
   238          4
   239          0
   240          2
   251          2
   252          0
   253          2
   255          6
   263          2
   264          5
   265          3
   266          0
   280         24
   281          6
   282          8
   283          0
   291          1
   293         18
   294          3
   297          1
   303          1
   305         26
   306          4
   307          1
   309          4
   311          6
   319          5
   329          2
   331          4
   332          8
   333         30
   334          7
   335          0
   337          5
   338          1
   351         12
   352          1
   359          0
   360         38
   361          5
   365          4
   378         30
   379          5
   389          2
   395          2
   407         16
   408          3
   409          3
   411          9
   412          0
   416          2
   434         53
   435         12
   436          2
   439          3
   508         12
   509          3