##TITLE=Library Entry 23828
##JCAMP-DX=Revision 4.10 
##DATA TYPE=MASS SPECTRUM
##SAMPLE DESCRIPTION=LAC, NIDDK, NIH, Bethesda, MD 20892
##NAMES=HP
##CAS NAME=3-Azaoctanedioic iacid, N-trifluoroacetyl-7-trifluoroacetamido-,
 dibutyl(ester)
##MOLFORM=C19H28F6N2O6
##CAS REGISTRY NO=156549-53-0
##MP= -300
##BP= -300
##MW= 494
##$RETENTION INDEX=0
##$CONDENSED SPECTRUM=NO
##NPOINTS= 231
##XYDATA=(XY..XY) 1 
    41        917
    43        196
    45        306
    47         12
    48          2
    50         64
    51        116
    53         73
    55        283
    56        425
    57        999
    58         19
    60         97
    61         31
    63          5
    64          2
    65          7
    66         17
    67         31
    69        468
    70        151
    71        271
    72          5
    73         11
    74          6
    75          2
    76          5
    78         40
    80         29
    81         29
    82         53
    83         23
    84         26
    85          8
    86         14
    87         14
    88          8
    89          5
    91         25
    92          8
    93          8
    94         17
    95         12
    96         76
    97         39
    98         50
    99         57
   100          9
   101         15
   102          4
   103          2
   104          4
   105          3
   106          4
   107          4
   108          5
   110         35
   112         12
   114         49
   115          6
   116          5
   117          1
   118          4
   119          2
   120          2
   121          2
   122          4
   123          2
   124          7
   126        104
   128         43
   129          8
   130          3
   132         28
   133          3
   134          4
   135          2
   136          5
   137          0
   138         18
   139         54
   140        127
   141         14
   142          7
   144          6
   145          0
   146          4
   148         18
   149          9
   150         14
   152         71
   153         35
   154         28
   156         30
   157         13
   158          2
   159          1
   160          0
   161          2
   164        145
   166        533
   167         88
   170        106
   171         16
   172          8
   173          2
   174          1
   176          9
   178        114
   179         97
   180         21
   181         13
   182          6
   184         82
   185          4
   186          1
   187          0
   190          0
   192         44
   193         25
   195        254
   196         45
   198         28
   199          3
   200          1
   203          2
   205          4
   206          4
   207          2
   208          1
   210        151
   212         58
   213          3
   219          0
   221          8
   223         84
   224         28
   225          6
   226          3
   227          4
   228          2
   230          1
   231          0
   233          2
   234          0
   235          0
   237          3
   238          3
   239          3
   240          4
   241          8
   242          0
   245          0
   248         10
   249          5
   251         13
   252         29
   253          6
   255         12
   256          0
   259          0
   260          0
   261          0
   262          8
   263          2
   264          0
   266        207
   267         65
   268         22
   269          7
   270          0
   273          1
   275          7
   277          2
   279         27
   280          6
   281          1
   283          2
   289          0
   291         98
   293         35
   294          6
   295          1
   297          8
   298          0
   302          2
   303          0
   305          2
   307          9
   308          1
   309          1
   315          4
   317          5
   319         93
   320         11
   321          1
   323          4
   325          4
   327          0
   333          2
   335          2
   337         35
   338          3
   341          3
   345          1
   346         16
   347          1
   351          4
   355          1
   363          5
   364         15
   365          4
   375         48
   376          6
   377          1
   378          0
   379          2
   381          6
   393         63
   394          7
   395          1
   397         23
   398          1
   402          2
   420         43
   421         12
   422          1
   425          6
   494          6
   495          6
   496          0