##TITLE=Library Entry 30083
##JCAMP-DX=Revision 4.10 
##DATA TYPE=MASS SPECTRUM
##SAMPLE DESCRIPTION=Japan AIST/NIMC Database- Spectrum MS-NW-5194
##NAMES=HP
##CAS NAME=3-Decanol
##MOLFORM=C10H22O
##CAS REGISTRY NO=1565-81-7
##MP= -300
##BP= -300
##MW= 158
##$RETENTION INDEX=1188
##$CONDENSED SPECTRUM=NO
##NPOINTS= 68
##XYDATA=(XY..XY) 1 
    15          5
    17          1
    18          4
    26          5
    27         82
    28         18
    29        134
    30          7
    31        151
    32          2
    38          1
    39         51
    40          9
    41        239
    42         50
    43        187
    44         22
    45         17
    51          3
    52          1
    53         12
    54          9
    55        310
    56         71
    57         88
    58         90
    59        999
    60         35
    61          3
    65          2
    66          2
    67         16
    68          9
    69        684
    70         64
    71         16
    72          9
    73          4
    77          1
    79          2
    81          7
    82          9
    83         58
    84         21
    85         11
    86          1
    87          1
    95          2
    96          2
    97         13
    98         10
    99          2
   100          2
   101          1
   109          1
   110          4
   111        154
   112         18
   113          1
   127          3
   128          3
   129        146
   130         13
   131          1
   140         15
   141          2
   156          1
   157          3