##TITLE=Library Entry 97561
##JCAMP-DX=Revision 4.10 
##DATA TYPE=MASS SPECTRUM
##SAMPLE DESCRIPTION=NIST Mass Spectrometry Data Center, 1990.
##NAMES=HP
##CAS NAME=3-Phenyl-3-pentanol
##MOLFORM=C11H16O
##CAS REGISTRY NO=1565-71-5
##MP= -300
##BP= -300
##MW= 164
##$RETENTION INDEX=0
##$CONDENSED SPECTRUM=NO
##NPOINTS= 70
##XYDATA=(XY..XY) 1 
    14         11
    26         13
    27         96
    28         63
    29        153
    31          7
    32         15
    38         15
    39        115
    40         19
    41         52
    42          7
    43         79
    45         15
    50         75
    51        215
    52         44
    53         62
    54         15
    55         36
    56          7
    57        744
    58         36
    62         32
    63        101
    64         47
    65        132
    66         17
    67         54
    68         33
    69          8
    71          8
    74         30
    75         36
    76         50
    77        317
    78        116
    79         60
    86         10
    87         16
    88          8
    89         66
    90          8
    91        498
    92         40
    93         17
   102         55
   103         60
   104         36
   105        126
   106         11
   113          9
   115        487
   116        163
   117        999
   118        104
   119          7
   127         27
   128         69
   129         79
   130         30
   131        169
   132         19
   133         15
   134          7
   135        824
   136         78
   145         57
   146        458
   147         55