##TITLE=Library Entry 330
##JCAMP-DX=Revision 4.10 
##DATA TYPE=MASS SPECTRUM
##SAMPLE DESCRIPTION=Chemical Concepts
##NAMES=HP
##CAS NAME=.mu.<3>-Methylidyne-tricobalt nonacarbonyl
##MOLFORM=C10HCo3O9
##CAS REGISTRY NO=15664-75-2
##MP= -300
##BP= -300
##MW= 442
##$RETENTION INDEX=0
##$CONDENSED SPECTRUM=NO
##NPOINTS= 123
##XYDATA=(XY..XY) 1 
    25          0
    26          1
    27         12
    28        999
    29         24
    30          5
    31          1
    36          0
    38          0
    39          9
    41         18
    42         11
    43         16
    44          1
    45          0
    46          0
    50          0
    51          1
    52          0
    53          2
    54          1
    55          7
    56         11
    57          8
    58          0
    59        153
    60          2
    65          0
    66          0
    67          0
    68          0
    69          2
    70          3
    71         24
    72         19
    73          0
    75          0
    76          0
    77          0
    78          0
    79          0
    81          0
    83          1
    84          2
    85          0
    86          0
    87         92
    88          1
    90          0
    91          0
    93          0
    95          1
    98          0
    99          0
   100          0
   109          3
   115         27
   116          0
   118         37
   119          1
   123          5
   130        105
   131        159
   132          2
   133          0
   134          1
   137          7
   142         11
   143          9
   146          0
   151          4
   158          1
   159         14
   165          1
   176          0
   177          1
   179          0
   186          0
   187          6
   189         58
   190        238
   191          2
   193          4
   201          2
   202          1
   207          3
   215          4
   216          0
   217          6
   218        149
   219          3
   220          0
   243          2
   245          2
   246        177
   247          5
   248          0
   260          0
   271          0
   273          0
   274        162
   275          7
   276          1
   292          0
   302        293
   303         16
   304          2
   316          0
   330        188
   331         12
   332          2
   358         36
   359          2
   360          0
   386         44
   387          4
   388          0
   414        122
   415         12
   416          2
   442         74
   443          8
   444          2