##TITLE=Library Entry 30459
##JCAMP-DX=Revision 4.10 
##DATA TYPE=MASS SPECTRUM
##SAMPLE DESCRIPTION=Exported from NIST MS Search
##NAMES=HP
##CAS NAME=Cobalt, hexacarbonyl[.mu.-(3,3,3-trifluoropropyne)]di-, (Co-Co)
##MOLFORM=C9HCo2F3O6
##CAS REGISTRY NO=15663-90-8
##MP= -300
##BP= -300
##MW= 380
##$RETENTION INDEX=0
##$CONDENSED SPECTRUM=NO
##NPOINTS= 35
##XYDATA=(XY..XY) 1 
    59        999
    75        130
    78        160
    84        130
    87        480
    95        130
   114        280
   115        999
   118        400
   133        150
   134        100
   143        240
   145        120
   162        150
   164         50
   171         70
   174        100
   193         70
   202         80
   211        100
   212        999
   221         40
   230         30
   240        999
   249         30
   268        230
   277         30
   286         20
   296        280
   305         80
   324        200
   333         50
   352        679
   361         10
   380         70