##TITLE=Library Entry 9648
##JCAMP-DX=Revision 4.10 
##DATA TYPE=MASS SPECTRUM
##SAMPLE DESCRIPTION=Japan AIST/NIMC Database- Spectrum MS-IW-4022
##NAMES=HP
##CAS NAME=2-Acetoxy-3-butenenitrile
##MOLFORM=C6H7NO2
##CAS REGISTRY NO=15667-63-7
##MP= -300
##BP= -300
##MW= 125
##$RETENTION INDEX=0
##$CONDENSED SPECTRUM=NO
##NPOINTS= 43
##XYDATA=(XY..XY) 1 
    13          1
    14          7
    15         57
    25          1
    26         14
    27         45
    28         54
    29          9
    37         25
    38         46
    39        144
    40         41
    41          7
    42         36
    43        999
    44         45
    45          7
    50          1
    51          3
    52          4
    53          3
    54         41
    55        135
    56         26
    57         12
    61         17
    62          1
    63          7
    64         36
    65         50
    66        215
    67         11
    68          1
    70          2
    71          2
    82         13
    83        493
    84         24
    85          2
    98          3
    99          2
   110          4
   126          1