##TITLE=Library Entry 35926
##JCAMP-DX=Revision 4.10 
##DATA TYPE=MASS SPECTRUM
##SAMPLE DESCRIPTION=ASES Database, Dalian Institute, P.R. China
##NAMES=HP
##CAS NAME=3-Methylthio-6-phenyl-5-oxo-4,5-dihydro-1,2,4-triazine
##MOLFORM=C10H9N3OS
##CAS REGISTRY NO=1566-37-6
##MP= -300
##BP= -300
##MW= 219
##$RETENTION INDEX=0
##$CONDENSED SPECTRUM=NO
##NPOINTS= 21
##XYDATA=(XY..XY) 1 
    43        188
    45        121
    46         99
    47        128
    48        382
    50        120
    51        129
    63        208
    69        999
    74        248
    76        199
    77        251
    89        270
    90        110
    91         70
   103        331
   104        949
   116        201
   118        128
   172        129
   219        351