##TITLE=Library Entry 35366
##JCAMP-DX=Revision 4.10 
##DATA TYPE=MASS SPECTRUM
##SAMPLE DESCRIPTION=Dennis Rohrbaugh, CBDCOM/ERDEC, Edgewood, MD
##NAMES=HP
##CAS NAME=Methyl chloride, tris(trifluoromethylthio)-
##MOLFORM=C4ClF9S3
##CAS REGISTRY NO=156777-70-7
##MP= -300
##BP= -300
##MW= 350
##$RETENTION INDEX=0
##$CONDENSED SPECTRUM=NO
##NPOINTS= 36
##XYDATA=(XY..XY) 1 
    43         24
    47         47
    48         36
    50         17
    63         46
    64         18
    69        999
    76        239
    78         22
    79        293
    81        143
    82         30
    91         76
    92         13
    93         24
    94         11
   101         38
   108         11
   111         13
   127         91
   129        112
   131         36
   145        208
   147         22
   151          3
   158          7
   160         14
   162          7
   177          7
   180         20
   182          8
   249        274
   251        120
   253         10
   315         34
   317          3