##TITLE=Library Entry 71371
##JCAMP-DX=Revision 4.10 
##DATA TYPE=MASS SPECTRUM
##SAMPLE DESCRIPTION=Patti Price, Georgia Bureau of Investigation, Decatur,
 Georgia
##NAMES=HP
##CAS NAME=Sulpiride
##MOLFORM=C15H23N3O4S
##CAS REGISTRY NO=15676-16-1
##MP= -300
##BP= -300
##MW= 341
##$RETENTION INDEX=3074
##$CONDENSED SPECTRUM=NO
##NPOINTS= 54
##XYDATA=(XY..XY) 1 
    41          3
    43          9
    44         10
    52          1
    53          2
    54          4
    55          9
    56          9
    57          1
    62          1
    63          4
    64          4
    65          1
    67          1
    68         12
    69          7
    70         39
    71          1
    72          1
    73          2
    75          7
    76          9
    77          4
    78          6
    79          2
    80          2
    81          1
    82          4
    83          4
    84          3
    86          1
    91          1
    92          2
    93          1
    96         17
    97          8
    98        999
    99         68
   100          1
   107          1
   108          2
   109          1
   110          1
   111         11
   112          1
   133          1
   134          4
   135          1
   199          3
   200          1
   207          3
   214         18
   215          1
   341          1