##TITLE=Library Entry 31077
##JCAMP-DX=Revision 4.10 
##DATA TYPE=MASS SPECTRUM
##SAMPLE DESCRIPTION=Div. of Experiment Therapeutics WRAIR, WRAMC, Washingto
n DC 20307
##NAMES=HP
##CAS NAME=1-p-Bromophenyl-3-[2-thiazolin-2-yl]urea
##MOLFORM=C10H10BrN3OS
##CAS REGISTRY NO=156759-32-9
##MP= -300
##BP= -300
##MW= 299
##$RETENTION INDEX=0
##$CONDENSED SPECTRUM=NO
##NPOINTS= 97
##XYDATA=(XY..XY) 1 
    41         31
    42         67
    43         92
    44         33
    45        108
    46         50
    47         28
    48         17
    49         19
    50         56
    51         25
    52         21
    53          7
    54         16
    55        266
    56         83
    57          9
    58         28
    59        168
    60        999
    61        133
    62         83
    63        169
    64         95
    65         68
    66          7
    68          5
    69        125
    70         73
    71          4
    72          2
    73         13
    74         39
    75         66
    76         56
    77          8
    78          2
    82         11
    84         10
    86        184
    87         10
    88         16
    89          7
    90        138
    91        107
    92         68
    93          8
    95          4
    99          2
   100          8
   101         82
   102        931
   103         85
   104         43
   105          6
   106          2
   110         69
   117         13
   118          8
   119         17
   127         10
   129        835
   130         48
   131         43
   132          4
   143         23
   144          2
   145         22
   150          5
   155         25
   156          0
   157         26
   159         12
   160          5
   169         40
   170         57
   171        975
   172        112
   173        970
   174         59
   175          0
   197        179
   198         20
   199        171
   200         17
   219          4
   220        158
   221         19
   222          8
   257          4
   259          4
   299        228
   300         60
   301        230
   302         55
   303         14
   304          2