##TITLE=Library Entry 107559
##JCAMP-DX=Revision 4.10 
##DATA TYPE=MASS SPECTRUM
##SAMPLE DESCRIPTION=Chemical Concepts
##NAMES=HP
##CAS NAME=Benzamide, N-(2-acetyl-4-methoxyphenyl)-4-fluoro-
##MOLFORM=C16H14FNO3
##CAS REGISTRY NO=156785-64-7
##MP= -300
##BP= -300
##MW= 287
##$RETENTION INDEX=0
##$CONDENSED SPECTRUM=NO
##NPOINTS= 152
##XYDATA=(XY..XY) 1 
    26          1
    27          3
    28          1
    29          1
    30          0
    31          0
    37          0
    38          1
    39          8
    41          3
    42          1
    43         48
    44          1
    45          1
    49          0
    50          8
    51         14
    52         15
    53          7
    54          1
    55          1
    56          0
    57          1
    59          0
    61          0
    62          2
    63          9
    64          3
    65          8
    66          4
    67          1
    68          2
    69          6
    70          1
    73          0
    74          2
    75         54
    76          6
    77          7
    78          6
    79         10
    80          6
    81          1
    82          0
    83          0
    84          0
    87          0
    88          0
    89          0
    90          1
    91          2
    92          2
    93         14
    94         12
    95        349
    96         22
    97          0
    99          0
   102          0
   103          0
   104          2
   105          1
   106         14
   107          4
   108          1
   109          1
   114          0
   115          0
   117          0
   118          0
   119          0
   120          3
   121          6
   122          5
   123        999
   124         73
   125          4
   126          0
   131          0
   132          1
   133          2
   134          1
   135          1
   136          8
   137          1
   139          0
   144          0
   145          0
   146          1
   147          1
   148          1
   149          4
   150          3
   151          2
   152          0
   157          0
   158          0
   162          0
   163          0
   164         18
   165          2
   166          9
   167          0
   168          0
   170          0
   171          0
   172          1
   173          0
   174          0
   176          5
   177          0
   182          0
   184          0
   185          0
   186          0
   192          1
   198          0
   199          0
   200          1
   201          1
   202          0
   213          0
   214          0
   215          0
   218          0
   226          0
   228          1
   229          2
   230          0
   242          0
   243          0
   244        167
   245         25
   246          2
   247          0
   248          0
   256          0
   257          0
   260          0
   268          0
   269          0
   270          8
   271          1
   272         41
   273          7
   274          0
   286          0
   287        375
   288         63
   289          5
   290          0
   291          0