##TITLE=Library Entry 7019
##JCAMP-DX=Revision 4.10 
##DATA TYPE=MASS SPECTRUM
##SAMPLE DESCRIPTION=Chuck Anderson, Aldrich Chemical Co.
##NAMES=HP
##CAS NAME=Methyl 1-methylcyclopropyl ketone
##MOLFORM=C6H10O
##CAS REGISTRY NO=1567-75-5
##MP= -300
##BP= -300
##MW= 98
##$RETENTION INDEX=0
##$CONDENSED SPECTRUM=NO
##NPOINTS= 54
##XYDATA=(XY..XY) 1 
    14          4
    15         31
    16          0
    25          1
    26         17
    27         93
    28         22
    29        121
    30          3
    31          1
    36          0
    37          7
    38         17
    39        135
    40         17
    41         64
    42         41
    43        999
    44         23
    45          5
    49          4
    50         23
    51         27
    52         10
    53         64
    54         21
    55        345
    56         24
    57          1
    58          2
    61          1
    62          1
    63          1
    65          2
    66          1
    67          7
    68          1
    69          8
    70          5
    71          1
    74          0
    77          2
    78          0
    79          5
    80          0
    81          0
    82          2
    83         98
    84          5
    96          2
    97         92
    98        115
    99          9
   100          0