##TITLE=Library Entry 47784
##JCAMP-DX=Revision 4.10 
##DATA TYPE=MASS SPECTRUM
##SAMPLE DESCRIPTION=Chemical Concepts
##NAMES=HP
##CAS NAME=Tellurium difluoride, phenyl propyl
##MOLFORM=C9H12F2Te
##CAS REGISTRY NO=156779-68-9
##MP= -300
##BP= -300
##MW= 288
##$RETENTION INDEX=0
##$CONDENSED SPECTRUM=NO
##NPOINTS= 244
##XYDATA=(XY..XY) 1 
    34          5
    36          1
    37          6
    38         19
    39        177
    40         21
    41        337
    42         29
    43        586
    44         19
    45          2
    46          1
    47          0
    48          0
    49          5
    50        195
    51        634
    52         44
    53          4
    54          1
    55         15
    56          5
    57         20
    58          1
    59          4
    60          1
    61          3
    62          4
    63         12
    64          2
    65         12
    66          1
    67          6
    68          4
    69         16
    70         22
    71          8
    72          1
    73          7
    74         46
    75         90
    76         89
    77        999
    78        184
    79         14
    80          2
    81          8
    82          3
    83          9
    84          2
    85          4
    86          1
    87          1
    88          1
    89          4
    90          2
    91         37
    92          4
    93          3
    94          9
    95         80
    96        580
    97         44
    98          2
    99          2
   100          0
   101          1
   102          1
   103          2
   104          3
   105          5
   106          1
   107          3
   108          1
   109          7
   110          2
   111          4
   112          1
   113          2
   114          5
   115          4
   116          1
   117          5
   118          3
   119          3
   120          3
   121          3
   122          5
   123          7
   124         10
   125         15
   126         38
   127          4
   128         66
   129          6
   130         68
   131          5
   132          1
   133          2
   134          1
   135          2
   136          1
   137          2
   138          1
   139          3
   140          1
   141          5
   142          3
   143          7
   144         10
   145         23
   146          1
   147         36
   148          3
   149         43
   150          5
   151          4
   152          1
   153          5
   154          2
   155          6
   156          1
   157          2
   158          1
   159          3
   160          1
   161          4
   162          3
   163          7
   164          5
   165          5
   166          8
   167          9
   168          8
   169          4
   170          2
   171          4
   172          2
   173          3
   174          2
   175          2
   176          2
   177          3
   178          2
   179          4
   180          2
   181          1
   182          1
   183          2
   184         13
   185          6
   186         24
   187         39
   188         97
   189          4
   190        161
   191          7
   192        172
   193          7
   194          1
   195          1
   196          0
   197          1
   198          1
   199          6
   200          5
   201         13
   202         20
   203         43
   204         16
   205         65
   206         24
   207         69
   208         17
   209          8
   210          1
   211          7
   213          0
   215          0
   216          2
   217          1
   218         52
   219         24
   220        101
   221        162
   222        395
   223         41
   224        633
   225         59
   226        689
   227         49
   228          1
   229          0
   230          4
   231          1
   232          1
   233          1
   234          0
   235          3
   236          0
   237         60
   238         24
   239        111
   240        171
   241        448
   242         31
   243        719
   244         53
   245        773
   246         61
   247          3
   248         12
   249          3
   250         12
   251          5
   252          1
   253          4
   254          1
   255          0
   256          2
   258          1
   259          0
   260          1
   261          4
   262          1
   263          7
   264         11
   265         27
   266          4
   267         42
   268          5
   269         45
   270          4
   279          1
   280          4
   281          2
   282          9
   283         13
   284         32
   285          3
   286         53
   287          5
   288         54
   289          5