##TITLE=Library Entry 1538
##JCAMP-DX=Revision 4.10 
##DATA TYPE=MASS SPECTRUM
##SAMPLE DESCRIPTION=R.T.HOLMAN,UNIVERSITY OF MINNESOTA
##NAMES=HP
##CAS NAME=9-Octadecene, 1,1-dimethoxy-, (Z)-
##MOLFORM=C20H40O2
##CAS REGISTRY NO=15677-71-1
##MP= -300
##BP= -300
##MW= 312
##$RETENTION INDEX=2374
##$CONDENSED SPECTRUM=NO
##NPOINTS= 100
##XYDATA=(XY..XY) 1 
    26          6
    27         79
    28        130
    29        520
    30         75
    31        999
    32        730
    33         13
    36          5
    39         68
    40         13
    41        430
    42         82
    43        270
    44         29
    45         64
    51          8
    53         45
    54        100
    55        230
    56         52
    57        120
    58         44
    59         19
    60          7
    65         13
    66         29
    67        220
    68        150
    69        120
    70         34
    71        850
    72         57
    73         11
    74          7
    75          9
    77         13
    78         11
    79         69
    80         67
    81        180
    82        240
    83        110
    84         70
    85         47
    86          8
    87          7
    91         23
    92         15
    93         58
    94         53
    95        160
    96        180
    97        140
    98         25
    99         12
   105          6
   107         38
   108         35
   109         67
   110         66
   111         55
   112         19
   113          7
   121         73
   122         38
   123         35
   124         41
   125         76
   126         14
   127          6
   135         66
   136         25
   137         19
   138         42
   139         19
   140          6
   141         14
   142          6
   149         22
   150         12
   151          8
   152         36
   153         10
   154          5
   155          9
   163          9
   165          5
   166         19
   167          5
   168          5
   169          5
   170          6
   177          6
   184         18
   185          6
   222          7
   248         17
   280         20
   281          7