##TITLE=Library Entry 17803
##JCAMP-DX=Revision 4.10 
##DATA TYPE=MASS SPECTRUM
##SAMPLE DESCRIPTION=Finnigan MAT: Toxicological Library (LIBR-TX)
##NAMES=HP
##CAS NAME=(+)-Morphinan-3-ol
##MOLFORM=C16H21NO
##CAS REGISTRY NO=15676-23-0
##MP= -300
##BP= -300
##MW= 243
##$RETENTION INDEX=0
##$CONDENSED SPECTRUM=NO
##NPOINTS= 35
##XYDATA=(XY..XY) 1 
    44        108
    45        999
    55         33
    56         36
    68         32
    77         23
    79         23
    91         37
   107         37
   109         26
   115         37
   128         42
   133         44
   134         60
   136        233
   145         50
   146         74
   147         66
   157        177
   158         79
   159         30
   170         38
   171         42
   172         38
   185         19
   186         26
   198        144
   199         85
   200        147
   214         84
   215         18
   228         15
   242        106
   243        323
   244         52