##TITLE=Library Entry 69974
##JCAMP-DX=Revision 4.10 
##DATA TYPE=MASS SPECTRUM
##SAMPLE DESCRIPTION=Sigma Chemical Company
##NAMES=HP
##CAS NAME=Fenproporex
##MOLFORM=C12H16N2
##CAS REGISTRY NO=15686-61-0
##MP= -300
##BP= -300
##MW= 188
##$RETENTION INDEX=1604
##$CONDENSED SPECTRUM=NO
##NPOINTS= 62
##XYDATA=(XY..XY) 1 
    41         38
    42         53
    43         10
    44         41
    45          1
    50         10
    51         24
    52         11
    53          9
    54         24
    56        503
    57         42
    58          2
    62          3
    63         16
    64          6
    65         53
    66          4
    68         95
    69          6
    70          3
    71          1
    74          2
    75          2
    76          1
    77         23
    78          8
    79          4
    80          1
    81          2
    89         13
    91        129
    92         13
    93          1
    95          3
    97        999
    98         62
    99          1
   102          4
   103          8
   104          8
   105          8
   106          2
   115         21
   116          5
   117         16
   118          7
   119          5
   120          1
   129          2
   130         10
   131          4
   132         20
   133          1
   144          5
   146          4
   147          1
   148          1
   173         12
   174          1
   187          5
   188          1