##TITLE=Library Entry 24540
##JCAMP-DX=Revision 4.10 
##DATA TYPE=MASS SPECTRUM
##SAMPLE DESCRIPTION=J. Klune, Insect Chem. Ecol. Lab., USDA, Beltsville, MD
 20705
##NAMES=HP
##CAS NAME=11-Methylheptacosane
##MOLFORM=C28H58
##CAS REGISTRY NO=15689-68-6
##MP= -300
##BP= -300
##MW= 394
##$RETENTION INDEX=2731
##$CONDENSED SPECTRUM=NO
##NPOINTS= 131
##XYDATA=(XY..XY) 1 
    41        337
    42        110
    43        907
    44         27
    49          0
    53         14
    54         30
    55        317
    56        211
    57        999
    58         48
    59          1
    65          2
    66          2
    67         33
    68         39
    69        193
    70        132
    71        738
    72         38
    73          0
    77          1
    79          4
    80          1
    81         18
    82         53
    83        152
    84         76
    85        559
    86         34
    87          0
    91          1
    93          0
    95          8
    96         40
    97        157
    98         50
    99        209
   100         14
   109          3
   110         22
   111         98
   112         36
   113        129
   114         10
   123          1
   124         13
   125         53
   126         24
   127         69
   128          5
   137          1
   138          9
   139         22
   140        112
   141         52
   142          5
   152          5
   153          8
   154         11
   155         26
   156          3
   166          5
   167          8
   168        796
   169        351
   170         37
   171          2
   180          2
   181          4
   182         22
   183         26
   184          3
   194          1
   195          2
   196         14
   197         16
   198          2
   208          1
   209          2
   210         10
   211         10
   212          1
   222          0
   223          1
   224        109
   225         45
   226          6
   238          7
   239          7
   240          1
   251          0
   252        358
   253        287
   254         50
   255          3
   266         14
   267         13
   268          2
   280         13
   281         12
   282          2
   294          9
   295         10
   296          2
   308         10
   309         13
   310          2
   322         11
   323         15
   324          3
   336          9
   337         15
   338          3
   350          9
   351         16
   352          4
   353          0
   364         11
   365         29
   366          8
   367          1
   378          5
   379         41
   380         12
   381          1
   392          1
   393          5
   394         34
   395          9
   396          1