##TITLE=Library Entry 54249
##JCAMP-DX=Revision 4.10 
##DATA TYPE=MASS SPECTRUM
##SAMPLE DESCRIPTION=Patti Price, Georgia Bureau of Investigation, Decatur,
 Georgia
##NAMES=HP
##CAS NAME=Clemastine
##MOLFORM=C21H26ClNO
##CAS REGISTRY NO=15686-51-8
##MP= -300
##BP= -300
##MW= 343
##$RETENTION INDEX=2428
##$CONDENSED SPECTRUM=NO
##NPOINTS= 113
##XYDATA=(XY..XY) 1 
    41         22
    42        107
    43         28
    44         15
    45         23
    50          4
    51         13
    52          2
    53         17
    54         11
    55         26
    56         12
    57          8
    58          6
    60          1
    63          3
    65          3
    67          7
    68          8
    69         13
    70         18
    71         10
    72          7
    73          2
    74          1
    75          9
    76          6
    77         39
    78          4
    79          4
    80          2
    81         10
    82         52
    83         14
    84        999
    85         57
    86          2
    87          1
    88         13
    89          4
    90          1
    91          3
    93          1
    94          2
    95          2
    96          8
    97          8
    98         34
    99         14
   100          6
   101         12
   102         14
   103         34
   104          4
   105         31
   106          2
   107          1
   108          2
   109          1
   110         16
   111         14
   112          7
   113          4
   114          1
   115          3
   116          8
   117          1
   121          1
   123          1
   125          1
   126          3
   127          2
   128        368
   129         30
   130          2
   133          1
   136          1
   137         17
   138          2
   139         38
   140          3
   141          9
   142          1
   147          1
   149          7
   150          2
   151          5
   152          9
   153          2
   154          1
   162          1
   163          4
   164          4
   165         32
   166          5
   167          2
   175          1
   176          5
   177          4
   178         29
   179         27
   180         17
   181          6
   182          1
   199          3
   200          1
   214          1
   215         23
   216          5
   217          8
   218          2
   219          1
   342          1