##TITLE=Library Entry 56338
##JCAMP-DX=Revision 4.10 
##DATA TYPE=MASS SPECTRUM
##SAMPLE DESCRIPTION=Tox21 Consortium/NIST Mass Spectrometry Data Center, 20
12
##NAMES=HP
##CAS NAME=Guaiactamine
##MOLFORM=C13H21NO2
##CAS REGISTRY NO=15687-23-7
##MP= -300
##BP= -300
##MW= 223
##$RETENTION INDEX=0
##$CONDENSED SPECTRUM=NO
##NPOINTS= 88
##XYDATA=(XY..XY) 1 
    15          2
    18          2
    26          2
    27         10
    28         20
    29         26
    30         30
    31          1
    38          2
    39          6
    40          1
    41         13
    42         43
    43          6
    44         38
    45          1
    50          5
    51         11
    52         19
    53          5
    54          6
    55          5
    56         51
    57         24
    58         52
    59          2
    62          1
    63          7
    64          7
    65         14
    66          2
    67          3
    68          2
    69          1
    70         15
    71         11
    72         15
    73          1
    74          1
    75          1
    76          2
    77         37
    78          4
    79          4
    80          8
    81          6
    82          1
    84         17
    86        999
    87         59
    88          2
    91          4
    92         16
    93          5
    94          1
    95         14
    96          1
    98          2
    99          4
   100         36
   101          2
   104          4
   105          1
   107          2
   108          1
   109          7
   110          1
   119          1
   120          1
   121         11
   122         10
   123          7
   124          3
   135          1
   136          2
   137          1
   148          2
   150          2
   151          2
   160          1
   176          1
   190          1
   208          8
   209          1
   221          1
   222          2
   223         17
   224          2