##TITLE=Library Entry 25535
##JCAMP-DX=Revision 4.10 
##DATA TYPE=MASS SPECTRUM
##SAMPLE DESCRIPTION=NIST Mass Spectrometry Data Center
##NAMES=HP
##CAS NAME=13-Methylheptacosane
##MOLFORM=C28H58
##CAS REGISTRY NO=15689-72-2
##MP= -300
##BP= -300
##MW= 394
##$RETENTION INDEX=2731
##$CONDENSED SPECTRUM=NO
##NPOINTS= 94
##XYDATA=(XY..XY) 1 
    27          6
    29         27
    30          1
    39         10
    40          2
    41        144
    42         40
    43        446
    44         16
    53          4
    54         14
    55        225
    56        133
    57        999
    58         43
    67         27
    68         30
    69        191
    70        124
    71        927
    72         52
    81         19
    82         48
    83        160
    84         74
    85        622
    86         37
    96         28
    97        173
    98         60
    99        245
   100         17
   109          6
   110         31
   111        127
   112         47
   113        166
   114         14
   125         79
   126         32
   127        135
   128         10
   138         13
   139         30
   141         86
   142          9
   153         14
   154         15
   155         55
   156          7
   166          5
   167         10
   168        132
   169         71
   170          8
   180          3
   181          5
   182          9
   183         20
   184          2
   195          4
   196        215
   197        110
   198         13
   210          8
   211         10
   224        154
   225         99
   238          7
   239          8
   266          5
   267         10
   294          4
   295          6
   296          1
   308          3
   309          5
   310          1
   322          4
   323          6
   324          1
   336          4
   337          6
   338          1
   350          4
   351          6
   352          2
   364          5
   365         11
   366          3
   378          2
   379         19
   380          5
   394          2