##TITLE=Library Entry 54089
##JCAMP-DX=Revision 4.10 
##DATA TYPE=MASS SPECTRUM
##SAMPLE DESCRIPTION=AAFS Toxicology Section MS DB Committee, U. Alberta, Ca
nada
##NAMES=HP
##CAS NAME=Pyrroliphene
##MOLFORM=C23H29NO2
##CAS REGISTRY NO=15686-97-2
##MP= -300
##BP= -300
##MW= 351
##$RETENTION INDEX=2396
##$CONDENSED SPECTRUM=NO
##NPOINTS= 132
##XYDATA=(XY..XY) 1 
    38          1
    39          6
    41         10
    42         32
    43         24
    44          1
    45          1
    50          1
    51          6
    52          1
    53          2
    54          1
    55         22
    56          7
    57          1
    58          1
    60          1
    62          1
    63          5
    64          1
    65         14
    66          1
    67          3
    68          3
    69          2
    70          9
    71          3
    72          1
    74          1
    75          1
    76          4
    77         30
    78          5
    79          2
    80          3
    81          2
    82         21
    83         18
    84        999
    85         57
    86          1
    87          1
    88          1
    89          8
    90          1
    91         86
    92          6
    93          1
    94          1
    96          5
    97          1
    98          1
    99          1
   100          1
   101          1
   102          5
   103          7
   104          3
   105         34
   106          2
   108          1
   110          6
   111          4
   112          8
   113          1
   114          1
   115         85
   116         15
   117         43
   118          4
   119          1
   126          2
   127          6
   128         14
   129         26
   130         33
   131          6
   132          1
   133          3
   134          1
   139          1
   141          1
   142          1
   143          5
   144          1
   147          1
   150          1
   151          2
   152          7
   153          1
   154          1
   156          1
   163          1
   164          1
   165         11
   166          2
   167          1
   168          1
   176          3
   177          2
   178         24
   179         21
   180          2
   181          1
   189          4
   190          2
   191          6
   192          3
   193         36
   194          6
   195          1
   196          1
   197          2
   198          1
   200          3
   201          1
   202          3
   203          2
   204          1
   205          2
   206          1
   207          6
   208         49
   209          7
   210          1
   219          1
   220          1
   276          2
   287          1
   291          2
   292          4
   293          1