##TITLE=Library Entry 6402
##JCAMP-DX=Revision 4.10 
##DATA TYPE=MASS SPECTRUM
##SAMPLE DESCRIPTION=P.A. Leclercq, Lab. Instrum. Anal., Eindhoven Univ. Tec
hnol., Netherlands
##NAMES=HP
##CAS NAME=Zinc(II) bis(N,N-dipropyldithiocarbamate)
##MOLFORM=C14H28N2S4Zn
##CAS REGISTRY NO=15694-56-1
##MP= -300
##BP= -300
##MW= 416
##$RETENTION INDEX=0
##$CONDENSED SPECTRUM=NO
##NPOINTS= 107
##XYDATA=(XY..XY) 1 
    29        277
    30         27
    32         31
    33          2
    34          4
    37         11
    38         25
    39        299
    40         46
    41        966
    42        296
    43        999
    44         53
    45         98
    46         10
    47         36
    53          3
    54         20
    55         16
    56         67
    57          7
    58        226
    59         34
    60        355
    61          8
    62          6
    64          5
    67          4
    68         24
    69          7
    70        155
    71          9
    72        228
    73         33
    74         31
    75         60
    76         30
    77         22
    82          9
    83          4
    84         10
    85          5
    86         19
    92          4
    97          5
    98         13
    99          3
   100        146
   101        166
   102        346
   103         13
   104          7
   110          3
   111          4
   112        102
   113          3
   126          8
   128         80
   129          3
   134          5
   142          5
   144        378
   145         33
   146          8
   156          6
   158          4
   160          3
   166          3
   168          4
   175          6
   176        122
   177         24
   178          5
   198          6
   200          4
   240         90
   241          6
   242         54
   243          8
   244         29
   245          4
   272         52
   273          6
   274         30
   275          6
   276         18
   309         10
   311         10
   313          6
   339          2
   341         16
   343         10
   344          1
   345          5
   373          4
   375          2
   377          2
   383          4
   387          1
   415         19
   416        140
   417         37
   418        101
   419         31
   420         59
   421          7
   422          5