##TITLE=Library Entry 19195
##JCAMP-DX=Revision 4.10 
##DATA TYPE=MASS SPECTRUM
##SAMPLE DESCRIPTION=Exported from NIST MS Search
##NAMES=HP
##CAS NAME=Cyclohexanethiol
##MOLFORM=C6H12S
##CAS REGISTRY NO=1569-69-3
##MP= -300
##BP= -300
##MW= 116
##$RETENTION INDEX=983
##$CONDENSED SPECTRUM=NO
##NPOINTS= 86
##XYDATA=(XY..XY) 1 
     1         18
     2          3
    12          1
    13          1
    14          3
    15         52
    16          1
    24          1
    25          2
    26         54
    27        455
    28        105
    29        201
    30          5
    32         15
    33         81
    34         38
    35         19
    36          3
    37          8
    38         28
    39        468
    40         54
    41        817
    42         56
    43         52
    44          3
    45        270
    46         31
    47        146
    48          6
    49         10
    50         29
    51         66
    52         32
    53        159
    54        343
    55        999
    56         51
    57         10
    58         66
    59         88
    60        134
    61         42
    62          9
    63          9
    64          2
    65         26
    66         19
    67        630
    68         39
    69         20
    70          2
    71         34
    72         10
    73        100
    74         18
    75          8
    76          3
    77         32
    78          8
    79         45
    80          8
    81         98
    82        468
    83        568
    84         39
    85         14
    86          3
    87         18
    88          2
    89          1
    97          3
    98          1
    99          2
   101          2
   109          1
   110          1
   111          1
   113          1
   114          1
   115          1
   116        376
   117         28
   118         18
   119          1