##TITLE=Library Entry 17081
##JCAMP-DX=Revision 4.10 
##DATA TYPE=MASS SPECTRUM
##SAMPLE DESCRIPTION=Exported from NIST MS Search
##NAMES=HP
##CAS NAME=2-Propanol, 1-ethoxy-
##MOLFORM=C5H12O2
##CAS REGISTRY NO=1569-02-4
##MP= -300
##BP= -300
##MW= 104
##$RETENTION INDEX=744
##$CONDENSED SPECTRUM=NO
##NPOINTS= 54
##XYDATA=(XY..XY) 1 
    14          5
    15         35
    16          2
    17          8
    18         35
    19         30
    25          1
    26         12
    27        100
    28         32
    29        195
    30         10
    31        578
    32         10
    33         27
    34          1
    36          1
    37          5
    38          2
    39         18
    40          3
    41         60
    42         32
    43        111
    44         28
    45        999
    46         25
    47          3
    51          1
    53          1
    55          3
    56          1
    57         31
    58         63
    59        784
    60         49
    61        156
    62          4
    63          2
    69          1
    71          1
    72          1
    73         32
    74          2
    75         32
    76          2
    86          1
    87          8
    88          1
    89         22
    90          1
   103          2
   104          6
   105          2