##TITLE=Library Entry 67711
##JCAMP-DX=Revision 4.10 
##DATA TYPE=MASS SPECTRUM
##SAMPLE DESCRIPTION=NIST Mass Spectrometry Data Center, 1994
##NAMES=HP
##CAS NAME=5-Hepten-2-ol, 6-methyl-
##MOLFORM=C8H16O
##CAS REGISTRY NO=1569-60-4
##MP= -300
##BP= -300
##MW= 128
##$RETENTION INDEX=994
##$CONDENSED SPECTRUM=NO
##NPOINTS= 60
##XYDATA=(XY..XY) 1 
    13          3
    14          6
    15         80
    16          3
    17          0
    18          2
    19         42
    27        291
    28         17
    29        216
    30         10
    31         65
    37          5
    39        321
    41        778
    42        101
    43        333
    44         58
    45        411
    46         11
    50         22
    51         48
    52         22
    53        129
    54         46
    55        306
    56        120
    57         71
    58        124
    59         33
    62          4
    63         11
    65         33
    67        372
    68        192
    69        408
    70         55
    71        216
    72         21
    77         24
    78          6
    79         42
    80          6
    81        102
    82         21
    83         21
    84         15
    85         64
    86         14
    91         10
    93         52
    95        999
    96         76
    97          4
   108          4
   110        187
   111         19
   113         27
   128         81
   129          7