##TITLE=Library Entry 81131
##JCAMP-DX=Revision 4.10 
##DATA TYPE=MASS SPECTRUM
##SAMPLE DESCRIPTION=A.S.Moskovkin,I.M.Karnaukh, Russian Center on Disaster
 Medicine
##NAMES=HP
##CAS NAME=1-Benzoylamino-3-(4-methoxyphenylamino)-1-phenylpropane
##MOLFORM=C23H24N2O2
##CAS REGISTRY NO=156950-88-8
##MP= -300
##BP= -300
##MW= 360
##$RETENTION INDEX=0
##$CONDENSED SPECTRUM=NO
##NPOINTS= 157
##XYDATA=(XY..XY) 1 
    37          5
    38         10
    39         47
    40          2
    41          9
    42          4
    43          9
    44         12
    45          4
    49          4
    50         45
    51        110
    52         40
    62          9
    63         26
    64         24
    65         53
    66         23
    75         16
    76         40
    77        570
    78        150
    79         62
    80         34
    81         25
    82         19
    83         36
    88          4
    89         13
    90         11
    91         92
    92         69
    93         41
    94         17
    95         42
    96         17
    97         27
    98         22
    99         15
   100          6
   101         16
   102         13
   103         66
   104        310
   105        999
   106        250
   107         65
   108        110
   109         31
   110         10
   111         15
   112          9
   113          8
   114          4
   115         48
   116         30
   117        130
   118         45
   119         68
   120        290
   121        150
   122        110
   123        190
   124         21
   125         10
   126          5
   127          7
   129         20
   130         18
   131         15
   132         34
   133         19
   134        110
   135        190
   136        670
   137        130
   138         13
   139          6
   140          5
   141          6
   142          2
   145          6
   146          8
   147         12
   148         12
   149         51
   150        140
   151         18
   152          8
   153          5
   154          4
   155          5
   156          2
   157          4
   158          6
   159          9
   162         14
   163          4
   165          5
   166          4
   167          4
   168          3
   176          5
   177          4
   178          3
   179          3
   180         11
   181          6
   182          6
   183          4
   184          2
   192          3
   193          6
   194          8
   195         16
   196          6
   197         12
   198          2
   206          5
   207          4
   208         12
   209         18
   210         77
   211        160
   212         29
   213          5
   219          3
   220          8
   221          7
   222         32
   223         16
   224         27
   225         16
   226          3
   234          1
   235          2
   236         26
   237         23
   238         73
   239         46
   240          8
   241          3
   255          3
   256          6
   257          2
   327         17
   328          5
   330          2
   342          8
   343          2
   344         19
   345          7
   358          3
   360        500
   361        130
   362         16
   363          1