##TITLE=Library Entry 20183
##JCAMP-DX=Revision 4.10 
##DATA TYPE=MASS SPECTRUM
##SAMPLE DESCRIPTION=Chemical Concepts
##NAMES=HP
##CAS NAME=4-Methyl-dodec-3-en-1-ol
##MOLFORM=C13H26O
##CAS REGISTRY NO=156992-84-6
##MP= -300
##BP= -300
##MW= 198
##$RETENTION INDEX=0
##$CONDENSED SPECTRUM=NO
##NPOINTS= 87
##XYDATA=(XY..XY) 1 
    25          6
    27        105
    28         12
    29        213
    30          5
    31        100
    37          2
    38         90
    40         29
    41        499
    42         56
    43        347
    44         22
    45         24
    50          2
    51         11
    52          8
    53        100
    54         36
    55        999
    56        472
    57        778
    58         37
    59         29
    65         18
    66         16
    67        277
    68        207
    69        856
    70        152
    71        114
    72        145
    73          8
    74          6
    75          2
    77         20
    78          4
    79         40
    80         15
    81        207
    82        204
    83        431
    84         55
    85        179
    86         12
    87          9
    91         13
    92          4
    93         12
    94          6
    95        222
    96         59
    97        331
    98         82
    99         15
   100         47
   101         13
   105          2
   107          3
   109         37
   110         26
   111        162
   112         27
   113          8
   119          2
   123         16
   124          6
   125         21
   126         38
   127          4
   137          7
   138          5
   139         29
   140          4
   141          3
   151          3
   152         22
   153          2
   154         72
   155         16
   156          4
   165          4
   170          3
   180          5
   183          5
   198         58
   199          8