##TITLE=Library Entry 82266
##JCAMP-DX=Revision 4.10 
##DATA TYPE=MASS SPECTRUM
##SAMPLE DESCRIPTION=A.S.Moskovkin,I.M.Karnaukh, Russian Center on Disaster
 Medicine
##NAMES=HP
##CAS NAME=1-Benzoylamino-3-(2-naphthyl)-1-phenylpropane
##MOLFORM=C26H24N2O
##CAS REGISTRY NO=156950-90-2
##MP= -300
##BP= -300
##MW= 380
##$RETENTION INDEX=0
##$CONDENSED SPECTRUM=NO
##NPOINTS= 212
##XYDATA=(XY..XY) 1 
    38          6
    39         56
    40          2
    41         16
    42          7
    43         24
    49          3
    50         29
    51         74
    52         21
    53          3
    62         12
    63         22
    64         17
    65         30
    66         13
    67          7
    68          6
    69         20
    70         11
    71         19
    72          3
    73         40
    74          7
    75         28
    76         38
    77        470
    78        120
    79         60
    80         24
    88         16
    89         25
    90         12
    91         99
    92         28
    93         33
    94         24
    95         82
    96         82
    97        150
    98        130
    99         81
   100         31
   101        100
   102         31
   103         72
   104        300
   105        999
   106        240
   107         51
   108         32
   109         52
   110         50
   111         88
   112         54
   113         51
   114         32
   115        260
   116         87
   117        140
   118         51
   119         63
   120        150
   121        140
   122         66
   123         60
   124         35
   125         53
   126         58
   127        240
   128        150
   129        200
   130         44
   131         30
   132         37
   133         26
   134         60
   135         49
   136         87
   137         42
   138         28
   139         33
   140         34
   141         56
   142         26
   143        220
   144         50
   145         18
   146         11
   147         17
   148         11
   149         29
   150         29
   151         22
   152         28
   153         32
   154         83
   155        190
   156        440
   157        590
   158         90
   159         19
   160          5
   161          3
   163         11
   164          8
   165         17
   166         19
   167         45
   168         68
   169         72
   170        160
   171         52
   172         15
   173          9
   176          4
   177          2
   178          8
   179         12
   180         28
   181         19
   182         26
   183         20
   184          7
   185         44
   186         11
   187          8
   188          3
   190         15
   191          8
   192         10
   193         14
   194         19
   195         21
   196         14
   197         15
   198          4
   199         22
   200         10
   201          5
   206          7
   207          9
   208         17
   209         25
   210         99
   211        240
   212         40
   213         34
   214         10
   215          7
   216          3
   217         10
   218          5
   219          8
   220         12
   221         11
   222         27
   223         18
   224         32
   225         28
   226          7
   227         13
   228         38
   229         16
   230         10
   231          8
   232          2
   234          4
   235          5
   236         32
   237         26
   238         40
   239         25
   240          8
   241         11
   242         58
   243         24
   244          8
   245          5
   251          4
   252          7
   253          7
   254          8
   255         11
   256        100
   257         39
   258         53
   259         53
   260         12
   261          4
   264         10
   265          5
   266          3
   267          4
   268          3
   269          5
   270         13
   271         10
   272          3
   274          3
   275          7
   276          4
   284         15
   285          7
   289          4
   290          7
   378          3
   379          3
   380        640
   381        188
   382         27
   383          3