##TITLE=Library Entry 16888
##JCAMP-DX=Revision 4.10 
##DATA TYPE=MASS SPECTRUM
##SAMPLE DESCRIPTION=NIST Mass Spectrometry Data Center, 2009
##NAMES=HP
##CAS NAME=2-Propanol, 1-propoxy-
##MOLFORM=C6H14O2
##CAS REGISTRY NO=1569-01-3
##MP= -300
##BP= -300
##MW= 118
##$RETENTION INDEX=801
##$CONDENSED SPECTRUM=NO
##NPOINTS= 47
##XYDATA=(XY..XY) 1 
    14          1
    15         11
    16          1
    19          7
    26          9
    27        104
    28         17
    29         77
    30          6
    31        130
    32          2
    33         29
    37          2
    38          6
    39         85
    40         16
    41        278
    42        109
    43        834
    44         81
    45        999
    46         25
    47          3
    55         32
    56         23
    57         43
    58         27
    59        319
    60         13
    61         93
    62          2
    67          1
    69          1
    71          5
    72        138
    73        526
    74         76
    75         73
    76          3
    85          1
    89         26
    90          1
   101          1
   103         15
   104          1
   117          1
   118          1