##TITLE=Library Entry 32305
##JCAMP-DX=Revision 4.10 
##DATA TYPE=MASS SPECTRUM
##SAMPLE DESCRIPTION=NIST Mass Spectrometry Data Center, 1990.
##NAMES=HP
##CAS NAME=Spiropentane
##MOLFORM=C5H8
##CAS REGISTRY NO=157-40-4
##MP= -300
##BP= -300
##MW= 68
##$RETENTION INDEX=0
##$CONDENSED SPECTRUM=NO
##NPOINTS= 38
##XYDATA=(XY..XY) 1 
    12          2
    13          4
    14         14
    15         15
    24          2
    25          8
    26         78
    27        216
    28         55
    29         12
    31         14
    32          5
    36          8
    37         67
    38        150
    39        729
    40        561
    41        135
    42         71
    43          3
    48          2
    49         17
    50         66
    51         61
    52         32
    53        298
    54         13
    55          0
    60          3
    61         13
    62         18
    63         21
    64          0
    65         64
    66          0
    67        999
    68         73
    69          3