##TITLE=Library Entry 1762
##JCAMP-DX=Revision 4.10 
##DATA TYPE=MASS SPECTRUM
##SAMPLE DESCRIPTION=Chemical Concepts
##NAMES=HP
##CAS NAME=Bicyclo[1.1.0]butane
##MOLFORM=C4H6
##CAS REGISTRY NO=157-33-5
##MP= -300
##BP= -300
##MW= 54
##$RETENTION INDEX=0
##$CONDENSED SPECTRUM=NO
##NPOINTS= 27
##XYDATA=(XY..XY) 1 
    13          5
    14          7
    15          7
    24          2
    25         23
    26        218
    27        739
    28        306
    31          0
    35          0
    36          8
    37         61
    38         85
    39        999
    40         27
    41          6
    42          2
    43          0
    48          9
    49         72
    50        250
    51        290
    52        131
    53        756
    54        938
    55         43
    56          2