##TITLE=Library Entry 82581
##JCAMP-DX=Revision 4.10 
##DATA TYPE=MASS SPECTRUM
##SAMPLE DESCRIPTION=Japan AIST/NIMC Database- Spectrum MS-NW-4815
##NAMES=HP
##CAS NAME=4-Pyridinecarboxylic acid, ethyl ester
##MOLFORM=C8H9NO2
##CAS REGISTRY NO=1570-45-2
##MP= -300
##BP= -300
##MW= 151
##$RETENTION INDEX=1201
##$CONDENSED SPECTRUM=NO
##NPOINTS= 74
##XYDATA=(XY..XY) 1 
    14          4
    15         15
    17          3
    18         17
    19          1
    25          3
    26         26
    27         81
    28         25
    29        217
    30          5
    31          3
    32          1
    37          7
    38          9
    39         17
    40          4
    41          3
    42          2
    43          8
    44          3
    45        115
    46          3
    48          1
    49         13
    50        126
    51        415
    52         78
    53         10
    54          2
    57          1
    59          2
    62          1
    63          1
    64          1
    65          6
    66          5
    67          4
    68          3
    74          1
    75          7
    76         11
    77         22
    78        615
    79        142
    80         11
    81          1
    92          7
    93          2
    94          6
    95          5
    96          1
   100          2
   104          1
   105         34
   106        999
   107         96
   108          9
   109          2
   119          1
   120          1
   121          1
   122          3
   123        594
   124         53
   125          5
   132          1
   133         39
   134          6
   136          9
   150         15
   151        366
   152         36
   153          3