##TITLE=Library Entry 82530
##JCAMP-DX=Revision 4.10 
##DATA TYPE=MASS SPECTRUM
##SAMPLE DESCRIPTION=Exported from NIST MS Search
##NAMES=HP
##CAS NAME=1-Propanone, 1-(3-pyridinyl)-
##MOLFORM=C8H9NO
##CAS REGISTRY NO=1570-48-5
##MP= -300
##BP= -300
##MW= 135
##$RETENTION INDEX=0
##$CONDENSED SPECTRUM=NO
##NPOINTS= 84
##XYDATA=(XY..XY) 1 
    29        148
    30         13
    31         19
    36          2
    37         20
    38         35
    39         63
    40         13
    41         13
    42         22
    43         51
    44         12
    45          9
    46          3
    47          1
    48          3
    49         25
    50        159
    51        399
    52         81
    53         36
    54          4
    55         12
    56          7
    57         30
    58         15
    59          2
    60          2
    61          7
    62         11
    63         19
    64          7
    65         14
    66          8
    67          4
    68          2
    69          2
    70          3
    71          2
    72          2
    73          2
    74          7
    75         13
    76         18
    77         28
    78        705
    79         69
    80          6
    81          1
    82          1
    83          4
    84          3
    85          2
    86         25
    87          3
    88          1
    89          2
    90          1
    91          3
    92         12
    93         18
    94          2
    95          1
    96          1
    97          1
    98          1
    99         11
   100         17
   101         21
   102          5
   103          1
   104          4
   105          7
   106        999
   107         72
   108          5
   116          1
   117          3
   118          1
   133          2
   134          7
   135        192
   136         17
   137          1