##TITLE=Library Entry 72455
##JCAMP-DX=Revision 4.10 
##DATA TYPE=MASS SPECTRUM
##SAMPLE DESCRIPTION=United States Army Criminal Investigation Laboratory (U
SACIL)
##NAMES=HP
##CAS NAME=(R)-(+)-Arachidonyl-1\\ffffff92-hydroxy-2\\ffffff92-propylamide
##MOLFORM=C23H39NO2
##CAS REGISTRY NO=157182-49-5
##MP= -300
##BP= -300
##MW= 361
##$RETENTION INDEX=0
##$CONDENSED SPECTRUM=NO
##NPOINTS= 249
##XYDATA=(XY..XY) 1 
    39         84
    40         22
    41        412
    42         71
    43        140
    44        381
    45         15
    50          6
    51         26
    52         18
    53         88
    54         81
    55        326
    56         71
    57         84
    58        243
    59         83
    60        323
    61          7
    62          1
    63          2
    65         99
    66         81
    67        429
    68         78
    69        112
    70         30
    71         26
    72         17
    73          9
    74         32
    75         14
    76        482
    77        262
    78        104
    79        531
    80        246
    81        192
    82         43
    83         52
    84        148
    85         24
    86        274
    87         19
    88          3
    89         14
    91        423
    92         94
    93        243
    94         68
    95        104
    96         23
    97         44
    98         62
    99        999
   100        132
   101          6
   102         23
   103         38
   104         33
   105        178
   106         65
   107         86
   108         34
   109         29
   110         28
   111         19
   112        392
   113        102
   114         24
   115         40
   116         20
   117        561
   118         63
   119        103
   120         46
   121         62
   122         58
   123         21
   124         31
   125         18
   126         20
   127          4
   128         25
   129         30
   130        163
   131         93
   132         18
   133         84
   134         30
   135         40
   136         49
   137         19
   138        141
   139        322
   140         54
   141          8
   142         14
   143         12
   144         21
   145         39
   146         14
   147         54
   148         16
   149         47
   150         92
   151         26
   152        196
   153        102
   154         20
   155          6
   156          6
   157         22
   158         18
   159         23
   160         12
   161         26
   162         17
   163         25
   164         39
   165         11
   166         74
   167         21
   168          5
   169          3
   170         20
   171         11
   172         20
   173         20
   174          9
   175         45
   176         26
   177         23
   178         69
   179         21
   180          7
   181          2
   182          1
   183          5
   184         23
   185          4
   186          6
   187         10
   188          8
   189         20
   190         25
   191         11
   192        120
   193         61
   194         16
   195          6
   196          9
   197          8
   198         10
   199          2
   201          8
   202          7
   203         25
   204         13
   205         12
   206         89
   207         22
   208         14
   209         10
   210         14
   211          4
   212         20
   213          2
   215          6
   216          4
   217          9
   218         46
   219         10
   220         10
   221          3
   222          6
   223          9
   224         16
   225          1
   226          2
   229          1
   230          8
   231          8
   232        133
   233         37
   234          5
   236         29
   237          6
   238          4
   239          2
   243          3
   244         21
   245         10
   246         19
   247          4
   248          6
   249          5
   250         19
   251          7
   252          3
   253          5
   255          3
   258         24
   259          9
   260          5
   262          7
   263          8
   264          6
   265          3
   267          5
   268          4
   269          3
   270          1
   272         40
   273          6
   274          1
   276         16
   277          2
   278          2
   283          4
   285          4
   286        102
   287         12
   288          9
   289          3
   290          7
   300         36
   301          6
   302         11
   304          3
   314         25
   315          3
   327          1
   328         17
   329          5
   330         37
   331         10
   332          2
   341          5
   342         45
   343         60
   344         15
   345          1
   346          4
   355          4
   358          2
   360          4
   361         15
   405          2