##TITLE=Library Entry 3937
##JCAMP-DX=Revision 4.10 
##DATA TYPE=MASS SPECTRUM
##SAMPLE DESCRIPTION=ATLAS OF MASS SPECTRA OF ORGANIC COMPOUNDS, V. A. KOPTY
UG, ED.
##NAMES=HP
##CAS NAME=Triallylhydrazine
##MOLFORM=C9H16N2
##CAS REGISTRY NO=1571-11-5
##MP= -300
##BP= -300
##MW= 152
##$RETENTION INDEX=0
##$CONDENSED SPECTRUM=NO
##NPOINTS= 26
##XYDATA=(XY..XY) 1 
    28         78
    29         41
    30         33
    38          9
    39        189
    40         30
    41        999
    42         93
    43         41
    53         13
    54         33
    55         74
    56         50
    57         11
    67         14
    68         16
    69         28
    70         14
    81         18
    83         10
    94          8
   111        426
   112         37
   113         17
   152        104
   153         12