##TITLE=Library Entry 67486
##JCAMP-DX=Revision 4.10 
##DATA TYPE=MASS SPECTRUM
##SAMPLE DESCRIPTION=Chemical Concepts
##NAMES=HP
##CAS NAME=Phosphonic acid, phenyl-
##MOLFORM=C6H7O3P
##CAS REGISTRY NO=1571-33-1
##MP= -300
##BP= -300
##MW= 158
##$RETENTION INDEX=0
##$CONDENSED SPECTRUM=NO
##NPOINTS= 92
##XYDATA=(XY..XY) 1 
    25          0
    26          6
    27         26
    28          4
    29          2
    31          0
    32          0
    33          0
    34          0
    36          1
    37          9
    38         19
    39         62
    40         16
    41          1
    42          1
    43          1
    44          1
    45          0
    47         62
    48          4
    49          8
    50        123
    51        246
    52         29
    53          4
    54          0
    55         11
    56          3
    57          1
    58          0
    60          0
    61          3
    62          7
    63         15
    64          8
    65         58
    66         79
    67          5
    68          2
    69          1
    71          0
    72          0
    73          7
    74         34
    75         23
    76         39
    77        223
    78         80
    79          6
    80          2
    81         31
    82          9
    83          2
    84          1
    85          0
    86          0
    89          1
    90          0
    91          0
    92          8
    93         13
    94        999
    95         75
    96          4
    97          0
    99          0
   101          0
   105          0
   107          1
   109          0
   110          0
   111          0
   112          2
   113          1
   123          0
   124          0
   125          0
   127          1
   128          3
   129          0
   131          1
   138          0
   139         15
   140         17
   141         21
   142          9
   143          0
   158        483
   159         48
   160          5
   161          0