##TITLE=Library Entry 49064
##JCAMP-DX=Revision 4.10 
##DATA TYPE=MASS SPECTRUM
##SAMPLE DESCRIPTION=Exported from NIST MS Search
##NAMES=HP
##CAS NAME=p-Menth-4(8)-en-9-ol
##MOLFORM=C10H18O
##CAS REGISTRY NO=15714-11-1
##MP= -300
##BP= -300
##MW= 154
##$RETENTION INDEX=0
##$CONDENSED SPECTRUM=NO
##NPOINTS= 86
##XYDATA=(XY..XY) 1 
    15          7
    17         20
    18         78
    26         12
    27        183
    28         18
    29        169
    30          9
    31         35
    38         12
    39        282
    40         53
    41        450
    42         43
    43        245
    44         10
    45         12
    50         25
    51         80
    52         48
    53        185
    54         50
    55        312
    56         37
    57         75
    58         93
    59         14
    62         10
    63         28
    64         14
    65         98
    66         53
    67        225
    68        190
    69        138
    70         20
    71         50
    72         11
    75         15
    77        230
    78         60
    79        999
    80        120
    81        335
    82         63
    83         58
    84         85
    85         19
    89         10
    91        205
    92         67
    93        575
    94        225
    95        200
    96         38
    97        334
    98         38
    99          5
   103         14
   105         80
   106         19
   107        575
   108        145
   109         33
   110         13
   111          9
   112          6
   113          8
   115          9
   117          9
   119         22
   120          9
   121        450
   122         53
   123         88
   124         11
   125         11
   126         15
   134          6
   135         13
   136        575
   137         80
   138         10
   139         12
   152         27
   154         50