##TITLE=Library Entry 15258
##JCAMP-DX=Revision 4.10 
##DATA TYPE=MASS SPECTRUM
##SAMPLE DESCRIPTION=Humboldt-Universitat zu Berlin, Department of Chemistry
, Analytical Group
##NAMES=HP
##CAS NAME=5-Isoxazolepropanamine, N-methyl-3-(4-nitrophenyl)-
##MOLFORM=C13H15N3O3
##CAS REGISTRY NO=157170-19-9
##MP= -300
##BP= -300
##MW= 261
##$RETENTION INDEX=0
##$CONDENSED SPECTRUM=NO
##NPOINTS= 213
##XYDATA=(XY..XY) 1 
    12          0
    13          0
    14          1
    15         13
    16          2
    17          4
    18         36
    26          3
    27         19
    28         57
    29         15
    30         52
    31          2
    32          2
    35         16
    36         48
    37          7
    38         22
    39         25
    40          5
    41         38
    42         61
    43         29
    44        999
    45         32
    46          1
    50         43
    51         15
    52          6
    53          7
    54          9
    55         19
    56         26
    57         21
    58         21
    59          1
    60          1
    61          2
    62         16
    63         18
    64          8
    65          6
    66          2
    67          5
    68         14
    69         13
    70         50
    71         10
    72          1
    73          1
    74         13
    75         26
    76         61
    77         15
    78          3
    79          1
    80         15
    81          4
    82          7
    83          3
    84          6
    85          2
    86          3
    87          7
    88         17
    89         15
    90          5
    91          3
    92          7
    93          2
    94         19
    95          3
    96         10
    97          7
    98          6
    99          2
   100          1
   101          5
   102         10
   103         12
   104         12
   105          4
   106          1
   107          1
   108          4
   109          2
   110          2
   111         60
   112          6
   113          5
   114          6
   115         18
   116          5
   117          5
   118          2
   119          1
   120          4
   121          1
   122          1
   123          1
   124          4
   125          1
   126          2
   127          3
   128          5
   129         15
   130          5
   131          4
   132          2
   133          0
   134          1
   135          0
   136          0
   137          1
   138          0
   139          5
   140          1
   141          2
   142          2
   143         14
   144          4
   145          4
   146          1
   147          1
   148          1
   149          3
   150         10
   151          2
   152          1
   153          1
   154          2
   155          2
   156          2
   157          5
   158          4
   159          3
   160          1
   161          1
   162          1
   163          0
   164          0
   166          0
   167          1
   168          0
   169          1
   170          1
   171          5
   172          3
   173          3
   174          1
   175          5
   176          1
   177          0
   178          0
   179          0
   180          0
   181          0
   182          1
   183          2
   184          2
   185          4
   186          1
   187          1
   188          1
   189          7
   190          1
   191          4
   192          3
   193          0
   196          0
   197          0
   198          1
   199          1
   200          1
   201          2
   202          1
   203          3
   204         11
   205          4
   206          3
   207          0
   208          0
   209          0
   211          0
   212          0
   213          1
   214          2
   215          1
   216          1
   217          5
   218          6
   219          3
   220          0
   227          0
   228          0
   229          3
   230          3
   231         12
   232          3
   233          0
   242          0
   243          0
   244         21
   245          5
   246          2
   247          0
   257          0
   258          0
   259          0
   260          2
   261         21
   262          3
   263          0