##TITLE=Library Entry 54668
##JCAMP-DX=Revision 4.10 
##DATA TYPE=MASS SPECTRUM
##SAMPLE DESCRIPTION=NIST Mass Spectrometry Data Center, 1994
##NAMES=HP
##CAS NAME=2,2-Dimethylvaleroyl chloride
##MOLFORM=C7H13ClO
##CAS REGISTRY NO=15721-22-9
##MP= -300
##BP= -300
##MW= 148
##$RETENTION INDEX=0
##$CONDENSED SPECTRUM=NO
##NPOINTS= 57
##XYDATA=(XY..XY) 1 
     4          2
    14          6
    15         39
    26         23
    27        178
    28         50
    29        124
    30          2
    31          1
    32          2
    35          3
    36          5
    37          8
    38         25
    39        230
    40         53
    41        424
    42         98
    43        970
    44         32
    49          6
    50         11
    51         20
    52          6
    53         41
    54          8
    55         79
    56         73
    57        165
    58          7
    61          2
    63         42
    64          2
    65         18
    66          3
    67         14
    68          2
    69         85
    70         54
    71         14
    75          1
    77          9
    78          1
    79          3
    83         10
    85        999
    86         67
    87          2
    91         18
    93          5
    97          1
   106         28
   107          2
   108          9
   113          5
   119          3
   133          1