##TITLE=Library Entry 7846
##JCAMP-DX=Revision 4.10 
##DATA TYPE=MASS SPECTRUM
##SAMPLE DESCRIPTION=CONTINENTAL OIL CO., PONCA CITY, OKLA, USA
##NAMES=HP
##CAS NAME=4-Heptanone, 3-methyl-
##MOLFORM=C8H16O
##CAS REGISTRY NO=15726-15-5
##MP= -300
##BP= -300
##MW= 128
##$RETENTION INDEX=928
##$CONDENSED SPECTRUM=NO
##NPOINTS= 75
##XYDATA=(XY..XY) 1 
    13          3
    14         16
    15         85
    16          3
    17          2
    18          7
    19          0
    20          0
    24          0
    25          2
    26         50
    27        492
    28        139
    29        434
    30         11
    31          8
    36          1
    37          8
    38         19
    39        223
    40         32
    41        480
    42         83
    43        999
    44         35
    45          5
    49          1
    50          8
    51         13
    52          5
    53         30
    54          7
    55        103
    56         70
    57        901
    58         43
    59          1
    61          0
    62          1
    63          1
    65          2
    66          1
    67          5
    68          2
    69         12
    70         32
    71        887
    72         68
    73          6
    74          0
    77          2
    78          1
    79          2
    81          3
    82          1
    83         25
    84          5
    85        144
    86          8
    87          0
    91          0
    95          1
    96          0
    97          0
    98          8
    99          3
   100         56
   101          3
   102          0
   111          0
   112          0
   113          8
   114          0
   128        102
   129          9