##TITLE=Library Entry 16832
##JCAMP-DX=Revision 4.10 
##DATA TYPE=MASS SPECTRUM
##SAMPLE DESCRIPTION=NIST Mass Spectrometry Data Center
##NAMES=HP
##CAS NAME=(R)-(-)-3-Methyl-2-butanol
##MOLFORM=C5H12O
##CAS REGISTRY NO=1572-93-6
##MP= -300
##BP= -300
##MW= 88
##$RETENTION INDEX=0
##$CONDENSED SPECTRUM=NO
##NPOINTS= 43
##XYDATA=(XY..XY) 1 
    13          1
    14         11
    15         56
    16          3
    17          1
    18          3
    19         28
    26         19
    27        134
    28         52
    29        106
    30          6
    31         52
    32          7
    37          5
    38         13
    39         85
    40         13
    41         98
    42         34
    43        174
    44        141
    45        999
    46         24
    47          4
    49          1
    50          4
    51          6
    52          1
    53         10
    55        132
    56          7
    57         18
    58          5
    59         10
    67          1
    69          8
    70          4
    71          7
    73         81
    74          9
    87          4
    88          4