##TITLE=Library Entry 5484
##JCAMP-DX=Revision 4.10 
##DATA TYPE=MASS SPECTRUM
##SAMPLE DESCRIPTION=NIST Mass Spectrometry Data Center, 1994
##NAMES=HP
##CAS NAME=2-Butyne-1,4-diol, diacetate
##MOLFORM=C8H10O4
##CAS REGISTRY NO=1573-17-7
##MP= -300
##BP= -300
##MW= 170
##$RETENTION INDEX=0
##$CONDENSED SPECTRUM=NO
##NPOINTS= 65
##XYDATA=(XY..XY) 1 
    12          1
    13          5
    14         25
    15         92
    16          1
    17          0
    18          0
    20          0
    24          0
    25          2
    26         14
    29         24
    30          2
    31          5
    36          0
    37          8
    38         19
    39         47
    40         14
    41         20
    42          0
    43        999
    44         26
    45          6
    46          0
    50         29
    51         51
    52         23
    53          6
    54          1
    55          5
    56          0
    57          3
    58          3
    61         32
    62          0
    65          1
    66          4
    68         33
    69          9
    70          2
    71          6
    72          1
    73          0
    82         63
    83          3
    84          1
    85          0
    86         48
    87          2
    95          0
    96          0
    97          0
    98          1
    99          1
   100          4
   103          8
   104          0
   110         23
   111         24
   112          1
   113          0
   127          6
   128         16
   129          1