##TITLE=Library Entry 6550
##JCAMP-DX=Revision 4.10 
##DATA TYPE=MASS SPECTRUM
##SAMPLE DESCRIPTION=ASES Database, Dalian Institute, P.R. China
##NAMES=HP
##CAS NAME=3,4-Dimethyl-5-methoxy-isoxazole
##MOLFORM=C6H9NO2
##CAS REGISTRY NO=15731-97-2
##MP= -300
##BP= -300
##MW= 127
##$RETENTION INDEX=0
##$CONDENSED SPECTRUM=NO
##NPOINTS= 37
##XYDATA=(XY..XY) 1 
    37         10
    38         20
    39         40
    40        100
    41        100
    42        470
    43        999
    44         30
    45          9
    47         20
    49          9
    50          9
    51         19
    52         30
    53         49
    54         29
    55        129
    56        328
    57         30
    58        130
    59         40
    66         20
    67         19
    68        328
    69         30
    72         20
    84         80
    85         10
    86         50
    96         99
    97          9
    98          9
    99         10
   112         19
   126         10
   127         69
   128          9