##TITLE=Library Entry 36342
##JCAMP-DX=Revision 4.10 
##DATA TYPE=MASS SPECTRUM
##SAMPLE DESCRIPTION=Chemical Concepts
##NAMES=HP
##CAS NAME=1-Undecafluorocyclohexyl-3-trifluoromethylpropan-1,3-dione
##MOLFORM=C10H2F14O2
##CAS REGISTRY NO=157375-72-9
##MP= -300
##BP= -300
##MW= 420
##$RETENTION INDEX=0
##$CONDENSED SPECTRUM=NO
##NPOINTS= 100
##XYDATA=(XY..XY) 1 
    28         11
    29          5
    31         16
    33          4
    41         26
    42         37
    44          4
    45          4
    47          4
    50          8
    51          6
    53          8
    56          4
    57          4
    61          4
    63          9
    64          3
    67          6
    69        999
    70         34
    71         12
    73          7
    74          7
    75         28
    76          2
    81          6
    83          6
    85          6
    87          4
    89         16
    90          4
    91         48
    93         51
    94          5
    95          4
    97         19
    99          7
   100         34
   103          5
   105          4
   106          9
   109          9
   111          4
   112         10
   113          6
   117          6
   119        117
   120         22
   121          3
   122          4
   123         15
   124         11
   125          6
   129          2
   131        107
   132          4
   134          4
   136          3
   137         17
   139        888
   140         38
   141          7
   143         15
   151          8
   154          4
   155          7
   156          6
   162         19
   163          2
   168          3
   175          7
   181         44
   182          3
   184          2
   187          6
   193         14
   203          5
   212          3
   225          9
   231         30
   237          3
   243          5
   253          3
   265          8
   271          4
   281         10
   303         32
   304          3
   309         28
   331         41
   332          5
   348          4
   351        610
   352         50
   353         11
   373         14
   381         16
   401         16
   420         26
   421          3