##TITLE=Library Entry 60536
##JCAMP-DX=Revision 4.10 
##DATA TYPE=MASS SPECTRUM
##SAMPLE DESCRIPTION=NIST Mass Spectrometry Data Center, 1994
##NAMES=HP
##CAS NAME=Benzene, (5-chloropentyl)-
##MOLFORM=C11H15Cl
##CAS REGISTRY NO=15733-63-8
##MP= -300
##BP= -300
##MW= 182
##$RETENTION INDEX=1353
##$CONDENSED SPECTRUM=NO
##NPOINTS= 74
##XYDATA=(XY..XY) 1 
     4          2
    15          5
    18          1
    26         11
    27        117
    28         13
    29         33
    30          1
    35          2
    36          3
    37          2
    38         11
    39        135
    40         12
    41         74
    42          7
    49         32
    50         29
    51         83
    52         19
    53         15
    54          2
    55         57
    56          3
    57          1
    58          1
    61          3
    62         13
    63         48
    64         14
    65        149
    66         10
    67          3
    68          2
    69          1
    73          1
    74          2
    75          7
    76          8
    77         60
    78         61
    79         28
    80          2
    86          1
    87          2
    89         28
    91        999
    92        346
    93         45
    94          1
   101          1
   102          7
   103         24
   104         74
   105         55
   106          5
   115         21
   116          4
   117         17
   118          4
   119          8
   120          2
   125          1
   127          1
   128          3
   129          2
   131          3
   133          9
   134          1
   147          1
   182         89
   183         10
   184         30
   185          3