##TITLE=Library Entry 57510
##JCAMP-DX=Revision 4.10 
##DATA TYPE=MASS SPECTRUM
##SAMPLE DESCRIPTION=W.E. COLEMAN, US ENVIRON. PROT. AGENCY, CINCINNATI, OHI
O, USA
##NAMES=HP
##CAS NAME=4-Cyclopentene-1,3-dione, 2,2,4,5-tetrachloro-
##MOLFORM=C5Cl4O2
##CAS REGISTRY NO=15743-13-2
##MP= -300
##BP= -300
##MW= 232
##$RETENTION INDEX=0
##$CONDENSED SPECTRUM=NO
##NPOINTS= 100
##XYDATA=(XY..XY) 1 
    16          8
    18         13
    24         60
    25          5
    28         91
    29          9
    32          5
    35        262
    36        302
    37        115
    38         47
    40         75
    41         34
    42         10
    47        590
    48         64
    49        208
    50         11
    52        116
    53         23
    54          8
    59        227
    61         91
    63         43
    64         12
    65         12
    68         50
    69         39
    71        439
    72         44
    73        152
    75         91
    76         61
    77         26
    78         17
    80          5
    82        236
    83         49
    84        141
    85         25
    87        999
    89        375
    90         13
    94        462
    96        288
    98         52
    99         10
   103        169
   105          8
   106        330
   107         84
   108        171
   110        448
   112        267
   114         36
   118         27
   120         16
   122        145
   124        106
   126         16
   127         12
   129         10
   134          6
   136          6
   141        693
   143        702
   144         89
   145        192
   146         23
   147         20
   150          5
   157         11
   159          9
   164         16
   166         10
   169        178
   171        188
   172         24
   173         49
   174          7
   176        455
   178        597
   180        284
   182         59
   197         84
   198         73
   199         82
   200         65
   201         28
   202         20
   204         29
   206         35
   208          9
   232        257
   233         12
   234        340
   235         15
   236        150
   237          8
   238         31