##TITLE=Library Entry 48840
##JCAMP-DX=Revision 4.10 
##DATA TYPE=MASS SPECTRUM
##SAMPLE DESCRIPTION=A.G. HARRISON, UNIV. OF TORONTO, TORONTO 5, ONTARIO, CA
NADA
##NAMES=HP
##CAS NAME=3-Penten-1-yne, 3-methyl-
##MOLFORM=C6H8
##CAS REGISTRY NO=1574-33-0
##MP= -300
##BP= -300
##MW= 80
##$RETENTION INDEX=0
##$CONDENSED SPECTRUM=NO
##NPOINTS= 12
##XYDATA=(XY..XY) 1 
    39        507
    50        199
    51        292
    52        262
    53        165
    54         46
    63        101
    65        260
    77        502
    78         86
    79        999
    80        955