##TITLE=Library Entry 32334
##JCAMP-DX=Revision 4.10 
##DATA TYPE=MASS SPECTRUM
##SAMPLE DESCRIPTION=Exported from NIST MS Search
##NAMES=HP
##CAS NAME=1,3-Pentadiene, (Z)-
##MOLFORM=C5H8
##CAS REGISTRY NO=1574-41-0
##MP= -300
##BP= -300
##MW= 68
##$RETENTION INDEX=525
##$CONDENSED SPECTRUM=NO
##NPOINTS= 45
##XYDATA=(XY..XY) 1 
     1         37
     2          8
    12          7
    13          8
    14         19
    15         73
    16          2
    24          2
    25         12
    26         99
    27        427
    28         54
    29         47
    30          3
    31         72
    32         22
    33         14
    34         19
    36          9
    37         86
    38        169
    39        825
    40        434
    41        484
    42        249
    43          8
    48          3
    49         17
    50         69
    51         90
    52         52
    53        719
    54         31
    55          1
    60          8
    61         34
    62         46
    63         60
    64          9
    65        119
    66        119
    67        999
    68        758
    69         40
    70          1