##TITLE=Library Entry 76605
##JCAMP-DX=Revision 4.10 
##DATA TYPE=MASS SPECTRUM
##SAMPLE DESCRIPTION=Japan AIST/NIMC Database- Spectrum MS-IW-5266
##NAMES=HP
##CAS NAME=Hydrazinecarboxamide, 2-(phenylmethylene)-
##MOLFORM=C8H9N3O
##CAS REGISTRY NO=1574-10-3
##MP= -300
##BP= -300
##MW= 163
##$RETENTION INDEX=0
##$CONDENSED SPECTRUM=NO
##NPOINTS= 102
##XYDATA=(XY..XY) 1 
    13          1
    14          1
    15          3
    16         14
    17         31
    18         52
    26          6
    27         13
    28         38
    29         11
    30          2
    31          2
    32          1
    37          9
    38         19
    39         60
    40          9
    41         11
    42         78
    43        181
    44         72
    45          4
    46          3
    49          6
    50         78
    51        115
    52         33
    53          6
    54          6
    55          2
    56          1
    57          3
    59          4
    60        234
    61        243
    62         23
    63         59
    64         28
    65        119
    66         65
    67          8
    68          1
    69          2
    71          2
    73          6
    74         19
    75         40
    76        201
    77        256
    78         94
    79         13
    80         10
    81          2
    82          1
    83          2
    84          1
    85          2
    86          5
    87          4
    88          3
    89         87
    90         60
    91         60
    92        180
    93        213
    94         18
    95          2
    96          1
    97          2
    98          1
    99          6
   100          2
   101          2
   102         18
   103        999
   104        311
   105         39
   106          4
   109          1
   111          1
   112          1
   113          1
   116          1
   117          6
   118         21
   119        643
   120        475
   121         39
   122          1
   125          1
   127          1
   128          2
   137         10
   138          2
   139          3
   145          5
   146          8
   147          2
   162          3
   163        204
   164         21
   165          1