##TITLE=Library Entry 34359
##JCAMP-DX=Revision 4.10 
##DATA TYPE=MASS SPECTRUM
##SAMPLE DESCRIPTION=NIST Mass Spectrometry Data Center
##NAMES=HP
##CAS NAME=3,7,11-trimethyldodeca-2,6,10-trien-1-yl palmitate
##MOLFORM=C31H56O2
##CAS REGISTRY NO=157501-12-7
##MP= -300
##BP= -300
##MW= 460
##$RETENTION INDEX=3204
##$CONDENSED SPECTRUM=NO
##NPOINTS= 97
##XYDATA=(XY..XY) 1 
    27         22
    29         56
    39         44
    40         18
    41        427
    42         55
    43        354
    44         11
    51          9
    52          7
    53         68
    54         16
    55        264
    56         56
    57        310
    58         18
    60          9
    65         26
    66         11
    67        243
    68        329
    69        999
    70        100
    71        177
    72          8
    73         15
    77         48
    78         11
    79        117
    80        223
    81        421
    82         98
    83         88
    84         35
    85         87
    86          6
    91         59
    92        111
    93        345
    94         88
    95        162
    96         20
    97         51
    98         16
    99         23
   100          3
   106         28
   107        177
   108         90
   109        139
   110         21
   111         24
   112          6
   114          5
   119        136
   121        201
   122        106
   123        196
   124         38
   125         13
   133         88
   134         70
   135        195
   136        266
   137        100
   138         19
   143          4
   146          4
   147         68
   148         50
   149         44
   150          5
   160          5
   161        102
   162         26
   163          8
   175         21
   176         16
   177          7
   179          5
   189         91
   190         19
   203          6
   204         39
   205         14
   221          9
   239         20
   240          6
   257          4
   323          5
   336          3
   337          2
   376          3
   391          3
   392          2
   460          2
   462          1