##TITLE=Library Entry 20859
##JCAMP-DX=Revision 4.10 
##DATA TYPE=MASS SPECTRUM
##SAMPLE DESCRIPTION=O A MAMER, MCGILL UNIVERSITY, MONTREAL, CANA5
##NAMES=HP
##CAS NAME=2,3-Dimethyl-4-hydroxy-2-butenoic lactone
##MOLFORM=C6H8O2
##CAS REGISTRY NO=1575-46-8
##MP= -300
##BP= -300
##MW= 112
##$RETENTION INDEX=1861
##$CONDENSED SPECTRUM=NO
##NPOINTS= 47
##XYDATA=(XY..XY) 1 
    14          4
    15         19
    25          6
    26         48
    27        244
    28         37
    29        194
    30          9
    31         10
    37         24
    38         43
    39        269
    40         41
    41        105
    42         15
    43         25
    44          9
    45         11
    49         15
    50         71
    51         93
    52         50
    53        153
    54        126
    55        999
    56         63
    57          6
    61          7
    62          8
    63          9
    65         13
    66         13
    67         26
    68          5
    69         18
    73          2
    75          0
    81          4
    82         15
    83        527
    84         41
    85         16
    97          6
   100          5
   111          6
   112        373
   113         38