##TITLE=Library Entry 79470
##JCAMP-DX=Revision 4.10 
##DATA TYPE=MASS SPECTRUM
##SAMPLE DESCRIPTION=LAC, NIDDK, NIH, Bethesda, MD 20892
##NAMES=HP
##CAS NAME=Benzamide, N-acetyl-
##MOLFORM=C9H9NO2
##CAS REGISTRY NO=1575-95-7
##MP= -300
##BP= -300
##MW= 163
##$RETENTION INDEX=0
##$CONDENSED SPECTRUM=NO
##NPOINTS= 64
##XYDATA=(XY..XY) 1 
    41          6
    42         23
    43        227
    44         27
    45          2
    46          1
    47          0
    49          6
    50         76
    51        167
    52         20
    53          4
    54          2
    55          2
    56          1
    57          1
    60          0
    61          2
    62          4
    63          8
    64          4
    65         11
    66          5
    67          2
    69          6
    70          3
    73          4
    74         27
    75         17
    76         32
    77        433
    78         44
    79          7
    80          0
    83          0
    84          1
    86          0
    91          2
    92         10
    93         15
    94         15
    95          2
   100          0
   102          0
   103         10
   105        999
   106         74
   107          4
   121        146
   122         68
   123          5
   124          0
   130          0
   131          2
   134         36
   135         43
   136          4
   146          3
   148          2
   149          0
   162        199
   163        359
   164         36
   165          1