##TITLE=Library Entry 6990
##JCAMP-DX=Revision 4.10 
##DATA TYPE=MASS SPECTRUM
##SAMPLE DESCRIPTION=NIST Mass Spectrometry Data Center
##NAMES=HP
##CAS NAME=2-Vinylethyl acetate
##MOLFORM=C6H10O2
##CAS REGISTRY NO=1576-84-7
##MP= -300
##BP= -300
##MW= 114
##$RETENTION INDEX=797
##$CONDENSED SPECTRUM=NO
##NPOINTS= 35
##XYDATA=(XY..XY) 1 
    14         14
    15         76
    16          2
    25          1
    26         23
    27        101
    28         26
    29         59
    31         11
    32          1
    37          7
    38         19
    39        179
    40         20
    41         50
    42         40
    43        999
    45         10
    49          1
    50         12
    51         14
    52          6
    53         34
    54        330
    55         52
    56          2
    57          2
    60          1
    61          3
    69          2
    70          1
    71          2
    73        112
    74          3
    84          3