##TITLE=Library Entry 33330
##JCAMP-DX=Revision 4.10 
##DATA TYPE=MASS SPECTRUM
##SAMPLE DESCRIPTION=Japan AIST/NIMC Database- Spectrum MS-IW-7677
##NAMES=HP
##CAS NAME=CH3C(O)O(CH2)3CH=CH2
##MOLFORM=C7H12O2
##CAS REGISTRY NO=1576-85-8
##MP= -300
##BP= -300
##MW= 128
##$RETENTION INDEX=896
##$CONDENSED SPECTRUM=NO
##NPOINTS= 57
##XYDATA=(XY..XY) 1 
    14          4
    15         36
    18          3
    26          6
    27         54
    28         19
    29         38
    30          1
    31          9
    37          2
    38          7
    39        101
    40         63
    41        175
    42         61
    43        945
    44         49
    45          9
    50          4
    51          7
    52          5
    53        143
    54         15
    55         43
    56         10
    57         17
    58         10
    59          1
    61         42
    62          2
    63          2
    65          9
    66         18
    67        741
    68        999
    69         89
    70          8
    71         11
    72          6
    73         28
    74          1
    81          1
    82          1
    83          5
    84          3
    85          6
    86         34
    87         15
    88          1
    95          1
    97          1
    98         17
    99          1
   100          2
   110          1
   113          3
   129          3