##TITLE=Library Entry 23201
##JCAMP-DX=Revision 4.10 
##DATA TYPE=MASS SPECTRUM
##SAMPLE DESCRIPTION=FOOD RESEARCH REPORT 118, K.E. MURRAY & COLLEAGUES, DIV
. OF FOOD RESEARCH, CSIRO, AUSTRALIA
##NAMES=HP
##CAS NAME=2-Penten-1-ol, (E)-
##MOLFORM=C5H10O
##CAS REGISTRY NO=1576-96-1
##MP= -300
##BP= -300
##MW= 86
##$RETENTION INDEX=769
##$CONDENSED SPECTRUM=NO
##NPOINTS= 47
##XYDATA=(XY..XY) 1 
    25          3
    26         48
    27        299
    28         83
    29        305
    30         13
    31        143
    32          5
    37         25
    38         53
    39        338
    40         88
    41        338
    42         88
    43        130
    44        260
    45         35
    49          8
    50         42
    51         48
    52         19
    53        156
    54         34
    55        136
    56         47
    57        999
    58         58
    59          4
    61          8
    62         10
    63         13
    64          3
    65         27
    66         21
    67        175
    68        143
    69         22
    70          5
    71         42
    72          5
    81          3
    82          5
    83         12
    84         16
    85          5
    86        122
    87          6