##TITLE=Library Entry 68183
##JCAMP-DX=Revision 4.10 
##DATA TYPE=MASS SPECTRUM
##SAMPLE DESCRIPTION=Div. of Experiment Therapeutics WRAIR, WRAMC, Washingto
n DC 20307
##NAMES=HP
##CAS NAME=10,11-Epoxy-n-undecan-1-ol
##MOLFORM=C11H22O2
##CAS REGISTRY NO=15764-66-6
##MP= -300
##BP= -300
##MW= 186
##$RETENTION INDEX=0
##$CONDENSED SPECTRUM=NO
##NPOINTS= 70
##XYDATA=(XY..XY) 1 
    41        463
    42        121
    43        669
    44         95
    45        170
    53         45
    54        126
    55        631
    56         91
    57        314
    58         83
    59         43
    60          5
    61         30
    67        485
    68        200
    69        679
    70        119
    71        319
    73         53
    77         14
    79         93
    81        795
    82        186
    83        243
    84         54
    85        109
    86         21
    87         38
    91          6
    93         64
    95        999
    96        131
    97        166
    98         57
    99         36
   100          7
   101         16
   107         58
   108         19
   109        228
   110         43
   111         55
   112         18
   113         17
   121         58
   122         27
   123         35
   124         22
   125         33
   127          6
   135         52
   137        155
   138         23
   149         48
   150         44
   151        154
   152         37
   153         21
   155        131
   156         13
   167          7
   168         29
   169        250
   170         19
   171         38
   184         14
   185         58
   186        116
   187         14