##TITLE=Library Entry 62655
##JCAMP-DX=Revision 4.10 
##DATA TYPE=MASS SPECTRUM
##SAMPLE DESCRIPTION=Japan AIST/NIMC Database- Spectrum MS-IW-3671
##NAMES=HP
##CAS NAME=m-Nitro-N-tosylaniline
##MOLFORM=C13H12N2O4S
##CAS REGISTRY NO=1576-38-1
##MP= -300
##BP= -300
##MW= 292
##$RETENTION INDEX=0
##$CONDENSED SPECTRUM=NO
##NPOINTS= 116
##XYDATA=(XY..XY) 1 
    17         11
    18          1
    26          1
    27          5
    28          3
    29          1
    30          9
    32          1
    37          2
    38         12
    39         52
    40          6
    41         23
    42          1
    43          4
    44          2
    45          4
    48          2
    50          9
    51         24
    52         20
    53          7
    54          7
    55          3
    57          3
    61          2
    62         10
    63         69
    64         60
    65        181
    66         11
    67          4
    69          2
    70          1
    71          2
    74          2
    75          3
    76          3
    77         19
    78          9
    79         13
    80          7
    81          2
    82          1
    83          1
    85          1
    86          1
    87          2
    88          1
    89         33
    90         31
    91        999
    92         99
    93          5
    95          2
    96          1
    97          2
   105          2
   106          2
   107         10
   108          5
   109          1
   110          1
   111          3
   115          2
   119          1
   120          3
   121          2
   122          2
   123          2
   124          1
   125          1
   127          1
   128          2
   129          1
   137          4
   138          7
   139         30
   140          7
   141          2
   149          1
   151          1
   152          3
   153          3
   154          2
   155        674
   156         58
   157         33
   158          2
   166          3
   167          6
   168          2
   178          1
   179          2
   180          9
   181          9
   182          3
   183          1
   196          1
   197          2
   198          3
   199          1
   208          1
   210          1
   211          8
   212          1
   227          2
   228         12
   229          2
   246          2
   262          2
   276          1
   292        299
   293         49
   294         18
   295          2