##TITLE=Library Entry 23490
##JCAMP-DX=Revision 4.10 
##DATA TYPE=MASS SPECTRUM
##SAMPLE DESCRIPTION=NIST Mass Spectrometry Data Center
##NAMES=HP
##CAS NAME=2-Penten-1-ol, (Z)-
##MOLFORM=C5H10O
##CAS REGISTRY NO=1576-95-0
##MP= -300
##BP= -300
##MW= 86
##$RETENTION INDEX=767
##$CONDENSED SPECTRUM=NO
##NPOINTS= 53
##XYDATA=(XY..XY) 1 
    14          1
    15          8
    19          2
    25          1
    26         18
    27        118
    28         26
    29        207
    30          9
    31         88
    32          1
    35          1
    37         11
    38         28
    39        208
    40         47
    41        251
    42         66
    43        156
    44        224
    45         52
    46          2
    48          1
    49          6
    50         33
    51         40
    52         15
    53        115
    54         31
    55        149
    56         50
    57        999
    58         71
    59          5
    60          1
    61          3
    62          5
    63          7
    64          1
    65         16
    66          8
    67        139
    68        201
    69         28
    70          4
    71         51
    72          2
    81          1
    83          5
    84          1
    85          3
    86         29
    87          2