##TITLE=Library Entry 30844
##JCAMP-DX=Revision 4.10 
##DATA TYPE=MASS SPECTRUM
##SAMPLE DESCRIPTION=Exported from NIST MS Search
##NAMES=HP
##CAS NAME=2H-1,2-Oxazine, tetrahydro-2-methyl-6-phenyl-
##MOLFORM=C11H15NO
##CAS REGISTRY NO=15769-89-8
##MP= -300
##BP= -300
##MW= 177
##$RETENTION INDEX=0
##$CONDENSED SPECTRUM=NO
##NPOINTS= 24
##XYDATA=(XY..XY) 1 
    39         20
    41         10
    42         90
    43         30
    51         40
    60        999
    61         25
    77         45
    78         15
    91         45
   103         10
   104         11
   105         10
   115         15
   116         10
   117         30
   118         20
   129          6
   130          2
   131          5
   158         10
   159          7
   160          5
   177         50