##TITLE=Library Entry 20441
##JCAMP-DX=Revision 4.10 
##DATA TYPE=MASS SPECTRUM
##SAMPLE DESCRIPTION=Exported from NIST MS Search
##NAMES=HP
##CAS NAME=7-Octenoic acid, methyl ester
##MOLFORM=C9H16O2
##CAS REGISTRY NO=15766-90-2
##MP= -300
##BP= -300
##MW= 156
##$RETENTION INDEX=1117
##$CONDENSED SPECTRUM=NO
##NPOINTS= 41
##XYDATA=(XY..XY) 1 
    39        314
    40        805
    41        200
    42        485
    43        814
    44         71
    50         57
    51         71
    52         71
    53        200
    54        271
    55        999
    56        122
    57        742
    59        599
    67        194
    68        142
    71         71
    73        120
    74        999
    75         65
    79         37
    80         51
    81        134
    82        320
    83        162
    85         51
    87        220
    88         42
    94         57
    95        240
    96         77
   101         48
   114         48
   115         65
   116         34
   125        200
   126         94
   128         28
   141         20
   156         20