##TITLE=Library Entry 31049
##JCAMP-DX=Revision 4.10 
##DATA TYPE=MASS SPECTRUM
##SAMPLE DESCRIPTION=R.A.W. JOHNSTONE LIVERPOOL UNIVERSITY, LIVERPOOL, UK
##NAMES=HP
##CAS NAME=2H-1,2-Oxazine, tetrahydro-2-methyl-6-p-tolyl-
##MOLFORM=C12H17NO
##CAS REGISTRY NO=15769-90-1
##MP= -300
##BP= -300
##MW= 191
##$RETENTION INDEX=0
##$CONDENSED SPECTRUM=NO
##NPOINTS= 22
##XYDATA=(XY..XY) 1 
    42        100
    43         20
    51         20
    60        999
    61         25
    77         25
    78         10
    91         80
   105         30
   115         20
   116         10
   117         45
   118         14
   119         20
   127          6
   128         10
   131         20
   132        105
   133         10
   191         85
   192         11
   193          0