##TITLE=Library Entry 32145
##JCAMP-DX=Revision 4.10 
##DATA TYPE=MASS SPECTRUM
##SAMPLE DESCRIPTION=W.DILLING BRITTON LAB., DOW CHEM. CO., MIDLAND, MICH.,
 USA
##NAMES=HP
##CAS NAME=1,2,4-Metheno-1H-cyclobuta[cd]pentalen-3-ol, octahydro-, (1.alpha
.,1a.beta.,2.alpha.,3.beta.,3a.beta.,4.alpha.,5a.beta.,5b.beta.,6S*)-
##MOLFORM=C10H12O
##CAS REGISTRY NO=15776-05-3
##MP= -300
##BP= -300
##MW= 148
##$RETENTION INDEX=0
##$CONDENSED SPECTRUM=NO
##NPOINTS= 93
##XYDATA=(XY..XY) 1 
    15          3
    26          5
    27         69
    29         32
    30          1
    31         10
    37          3
    38         13
    39        148
    40         27
    41         83
    42         16
    43         17
    44          4
    45          3
    46          2
    47          1
    48          1
    49          1
    50         24
    51         78
    52         30
    53         65
    54         26
    55         60
    56          5
    57         52
    58          6
    59          3
    60          8
    61          3
    62          9
    63         36
    64         32
    65         84
    66        999
    67        195
    68         34
    69         33
    70         98
    71          4
    72          9
    73         11
    74          5
    75          6
    76          5
    77        129
    78         71
    79        172
    80         95
    81         94
    82        785
    83         98
    84          5
    86          2
    87          2
    89         13
    90          4
    91        243
    92        159
    93         24
    94         53
    95          9
    96          1
   101          2
   102         10
   103         40
   104         94
   105         75
   106         23
   107         36
   108          3
   115        139
   116         42
   117        265
   118         44
   119         92
   120         39
   121          7
   126          1
   127         19
   128         41
   129        132
   130        195
   131         41
   132          7
   133         77
   134          7
   145          3
   146          2
   147         30
   148         30
   149          3