##TITLE=Library Entry 9645
##JCAMP-DX=Revision 4.10 
##DATA TYPE=MASS SPECTRUM
##SAMPLE DESCRIPTION=NIST Mass Spectrometry Data Center
##NAMES=HP
##CAS NAME=1-Acetoxynonadecane
##MOLFORM=C21H42O2
##CAS REGISTRY NO=1577-43-1
##MP= -300
##BP= -300
##MW= 326
##$RETENTION INDEX=2308
##$CONDENSED SPECTRUM=NO
##NPOINTS= 122
##XYDATA=(XY..XY) 1 
    15          4
    26          2
    27         28
    28         12
    29         96
    30          3
    38          1
    39         33
    40         10
    41        341
    42        106
    43        999
    44         30
    45          7
    51          2
    52          1
    53         22
    54         78
    55        540
    56        280
    57        546
    58         35
    59          8
    61        464
    62         11
    63          2
    65          4
    66          9
    67        104
    68        145
    69        439
    70        251
    71        257
    72         15
    73         41
    74          2
    77          3
    78          1
    79         11
    80          5
    81         72
    82        267
    83        551
    84        181
    85        158
    86         11
    87          5
    88          2
    91          2
    93          2
    94          3
    95         38
    96        128
    97        529
    98        138
    99         39
   100          3
   101          7
   102          3
   107          1
   108          1
   109         16
   110         50
   111        290
   112         80
   113         22
   114          2
   115          2
   116         35
   117          2
   122          1
   123          9
   124         31
   125        135
   126         52
   127         13
   128          2
   129          2
   130          5
   136          1
   137          5
   138         20
   139         49
   140         31
   141          8
   142          1
   151          1
   152         12
   153         23
   154         21
   155          4
   156          1
   165          1
   166          9
   167         11
   168         14
   169          3
   180          5
   181          6
   182          9
   183          2
   194          4
   195          3
   196          5
   197          2
   208          2
   209          2
   210          5
   211          1
   222          2
   223          1
   224          2
   236          1
   237          1
   238         20
   239          4
   240          1
   254          1
   264          1
   266         15
   267          4
   311          1