##TITLE=Library Entry 24799
##JCAMP-DX=Revision 4.10 
##DATA TYPE=MASS SPECTRUM
##SAMPLE DESCRIPTION=Chemical Concepts
##NAMES=HP
##CAS NAME=2-t-Butyl-5-propyl-[1,3]dioxolan-4-one
##MOLFORM=C10H18O3
##CAS REGISTRY NO=157733-17-0
##MP= -300
##BP= -300
##MW= 186
##$RETENTION INDEX=1432
##$CONDENSED SPECTRUM=NO
##NPOINTS= 113
##XYDATA=(XY..XY) 1 
    26         20
    27        252
    28         27
    29        396
    30         13
    31         95
    37          5
    38         11
    39        192
    40         31
    41        528
    42        131
    43        427
    44         53
    45        145
    46          5
    50          8
    51         14
    52          7
    53         45
    54         22
    55        951
    56        180
    57        999
    58         55
    59         12
    60          5
    63          4
    65          7
    66          3
    67         21
    68         12
    69         82
    70        408
    71        243
    72         36
    73        618
    74         35
    75          5
    77         10
    78          4
    79         10
    80          3
    81         18
    82         15
    83         31
    84         26
    85        159
    86         33
    87         29
    88          3
    89          2
    91         17
    92          4
    93          4
    95         16
    96          9
    97         19
    98          9
    99         10
   100         14
   101        751
   102         56
   103         15
   104          4
   105         27
   106          7
   107          3
   109          8
   110          5
   111         10
   112          7
   113          7
   114          6
   115          8
   116          3
   117          7
   118          3
   119         18
   120          9
   121          3
   123          5
   124          3
   125          7
   126          4
   127          8
   128          8
   129        294
   130         24
   131          9
   132          3
   133          5
   134          6
   135          3
   137          4
   138          3
   139          3
   140          5
   141          8
   142         22
   143         11
   144         14
   145          4
   148          3
   149          4
   151          3
   152          4
   154          3
   155          4
   156          9
   157          5
   159          3
   160          4