##TITLE=Library Entry 18123
##JCAMP-DX=Revision 4.10 
##DATA TYPE=MASS SPECTRUM
##SAMPLE DESCRIPTION=V.A.Korolev, Moscow, Russia
##NAMES=HP
##CAS NAME=3-Bromo-5-phenyl-1H-1,2,4-triazole
##MOLFORM=C8H6BrN3
##CAS REGISTRY NO=15777-59-0
##MP= -300
##BP= -300
##MW= 223
##$RETENTION INDEX=0
##$CONDENSED SPECTRUM=NO
##NPOINTS= 77
##XYDATA=(XY..XY) 1 
    36          4
    37        129
    38        271
    39        799
    40         87
    41        187
    42         82
    43        111
    44         32
    45         20
    49         68
    50        730
    51        999
    52        233
    53         44
    54          8
    55         17
    56         11
    57          7
    60          6
    61        137
    62        393
    63        892
    64        242
    65        102
    66         26
    67         15
    68         10
    72          9
    73         27
    74        134
    75        222
    76        432
    77        819
    78         66
    79         58
    80         11
    81         53
    82         11
    84         12
    85         28
    86         47
    87         91
    88        190
    89        708
    90        118
    91        308
    92         57
    93         46
    94         25
    99          8
   100          5
   102         32
   103        229
   104        635
   105        158
   106         47
   107          7
   108         35
   112         14
   114         56
   115         49
   116        159
   117         41
   118        367
   119         30
   120         95
   122        104
   143          6
   144         69
   145         21
   194         18
   196         18
   223        360
   224         35
   225        355
   226         34