##TITLE=Library Entry 30909
##JCAMP-DX=Revision 4.10 
##DATA TYPE=MASS SPECTRUM
##SAMPLE DESCRIPTION=Japan AIST/NIMC Database- Spectrum MS-IW- 898
##NAMES=HP
##CAS NAME=5-Hexenoic acid
##MOLFORM=C6H10O2
##CAS REGISTRY NO=1577-22-6
##MP= -300
##BP= -300
##MW= 114
##$RETENTION INDEX=1893
##$CONDENSED SPECTRUM=NO
##NPOINTS= 76
##XYDATA=(XY..XY) 1 
    14          2
    15          9
    16          1
    18          2
    26         14
    27        131
    28         55
    29        142
    30          6
    31         13
    32          2
    33          1
    34          1
    37          6
    38         16
    39        262
    40         47
    41        463
    42        179
    43         92
    44         21
    45         98
    46          3
    47          3
    48          1
    49          1
    50          8
    51         12
    52          6
    53         71
    54        245
    55        917
    56         63
    57         64
    58         33
    59         21
    60        999
    61         34
    62          8
    63          4
    64          1
    65         11
    66          9
    67         77
    68        510
    69        218
    70         21
    71         41
    72         21
    73        308
    74         13
    75          2
    77          1
    79          2
    80          1
    81         33
    82          4
    83          2
    84          1
    85         13
    86         24
    87          4
    91          1
    93          1
    94          3
    95          9
    96        232
    97         47
    98          3
    99         84
   100          6
   112          1
   113          6
   114        149
   115         15
   116          1