##TITLE=Library Entry 2798
##JCAMP-DX=Revision 4.10 
##DATA TYPE=MASS SPECTRUM
##SAMPLE DESCRIPTION=Japan AIST/NIMC Database- Spectrum MS-NW-3273
##NAMES=HP
##CAS NAME=3-Hexenoic acid, (E)-
##MOLFORM=C6H10O2
##CAS REGISTRY NO=1577-18-0
##MP= -300
##BP= -300
##MW= 114
##$RETENTION INDEX=1021
##$CONDENSED SPECTRUM=NO
##NPOINTS= 87
##XYDATA=(XY..XY) 1 
    12          1
    13          1
    14          5
    15         25
    16          1
    17          4
    18         15
    19          1
    24          1
    25          3
    26         41
    27        310
    28         33
    29        288
    30          9
    31         27
    32          5
    33          3
    34          1
    36          5
    37         21
    38         49
    39        392
    40         83
    41        999
    42        310
    43        150
    44         16
    45        124
    46          4
    47          4
    48          1
    49          6
    50         34
    51         46
    52         20
    53        161
    54        101
    55        771
    56         44
    57        210
    58         33
    59         33
    60        441
    61         17
    62         11
    63         13
    64          3
    65         22
    66         12
    67        116
    68        474
    69        406
    70         29
    71         65
    72         30
    73        346
    74         14
    75          3
    76          1
    77          8
    78          2
    79          4
    80          2
    81         53
    82          5
    83          7
    84          3
    85         15
    86         21
    87          4
    91          5
    93          2
    94          1
    95         14
    96         85
    97         32
    98          4
    99        137
   100          9
   101          2
   111          3
   112          2
   113          9
   114        390
   115         29
   116          3