##TITLE=Library Entry 46230
##JCAMP-DX=Revision 4.10 
##DATA TYPE=MASS SPECTRUM
##SAMPLE DESCRIPTION=LAC, NIDDK, NIH, Bethesda, MD 20892
##NAMES=HP
##CAS NAME=Adenosine, 4'-methylaminoformyl-4'-deshydroxymethyl-N-[3-isothioc
yanatobenzyl]-
##MOLFORM=C19H19N7O4S
##CAS REGISTRY NO=157848-36-7
##MP= -300
##BP= -300
##MW= 441
##$RETENTION INDEX=0
##$CONDENSED SPECTRUM=NO
##NPOINTS= 176
##XYDATA=(XY..XY) 1 
    41        136
    42        101
    43        246
    44        690
    45        179
    46         83
    47         14
    48          6
    50         16
    51         19
    52         16
    53         31
    54         38
    55        214
    56        144
    57        219
    58        607
    59         82
    60        472
    61         21
    62         24
    63         21
    64         62
    65         23
    66         29
    67         45
    68         32
    69        105
    70         57
    71        148
    72         50
    73         94
    74         19
    76        999
    77         78
    78        110
    79         25
    80         15
    81         39
    82         43
    83         84
    84        139
    85        199
    86         35
    87         52
    88         23
    89         70
    90         27
    91         24
    92         15
    93         44
    94         23
    95         43
    96         29
    97         49
    98         23
    99         34
   100         33
   101         22
   102         27
   103         12
   104         28
   105         29
   106         31
   107         20
   108         14
   109         24
   110         15
   111         35
   112         24
   113         47
   114          8
   115         12
   116         25
   117         23
   118          6
   119         41
   120         86
   121         66
   122         14
   123         15
   124          9
   125         24
   126         12
   127         18
   128         14
   129         16
   130          6
   131         28
   132         11
   133         14
   134         13
   135         14
   136         20
   137          8
   138          5
   139          8
   140          8
   141         51
   142         19
   143          7
   145          8
   146          6
   147          3
   148        198
   149         67
   150         15
   151          6
   152         14
   153          8
   154          7
   155          8
   157          8
   159          9
   160         24
   161          8
   162         13
   163        162
   164         22
   165         13
   166          2
   167          9
   168          2
   169          3
   175          2
   177          2
   178          7
   179          3
   180          5
   181          2
   185          7
   190          2
   191          2
   192         11
   206         17
   219          6
   222          2
   223          6
   224         11
   227          5
   239         12
   240         24
   241          2
   249          8
   254          8
   255          2
   256         13
   258          2
   259          2
   266          8
   279          3
   281        118
   282        307
   283        141
   284         37
   285          8
   295          3
   311        118
   312         21
   313          9
   314          7
   323          2
   324          3
   325         81
   326         14
   327          7
   337          4
   341          2
   367          6
   384          2
   399          4
   404          3
   405         22
   406         11
   441         32
   442         13