##TITLE=Library Entry 68668
##JCAMP-DX=Revision 4.10 
##DATA TYPE=MASS SPECTRUM
##SAMPLE DESCRIPTION=Japan AIST/NIMC Database- Spectrum MS-NW-2207
##NAMES=HP
##CAS NAME=1,1,1-Trifluoro-4-(2-furyl)-4-hydroxy-3-buten-2-one
##MOLFORM=C8H5F3O3
##CAS REGISTRY NO=15788-03-1
##MP= -300
##BP= -300
##MW= 206
##$RETENTION INDEX=0
##$CONDENSED SPECTRUM=NO
##NPOINTS= 99
##XYDATA=(XY..XY) 1 
    12          1
    13          2
    14          9
    15          3
    17          1
    18          3
    20          2
    25          4
    26         12
    27         72
    28         27
    29         43
    30          1
    31         10
    32          3
    33          4
    36          3
    37         33
    38         80
    39        272
    40         21
    41         28
    42         36
    43          6
    44          8
    45          5
    46          1
    47          3
    48          1
    49          7
    50         26
    51         50
    52         23
    53        107
    54          9
    55         29
    56          3
    57          3
    60          2
    61          9
    62         12
    63         29
    64         10
    65         50
    66         13
    67         30
    68         43
    69        738
    70         26
    71          7
    73          1
    74          2
    75          6
    77          4
    78          1
    79         13
    80          8
    81         41
    82          3
    83          5
    84          2
    89          4
    91         13
    92         12
    93         11
    94          2
    95        999
    96         54
    97          7
    99          4
   101          5
   102          1
   107          2
   108         12
   109          6
   110          9
   111          1
   117          1
   119          7
   120          2
   121          1
   123          1
   136          3
   137        887
   138         65
   139         16
   140          1
   149          7
   150          1
   152          1
   159          1
   177          2
   178         16
   179          1
   189          2
   205          2
   206        453
   207         41
   208          4