##TITLE=Library Entry 85957
##JCAMP-DX=Revision 4.10 
##DATA TYPE=MASS SPECTRUM
##SAMPLE DESCRIPTION=NIST Mass Spectrometry Data Center, 1994
##NAMES=HP
##CAS NAME=.alpha.-Fluorophenylacetic acid
##MOLFORM=C8H7FO2
##CAS REGISTRY NO=1578-63-8
##MP= -300
##BP= -300
##MW= 154
##$RETENTION INDEX=0
##$CONDENSED SPECTRUM=NO
##NPOINTS= 61
##XYDATA=(XY..XY) 1 
    16          1
    17          3
    18          6
    29         12
    31         14
    33          6
    37         13
    43          5
    44         32
    45         59
    49          7
    50         58
    51         64
    52         12
    53          5
    55          6
    56          5
    57         82
    58          5
    59         26
    60          4
    61         19
    62         42
    63         81
    64         13
    65         14
    68          4
    69          6
    70         11
    73          6
    74         16
    75          9
    76          7
    77         33
    78          8
    79         11
    80          4
    81         29
    82          4
    83        206
    84         12
    85          6
    86          9
    87          7
    88          4
    89         77
    90         51
    91         46
    92          8
    94          3
   105         11
   106          6
   107         46
   108          3
   109        999
   110        106
   111          7
   118          8
   136          9
   154        175
   155         17