##TITLE=Library Entry 59733
##JCAMP-DX=Revision 4.10 
##DATA TYPE=MASS SPECTRUM
##SAMPLE DESCRIPTION=A.A.Kutin, Moscow, Russia
##NAMES=HP
##CAS NAME=2-Pentenoic acid, 2-cyano-3-methyl-5-phenyl-, ethyl ester
##MOLFORM=C15H17NO2
##CAS REGISTRY NO=157871-49-3
##MP= -300
##BP= -300
##MW= 243
##$RETENTION INDEX=0
##$CONDENSED SPECTRUM=NO
##NPOINTS= 188
##XYDATA=(XY..XY) 1 
    33          1
    34          1
    35          1
    36          3
    37          4
    38         12
    39         58
    40         24
    41         33
    42         25
    43         41
    44         59
    45         14
    46          3
    47          0
    48          1
    50         16
    51         38
    52         20
    53         12
    54          4
    55          8
    56          6
    57          6
    58          5
    59          2
    60          2
    61          3
    62          6
    63         20
    64         15
    65         96
    66         12
    67          7
    68          8
    69          4
    70          4
    71          3
    72          1
    73          1
    74          4
    75          4
    76          8
    77         34
    78         25
    79         13
    80          3
    81          2
    82          2
    83          3
    84          4
    85          2
    86          3
    87          2
    89         23
    91        999
    92         73
    93          4
    94          3
    95          2
    96          3
    97          1
    98          3
    99          4
   100          9
   101          4
   102          6
   103         13
   104         17
   105         20
   106          3
   107          6
   108          2
   109          1
   110          1
   111          2
   112          2
   113          1
   115         15
   116          4
   117          6
   118          1
   119          1
   120          2
   121          1
   122          2
   123          2
   124          3
   125          2
   126          6
   127         10
   128         14
   129         12
   130          9
   131         31
   132          8
   133          3
   134          1
   135          1
   136          0
   137          1
   138          1
   139          3
   140          4
   141          6
   142          5
   143          5
   144          3
   145          1
   146          1
   147          2
   148          6
   149          1
   150          0
   151          1
   152          5
   153          6
   154          9
   155          3
   156          3
   157          1
   158          0
   159          0
   161          3
   162          0
   163          2
   164          0
   165          2
   166          2
   167          4
   168         10
   169          8
   170         13
   171          7
   172          2
   173          1
   174          0
   175          0
   176          0
   177          0
   178          0
   179          0
   180          1
   181          1
   182          3
   183          1
   184          1
   185          1
   186          0
   187          0
   188          0
   189          0
   190          0
   191          1
   192          0
   193          0
   194          0
   195          1
   196          5
   197         17
   198         13
   199          2
   200          3
   201          0
   210          1
   211          0
   212          0
   213          0
   214          1
   215          0
   216          0
   220          0
   221          1
   222          0
   224          0
   226          0
   228         21
   229          3
   230          0
   236          0
   237          1
   238          0
   239          0
   240          0
   241          2
   243         52
   244          7
   245          0