##TITLE=Library Entry 71734
##JCAMP-DX=Revision 4.10 
##DATA TYPE=MASS SPECTRUM
##SAMPLE DESCRIPTION=Japan AIST/NIMC Database- Spectrum MS-IW-7653
##NAMES=HP
##CAS NAME=Ethyl hexadecanedioate
##MOLFORM=C20H38O4
##CAS REGISTRY NO=15786-31-9
##MP= -300
##BP= -300
##MW= 342
##$RETENTION INDEX=2391
##$CONDENSED SPECTRUM=NO
##NPOINTS= 249
##XYDATA=(XY..XY) 1 
    15          3
    17          9
    18         48
    26          5
    27         30
    28         22
    29        146
    30          4
    31         10
    39         15
    40          4
    41        193
    42         45
    43        216
    44          9
    45         61
    46          3
    47          1
    53         11
    54         26
    55        385
    56         55
    57        148
    58         20
    59         28
    60        118
    61        104
    62          3
    63          1
    65          2
    66          3
    67         93
    68         44
    69        302
    70        139
    71         92
    72          8
    73        119
    74         33
    75          6
    76          1
    77          4
    78          3
    79         26
    80         31
    81        127
    82         48
    83        251
    84        295
    85         64
    86          7
    87         44
    88        396
    89         53
    90          4
    91         12
    92          4
    93         40
    94         52
    95        133
    96         86
    97        257
    98        999
    99        101
   100          9
   101        230
   102         22
   103          2
   104          1
   105          7
   106          4
   107         46
   108         61
   109        108
   110         50
   111        175
   112        380
   113         50
   114          8
   115         60
   116         14
   117          3
   118          1
   119         13
   120          8
   121         88
   122         34
   123         69
   124         40
   125        121
   126        123
   127         26
   128         13
   129         57
   130         30
   131          7
   132          2
   133         19
   134         12
   135         99
   136         23
   137         42
   138         29
   139         65
   140         84
   141         19
   142         11
   143         53
   144         54
   145          8
   146          2
   147         15
   148         13
   149         75
   150         20
   151         28
   152         45
   153         61
   154        156
   155         40
   156          9
   157         67
   158         53
   159          7
   160          1
   161          6
   162          4
   163         16
   164         15
   165         18
   166         48
   167         81
   168        122
   169         20
   170         11
   171         46
   172         50
   173          7
   175          5
   176          5
   177          9
   178          8
   179         11
   180         21
   181         20
   182         22
   183          7
   184         12
   185         34
   186         26
   187          5
   189          7
   190         20
   191        156
   192         25
   193          8
   194         10
   195         11
   196          6
   197          5
   198         40
   199         78
   200         20
   201          3
   203          4
   204          5
   205         37
   206         11
   207         11
   208        116
   209        243
   210         38
   211          9
   212         31
   213         98
   214         21
   215          7
   216          1
   217          2
   219          2
   220          2
   221          6
   222         46
   223         45
   224          9
   225          6
   226          8
   227         17
   228          9
   229          2
   231          3
   232          8
   233          6
   234          1
   235          2
   236          5
   237          4
   238          2
   239          4
   240         71
   241         37
   242         58
   243          9
   248          2
   249         19
   250        128
   251         56
   252         14
   253         10
   254         91
   255        679
   256        125
   257         13
   258          1
   263          1
   264          2
   265          1
   266          1
   267          2
   268         11
   269         34
   270         50
   271          9
   272          1
   278          8
   279          2
   280          1
   281          1
   282          5
   283         37
   284          7
   285          2
   294          1
   295          5
   296         89
   297        747
   298        152
   299         21
   300          3
   310          2
   311          9
   312          2
   324          1
   325          5
   326          1
   341          1
   342         51
   343         25
   344          5