##TITLE=Library Entry 46807
##JCAMP-DX=Revision 4.10 
##DATA TYPE=MASS SPECTRUM
##SAMPLE DESCRIPTION=Susan Richardson
##NAMES=HP
##CAS NAME=1,1-Dibromo-3-chloropropanone
##MOLFORM=C3H3Br2ClO
##CAS REGISTRY NO=1578-18-3
##MP= -300
##BP= -300
##MW= 248
##$RETENTION INDEX=0
##$CONDENSED SPECTRUM=NO
##NPOINTS= 38
##XYDATA=(XY..XY) 1 
    36          8
    37          3
    38          1
    42         83
    47          4
    48          9
    49        116
    51         23
    76         47
    77        999
    78         30
    79        324
    80         15
    92         31
    94         29
   104          4
   105         15
   106          5
   107         16
   120         52
   121         33
   122         44
   123         28
   170          8
   171         51
   172         10
   173         98
   174          3
   175         50
   199          7
   201         17
   203          8
   248         17
   250         38
   251          1
   252         28
   253          1
   254          6