##TITLE=Library Entry 54786
##JCAMP-DX=Revision 4.10 
##DATA TYPE=MASS SPECTRUM
##SAMPLE DESCRIPTION=Exported from NIST MS Search
##NAMES=HP
##CAS NAME=Butanethioic acid, 3-oxo-, S-propyl ester
##MOLFORM=C7H12O2S
##CAS REGISTRY NO=15780-61-7
##MP= -300
##BP= -300
##MW= 160
##$RETENTION INDEX=0
##$CONDENSED SPECTRUM=NO
##NPOINTS= 13
##XYDATA=(XY..XY) 1 
    27         80
    28        150
    39         50
    41        120
    42        110
    43        970
    69         80
    76        110
    84        100
    85        999
    86         50
   118        120
   160        240