##TITLE=Library Entry 33369
##JCAMP-DX=Revision 4.10 
##DATA TYPE=MASS SPECTRUM
##SAMPLE DESCRIPTION=Chemical Concepts
##NAMES=HP
##CAS NAME=1,5,9-Cyclododecatriene, 1-methyl-, (E,E,E)-
##MOLFORM=C13H20
##CAS REGISTRY NO=15782-27-1
##MP= -300
##BP= -300
##MW= 176
##$RETENTION INDEX=1345
##$CONDENSED SPECTRUM=NO
##NPOINTS= 82
##XYDATA=(XY..XY) 1 
    26          6
    27        150
    29         65
    30          1
    37          1
    38          6
    39        260
    40         58
    41        307
    42         36
    43         13
    50         10
    51         39
    52         25
    53        183
    54        691
    55        109
    56          4
    57          1
    59          1
    62          3
    63         13
    64          3
    65         53
    66         73
    67        446
    68        999
    69         65
    70          2
    71          1
    74          1
    75          3
    76          3
    77         88
    78         43
    79        259
    80        183
    81        138
    82         12
    83          5
    89          3
    90          2
    91        112
    92         41
    93        320
    94        153
    95         57
    96          8
    97          2
   102          1
   103          4
   104          4
   105         69
   106         44
   107        173
   108         55
   109         23
   110          3
   115          3
   116          1
   117          4
   118          1
   119         47
   120         29
   121         30
   122         20
   123          2
   128          1
   131          1
   132          1
   133         47
   134         50
   135         24
   136          1
   147         84
   148         35
   149          3
   161        137
   162         20
   175          2
   176         21
   177          2