##TITLE=Library Entry 54787
##JCAMP-DX=Revision 4.10 
##DATA TYPE=MASS SPECTRUM
##SAMPLE DESCRIPTION=Exported from NIST MS Search
##NAMES=HP
##CAS NAME=Butanethioic acid, 3-oxo-, S-(1-methylethyl) ester
##MOLFORM=C7H12O2S
##CAS REGISTRY NO=15780-62-8
##MP= -300
##BP= -300
##MW= 160
##$RETENTION INDEX=0
##$CONDENSED SPECTRUM=NO
##NPOINTS= 29
##XYDATA=(XY..XY) 1 
    27         57
    28        102
    39         42
    40         10
    41         85
    42         25
    43        863
    44         32
    45         14
    57         46
    58         19
    61         38
    69         70
    70          8
    74         17
    75         32
    76        138
    77         19
    84         44
    85        999
    86         66
   118         44
   119          4
   132         85
   133          6
   134          2
   160        341
   161         53
   162         19