##TITLE=Library Entry 70027
##JCAMP-DX=Revision 4.10 
##DATA TYPE=MASS SPECTRUM
##SAMPLE DESCRIPTION=Japan AIST/NIMC Database- Spectrum MS-IW-2865
##NAMES=HP
##CAS NAME=2-Pentenoic acid, 4-methyl-, ethyl ester, (E)-
##MOLFORM=C8H14O2
##CAS REGISTRY NO=15790-86-0
##MP= -300
##BP= -300
##MW= 142
##$RETENTION INDEX=0
##$CONDENSED SPECTRUM=NO
##NPOINTS= 91
##XYDATA=(XY..XY) 1 
    14          2
    15         11
    17          1
    18          6
    19          1
    25          1
    26         25
    27        199
    28         54
    29        324
    30          9
    31         13
    32          7
    37          3
    38         12
    39        162
    40         29
    41        708
    42         65
    43        208
    44          9
    45         45
    46          1
    47          2
    49          2
    50         17
    51         36
    52         19
    53        151
    54         52
    55        170
    56        122
    57         34
    58          9
    59        334
    60         22
    61          3
    62          2
    63          3
    64          1
    65         13
    66          7
    67        128
    68        117
    69        821
    70         61
    71        116
    72         22
    73        100
    74          5
    75          2
    76          4
    77          4
    79         13
    80          3
    81        144
    82         25
    83         23
    84          3
    85         31
    86          7
    87        137
    88         11
    89          1
    91          1
    93          1
    94          1
    95         79
    96        164
    97        999
    98         77
    99        259
   100         17
   101         21
   102          2
   104          1
   109          1
   110          1
   111          6
   112          3
   113        150
   114        527
   115         61
   116          6
   117          1
   127         27
   128          2
   141          8
   142        431
   143         45
   144          3