##TITLE=Library Entry 16013
##JCAMP-DX=Revision 4.10 
##DATA TYPE=MASS SPECTRUM
##SAMPLE DESCRIPTION=R RYHAGE MS-LAB KAROLINSKA INSTITUTET STOCKHOLM SWEDEN
##NAMES=HP
##CAS NAME=Terodiline
##MOLFORM=C20H27N
##CAS REGISTRY NO=15793-40-5
##MP= -300
##BP= -300
##MW= 281
##$RETENTION INDEX=1953
##$CONDENSED SPECTRUM=NO
##NPOINTS= 168
##XYDATA=(XY..XY) 1 
    13          2
    14         14
    17         16
    18         20
    24          0
    26         16
    27          6
    29         60
    30         12
    38          0
    39         23
    41         91
    42         63
    43          6
    44        999
    45         20
    50         10
    51         20
    52          9
    53          6
    54          2
    55         10
    56          9
    57        112
    58        139
    59          5
    62          0
    63          4
    65          9
    67          1
    68          1
    70         16
    71          8
    72          8
    74          4
    75          1
    76          6
    77         25
    78         16
    80          0
    84         14
    86         10
    88          3
    89          6
    90          4
    91         88
    92          4
    95          0
    96          2
    97          1
    98          3
    99          4
   100        620
   101         49
   102         12
   103         33
   104         17
   105         42
   106          3
   107          1
   109          1
   113          4
   114          3
   115         24
   116          3
   117          1
   121          0
   122          0
   125          1
   126          1
   128         11
   129          4
   130         21
   131         10
   132          4
   133         13
   135          2
   136          0
   137          0
   138          0
   139          6
   140          1
   141          1
   142          1
   146          2
   147          1
   149         19
   150          3
   151          4
   152         48
   153          4
   154          1
   155          0
   156          0
   157          0
   158          0
   160          2
   162          1
   163          5
   164          6
   165         77
   166         41
   167        285
   168         44
   169          4
   175          1
   176          3
   177          1
   178         14
   179         17
   180          3
   181          5
   182          1
   183          0
   188          1
   189          0
   190          0
   191          3
   192          1
   193         23
   194          3
   197          0
   198          1
   202          1
   203          2
   204          3
   205          3
   206          4
   207         20
   208         57
   209          9
   210          2
   211          0
   212          0
   216          0
   217          0
   221          0
   222          6
   223          3
   224          1
   225          1
   228          1
   233          0
   234          0
   235          0
   236          1
   237          2
   244          0
   245          0
   246          1
   249          0
   250          0
   251          2
   255          0
   262          0
   263          0
   264          1
   265         92
   266        198
   267         41
   268          4
   276          0
   278          1
   279          1
   280        132
   281        107
   282         31
   283          7