##TITLE=Library Entry 24802
##JCAMP-DX=Revision 4.10 
##DATA TYPE=MASS SPECTRUM
##SAMPLE DESCRIPTION=W.Buchmann ET AL. 48th ASMS
##NAMES=HP
##CAS NAME=2,4,4,6,6,8,8-Heptamethyl-1-nonene
##MOLFORM=C16H32
##CAS REGISTRY NO=15796-04-0
##MP= -300
##BP= -300
##MW= 224
##$RETENTION INDEX=0
##$CONDENSED SPECTRUM=NO
##NPOINTS= 57
##XYDATA=(XY..XY) 1 
    50         14
    51         59
    52          6
    53         39
    54         14
    55        314
    56         83
    57        999
    58         44
    65          6
    66          6
    67         30
    68          8
    69         79
    70         11
    71         33
    72          5
    74          3
    77          8
    79         20
    80          5
    81         25
    82          8
    83        117
    84         79
    85         19
    86         38
    87          6
    88         11
    91          6
    92          3
    93          6
    95         13
    96         14
    97        222
    98         28
    99         16
   102          3
   104          3
   105          6
   108          6
   110         11
   111         21
   112         77
   113        228
   114         22
   119          6
   126          6
   137          6
   138          3
   139          6
   152          7
   153         17
   165          3
   167          7
   168         26
   169          9