##TITLE=Library Entry 11484
##JCAMP-DX=Revision 4.10 
##DATA TYPE=MASS SPECTRUM
##SAMPLE DESCRIPTION=Div. of Experiment Therapeutics WRAIR, WRAMC, Washingto
n DC 20307
##NAMES=HP
##CAS NAME=O,O-Dibutyl S-(2-acetamidoethylmercapto) phosphorodithioate
##MOLFORM=C12H26NO3PS3
##CAS REGISTRY NO=15790-99-5
##MP= -300
##BP= -300
##MW= 359
##$RETENTION INDEX=0
##$CONDENSED SPECTRUM=NO
##NPOINTS= 116
##XYDATA=(XY..XY) 1 
    41        282
    42        143
    43        999
    44        745
    45        124
    46         42
    47         67
    48         17
    49          5
    51          4
    53         10
    54         12
    55         94
    56        119
    57        228
    58         29
    59         83
    60        315
    61         31
    62          4
    63          6
    64         52
    65         23
    66          6
    69          5
    70          4
    71          6
    72        193
    73         21
    74         68
    75         43
    76        246
    77         34
    78         44
    79         18
    80          6
    81         30
    82         17
    83         13
    84          9
    85         10
    86        603
    87         87
    88         46
    89         25
    90          9
    91         18
    92         11
    93          7
    95          4
    96          8
    97         32
    98          2
    99        167
   101          4
   102          2
   103          4
   105          1
   106          9
   107          9
   108         44
   109         66
   110          8
   111         15
   112          5
   113         11
   114         23
   115        239
   116         15
   117         36
   118        747
   119        106
   120         50
   121         11
   122          4
   123          2
   124          1
   125          7
   127          5
   128         11
   129          9
   130         11
   131        122
   132          1
   133         13
   135          4
   137          5
   141         15
   148          6
   150         17
   151         77
   152          7
   153         13
   155          6
   160          5
   165          3
   169          4
   170          4
   171         29
   177          4
   180          8
   183          8
   185          2
   187         52
   188          1
   189          5
   192          2
   195          6
   226          1
   227          5
   236          6
   237          6
   242          5
   243          5
   269          7
   301          1