##TITLE=Library Entry 2343
##JCAMP-DX=Revision 4.10 
##DATA TYPE=MASS SPECTRUM
##SAMPLE DESCRIPTION=NIST Mass Spectrometry Data Center, 1994
##NAMES=HP
##CAS NAME=trans-2-undecenoic acid
##MOLFORM=C11H20O2
##CAS REGISTRY NO=15790-94-0
##MP= -300
##BP= -300
##MW= 184
##$RETENTION INDEX=0
##$CONDENSED SPECTRUM=NO
##NPOINTS= 87
##XYDATA=(XY..XY) 1 
    15         22
    17          9
    18          8
    26         31
    27        434
    28        103
    29        703
    30         20
    31         26
    38         21
    39        405
    40         94
    41        999
    42        262
    43        829
    44         54
    45        134
    50         14
    51         34
    52         22
    53        140
    54        115
    55        625
    56        387
    57        532
    58         45
    59         19
    60         54
    61         13
    63          8
    65         23
    66         25
    67        175
    68        235
    69        319
    70        305
    71        100
    72          8
    73        648
    74         32
    77         21
    78          7
    79         42
    80         33
    81        171
    82        204
    83        241
    84        266
    85         57
    86        243
    87         87
    88         14
    93         17
    94         21
    95        120
    96        143
    97        123
    98        142
    99        162
   100         72
   101         58
   102         16
   108          6
   109         52
   110         63
   111         39
   112         71
   113        103
   114         67
   115         29
   116         21
   119         17
   122         45
   123         77
   124        108
   125         31
   126         17
   127         42
   128          8
   129         10
   133          7
   137         52
   138         15
   141         11
   148         13
   166         14
   167          8