##TITLE=Library Entry 82148
##JCAMP-DX=Revision 4.10 
##DATA TYPE=MASS SPECTRUM
##SAMPLE DESCRIPTION=Chemical Concepts
##NAMES=HP
##CAS NAME=Diboroxide, bis-B-benzoyloxy-bis-B-ethyl-
##MOLFORM=C18H20B2O5
##CAS REGISTRY NO=157945-04-5
##MP= -300
##BP= -300
##MW= 338
##$RETENTION INDEX=0
##$CONDENSED SPECTRUM=NO
##NPOINTS= 137
##XYDATA=(XY..XY) 1 
    26          1
    27         10
    28          0
    29          7
    37          0
    38          1
    39          4
    40          6
    41          1
    42          0
    44          0
    45          1
    47          0
    49          0
    50         13
    51         64
    52          4
    53          1
    54          2
    55          7
    56          1
    57          3
    61          0
    62          0
    63          1
    64          0
    65          1
    66          0
    67          0
    68          0
    69          0
    73          0
    74          2
    75          4
    76         20
    77        349
    78         25
    79          1
    80          0
    81          0
    82          1
    83          2
    84          0
    87          0
    89          0
    90          0
    91          2
    92          2
    93          0
    94          0
   102          0
   103          1
   104          8
   105        999
   106         77
   107          4
   108          0
   109          0
   110          1
   111          3
   112          2
   113          0
   117          0
   118          0
   119          0
   120          1
   121          0
   122         19
   123          1
   124          0
   130          0
   131          0
   133          0
   134          0
   136          0
   137          2
   138          7
   139          8
   140          1
   146          0
   147          0
   148          0
   152          0
   153          0
   154          5
   155          8
   156          0
   166          1
   167          5
   168          6
   169          0
   174          1
   175          1
   176          0
   177          0
   181          0
   183          0
   186          0
   187          0
   188          0
   189          0
   198          0
   201          0
   202          1
   203          3
   204          3
   205          2
   207          0
   208          0
   214          2
   215         13
   216         36
   217         42
   218          5
   219          0
   252          0
   253          0
   258          0
   259          1
   260          0
   262          0
   263          0
   264          1
   265          3
   266          0
   267          0
   281          0
   289          0
   306          0
   307         27
   308        235
   309        479
   310         84
   311         12
   312          1
   313          0
   323          0