##TITLE=Library Entry 5294
##JCAMP-DX=Revision 4.10 
##DATA TYPE=MASS SPECTRUM
##SAMPLE DESCRIPTION=V.A.Korolev, Moscow, Russia
##NAMES=HP
##CAS NAME=4-Bromo-1-methylpyrazole
##MOLFORM=C4H5BrN2
##CAS REGISTRY NO=15803-02-8
##MP= -300
##BP= -300
##MW= 160
##$RETENTION INDEX=0
##$CONDENSED SPECTRUM=NO
##NPOINTS= 75
##XYDATA=(XY..XY) 1 
    36         79
    37        322
    38        716
    39        183
    40        165
    41         16
    42        999
    43        320
    44          7
    45         19
    50         98
    51        422
    52        541
    53        191
    54        407
    55         37
    56          9
    57          4
    62          1
    63          2
    64         13
    65         23
    66         49
    67          8
    68          9
    69          2
    71          1
    76          8
    77         27
    79        241
    80        260
    81        446
    82         45
    83          4
    91         80
    92         20
    93         83
    94         18
    95         16
    96          2
   103         16
   104         51
   105         77
   106         95
   107         67
   108         45
   110         10
   111          1
   116         29
   117         46
   118        116
   119         81
   120         97
   121         36
   122          7
   129          3
   130         29
   131         28
   132        138
   133         35
   134        134
   135         11
   144          6
   145          6
   146          6
   147          6
   148          1
   155          1
   157          3
   158          2
   159        227
   160        805
   161        245
   162        774
   163         43