##TITLE=Library Entry 84665
##JCAMP-DX=Revision 4.10 
##DATA TYPE=MASS SPECTRUM
##SAMPLE DESCRIPTION=V.Zaikin,Inst.Petrochem.Synth.,RAS,Moscow
##NAMES=HP
##CAS NAME=Hexanoic acid, 2-methylphenyl ester
##MOLFORM=C13H18O2
##CAS REGISTRY NO=15806-41-4
##MP= -300
##BP= -300
##MW= 206
##$RETENTION INDEX=0
##$CONDENSED SPECTRUM=NO
##NPOINTS= 74
##XYDATA=(XY..XY) 1 
    25          7
    26         53
    27        253
    28         31
    29        211
    30          6
    39        189
    40         61
    41        290
    42        121
    43        975
    44         76
    50         34
    51         82
    52         52
    53         50
    54          9
    55        225
    56         28
    57         22
    59          2
    60         41
    61          6
    62         11
    63         31
    64         11
    65         65
    66         22
    67          4
    68          3
    69         45
    70         23
    71        387
    72         22
    73         30
    74         10
    75          9
    76          4
    77        110
    78         50
    79         80
    80         23
    81         14
    82         10
    83         14
    87          5
    89         12
    90         27
    91         75
    92         11
    93         13
    94        185
    95         22
    96          3
    97          4
    98         15
    99        448
   100         31
   101         11
   102          4
   103          2
   104          2
   105         16
   106          9
   107        101
   108        999
   109        101
   110         13
   111          2
   135         13
   136          4
   150          5
   206         60
   207         11