##TITLE=Library Entry 71318
##JCAMP-DX=Revision 4.10 
##DATA TYPE=MASS SPECTRUM
##SAMPLE DESCRIPTION=Chemical Concepts
##NAMES=HP
##CAS NAME=1-Propanone, 3-(1-piperidyl)-1-(2,4,6-trimethylphenyl)-
##MOLFORM=C17H25NO
##CAS REGISTRY NO=158176-63-7
##MP= -300
##BP= -300
##MW= 259
##$RETENTION INDEX=0
##$CONDENSED SPECTRUM=NO
##NPOINTS= 115
##XYDATA=(XY..XY) 1 
    26          2
    27         23
    28         16
    29         25
    30         16
    35          9
    36         58
    37          3
    38         17
    39         24
    40          3
    41        109
    42         61
    43         41
    44         23
    45          8
    50          4
    51         11
    52          5
    53         13
    54         11
    55         84
    56         36
    57         42
    58          3
    60          5
    63          6
    64          2
    65         14
    66          3
    67         12
    68         10
    69         50
    70         27
    71         14
    73          4
    74          2
    75          2
    76          3
    77         31
    78         11
    79         14
    80          3
    81         12
    82         11
    83         23
    84         82
    85         62
    87          2
    89          3
    90          2
    91         52
    92          5
    93          9
    94          3
    95         10
    96         38
    97        166
    98        999
    99         64
   100          2
   102          3
   103         17
   104         15
   105         10
   107          2
   109          7
   110          9
   111         22
   112        137
   113         13
   115         23
   116          8
   117         22
   118         10
   119         82
   120          9
   121          3
   123          4
   124          2
   125          4
   127          2
   128          5
   129          7
   130          3
   131          5
   132          3
   133         14
   134          2
   135          2
   137          3
   138          2
   139          2
   140          2
   141          3
   142          2
   143          2
   144          6
   145          6
   146          6
   147         92
   148         11
   149          3
   158          4
   159         44
   160          7
   161          2
   173          9
   174         37
   175          7
   244          3
   258          8
   259         80
   260         15
   261          1