##TITLE=Library Entry 97673
##JCAMP-DX=Revision 4.10 
##DATA TYPE=MASS SPECTRUM
##SAMPLE DESCRIPTION=V.G.Zaikin, TIPS RAS, Moscow, Russia
##NAMES=HP
##CAS NAME=Tributyl(methoxy) silane
##MOLFORM=C13H30OSi
##CAS REGISTRY NO=15811-64-0
##MP= -300
##BP= -300
##MW= 230
##$RETENTION INDEX=0
##$CONDENSED SPECTRUM=NO
##NPOINTS= 71
##XYDATA=(XY..XY) 1 
    25          3
    26         21
    27        145
    28         23
    29        279
    30          4
    31         25
    33          4
    39         69
    40         11
    41        119
    42         19
    43         63
    44         19
    45         81
    46          7
    47         12
    48         12
    50          7
    51          7
    52          7
    53         11
    54          9
    55         65
    56         23
    57         65
    58         38
    59        417
    60         43
    61        545
    62         39
    63         22
    67          7
    68          4
    69          9
    70          7
    71         15
    73          7
    74         48
    75        298
    76         24
    77         11
    79         24
    81          7
    83         21
    84          4
    85         29
    86          3
    87         82
    88         95
    89         82
    90         11
    91          3
    97          3
    99          7
   101         12
   102          9
   103          3
   115         49
   116         52
   117        999
   118        109
   119         41
   143          9
   144          4
   172         16
   173        571
   174         89
   175         32
   176          4
   229          1