##TITLE=Library Entry 71321
##JCAMP-DX=Revision 4.10 
##DATA TYPE=MASS SPECTRUM
##SAMPLE DESCRIPTION=Chemical Concepts
##NAMES=HP
##CAS NAME=1-Propanone, 1-(2-methyl-4-propoxyphenyl)-3-(1-piperidinyl)-
##MOLFORM=C18H27NO2
##CAS REGISTRY NO=158176-68-2
##MP= -300
##BP= -300
##MW= 289
##$RETENTION INDEX=0
##$CONDENSED SPECTRUM=NO
##NPOINTS= 153
##XYDATA=(XY..XY) 1 
    25          1
    26          9
    27        117
    28         62
    29         63
    30         55
    31          2
    39         56
    40          9
    41        165
    42        112
    43        128
    44         78
    45          6
    49          1
    50          9
    51         26
    52         17
    53         22
    54         16
    55        166
    56         92
    57         91
    58          6
    59          4
    60          9
    61          3
    62          4
    63         16
    64          5
    65         11
    66          3
    67         15
    68         16
    69         71
    70         45
    71         24
    72          3
    73          9
    74          5
    75          4
    76          3
    77         75
    78         25
    79         34
    80          6
    81         13
    82         16
    83         33
    84        208
    85         91
    86          9
    87          3
    89         15
    90          8
    91         18
    92          3
    93          4
    94          4
    95         11
    96         67
    97        506
    98        999
    99         75
   100          2
   101          1
   102          2
   103          8
   104          4
   105         21
   106         11
   107         80
   108         10
   109          6
   110         13
   111         23
   112        141
   113         15
   114          1
   115         12
   116          4
   117          6
   118          5
   119          7
   120          4
   121         12
   122          2
   123          4
   124          2
   125          3
   126          1
   127          4
   128          2
   129          4
   130          1
   131          5
   132          6
   133         24
   134         12
   135        214
   136         21
   137          4
   138          2
   139          2
   140          1
   141          2
   142          0
   143          6
   144          6
   145         29
   146          4
   147        126
   148         13
   149         12
   150          2
   151          1
   152          1
   153          1
   155          1
   157          1
   160          4
   161        156
   162        156
   163         21
   164          2
   165          1
   167          2
   169          1
   171          1
   175          3
   176          1
   177         50
   178          6
   179          1
   185          0
   187          1
   189          1
   190          1
   191          1
   192          1
   193          1
   195          1
   203         15
   204        137
   205         23
   206          2
   218          1
   246          1
   272          1
   288          3
   289         31
   290          7
   291          1