##TITLE=Library Entry 71624
##JCAMP-DX=Revision 4.10 
##DATA TYPE=MASS SPECTRUM
##SAMPLE DESCRIPTION=Chemical Concepts
##NAMES=HP
##CAS NAME=1-[2-(2,4,6-Trimethylbenzoyl)propyl]piperidine
##MOLFORM=C18H27NO
##CAS REGISTRY NO=158176-66-0
##MP= -300
##BP= -300
##MW= 273
##$RETENTION INDEX=0
##$CONDENSED SPECTRUM=NO
##NPOINTS= 107
##XYDATA=(XY..XY) 1 
    25          2
    26         19
    27         39
    28         25
    29         21
    30          3
    31          5
    34          9
    39         26
    40          3
    41        103
    42         56
    43         30
    44         31
    45          5
    50          3
    51         10
    52          3
    53         12
    54          7
    55         77
    56         30
    57         32
    58          4
    59          5
    60          2
    63          5
    64          2
    65         12
    67          9
    68          7
    69         29
    70         23
    71          9
    72          2
    73          3
    74          2
    75          2
    76          2
    77         27
    78          9
    79         13
    80          2
    81          5
    82          6
    83         19
    84         55
    85         36
    86         24
    89          2
    91         50
    92          5
    93          6
    94          2
    95          4
    96         16
    97         23
    98        999
    99         74
   100          3
   102          2
   103         14
   104         12
   105         14
   109          2
   110          6
   111          9
   115         13
   116          4
   117         16
   118          5
   119         77
   120          8
   124          4
   125          6
   126         23
   127          3
   128          4
   129          5
   130          2
   131          2
   133          4
   141          6
   142          3
   143          2
   145          5
   146          3
   147        158
   148         18
   149          6
   155          5
   158          4
   159          9
   160          2
   173         28
   174          4
   185          3
   188         44
   189          7
   205          1
   223          1
   244          2
   245          1
   246          2
   258          5
   273         13
   274          3