##TITLE=Library Entry 71574
##JCAMP-DX=Revision 4.10 
##DATA TYPE=MASS SPECTRUM
##SAMPLE DESCRIPTION=Chemical Concepts
##NAMES=HP
##CAS NAME=1-Propanone, 1-(2,4-dimethylphenyl)-2-(1-piperidylmethyl)-
##MOLFORM=C17H25NO
##CAS REGISTRY NO=158176-65-9
##MP= -300
##BP= -300
##MW= 259
##$RETENTION INDEX=0
##$CONDENSED SPECTRUM=NO
##NPOINTS= 189
##XYDATA=(XY..XY) 1 
    25          3
    27         34
    28         24
    29         27
    30         28
    31          0
    33          0
    38          3
    39         43
    40          7
    41         92
    42         64
    43         25
    44         41
    45          2
    46          0
    48          0
    49          0
    50          6
    52         20
    53          8
    54         17
    55         10
    56         64
    57         31
    58          3
    59          1
    60          0
    61          1
    62          3
    63         12
    64          4
    65         14
    66          3
    67          7
    68          9
    69         26
    70         28
    71          4
    72          1
    73          0
    74          2
    75          3
    76          4
    77         67
    78         21
    79         56
    80          6
    81          2
    82          6
    83          8
    84         68
    85         35
    86          2
    87          0
    88          0
    89          5
    90          2
    91         13
    92          3
    93          1
    94          1
    95          1
    96         16
    97         29
    98        999
    99         79
   100          2
   101          1
   102          6
   103         34
   104         14
   105        129
   106         12
   107          1
   108          0
   109          0
   110          5
   111          1
   112          0
   113          0
   114          0
   115          9
   116          3
   117          3
   118          1
   119          6
   120          0
   121          0
   122          0
   123          0
   124          4
   125          2
   126         19
   127          3
   128          5
   129          4
   130          1
   131         13
   132          4
   133        209
   134         20
   135          2
   136          0
   137          1
   138          2
   139          0
   140          0
   141          5
   142          1
   143          1
   144          5
   145         12
   146          4
   152          0
   153          0
   154          0
   155          1
   156          0
   157          2
   158          4
   159         70
   160          0
   162          0
   163          0
   165          0
   166          0
   167          0
   168          0
   170          0
   171          0
   173         12
   174         77
   175         12
   176          1
   177          0
   178          1
   179          0
   180          0
   181          1
   182          0
   183          0
   184          0
   185          0
   186          0
   187          0
   189          0
   190          0
   191          0
   192          0
   193          0
   204          0
   205          0
   206          0
   208          0
   210          0
   211          0
   212          0
   213          0
   214          0
   215          0
   216          0
   217          0
   218          0
   220          0
   221          0
   222          0
   223          0
   224          0
   225          0
   226          0
   227          0
   228          0
   230          0
   231          0
   233          0
   234          0
   235          0
   237          0
   239          0
   240          0
   241          0
   242          0
   243          0
   244          3
   245          0
   258          1
   259          4
   260          0