##TITLE=Library Entry 71573
##JCAMP-DX=Revision 4.10 
##DATA TYPE=MASS SPECTRUM
##SAMPLE DESCRIPTION=Chemical Concepts
##NAMES=HP
##CAS NAME=1-Propanone, 1-(2,6-dimethylphenyl)-2-methyl-3-(1-piperidyl)-
##MOLFORM=C17H25NO
##CAS REGISTRY NO=158176-61-5
##MP= -300
##BP= -300
##MW= 259
##$RETENTION INDEX=0
##$CONDENSED SPECTRUM=NO
##NPOINTS= 107
##XYDATA=(XY..XY) 1 
    26          4
    27         33
    28         28
    29         36
    30         31
    31          2
    39         38
    40          4
    41         97
    42         69
    43         37
    44         46
    45          3
    50          5
    51         16
    52          6
    53         15
    54          9
    55         74
    56         42
    57         49
    58          5
    59          3
    60          5
    61          1
    62          1
    63          9
    64          3
    65         12
    66          2
    67         10
    68         10
    69         39
    70         37
    71         16
    72          4
    73          4
    74          2
    75          2
    76          3
    77         61
    78         18
    79         52
    80          5
    81          8
    82          9
    83         19
    84         82
    85         58
    86         26
    87          2
    89          4
    91         12
    92          1
    93          1
    94          1
    95          5
    96         19
    97         23
    98        999
    99         75
   100          3
   102          4
   103         29
   104         12
   105        136
   106         15
   107          1
   109          2
   110          6
   111          6
   112          2
   113          3
   115          8
   116          3
   117          3
   118          2
   119          3
   120          1
   121          2
   123          2
   124          5
   125          5
   126         17
   127          4
   128          4
   129          6
   130          2
   131          8
   132          3
   133        172
   134         18
   135          1
   142          1
   144          2
   145         12
   146          3
   158          2
   159         40
   160          5
   173          3
   174         52
   175          8
   244          3
   258          1
   259          8
   260          1