##TITLE=Library Entry 99883
##JCAMP-DX=Revision 4.10 
##DATA TYPE=MASS SPECTRUM
##SAMPLE DESCRIPTION=Chemical Concepts
##NAMES=HP
##CAS NAME=4-Aminonicotinonitrile
##MOLFORM=C6H5N3
##CAS REGISTRY NO=15827-84-6
##MP= -300
##BP= -300
##MW= 119
##$RETENTION INDEX=0
##$CONDENSED SPECTRUM=NO
##NPOINTS= 87
##XYDATA=(XY..XY) 1 
    25          4
    26         26
    27         15
    28         69
    29          4
    30          2
    36          5
    37         36
    38         65
    39         55
    40         62
    41        133
    42         27
    43         10
    44          1
    45          1
    46          6
    48          2
    49          8
    50         17
    51         53
    52        112
    53         29
    54         13
    55          5
    56          2
    57          6
    58          1
    59          1
    60          2
    61          1
    62          9
    63         24
    64         97
    65        131
    66        106
    67         64
    68         20
    69          3
    70          1
    71          7
    73          1
    74          4
    75         24
    76         31
    77         17
    78          8
    79         19
    80          1
    81          1
    82          1
    83          2
    84          0
    85          2
    87          0
    88          1
    89          2
    90          7
    91         38
    92        375
    93         34
    94          2
    95          1
    96          0
    97          2
    98          0
    99          0
   100          1
   101          1
   102          2
   103          3
   104          1
   105          2
   106          0
   107          0
   108          0
   109          0
   110          0
   111          1
   112          0
   115          0
   116          0
   117          4
   118         54
   119        999
   120         80
   121          3