##TITLE=Library Entry 27938
##JCAMP-DX=Revision 4.10 
##DATA TYPE=MASS SPECTRUM
##SAMPLE DESCRIPTION=NIST Mass Spectrometry Data Center, 2010
##NAMES=HP
##CAS NAME=1,4-Cyclohexanediamine, cis-
##MOLFORM=C6H14N2
##CAS REGISTRY NO=15827-56-2
##MP= -300
##BP= -300
##MW= 114
##$RETENTION INDEX=0
##$CONDENSED SPECTRUM=NO
##NPOINTS= 56
##XYDATA=(XY..XY) 1 
    15          5
    17          1
    18          8
    26          4
    27         22
    28         81
    29         22
    30         81
    31          1
    37          1
    38          3
    39         31
    40          7
    41        102
    42        128
    43        480
    44         92
    45          7
    50          3
    51          7
    52          9
    53         14
    54         40
    55         20
    56        251
    57        202
    58        999
    59         38
    63          1
    65          6
    66          3
    67         14
    68         98
    69         60
    70         16
    71         13
    72          1
    77         20
    78          3
    79         25
    80         16
    81         18
    82         72
    83          6
    84          7
    85         16
    86          4
    93          2
    94          7
    95          2
    96         63
    97         67
    98          9
   113          2
   114         16
   115          1