##TITLE=Library Entry 71905
##JCAMP-DX=Revision 4.10 
##DATA TYPE=MASS SPECTRUM
##SAMPLE DESCRIPTION=Exported from NIST MS Search
##NAMES=HP
##CAS NAME=Ethanone, 1-(3,3-dimethylbicyclo[2.2.1]hept-2-yl)-, endo-
##MOLFORM=C11H18O
##CAS REGISTRY NO=15820-33-4
##MP= -300
##BP= -300
##MW= 166
##$RETENTION INDEX=0
##$CONDENSED SPECTRUM=NO
##NPOINTS= 43
##XYDATA=(XY..XY) 1 
    41        183
    42          9
    43        571
    51         24
    53         54
    55         99
    57         27
    65         30
    66         54
    67        216
    68         24
    69         87
    71         21
    77         39
    79         72
    80         15
    81        216
    82         30
    83         72
    84         36
    85         57
    91         33
    93        135
    94         12
    95         54
    96         12
    97         24
    98          9
    99        999
   100         87
   101         15
   105         21
   106         15
   107         57
   108        444
   109         93
   110         15
   123        315
   124         30
   133         24
   148         54
   151         39
   166         30