##TITLE=Library Entry 38273
##JCAMP-DX=Revision 4.10 
##DATA TYPE=MASS SPECTRUM
##SAMPLE DESCRIPTION=NIST Mass Spectrometry Data Center
##NAMES=HP
##CAS NAME=.+/-.-Tetrahydro-3-furanmethanol
##MOLFORM=C5H10O2
##CAS REGISTRY NO=15833-61-1
##MP= -300
##BP= -300
##MW= 102
##$RETENTION INDEX=914
##$CONDENSED SPECTRUM=NO
##NPOINTS= 48
##XYDATA=(XY..XY) 1 
    26          3
    27         54
    28          8
    29         54
    30          5
    31         55
    33          1
    37          8
    38         21
    39        173
    40         22
    41        298
    42         52
    43        467
    44         28
    45         22
    47          1
    49          3
    50         15
    51         20
    52          8
    53         80
    54         22
    55         55
    56         41
    57         88
    58          9
    59          1
    60         13
    61         12
    62          2
    63          2
    65          5
    66          3
    67          7
    68          5
    69         69
    70         18
    71        999
    72         96
    73          6
    81          1
    83         21
    84        217
    85         13
    86          1
    87         12
   102          5