##TITLE=Library Entry 67392
##JCAMP-DX=Revision 4.10 
##DATA TYPE=MASS SPECTRUM
##SAMPLE DESCRIPTION=Japan AIST/NIMC Database- Spectrum MS-IW-8127
##NAMES=HP
##CAS NAME=3-Fluorophthalic acid
##MOLFORM=C8H5FO4
##CAS REGISTRY NO=1583-67-1
##MP= -300
##BP= -300
##MW= 184
##$RETENTION INDEX=0
##$CONDENSED SPECTRUM=NO
##NPOINTS= 100
##XYDATA=(XY..XY) 1 
    16          2
    17          1
    18          3
    20          1
    25          1
    26          3
    27          1
    28         39
    29          2
    31         30
    32          1
    36          7
    37         61
    38         14
    39          9
    41          3
    43          2
    44         24
    45         11
    46          7
    47        119
    48          4
    49         19
    50        136
    51        112
    52          2
    53          7
    55         10
    56         16
    57         30
    58          1
    60          9
    61        119
    62         30
    63         31
    64          4
    65          2
    66          1
    67          3
    68        175
    69         16
    70          5
    71          5
    72          4
    73         25
    74        107
    75         85
    76          9
    77          6
    78          1
    79          2
    80          3
    81          9
    82          8
    83         55
    84          5
    85          2
    90          1
    91          4
    92         37
    93         64
    94        999
    95        116
    96          9
    97          1
   101          1
   103          3
   104          1
   105          1
   107          1
   108          2
   109          3
   110          9
   111         23
   112          5
   119          2
   120          2
   121          5
   122        955
   123        249
   124         18
   125          1
   135          1
   136          2
   137          2
   138          2
   139         35
   140        160
   141         12
   142          1
   149          2
   154          3
   166        759
   167        133
   168         12
   169          3
   182          1
   184         89
   185          9
   186          1