##TITLE=Library Entry 91156
##JCAMP-DX=Revision 4.10 
##DATA TYPE=MASS SPECTRUM
##SAMPLE DESCRIPTION=A.Pleshkova, Nesmeyanov Inst.Org.Elem.Cpds, Moscow
##NAMES=HP
##CAS NAME=4-Fluorobenzoylfluoride
##MOLFORM=C7H4F2O
##CAS REGISTRY NO=1583-56-8
##MP= -300
##BP= -300
##MW= 142
##$RETENTION INDEX=0
##$CONDENSED SPECTRUM=NO
##NPOINTS= 42
##XYDATA=(XY..XY) 1 
    44          4
    45          5
    47         50
    50         86
    51         33
    52          8
    56         18
    57         60
    58          6
    61         34
    62         33
    63        105
    64         14
    68         67
    69         68
    70         14
    73         30
    74        124
    75        238
    76         18
    77          5
    81         23
    82          6
    88         72
    89          3
    92         28
    93         33
    94        135
    95        391
    96         26
   112          5
   113         46
   114        999
   115         63
   122         18
   123        392
   124         24
   125          7
   141         53
   142        792
   143         56
   144          4