##TITLE=Library Entry 34909
##JCAMP-DX=Revision 4.10 
##DATA TYPE=MASS SPECTRUM
##SAMPLE DESCRIPTION=NIST Mass Spectrometry Data Center, 1990.
##NAMES=HP
##CAS NAME=3-Hexene, 2-methyl-, (Z)-
##MOLFORM=C7H14
##CAS REGISTRY NO=15840-60-5
##MP= -300
##BP= -300
##MW= 98
##$RETENTION INDEX=646
##$CONDENSED SPECTRUM=NO
##NPOINTS= 32
##XYDATA=(XY..XY) 1 
    14         28
    15         66
    26         28
    27        257
    28        179
    29        127
    32         37
    38         41
    39        374
    40         84
    41        822
    42         67
    43        140
    50         47
    51         67
    52         32
    53        123
    55        838
    56        455
    57         40
    63         17
    65         38
    66         19
    67        118
    69        999
    70        111
    77         20
    79         27
    81         17
    83        150
    98        304
    99         29