##TITLE=Library Entry 8480
##JCAMP-DX=Revision 4.10 
##DATA TYPE=MASS SPECTRUM
##SAMPLE DESCRIPTION=NIST Mass Spectrometry Data Center, 2009
##NAMES=HP
##CAS NAME=5-Bromo-n-amyl acetate
##MOLFORM=C7H13BrO2
##CAS REGISTRY NO=15848-22-3
##MP= -300
##BP= -300
##MW= 208
##$RETENTION INDEX=1292
##$CONDENSED SPECTRUM=NO
##NPOINTS= 83
##XYDATA=(XY..XY) 1 
    14          2
    15         13
    26          6
    27         53
    28         20
    29         42
    30          2
    31          9
    35          1
    37          1
    38          4
    39         69
    40         15
    41        242
    42         78
    43        999
    44         29
    45          8
    50          3
    51          6
    52          3
    53         32
    54          9
    55        107
    56         12
    57         18
    58          3
    59          1
    61        237
    62          6
    63          2
    65          4
    66          1
    67        106
    68        131
    69        633
    70         36
    71         10
    73         81
    74          3
    79          2
    80          3
    81          2
    82          3
    83          1
    84          1
    85          6
    86          3
    87         18
    88          1
    93          9
    94          1
    95          8
    99          9
   100          1
   101          3
   102          1
   105          1
   106          6
   107         28
   108          6
   109         26
   110          1
   111          2
   119          3
   120         15
   121          4
   122         15
   123          1
   129          2
   135          7
   136          3
   137          7
   138          3
   147         11
   148        166
   149         12
   150        163
   151          9
   164          1
   165          3
   166          2
   167          2