##TITLE=Library Entry 21154
##JCAMP-DX=Revision 4.10 
##DATA TYPE=MASS SPECTRUM
##SAMPLE DESCRIPTION=James Little,Eastman Chem.Co.,Kingsport,TN
##NAMES=HP
##CAS NAME=3,5-Diketo-1,6-heptadiene
##MOLFORM=C7H8O2
##CAS REGISTRY NO=15849-12-4
##MP= -300
##BP= -300
##MW= 124
##$RETENTION INDEX=0
##$CONDENSED SPECTRUM=NO
##NPOINTS= 29
##XYDATA=(XY..XY) 1 
    27        577
    29         50
    39        224
    41        186
    42         78
    43        104
    51         73
    52         77
    53        113
    55        999
    56         39
    66         29
    67         23
    68         45
    69        280
    77         21
    78         18
    81         43
    82         19
    94         13
    95         47
    96         47
    97        851
    98         49
   107         16
   122         15
   123        753
   124        731
   125         63