##TITLE=Library Entry 39696
##JCAMP-DX=Revision 4.10 
##DATA TYPE=MASS SPECTRUM
##SAMPLE DESCRIPTION=NIST Mass Spectrometry Data Center, 1994
##NAMES=HP
##CAS NAME=2-Chloro-N,N-diethylacetoacetamide
##MOLFORM=C8H14ClNO2
##CAS REGISTRY NO=15844-87-8
##MP= -300
##BP= -300
##MW= 191
##$RETENTION INDEX=0
##$CONDENSED SPECTRUM=NO
##NPOINTS= 100
##XYDATA=(XY..XY) 1 
    12          1
    13          5
    14         24
    15        214
    16          7
    17          1
    18         37
    26         47
    27        304
    28        274
    29        419
    30        121
    31          9
    35          4
    36          4
    37          5
    38         14
    39         34
    40         22
    41         91
    42        335
    43        686
    44        399
    45         15
    47          3
    48         11
    49         19
    50          6
    51         10
    52          7
    53          9
    54         23
    55         30
    56        161
    57         55
    58        548
    59         20
    61          3
    62          4
    63          7
    64         13
    65          4
    66          5
    67          6
    68         13
    69         62
    70         37
    71          3
    72        999
    73         45
    74          6
    75          6
    76         28
    77         13
    78         10
    79          4
    82          3
    84         12
    85         63
    86         25
    87          2
    88          3
    90          2
    92         15
    94          5
    98          5
   100        221
   101         15
   103          3
   105         18
   106         37
   107          7
   108         13
   112          7
   114        370
   115         27
   118          2
   119          7
   120          9
   121          9
   122          4
   123          2
   128          6
   134         12
   136          4
   140         10
   141          1
   142          4
   149        100
   150         10
   151         38
   152          3
   153          2
   156        117
   157         23
   174          4
   176         20
   177          2
   178          5
   191          5