##TITLE=Library Entry 4325
##JCAMP-DX=Revision 4.10 
##DATA TYPE=MASS SPECTRUM
##SAMPLE DESCRIPTION=Chemical Concepts
##NAMES=HP
##CAS NAME=3,4'-Dimethyl-2,3'-dioxobicyclohexyl-6-ene-3,4'-dicarboxylic acid
, dimethyl ester
##MOLFORM=C18H24O6
##CAS REGISTRY NO=158465-98-6
##MP= -300
##BP= -300
##MW= 336
##$RETENTION INDEX=0
##$CONDENSED SPECTRUM=NO
##NPOINTS= 293
##XYDATA=(XY..XY) 1 
    24          3
    25          1
    26         12
    27        157
    28         69
    29        234
    30         10
    31         17
    32          6
    33          7
    35          1
    36          3
    37          3
    38          6
    39        216
    40         72
    41        999
    42         77
    43        347
    44         52
    45         62
    46          6
    47          4
    48          1
    49          1
    50         10
    51         46
    52         37
    53        180
    54         74
    55        480
    56         74
    57        220
    58         22
    59        519
    60         69
    61         15
    62          3
    63         15
    64         12
    65        140
    66        290
    67        158
    68         79
    69        528
    70         71
    71        142
    72        156
    73         92
    74         18
    75         16
    76          8
    77        223
    78         77
    79        353
    80        125
    81        229
    82         83
    83        132
    84         44
    85        103
    86         32
    87         25
    88         18
    89         19
    90          9
    91        292
    92         63
    93        109
    94        188
    95         81
    96         41
    97         79
    98         43
    99         40
   100         18
   101         60
   102         11
   103         44
   104         25
   105        240
   106         64
   107        128
   108        120
   109        149
   110         53
   111         51
   112         37
   113         41
   114         28
   115         48
   116         22
   117         72
   118         24
   119        170
   120        175
   121        191
   122         39
   123         38
   124         25
   125         32
   126         24
   127         31
   128         28
   129         31
   130         21
   131         58
   132         30
   133        159
   134        163
   135        176
   136         50
   137         51
   138         16
   139         15
   140         12
   141         29
   142         18
   143         23
   144         17
   145         66
   146         42
   147        150
   148        277
   149        153
   150         64
   151         28
   152         18
   153         20
   154         15
   155         23
   156         15
   157         47
   158         27
   159         68
   160         64
   161        293
   162         72
   163        187
   164         27
   165         23
   166         16
   167         24
   168         14
   169         34
   170         25
   171         88
   172         26
   173         71
   174         98
   175        209
   176        154
   177         51
   178         18
   179         17
   180         32
   181         13
   182         13
   183         13
   184         10
   185         15
   186          6
   187         36
   188        221
   189        520
   190         95
   191         33
   192          9
   193         17
   194         15
   195         16
   196          9
   197         11
   198         18
   199         65
   200         20
   201         68
   202         28
   203         36
   204         17
   205         10
   206         15
   207         35
   208         67
   209         17
   210          9
   211          9
   212          6
   213          7
   214          5
   215         26
   216        168
   217        708
   218        133
   219         43
   220         48
   221         27
   222         10
   223         18
   224          8
   225          6
   226         11
   227         26
   228         10
   229         26
   230         15
   231         28
   232          7
   233         25
   234         73
   235         35
   236         41
   237          9
   238          5
   239          4
   240          3
   241          3
   242         15
   243         11
   244         58
   245         55
   246         12
   247         12
   248        154
   249        145
   250         32
   251          8
   252          8
   253          5
   254          2
   255          2
   256          4
   257          8
   258         11
   259         49
   260         12
   261         22
   262         10
   263          3
   264          5
   265          2
   266          2
   267          3
   268          1
   269          3
   270          2
   271          4
   272         11
   273          4
   274          5
   275         16
   276        714
   277        343
   278         81
   279         19
   280          5
   281         18
   282          6
   283          4
   284          4
   285          1
   286          5
   287          2
   288          2
   289         12
   290          6
   291          1
   292          1
   293         18
   294          5
   295          2
   296          1
   300          2
   301          3
   302          2
   303          6
   304         29
   305         45
   306          9
   307          3
   308        161
   309         31
   310          4
   318         13
   319          3
   320          1
   321          7
   322          2
   323          1
   335          2
   336        232
   337         48
   338          7