##TITLE=Library Entry 53176
##JCAMP-DX=Revision 4.10 
##DATA TYPE=MASS SPECTRUM
##SAMPLE DESCRIPTION=V.G.Zaikin, TIPS RAS, Moscow, Russia
##NAMES=HP
##CAS NAME=Cyclohexanecarboxylic acid, cyclohexyl ester
##MOLFORM=C13H22O2
##CAS REGISTRY NO=15840-96-7
##MP= -300
##BP= -300
##MW= 210
##$RETENTION INDEX=0
##$CONDENSED SPECTRUM=NO
##NPOINTS= 57
##XYDATA=(XY..XY) 1 
    26         11
    27         82
    28          8
    29         89
    39        122
    40         29
    41        353
    42         35
    43         79
    44         77
    45          9
    47          9
    50          7
    51         28
    52          9
    53         58
    54        112
    55        628
    56         79
    57         35
    60         17
    61          7
    65          8
    66          9
    67        269
    68         68
    69         55
    70          7
    71          8
    73         79
    77         18
    78          5
    79         31
    81         85
    82        309
    83        999
    84         75
    85         12
    86          9
    87         15
    91          8
    93         19
    95          9
    98         12
    99         42
   109          7
   110         45
   111        142
   112         12
   113         11
   126         13
   127         13
   128        152
   129        759
   130         59
   131          5
   210          2