##TITLE=Library Entry 5118
##JCAMP-DX=Revision 4.10 
##DATA TYPE=MASS SPECTRUM
##SAMPLE DESCRIPTION=M. V. ANDEWALLE
##NAMES=HP
##CAS NAME=1,2,4-Cyclopentanetrione
##MOLFORM=C5H4O3
##CAS REGISTRY NO=15849-14-6
##MP= -300
##BP= -300
##MW= 112
##$RETENTION INDEX=1014
##$CONDENSED SPECTRUM=NO
##NPOINTS= 19
##XYDATA=(XY..XY) 1 
    37         22
    38         22
    39         36
    40         16
    41        145
    42        999
    43        680
    44         27
    53         43
    55         86
    56         18
    67         23
    68         11
    69        540
    70        290
    71         26
    84         10
   112        999
   113         62