##TITLE=Library Entry 81459
##JCAMP-DX=Revision 4.10 
##DATA TYPE=MASS SPECTRUM
##SAMPLE DESCRIPTION=NIST Mass Spectrometry Data Center, 1992
##NAMES=HP
##CAS NAME=Benzene, 1-bromo-4-ethyl-
##MOLFORM=C8H9Br
##CAS REGISTRY NO=1585-07-5
##MP= -300
##BP= -300
##MW= 184
##$RETENTION INDEX=0
##$CONDENSED SPECTRUM=NO
##NPOINTS= 95
##XYDATA=(XY..XY) 1 
    12          2
    13          3
    14          9
    15         50
    17          3
    18         29
    24          1
    25          3
    26         34
    27        148
    28         57
    29         13
    32          2
    36          3
    37         31
    38         77
    39        165
    40         15
    41          8
    43          8
    44          7
    45          7
    48          2
    49         34
    50        248
    51        379
    52         77
    53         29
    54          1
    55          1
    61         34
    62         94
    63        211
    64         47
    65         28
    66          3
    72          2
    73         23
    74        115
    75        113
    76         94
    77        339
    78        119
    79        163
    80         17
    81         12
    82          5
    83          2
    85         12
    86         19
    87         25
    88          2
    89        277
    90        339
    91         34
    92          9
    93          4
    95          1
    97          3
    98         11
    99          3
   101         16
   102         65
   103        170
   104        161
   105        999
   106         90
   107          5
   116          2
   117         12
   118          2
   119         12
   128          1
   129          3
   130          2
   131          3
   141          3
   143          9
   145          8
   146          0
   155          6
   156         12
   157          8
   158          9
   169        887
   171        854
   172         62
   173          2
   181          1
   182          3
   184        407
   185         68
   186        401
   187         36
   188          1