##TITLE=Library Entry 48785
##JCAMP-DX=Revision 4.10 
##DATA TYPE=MASS SPECTRUM
##SAMPLE DESCRIPTION=NIST Mass Spectrometry Data Center, 1990.
##NAMES=HP
##CAS NAME=3-Bromobenzyl alcohol
##MOLFORM=C7H7BrO
##CAS REGISTRY NO=15852-73-0
##MP= -300
##BP= -300
##MW= 186
##$RETENTION INDEX=0
##$CONDENSED SPECTRUM=NO
##NPOINTS= 74
##XYDATA=(XY..XY) 1 
    17          5
    18          2
    26         23
    27         56
    29         86
    30          8
    31         61
    36          5
    37         39
    38         79
    39        112
    40         13
    41          4
    42          4
    43         17
    44         11
    49         46
    50        300
    51        324
    52         77
    53        100
    55         11
    60          5
    61         31
    62         54
    63        104
    64         21
    65          8
    73         32
    74        122
    75        149
    76        169
    77        929
    78        377
    79        999
    80         65
    81         10
    82          6
    84          6
    85          7
    86         16
    87         12
    88          6
    89        116
    90         92
    91         16
    92          8
    93          7
   105         58
   107        688
   108         55
   117          6
   119          4
   128          5
   129          5
   130          6
   131          7
   143          4
   155         60
   157        148
   158         24
   159         85
   160          6
   169         38
   170         10
   171         33
   172          5
   183         65
   184         53
   185        118
   186        446
   187        127
   188        446
   189         36