##TITLE=Library Entry 85411
##JCAMP-DX=Revision 4.10 
##DATA TYPE=MASS SPECTRUM
##SAMPLE DESCRIPTION=A.A.Kutin, Moscow, Russia
##NAMES=HP
##CAS NAME=3-Thia-4-azatricyclo[5.2.1.0(1.6)]decane, 4,5-epoxy-10,10-dimethy
l-, 3,3-dioxide
##MOLFORM=C10H15NO3S
##CAS REGISTRY NO=158514-97-7
##MP= -300
##BP= -300
##MW= 229
##$RETENTION INDEX=0
##$CONDENSED SPECTRUM=NO
##NPOINTS= 157
##XYDATA=(XY..XY) 1 
    34          0
    37          1
    39        135
    40         47
    41        316
    42         90
    43         49
    44          6
    45          2
    46          4
    48          7
    49          1
    50          7
    51         25
    52         22
    53        115
    54         99
    55        179
    56         44
    57         16
    58         24
    59          4
    60          3
    61          2
    62          2
    63          6
    64         12
    65         49
    66         31
    67        207
    68        148
    69        171
    70         53
    71          5
    72          1
    73          0
    74          1
    75          1
    77         69
    78         22
    79        152
    80         84
    81        173
    82        295
    83        115
    84         21
    85          2
    86          1
    87          2
    88          1
    89          2
    91         87
    92         26
    93        108
    94        164
    95        222
    96         71
    97        407
    98         29
    99          2
   100          0
   102          1
   103          3
   104          3
   105         35
   106        198
   107        195
   108        999
   109        167
   110         38
   111         28
   112          3
   113          0
   115          0
   116          0
   117          2
   119         69
   120         20
   122        731
   123        202
   124         22
   125          2
   126          1
   127          0
   128          1
   129          0
   130          0
   131          1
   132         16
   133          6
   134          4
   136        156
   137        227
   138         23
   139          2
   140          0
   143          0
   144          1
   145          4
   146          9
   147         56
   148          8
   149          6
   150         37
   151          4
   152          1
   153          1
   154          0
   158          1
   159          0
   160          2
   161          3
   162          1
   163          1
   164          9
   165         22
   166          4
   167          1
   168          0
   170          2
   171          1
   172          6
   173          1
   174          0
   177          0
   178          1
   179          0
   180          0
   183          0
   186        372
   187         48
   188         21
   189          2
   190          0
   191          0
   192          1
   193          0
   194          0
   197          0
   198          0
   201        847
   202         99
   203         47
   204          4
   205          0
   206          1
   208          0
   209          0
   213          0
   214          4
   215          0
   220          1
   221          0
   229        222
   230         41
   231         13
   232          2