##TITLE=Library Entry 53785
##JCAMP-DX=Revision 4.10 
##DATA TYPE=MASS SPECTRUM
##SAMPLE DESCRIPTION=NIST Mass Spectrometry Data Center
##NAMES=HP
##CAS NAME=Ethyl pipecolinate
##MOLFORM=C8H15NO2
##CAS REGISTRY NO=15862-72-3
##MP= -300
##BP= -300
##MW= 157
##$RETENTION INDEX=1183
##$CONDENSED SPECTRUM=NO
##NPOINTS= 47
##XYDATA=(XY..XY) 1 
    14          2
    15         19
    16          1
    18          8
    19          1
    26         17
    27        110
    28        217
    29        129
    30         82
    31         15
    38          3
    39         32
    40          7
    41         62
    42         61
    43         18
    44          6
    45          8
    46          1
    50          2
    51          4
    52          4
    53         14
    54         37
    55         92
    56        228
    57         22
    58          3
    59          1
    65          2
    67         23
    68         15
    69          4
    70          2
    73          6
    74          2
    80          8
    82         42
    84        999
    85         60
    86          2
   100          2
   110          2
   128          2
   157          6
   158          1