##TITLE=Library Entry 21475
##JCAMP-DX=Revision 4.10 
##DATA TYPE=MASS SPECTRUM
##SAMPLE DESCRIPTION=B. Derendyaev, Novosibirsk Institute of Organic Chemist
ry
##NAMES=HP
##CAS NAME=Bis(succinimido)methanone
##MOLFORM=C9H8N2O5
##CAS REGISTRY NO=158627-30-6
##MP= -300
##BP= -300
##MW= 224
##$RETENTION INDEX=0
##$CONDENSED SPECTRUM=NO
##NPOINTS= 23
##XYDATA=(XY..XY) 1 
    32        218
    39         31
    41         84
    42         46
    43         81
    44         42
    55        999
    56        578
    57         68
    67         32
    69         64
    70        528
    81         40
    83         82
    95         31
    98         79
    99         45
   100         64
   125         51
   126        798
   127         47
   169        199
   224        234