##TITLE=Library Entry 24391
##JCAMP-DX=Revision 4.10 
##DATA TYPE=MASS SPECTRUM
##SAMPLE DESCRIPTION=Japan AIST/NIMC Database- Spectrum MS-NW-4573
##NAMES=HP
##CAS NAME=Octane, 3,5-dimethyl-
##MOLFORM=C10H22
##CAS REGISTRY NO=15869-93-9
##MP= -300
##BP= -300
##MW= 142
##$RETENTION INDEX=922
##$CONDENSED SPECTRUM=NO
##NPOINTS= 62
##XYDATA=(XY..XY) 1 
    14          1
    15          4
    16          1
    26          6
    27         77
    28          9
    29        154
    30          5
    37          1
    38          3
    39         57
    40         11
    41        220
    42         67
    43        669
    44         22
    50          2
    51          4
    52          2
    53         17
    54          6
    55        126
    56        134
    57        999
    58         48
    59          1
    63          1
    65          3
    66          1
    67          7
    68          5
    69         55
    70        197
    71        514
    72         30
    73          1
    77          2
    78          1
    79          2
    81          3
    82          2
    83         10
    84         46
    85        114
    86          9
    91          1
    95          1
    96          1
    97          4
    98         47
    99        102
   100          8
   111          2
   112         17
   113         85
   114          9
   126          2
   127          9
   128          1
   141          1
   142         14
   143          2