##TITLE=Library Entry 24359
##JCAMP-DX=Revision 4.10 
##DATA TYPE=MASS SPECTRUM
##SAMPLE DESCRIPTION=TECH. UNIVERSITY OF KARLSRUHE, KARLSRUHE, W. GERMANY
##NAMES=HP
##CAS NAME=Octane, 2,5-dimethyl-
##MOLFORM=C10H22
##CAS REGISTRY NO=15869-89-3
##MP= -300
##BP= -300
##MW= 142
##$RETENTION INDEX=922
##$CONDENSED SPECTRUM=NO
##NPOINTS= 90
##XYDATA=(XY..XY) 1 
    12          0
    13          0
    14          0
    15          4
    16          0
    19          0
    20          0
    24          0
    25          0
    26          5
    27         98
    28         16
    29        130
    30          3
    31          0
    32          0
    36          0
    37          0
    38          1
    39         59
    40         11
    41        229
    42         71
    43        775
    44         25
    45          1
    46          0
    47          0
    48          0
    49          0
    50          2
    51          3
    52          1
    53         14
    54          6
    55        111
    56        108
    57        999
    58         43
    59          0
    62          0
    63          0
    64          0
    65          1
    66          0
    67          4
    68          3
    69         33
    70        301
    71        356
    72         19
    73          1
    74          0
    75          0
    76          0
    77          1
    78          0
    79          1
    80          0
    81          0
    82          0
    83          7
    84          9
    85         58
    86          3
    87          0
    91          0
    92          0
    93          0
    94          0
    95          0
    96          0
    97          1
    98         79
    99        141
   100         10
   111          0
   112          6
   113          9
   114          0
   115          0
   126          2
   127         14
   128          1
   129          0
   140          1
   141          0
   142         28
   143          3
   144          0