##TITLE=Library Entry 24025
##JCAMP-DX=Revision 4.10 
##DATA TYPE=MASS SPECTRUM
##SAMPLE DESCRIPTION=NIST Mass Spectrometry Data Center, 1990.
##NAMES=HP
##CAS NAME=Heptane, 3-ethyl-
##MOLFORM=C9H20
##CAS REGISTRY NO=15869-80-4
##MP= -300
##BP= -300
##MW= 128
##$RETENTION INDEX=867
##$CONDENSED SPECTRUM=NO
##NPOINTS= 29
##XYDATA=(XY..XY) 1 
    27        146
    28         60
    29        194
    39        148
    41        397
    42        127
    43        441
    44         19
    50          7
    51         15
    52          8
    53         50
    54         28
    55        210
    56        144
    57        999
    58         47
    65         10
    67         16
    68          9
    69         61
    70        226
    71        159
    83         11
    84         19
    85         22
    98        342
    99         91
   128         21