##TITLE=Library Entry 24861
##JCAMP-DX=Revision 4.10 
##DATA TYPE=MASS SPECTRUM
##SAMPLE DESCRIPTION=NIST Mass Spectrometry Data Center, 1990.
##NAMES=HP
##CAS NAME=Octane, 2,2-dimethyl-
##MOLFORM=C10H22
##CAS REGISTRY NO=15869-87-1
##MP= -300
##BP= -300
##MW= 142
##$RETENTION INDEX=916
##$CONDENSED SPECTRUM=NO
##NPOINTS= 33
##XYDATA=(XY..XY) 1 
    15          5
    27         77
    28         36
    29        139
    32          4
    39        104
    41        417
    42         45
    43        218
    44          9
    51          8
    52          4
    53         28
    54         12
    55        131
    56        615
    57        999
    58         46
    65          4
    67         10
    68          4
    69         39
    70          4
    71        215
    72         12
    77          3
    79          3
    83          6
    84         25
    85        127
    86          8
   127         49
   128          4