##TITLE=Library Entry 24463
##JCAMP-DX=Revision 4.10 
##DATA TYPE=MASS SPECTRUM
##SAMPLE DESCRIPTION=Japan AIST/NIMC Database- Spectrum MS-NW-3702
##NAMES=HP
##CAS NAME=4,4-Dimethyl octane
##MOLFORM=C10H22
##CAS REGISTRY NO=15869-95-1
##MP= -300
##BP= -300
##MW= 142
##$RETENTION INDEX=919
##$CONDENSED SPECTRUM=NO
##NPOINTS= 47
##XYDATA=(XY..XY) 1 
    15          5
    26          4
    27        103
    28          7
    29        131
    30          3
    33          1
    38          2
    39         63
    40         10
    41        251
    42         24
    43        856
    44         28
    50          1
    51          5
    52          2
    53         18
    54          4
    55         91
    56        152
    57        999
    58         47
    63          1
    65          3
    66          1
    67          8
    68          3
    69         71
    70         52
    71        142
    72          8
    77          2
    79          1
    81          2
    83          8
    84        169
    85        731
    86         50
    87          1
    97          2
    98         64
    99        224
   100         17
   126          1
   127         42
   128          4