##TITLE=Library Entry 7769
##JCAMP-DX=Revision 4.10 
##DATA TYPE=MASS SPECTRUM
##SAMPLE DESCRIPTION=D.HENNEBERG, MAX-PLANCK INSTITUTE, MULHEIM, WEST GERMAN
Y
##NAMES=HP
##CAS NAME=Octane, 3,4-dimethyl-
##MOLFORM=C10H22
##CAS REGISTRY NO=15869-92-8
##MP= -300
##BP= -300
##MW= 142
##$RETENTION INDEX=936
##$CONDENSED SPECTRUM=NO
##NPOINTS= 38
##XYDATA=(XY..XY) 1 
    25          0
    26          3
    27         90
    29        187
    30          5
    36          1
    38          1
    39         55
    40          0
    41        259
    42         67
    43        999
    44         14
    45          0
    51          2
    52          1
    53         11
    54          7
    55         94
    56        371
    57        396
    58         15
    65          1
    67          3
    68          0
    69         65
    70          9
    71        105
    72          6
    83          2
    84        235
    85        246
    86         16
    98          2
   112          3
   113         25
   114          0
   142          6