##TITLE=Library Entry 37211
##JCAMP-DX=Revision 4.10 
##DATA TYPE=MASS SPECTRUM
##SAMPLE DESCRIPTION=Japan AIST/NIMC Database- Spectrum MS-IW-5294
##NAMES=HP
##CAS NAME=Octane, 4,5-dimethyl-
##MOLFORM=C10H22
##CAS REGISTRY NO=15869-96-2
##MP= -300
##BP= -300
##MW= 142
##$RETENTION INDEX=943
##$CONDENSED SPECTRUM=NO
##NPOINTS= 54
##XYDATA=(XY..XY) 1 
    15          1
    26          3
    27         91
    28          8
    29        144
    30          3
    38          2
    39         68
    40         10
    41        270
    42        170
    43        887
    44         37
    45          5
    50          1
    51          5
    52          2
    53         22
    54          9
    55        313
    56         50
    57        731
    58         32
    63          1
    65          4
    66          1
    67          9
    68          6
    69         57
    70        999
    71        716
    72         35
    73          3
    77          4
    78          1
    79          4
    81          2
    82          1
    83          7
    84          9
    85         30
    86          3
    97          9
    98         74
    99        145
   100         10
   111          1
   112          7
   113         18
   114          1
   115          1
   127          4
   142         32
   143          3