##TITLE=Library Entry 76081
##JCAMP-DX=Revision 4.10 
##DATA TYPE=MASS SPECTRUM
##SAMPLE DESCRIPTION=J. VAN THUIJL
##NAMES=HP
##CAS NAME=1H-Pyrazole, 4-chloro-
##MOLFORM=C3H3ClN2
##CAS REGISTRY NO=15878-00-9
##MP= -300
##BP= -300
##MW= 102
##$RETENTION INDEX=867
##$CONDENSED SPECTRUM=NO
##NPOINTS= 32
##XYDATA=(XY..XY) 1 
    26          4
    27         17
    28         24
    29          7
    35          4
    36          7
    37         27
    38         18
    39         33
    40         22
    41         16
    42          8
    47         36
    48        109
    49         17
    50         55
    51         15
    52          4
    66          6
    67         27
    68         16
    72          2
    73         16
    74         21
    75        244
    76         15
    77         82
   101          5
   102        999
   103         26
   104        333
   105          8