##TITLE=Library Entry 52515
##JCAMP-DX=Revision 4.10 
##DATA TYPE=MASS SPECTRUM
##SAMPLE DESCRIPTION=D.HENNEBERG, MAX-PLANCK INSTITUTE, MULHEIM, WEST GERMAN
Y
##NAMES=HP
##CAS NAME=Phosphinic chloride, dicyclohexyl-
##MOLFORM=C12H22ClOP
##CAS REGISTRY NO=15873-72-0
##MP= -300
##BP= -300
##MW= 248
##$RETENTION INDEX=0
##$CONDENSED SPECTRUM=NO
##NPOINTS= 131
##XYDATA=(XY..XY) 1 
    27         64
    29         74
    30          1
    31          0
    32          0
    35          8
    36         52
    37          2
    38         18
    39         79
    40          9
    41        334
    42         20
    43         24
    44          0
    45          1
    47         11
    48          1
    49          3
    50          1
    51          7
    52          4
    53         54
    54         52
    55        446
    56         22
    57          1
    59          0
    63          6
    64          0
    65          9
    66          7
    67         82
    68          7
    69          3
    70          0
    71          2
    73          1
    75          5
    76          0
    77         14
    78          5
    79         44
    80         11
    81        131
    82         77
    83        999
    84         65
    87          1
    89          2
    91          0
    93          0
    95          1
    97          0
    98          5
    99         13
   100          1
   101          4
   102          0
   103          0
   107          0
   108          0
   109          1
   110          3
   111         10
   112         18
   113         14
   114          7
   115          1
   122          0
   124          3
   125         12
   126          3
   127          3
   128          0
   129          1
   130          1
   131          3
   132          1
   133          3
   136          0
   137          3
   138          5
   139          5
   140          2
   141          1
   148          2
   149          1
   150          1
   151          5
   152          1
   153          1
   154          0
   162          0
   166        368
   167        367
   168        145
   169        121
   170          8
   175          0
   177          0
   180         18
   181          1
   182          6
   183          1
   191          0
   193         79
   194          8
   195         27
   196          2
   205          1
   206          1
   207         11
   208          1
   209          4
   210          0
   212          1
   213         10
   214          1
   219          2
   221          1
   231          1
   233          8
   234          1
   235          2
   247          9
   248         84
   249         16
   250         29
   251          3
   252          0