##TITLE=Library Entry 12197
##JCAMP-DX=Revision 4.10 
##DATA TYPE=MASS SPECTRUM
##SAMPLE DESCRIPTION=Pu Leung, NIH, Bethesda, MD
##NAMES=HP
##CAS NAME=p-Undecyloxybenzoic acid
##MOLFORM=C18H28O3
##CAS REGISTRY NO=15872-44-3
##MP= -300
##BP= -300
##MW= 292
##$RETENTION INDEX=0
##$CONDENSED SPECTRUM=NO
##NPOINTS= 115
##XYDATA=(XY..XY) 1 
    41        607
    43        999
    44          8
    45          6
    47          6
    48          2
    49         30
    50         17
    51         31
    53         74
    54          9
    55        590
    56        271
    57        577
    58         26
    59          0
    60          1
    61          0
    62          4
    63         26
    65        173
    66          3
    67         75
    68         36
    69        320
    70        210
    71        254
    72         11
    74          4
    75         10
    76         21
    77         35
    78          8
    79         28
    81         53
    82         47
    83        145
    84        122
    85        133
    86         13
    88          2
    89          0
    91         13
    92         13
    93         36
    94          2
    95         48
    96         25
    97        125
    98         51
    99         21
   100          1
   101          0
   103          7
   104          4
   105          7
   106          0
   107         15
   109         13
   110         17
   111         73
   112         25
   113          6
   115          1
   117          0
   118          0
   119          4
   120          5
   121        246
   122         16
   123          6
   124          4
   125         30
   126         26
   127          2
   129          0
   131          1
   132          0
   133          3
   135          3
   137          1
   138        679
   139        455
   140         37
   141          4
   145          0
   147          2
   149          1
   151         21
   152         13
   153          6
   154         24
   155          3
   159          0
   161          0
   163          0
   164          1
   165          1
   167          0
   175          0
   177          0
   178          0
   179          2
   180          0
   192          0
   193          0
   273          0
   275          9
   276          1
   289          1
   290          0
   292        237
   293         48
   294          4
   295          0