##TITLE=Library Entry 22028
##JCAMP-DX=Revision 4.10 
##DATA TYPE=MASS SPECTRUM
##SAMPLE DESCRIPTION=Chuck Anderson, Aldrich Chemical Co.
##NAMES=HP
##CAS NAME=1-Heptene, 2-methyl-
##MOLFORM=C8H16
##CAS REGISTRY NO=15870-10-7
##MP= -300
##BP= -300
##MW= 112
##$RETENTION INDEX=776
##$CONDENSED SPECTRUM=NO
##NPOINTS= 68
##XYDATA=(XY..XY) 1 
    14          0
    15          3
    25          0
    26          9
    27        167
    28         44
    29        289
    30          6
    31          0
    32          0
    36          0
    37          2
    38         10
    39        202
    40         47
    41        523
    42         96
    43         46
    44          1
    45          0
    46          0
    49          0
    50          8
    51         18
    52          8
    53         61
    54         22
    55        299
    56        999
    57        184
    58          7
    59          0
    61          0
    62          1
    63          2
    64          0
    65          8
    66          2
    67         28
    68         16
    69        220
    70         83
    71          5
    72          0
    74          0
    75          0
    76          0
    77          7
    78          1
    79          7
    80          1
    81          4
    82          1
    83         20
    84         66
    85          4
    86          0
    89          0
    91          1
    92          0
    93          0
    95          1
    96          0
    97         23
    98          1
   112        111
   113          9
   114          0