##TITLE=Library Entry 58798
##JCAMP-DX=Revision 4.10 
##DATA TYPE=MASS SPECTRUM
##SAMPLE DESCRIPTION=NIST Mass Spectrometry Data Center, 1994
##NAMES=HP
##CAS NAME=Bicyclo[2.2.1]-2,5-heptadiene-2,3-dicarboxylic acid
##MOLFORM=C9H8O4
##CAS REGISTRY NO=15872-28-3
##MP= -300
##BP= -300
##MW= 180
##$RETENTION INDEX=0
##$CONDENSED SPECTRUM=NO
##NPOINTS= 60
##XYDATA=(XY..XY) 1 
    12          8
    13          8
    14          6
    15         11
    17          6
    18          9
    24          9
    25         14
    26         67
    27         82
    28         21
    36         13
    37        119
    38        174
    39        235
    40         50
    41          7
    42          7
    43         20
    44         25
    45          3
    48          7
    49         51
    50        156
    51        126
    52         29
    53         67
    60         17
    61        114
    62        197
    63        416
    64        185
    65         63
    66        137
    73         16
    74         33
    75         36
    76         12
    77         53
    78         25
    79         11
    84         10
    85         18
    86         26
    87         24
    88         10
    89        894
    90        999
    91         87
    92        103
    93          9
   105         33
   106         12
   117         27
   118        295
   119         27
   134         20
   161         22
   162        174
   163         16