##TITLE=Library Entry 24384
##JCAMP-DX=Revision 4.10 
##DATA TYPE=MASS SPECTRUM
##SAMPLE DESCRIPTION=Exported from NIST MS Search
##NAMES=HP
##CAS NAME=Hexadecane, 6,11-dipentyl-
##MOLFORM=C26H54
##CAS REGISTRY NO=15874-03-0
##MP= -300
##BP= -300
##MW= 366
##$RETENTION INDEX=0
##$CONDENSED SPECTRUM=NO
##NPOINTS= 157
##XYDATA=(XY..XY) 1 
    12          7
    13          9
    15         53
    16         34
    19          3
    20          2
    24          7
    25         23
    26        133
    27        293
    29        307
    30         18
    31          1
    36          2
    37         15
    38         27
    39        163
    40         44
    41        551
    42        213
    43        848
    44         32
    49          2
    50          9
    51         11
    52          6
    53         38
    54         51
    55        150
    56         95
    57        999
    58         46
    59          1
    61          1
    62          2
    63          1
    65          4
    66          3
    67         53
    68         40
    69        246
    70        108
    71        565
    72         31
    73          1
    77          4
    78          2
    79          9
    80          3
    81         28
    82         25
    83        139
    84         55
    85        413
    86         27
    87          1
    91          3
    92          1
    93          2
    94          1
    95         15
    96         19
    97        104
    98         32
    99        116
   100          9
   101          1
   105          1
   106          1
   107          1
   108          1
   109          5
   110          7
   111         44
   112         60
   113         81
   114          7
   123          2
   124          3
   125         20
   126         17
   127         39
   128          4
   137          1
   138          5
   139         11
   140         11
   141         31
   142          3
   151          1
   152          4
   153         10
   154        250
   155        111
   156         11
   157          1
   165          1
   166          3
   167         10
   168         30
   169         29
   170          4
   179          1
   180          1
   181          2
   182         10
   183         20
   184          3
   194          1
   195          1
   196          3
   197         16
   198          3
   199          1
   208          1
   209          1
   210         19
   211         70
   212         12
   213          1
   222          4
   223         17
   224          7
   225         12
   226          2
   236          1
   237          1
   238         25
   239         14
   240          2
   251          1
   252          4
   253          5
   254          1
   266          1
   267          3
   268          1
   280          2
   281          7
   282          1
   294         97
   295        296
   296         64
   297          7
   298          1
   306          1
   307          1
   308          4
   309          6
   310          1
   322          1
   323          2
   324          1
   337          1
   365          2
   366          1
   367          1