##TITLE=Library Entry 21994
##JCAMP-DX=Revision 4.10 
##DATA TYPE=MASS SPECTRUM
##SAMPLE DESCRIPTION=Exported from NIST MS Search
##NAMES=HP
##CAS NAME=Pentanal, 3-methyl-
##MOLFORM=C6H12O
##CAS REGISTRY NO=15877-57-3
##MP= -300
##BP= -300
##MW= 100
##$RETENTION INDEX=719
##$CONDENSED SPECTRUM=NO
##NPOINTS= 26
##XYDATA=(XY..XY) 1 
    27        163
    28         37
    29        281
    31          7
    39        144
    40         22
    41        448
    42         67
    43        385
    44        219
    45         78
    54          7
    55        100
    56        999
    57        204
    58        137
    67         30
    69         19
    70          4
    71        144
    72         41
    81          7
    82         26
    85         19
    99          4
   100         15