##TITLE=Library Entry 96481
##JCAMP-DX=Revision 4.10 
##DATA TYPE=MASS SPECTRUM
##SAMPLE DESCRIPTION=V.A.Korolev, Moscow, Russia
##NAMES=HP
##CAS NAME=Pyrazole, 4-chloro-3-methyl-
##MOLFORM=C4H5ClN2
##CAS REGISTRY NO=15878-08-7
##MP= -300
##BP= -300
##MW= 116
##$RETENTION INDEX=0
##$CONDENSED SPECTRUM=NO
##NPOINTS= 36
##XYDATA=(XY..XY) 1 
    35         60
    36         16
    37         20
    38         89
    39         54
    40        280
    41         91
    42        441
    43         24
    44        148
    45          3
    47         62
    48         52
    49         35
    50        204
    51        239
    52         96
    53         21
    54        152
    55         17
    61          6
    62         12
    64          9
    73         46
    74          4
    75         14
    76          2
    81        459
    82         19
    88         20
    89          3
    90          7
   115        364
   116        999
   117        116
   118        293