##TITLE=Library Entry 97543
##JCAMP-DX=Revision 4.10 
##DATA TYPE=MASS SPECTRUM
##SAMPLE DESCRIPTION=Exported from NIST MS Search
##NAMES=HP
##CAS NAME=Benzene, 1-methyl-2-(2-propenyl)-
##MOLFORM=C10H12
##CAS REGISTRY NO=1587-04-8
##MP= -300
##BP= -300
##MW= 132
##$RETENTION INDEX=1041
##$CONDENSED SPECTRUM=NO
##NPOINTS= 66
##XYDATA=(XY..XY) 1 
    26          2
    27         29
    28          2
    29          2
    37          2
    38          8
    39         73
    40          6
    41         14
    49          1
    50         24
    51         69
    52         18
    53         24
    54          3
    55          2
    57          5
    58         10
    61          4
    62         14
    63         51
    64         58
    65         92
    66          6
    67          1
    73          1
    74         11
    75         11
    76          9
    77         91
    78         36
    79         38
    80          4
    85          2
    86          4
    87          5
    88          2
    89         28
    90          6
    91        217
    92         25
    93          2
    98          2
    99          1
   101          4
   102         17
   103         48
   104         37
   105        120
   106         11
   113          2
   114          3
   115        274
   116        106
   117        999
   118         98
   119          5
   126          5
   127         23
   128         49
   129         46
   130         11
   131        187
   132        615
   133         66
   134          4