##TITLE=Library Entry 76407
##JCAMP-DX=Revision 4.10 
##DATA TYPE=MASS SPECTRUM
##SAMPLE DESCRIPTION=W. KELLY UNILEVER RESEARCH COLWORTH/WELWYN, BEDFORD U.K
.
##NAMES=HP
##CAS NAME=Butanedioic acid, hydroxy-, dimethyl ester
##MOLFORM=C6H10O5
##CAS REGISTRY NO=1587-15-1
##MP= -300
##BP= -300
##MW= 162
##$RETENTION INDEX=1126
##$CONDENSED SPECTRUM=NO
##NPOINTS= 37
##XYDATA=(XY..XY) 1 
    41         31
    42        110
    43        735
    45         53
    53         19
    54         19
    55         44
    56          9
    57         31
    58         12
    59        297
    60         12
    61        485
    62         12
    67          6
    69         22
    71        907
    72         28
    73          9
    74        109
    75          9
    77          9
    82          8
    83         15
    85         62
    87         12
    97          6
   101         15
   102         75
   103        999
   104         46
   105         15
   106          6
   113        162
   114         18
   130         40
   131         50