##TITLE=Library Entry 2767
##JCAMP-DX=Revision 4.10 
##DATA TYPE=MASS SPECTRUM
##SAMPLE DESCRIPTION=LAC, NIDDK, NIH, Bethesda, MD 20892
##NAMES=HP
##CAS NAME=Arachidonic amide, N-[5-hydroxy-n-pentyl]-
##MOLFORM=C25H43NO2
##CAS REGISTRY NO=158840-60-9
##MP= -300
##BP= -300
##MW= 389
##$RETENTION INDEX=0
##$CONDENSED SPECTRUM=NO
##NPOINTS= 111
##XYDATA=(XY..XY) 1 
    41        999
    42        128
    43        476
    44        169
    45        135
    51         34
    52          8
    53        111
    54        124
    55        603
    56        154
    57        279
    58         54
    59         50
    60        128
    65        106
    66         99
    67        546
    68        133
    69        395
    70        101
    71        113
    72        199
    73        280
    74         27
    77        224
    78        107
    79        493
    80        212
    81        191
    82         61
    83         85
    84        106
    85        161
    86        233
    87         81
    88         20
    89         10
    91        369
    92         78
    93        210
    94         59
    95         93
    96         30
    97         38
    98         32
    99         31
   100        111
   101        116
   102         90
   103         43
   104        377
   105        173
   106         52
   107         73
   108         23
   109         31
   110          9
   111         18
   112         41
   113         23
   114         40
   115         55
   116         18
   117         81
   118         21
   119         74
   120         25
   121         40
   122         20
   123         16
   124          9
   127         23
   128         28
   129         23
   130         49
   131         43
   132         21
   133         50
   134         20
   135         29
   136         17
   140          8
   145        162
   146         31
   147         31
   149        131
   150         43
   158        123
   159         28
   161         20
   163         20
   167         43
   172         19
   175         27
   176          8
   177         10
   189          9
   198         12
   200         25
   203         21
   212         28
   226          8
   240         30
   244          9
   252          8
   264         30
   278         20
   279         30
   389         37
   390         24