##TITLE=Library Entry 10832
##JCAMP-DX=Revision 4.10 
##DATA TYPE=MASS SPECTRUM
##SAMPLE DESCRIPTION=Chemical Concepts
##NAMES=HP
##CAS NAME=Heptanoic acid, 3-hydroxy-, methyl ester
##MOLFORM=C8H16O3
##CAS REGISTRY NO=15889-95-9
##MP= -300
##BP= -300
##MW= 160
##$RETENTION INDEX=1047
##$CONDENSED SPECTRUM=NO
##NPOINTS= 63
##XYDATA=(XY..XY) 1 
    31        150
    33         84
    34          2
    38          8
    39        129
    40         29
    41        459
    42        209
    43        999
    44        222
    45         97
    46          1
    50          1
    51          9
    52          2
    53         36
    54         19
    55        133
    56         41
    57        194
    58        106
    59        181
    60         12
    61        374
    62         11
    63          1
    65          4
    67         29
    68         50
    69        289
    70         19
    71        711
    72         32
    73          7
    74        615
    75         58
    76          5
    77          2
    79          5
    81         16
    82         46
    83         40
    84          7
    85         88
    86         13
    87         92
    88          8
    99          6
   100         11
   101         21
   102         10
   103        773
   104         36
   105          7
   110         34
   111         74
   112          6
   113         26
   114          3
   117          6
   127          9
   129          5
   142         13