##TITLE=Library Entry 17129
##JCAMP-DX=Revision 4.10 
##DATA TYPE=MASS SPECTRUM
##SAMPLE DESCRIPTION=A.A.Kutin, Moscow, Russia
##NAMES=HP
##CAS NAME=1,3,4-Thiadiazol-2-amine, 5-[2-(2-methoxy)ethyl]-
##MOLFORM=C5H9N3OS
##CAS REGISTRY NO=15884-90-9
##MP= -300
##BP= -300
##MW= 159
##$RETENTION INDEX=0
##$CONDENSED SPECTRUM=NO
##NPOINTS= 65
##XYDATA=(XY..XY) 1 
    33         25
    34         14
    35          1
    36          2
    37          6
    38         15
    39         63
    40         52
    42        140
    43         75
    45        999
    47         84
    48          7
    50         13
    51         21
    52         16
    53          6
    54         21
    55         15
    57         74
    58         69
    59        157
    60        204
    61         13
    62          8
    64         12
    65          2
    66          2
    68         29
    69         42
    70         10
    71         28
    72         11
    74         92
    75         15
    76          7
    77          4
    86          3
    87         33
    88          4
    89          4
   101          1
   102          8
   103          3
   104          1
   105          1
   106          0
   114         59
   115         13
   116         20
   117          5
   128         31
   129        149
   130         19
   131          9
   132          1
   142          3
   144        115
   146         11
   147          0
   158          2
   159         42
   160          2
   161          2
   162          0