##TITLE=Library Entry 76698
##JCAMP-DX=Revision 4.10 
##DATA TYPE=MASS SPECTRUM
##SAMPLE DESCRIPTION=NIST Mass Spectrometry Data Center, 1994
##NAMES=HP
##CAS NAME=2,3-Diphenylpyrazine
##MOLFORM=C16H12N2
##CAS REGISTRY NO=1588-89-2
##MP= -300
##BP= -300
##MW= 232
##$RETENTION INDEX=0
##$CONDENSED SPECTRUM=NO
##NPOINTS= 89
##XYDATA=(XY..XY) 1 
    15          3
    17          3
    18          2
    26         43
    27         74
    37          9
    38         32
    39        141
    40         11
    41          3
    50        188
    51        283
    52        117
    53         11
    54          1
    61         11
    62         40
    63         99
    64         23
    65          8
    73          5
    74         60
    75        104
    76        426
    77        207
    78         14
    81          2
    82          2
    85          5
    86         23
    87         38
    88         74
    89         37
    98         21
    99         23
   100         15
   101         22
   102        101
   103        999
   104        123
   105          4
   110          7
   111         11
   112          4
   113         11
   114          4
   115         72
   122          4
   123          4
   124          3
   125          6
   126         26
   127         10
   128         22
   129         15
   130          3
   135          1
   137          7
   138          5
   139         12
   140          4
   149          5
   150         30
   151         34
   152         16
   153          3
   155         12
   162          2
   163          4
   164          3
   165          3
   174          5
   175         11
   176         57
   177         49
   178         17
   179          3
   190          4
   201          4
   202          6
   203         10
   204         53
   205         25
   206          4
   229          8
   231        566
   232        418
   233         74
   234          5