##TITLE=Library Entry 50134
##JCAMP-DX=Revision 4.10 
##DATA TYPE=MASS SPECTRUM
##SAMPLE DESCRIPTION=Chemical Concepts
##NAMES=HP
##CAS NAME=Bicyclo[4.1.0]heptane, 7-chloro-
##MOLFORM=C7H11Cl
##CAS REGISTRY NO=1588-50-7
##MP= -300
##BP= -300
##MW= 130
##$RETENTION INDEX=0
##$CONDENSED SPECTRUM=NO
##NPOINTS= 63
##XYDATA=(XY..XY) 1 
    24         47
    27        439
    28        126
    29        217
    30          3
    36         11
    37         11
    38         51
    39        620
    40         81
    41        439
    42         56
    43          8
    44          1
    45         19
    46         16
    47          3
    48          5
    49         35
    50         54
    51        149
    52         74
    53        558
    54        383
    55        594
    56         31
    61         17
    62         34
    63         57
    64         18
    65        163
    66        110
    67        658
    68        612
    69         35
    73         14
    74          7
    75         78
    76          5
    77        173
    78         38
    79        293
    80         36
    81        999
    82         58
    86          3
    88        654
    89        110
    90        273
    91         98
    92          6
    93         58
    94        104
    95        629
    96         38
   101         17
   102         32
   103          4
   104          9
   115          6
   130         64
   131          8
   132         18