##TITLE=Library Entry 29569
##JCAMP-DX=Revision 4.10 
##DATA TYPE=MASS SPECTRUM
##SAMPLE DESCRIPTION=Exported from NIST MS Search
##NAMES=HP
##CAS NAME=1-Propanol, 2-methoxy-
##MOLFORM=C4H10O2
##CAS REGISTRY NO=1589-47-5
##MP= -300
##BP= -300
##MW= 90
##$RETENTION INDEX=664
##$CONDENSED SPECTRUM=NO
##NPOINTS= 47
##XYDATA=(XY..XY) 1 
    13          1
    14          4
    15         56
    16          1
    17          7
    18         30
    19          2
    25          1
    26          9
    27         40
    28         19
    29        205
    30         11
    31        283
    32          5
    33         32
    34          1
    36          1
    37          1
    38          3
    39         16
    40          4
    41         42
    42         13
    43        115
    44          5
    45         59
    46          2
    47          1
    53          1
    54          1
    55          4
    56          1
    57         33
    58         29
    59        999
    60         35
    61          5
    71          3
    72          1
    73          2
    74          1
    75         16
    76          1
    89          2
    90          6
    91          1