##TITLE=Library Entry 17215
##JCAMP-DX=Revision 4.10 
##DATA TYPE=MASS SPECTRUM
##SAMPLE DESCRIPTION=NIST Mass Spectrometry Data Center, 1994
##NAMES=HP
##CAS NAME=Trimethylene glycol monomethyl ether
##MOLFORM=C4H10O2
##CAS REGISTRY NO=1589-49-7
##MP= -300
##BP= -300
##MW= 90
##$RETENTION INDEX=0
##$CONDENSED SPECTRUM=NO
##NPOINTS= 39
##XYDATA=(XY..XY) 1 
    15        150
    16          4
    17          4
    18          2
    26         50
    27        153
    28        150
    29        449
    30         61
    31        453
    32         12
    33        125
    34          2
    36          1
    37          5
    38         11
    39         46
    40         14
    41         88
    42        120
    43        100
    44          1
    45        999
    46         23
    47          9
    53          2
    55          9
    57        249
    58        137
    59         63
    60         24
    61         32
    71        143
    72        478
    73         22
    74          2
    75          7
    87          1
    89          3