##TITLE=Library Entry 85953
##JCAMP-DX=Revision 4.10 
##DATA TYPE=MASS SPECTRUM
##SAMPLE DESCRIPTION=NIST Mass Spectrometry Data Center, 1994
##NAMES=HP
##CAS NAME=4-Fluorobenzyl mercaptan
##MOLFORM=C7H7FS
##CAS REGISTRY NO=15894-04-9
##MP= -300
##BP= -300
##MW= 142
##$RETENTION INDEX=0
##$CONDENSED SPECTRUM=NO
##NPOINTS= 82
##XYDATA=(XY..XY) 1 
    18          2
    25          1
    26          7
    27          5
    31         18
    32         13
    33         43
    34          7
    35          2
    36          1
    37         12
    38         21
    39         50
    40          3
    43          1
    44          6
    45        152
    46         11
    47         15
    48          1
    49          8
    50         43
    51         36
    52          4
    53          1
    55          2
    56         13
    57         95
    58          9
    59         15
    60         14
    61         22
    62         31
    63         57
    64          6
    65          2
    68          9
    69         29
    70         17
    71         13
    73          3
    74         11
    75         32
    76          5
    77         10
    78          1
    79          1
    80          5
    81         39
    82         14
    83        210
    84         13
    85          5
    86          6
    87          8
    88          3
    89         26
    90          2
    91          0
    92          2
    93          8
    94          5
    95         26
    96         16
    97          7
   104          1
   105          3
   107         62
   109        999
   110         77
   111          4
   113          1
   115          1
   117          1
   119          1
   121          2
   126          1
   139         23
   140          4
   142        179
   143         17
   144         11