##TITLE=Library Entry 37397
##JCAMP-DX=Revision 4.10 
##DATA TYPE=MASS SPECTRUM
##SAMPLE DESCRIPTION=Exported from NIST MS Search
##NAMES=HP
##CAS NAME=Cyclopentane, 1,2,3-trimethyl-, (1.alpha.,2.alpha.,3.beta.)-
##MOLFORM=C8H16
##CAS REGISTRY NO=15890-40-1
##MP= -300
##BP= -300
##MW= 112
##$RETENTION INDEX=775
##$CONDENSED SPECTRUM=NO
##NPOINTS= 67
##XYDATA=(XY..XY) 1 
    12          1
    13          1
    14          1
    15         39
    16          1
    26         13
    27        275
    28         82
    29        229
    30          6
    37          3
    38          7
    39        224
    40         41
    41        599
    42        234
    43         99
    44          4
    45          1
    46          2
    47          1
    50          5
    51         20
    52         11
    53         82
    54         43
    55        905
    56        917
    57        247
    58         10
    62          1
    63          6
    64          1
    65         12
    66          6
    67         34
    68         34
    69        353
    70        999
    71        104
    72          4
    75          1
    77         12
    78          3
    79         10
    80          2
    81         14
    82          7
    83         89
    84        219
    85         13
    86          1
    89          1
    91          4
    92          1
    93          2
    94          1
    95         11
    96          3
    97         85
    98          7
    99          1
   109          1
   111          6
   112        183
   113         15
   114          1