##TITLE=Library Entry 55817
##JCAMP-DX=Revision 4.10 
##DATA TYPE=MASS SPECTRUM
##SAMPLE DESCRIPTION=H.FR.GRUTZMACHER HAMBURG UNIV., HAMBURG, GERMANY, F.R.G
.
##NAMES=HP
##CAS NAME=L-Norleucine, N-acetyl-
##MOLFORM=C8H15NO3
##CAS REGISTRY NO=15891-49-3
##MP= -300
##BP= -300
##MW= 173
##$RETENTION INDEX=0
##$CONDENSED SPECTRUM=NO
##NPOINTS= 85
##XYDATA=(XY..XY) 1 
    14          3
    15         65
    25          1
    26         21
    27        125
    28        185
    29        113
    30        304
    31         11
    38          4
    39         75
    40         16
    41        176
    42        109
    43        756
    44        189
    45         29
    46         13
    50          2
    51          4
    52          3
    53         11
    54         15
    55         50
    56        113
    57         99
    58         14
    59         11
    60        138
    61          7
    65          2
    66          1
    67         14
    68         30
    69         61
    70         37
    71         27
    72         20
    73         46
    74        207
    75         30
    76          2
    77          1
    81          6
    82          6
    83          8
    84         51
    85         99
    86        999
    87         70
    88         40
    89          4
    95          4
    96         19
    97          8
    98         17
    99        198
   100         17
   101          8
   102         17
   110          1
   111          6
   112         36
   113         24
   114         17
   115         10
   116         12
   117        222
   118         10
   119          1
   126          3
   127         16
   128        339
   129         55
   130         45
   131         14
   132          1
   144         11
   145          5
   154          1
   155         27
   156          3
   158          4
   173         63
   174          8