##TITLE=Library Entry 6378
##JCAMP-DX=Revision 4.10 
##DATA TYPE=MASS SPECTRUM
##SAMPLE DESCRIPTION=V.A.Korolev, Moscow, Russia
##NAMES=HP
##CAS NAME=Trimethyl[2-(tetramethyl-1,3,2-dioxaborolan-2-yl)ethynyl]silane
##MOLFORM=C11H21BO2Si
##CAS REGISTRY NO=159087-46-4
##MP= -300
##BP= -300
##MW= 224
##$RETENTION INDEX=0
##$CONDENSED SPECTRUM=NO
##NPOINTS= 119
##XYDATA=(XY..XY) 1 
    37          6
    38         11
    39        367
    40        151
    41        857
    42        330
    43        999
    44         64
    45        173
    46          5
    47          9
    51         14
    52          8
    53        117
    54         13
    55        234
    56         18
    57        180
    58        120
    59        193
    60         14
    61         89
    63          5
    64          9
    65         49
    66         61
    67        165
    68         26
    69        110
    70         11
    71         11
    72          5
    73        387
    74         33
    75        292
    76         17
    77         19
    78          8
    79         54
    80         46
    81        103
    82         20
    83        308
    84         70
    85        204
    86         10
    87          8
    89          5
    91         13
    92          6
    93        141
    94         24
    95         51
    96         17
    97        206
    98         34
    99         40
   100          6
   101         30
   102         22
   103         63
   105         23
   106          9
   107        183
   108        126
   109        372
   110         73
   111         41
   112          6
   113          7
   115         14
   116          8
   117         34
   121          4
   122         11
   123         97
   124        186
   125        522
   126         74
   127         81
   128          8
   129         12
   131          5
   135         10
   137         17
   138         33
   139        180
   140         45
   141         36
   142          4
   143          5
   149        101
   150         67
   151         63
   152         10
   153          7
   154          3
   163          7
   164          9
   165         51
   166         53
   167        287
   168         41
   169         14
   179          7
   180         13
   181         34
   182         19
   183          5
   194          3
   195         11
   208         75
   209        324
   210         49
   211         10
   223         48
   224        195
   225         32
   226          7