##TITLE=Library Entry 10739
##JCAMP-DX=Revision 4.10 
##DATA TYPE=MASS SPECTRUM
##SAMPLE DESCRIPTION=A.A.Kutin, Moscow, Russia
##NAMES=HP
##CAS NAME=Furazan-3-ol, 4-amino-
##MOLFORM=C2H3N3O2
##CAS REGISTRY NO=159013-90-8
##MP= -300
##BP= -300
##MW= 101
##$RETENTION INDEX=0
##$CONDENSED SPECTRUM=NO
##NPOINTS= 59
##XYDATA=(XY..XY) 1 
    33          4
    34          4
    35          0
    36          6
    38         16
    39          9
    40         70
    41        124
    42        556
    43        999
    44        417
    45         13
    46          0
    50          2
    51          3
    52         12
    53        156
    54        126
    55         18
    56          3
    57         13
    58        179
    59         13
    60          6
    61          1
    63          3
    64          2
    65          2
    67          2
    68          3
    69         52
    71        683
    72         18
    73          6
    74          0
    75          2
    76          1
    77          2
    78          1
    79          1
    80          0
    81          0
    82          1
    83          1
    84          4
    85          0
    87          1
    90          0
    91          2
    93          1
    95          1
    96          1
    97          1
    99          0
   101        953
   102         31
   103          8
   104          0
   105          3