##TITLE=Library Entry 75178
##JCAMP-DX=Revision 4.10 
##DATA TYPE=MASS SPECTRUM
##SAMPLE DESCRIPTION=G.Takeoka ET AL,J.Agric.Food Chem., 39,1848(1991)
##NAMES=HP
##CAS NAME=Methyl 3-(methylthio)-(E)-2-propenoate
##MOLFORM=C5H8O2S
##CAS REGISTRY NO=15904-85-5
##MP= -300
##BP= -300
##MW= 132
##$RETENTION INDEX=1062
##$CONDENSED SPECTRUM=NO
##NPOINTS= 42
##XYDATA=(XY..XY) 1 
    39         64
    41         23
    44         31
    45        619
    46        124
    47        160
    48         21
    53         69
    54         17
    55         43
    56         18
    57        191
    58        417
    59        124
    60         24
    61         24
    69         27
    71         70
    72        218
    73        557
    74         62
    75         41
    77         19
    83         11
    85        257
    86         51
    87         41
    89         28
    91          8
    99         36
   100        346
   101        999
   102         68
   103         58
   105         14
   115         19
   117        552
   118         25
   119         30
   132        679
   133         50
   134         27