##TITLE=Library Entry 53818
##JCAMP-DX=Revision 4.10 
##DATA TYPE=MASS SPECTRUM
##SAMPLE DESCRIPTION=Chemical Concepts
##NAMES=HP
##CAS NAME=2-Pentene, 2,3-diethyl-1-[(dimethylamino)ethylboryl]-
##MOLFORM=C13H28BN
##CAS REGISTRY NO=159087-68-0
##MP= -300
##BP= -300
##MW= 209
##$RETENTION INDEX=0
##$CONDENSED SPECTRUM=NO
##NPOINTS= 112
##XYDATA=(XY..XY) 1 
    25          0
    26         10
    27         55
    28         59
    29         46
    30         26
    36          1
    37          3
    38          2
    39         17
    40         34
    41         63
    42         13
    43          9
    44          9
    45          1
    46         88
    47          2
    50          2
    51          7
    52          4
    53         24
    54         31
    55        156
    56        567
    57         19
    58          2
    60          0
    61          0
    62          0
    63          1
    64          2
    65          6
    66          4
    67         12
    68         10
    69         26
    70         35
    71          2
    72          1
    75          0
    76          1
    77          4
    78          1
    79          6
    80          6
    81          9
    82         22
    83        239
    84        999
    85         43
    86          3
    89          0
    90          0
    91          3
    92          1
    93          4
    94          4
    95         10
    96          9
    97          5
    98          1
    99          1
   103          0
   105          1
   106          1
   107          4
   108          2
   109          8
   110         15
   111          4
   112          2
   113          0
   119          0
   120          0
   121          1
   122          2
   123          1
   124         18
   125          2
   126          2
   134          2
   135         10
   136          3
   137         10
   138         24
   139         10
   140          2
   149          1
   150          2
   151          1
   152          1
   153          0
   154          0
   163          1
   164          4
   165          2
   166          2
   167          3
   168          4
   178          1
   179          8
   180         32
   181          6
   182          6
   183          1
   193          0
   194          1
   197          0
   208          9
   209         38
   210          5