##TITLE=Library Entry 87239
##JCAMP-DX=Revision 4.10 
##DATA TYPE=MASS SPECTRUM
##SAMPLE DESCRIPTION=A.A.Kutin, Moscow, Russia
##NAMES=HP
##CAS NAME=Benzenesulfonamide, 2-nitro-N-(4-fluorophenyl)-
##MOLFORM=C12H9FN2O4S
##CAS REGISTRY NO=159048-81-4
##MP= -300
##BP= -300
##MW= 296
##$RETENTION INDEX=0
##$CONDENSED SPECTRUM=NO
##NPOINTS= 152
##XYDATA=(XY..XY) 1 
    33          8
    34          0
    36          0
    37          7
    38         24
    39         56
    40         15
    41          3
    42          1
    43          1
    44          5
    45          7
    46          4
    48          6
    50        117
    51         61
    52         27
    53         14
    54          1
    55          2
    56         11
    57        123
    58          8
    59          2
    60          0
    61          4
    62         20
    63         74
    64         48
    65         19
    66          3
    67          1
    68          2
    69         10
    70         11
    71          2
    72          2
    73          3
    74         24
    75         30
    76         54
    77         29
    78         18
    79          6
    80          5
    81         20
    82         55
    83        472
    84         35
    85          2
    86          0
    87          0
    88          1
    89         14
    90         11
    91          5
    92         20
    93          7
    94          7
    95         18
    96          6
    97          2
    98          3
    99          1
   100          0
   101          0
   102          1
   103          0
   104          1
   105          1
   106          2
   107          9
   108         10
   109         61
   110        999
   111         75
   112          6
   113          1
   114          0
   115          0
   116          0
   118          1
   119          0
   120          0
   121          0
   122          1
   123          1
   124          1
   125          3
   126         33
   127          3
   128          1
   129          0
   130          0
   131          1
   132          1
   133          5
   134          1
   135          0
   137          0
   138          1
   139          5
   140          2
   141          0
   144          0
   145          0
   146          2
   147          1
   148          0
   153          0
   154          0
   155          1
   156          4
   157          7
   158          4
   159          1
   160          0
   164          1
   165          0
   166          1
   167          2
   168          0
   169          0
   170          2
   171          5
   172          1
   173          0
   174          1
   175          3
   176          0
   182          0
   183          0
   184         10
   185         31
   186         62
   187         10
   188          4
   195          0
   197          0
   198          7
   199          9
   200          1
   201          0
   202          0
   203          0
   214          0
   215          8
   216          1
   266          0
   296         33
   297          5
   298          2