##TITLE=Library Entry 52513
##JCAMP-DX=Revision 4.10 
##DATA TYPE=MASS SPECTRUM
##SAMPLE DESCRIPTION=NIST Mass Spectrometry Data Center, 1994
##NAMES=HP
##CAS NAME=3',4'-Dichlorocyclohexanecarboxanilide
##MOLFORM=C13H15Cl2NO
##CAS REGISTRY NO=15907-85-4
##MP= -300
##BP= -300
##MW= 271
##$RETENTION INDEX=0
##$CONDENSED SPECTRUM=NO
##NPOINTS= 129
##XYDATA=(XY..XY) 1 
    15          6
    17          2
    18          8
    26          8
    27        175
    28         55
    29        117
    30          2
    35          4
    36          5
    37          7
    38         23
    39        221
    40         39
    41        488
    42         35
    43         29
    44          5
    49          8
    50         14
    51         25
    52         21
    53         86
    54         59
    55        873
    56         45
    57          2
    61         12
    62         34
    63         59
    64         14
    65         21
    66          8
    67         79
    68         16
    69         15
    70          1
    71          2
    72         11
    73         31
    74         13
    75         29
    76          4
    77         17
    78          5
    79         29
    80          4
    81         42
    82          1
    83        999
    84         73
    85         10
    86          3
    87          3
    88         12
    89         14
    90         35
    91          8
    92          4
    93          1
    94          1
    95          2
    96          2
    97         21
    98         10
    99         26
   100          7
   101          8
   102          2
   107          8
   109         33
   110         78
   111        111
   112         11
   113          1
   114          1
   124         35
   125         41
   126         27
   127         23
   128          7
   129          4
   130          1
   133         55
   134         10
   135         35
   136          7
   137          6
   138          3
   139          1
   145         18
   146          3
   147         12
   148          1
   149          2
   151          1
   153          2
   154          2
   156          1
   161        536
   162         75
   163        353
   164         38
   165         57
   166          7
   167          2
   172          2
   174          5
   176          3
   178          1
   186          1
   187          8
   188          6
   189          6
   190          5
   191          1
   200          5
   202          4
   203          2
   216          8
   217          1
   218          3
   236          1
   242          1
   271         80
   272         14
   273         53
   274          8
   275         10