##TITLE=Library Entry 34178
##JCAMP-DX=Revision 4.10 
##DATA TYPE=MASS SPECTRUM
##SAMPLE DESCRIPTION=NIST Mass Spectrometry Data Center, 1990.
##NAMES=HP
##CAS NAME=3-Hexene, 2,5-dimethyl-
##MOLFORM=C8H16
##CAS REGISTRY NO=15910-22-2
##MP= -300
##BP= -300
##MW= 112
##$RETENTION INDEX=0
##$CONDENSED SPECTRUM=NO
##NPOINTS= 55
##XYDATA=(XY..XY) 1 
    13          2
    14          8
    15         51
    16          3
    18          3
    26         24
    27        250
    28         56
    29        148
    30          3
    32          1
    37          7
    38         33
    39        309
    40         78
    41        838
    42         68
    43        139
    44          6
    46          4
    50         23
    51         52
    52         26
    53        114
    54          4
    55        632
    56        418
    57        161
    58          8
    62          5
    63         12
    64          3
    65         28
    66         19
    67         94
    68        148
    69        999
    70        159
    71          7
    74          2
    77         29
    78          8
    79         36
    80          6
    81         39
    82          4
    83          9
    84          6
    91          4
    95          6
    96          4
    97         46
    98          3
   112        138
   113         14