##TITLE=Library Entry 22294
##JCAMP-DX=Revision 4.10 
##DATA TYPE=MASS SPECTRUM
##SAMPLE DESCRIPTION=CARL DJERASSI DEPT OF CHEM STANFORD UNIV STANFORD CALIF
 94305
##NAMES=HP
##CAS NAME=Heptane, 4-methylene-
##MOLFORM=C8H16
##CAS REGISTRY NO=15918-08-8
##MP= -300
##BP= -300
##MW= 112
##$RETENTION INDEX=769
##$CONDENSED SPECTRUM=NO
##NPOINTS= 17
##XYDATA=(XY..XY) 1 
    39        120
    40         10
    41        510
    42        130
    43         70
    53         30
    55        680
    56        999
    57         30
    67         30
    69        510
    70        170
    83         40
    84        250
   112        190
   113         16
   114          0