##TITLE=Library Entry 20179
##JCAMP-DX=Revision 4.10 
##DATA TYPE=MASS SPECTRUM
##SAMPLE DESCRIPTION=D.HENNEBERG, MAX-PLANCK INSTITUTE, MULHEIM, WEST GERMAN
Y
##NAMES=HP
##CAS NAME=4-Nonene, 5-methyl-
##MOLFORM=C10H20
##CAS REGISTRY NO=15918-07-7
##MP= -300
##BP= -300
##MW= 140
##$RETENTION INDEX=1009
##$CONDENSED SPECTRUM=NO
##NPOINTS= 56
##XYDATA=(XY..XY) 1 
    24          2
    26          8
    27        191
    28         36
    29        212
    31          0
    32          2
    33          0
    34          0
    38          4
    39        129
    40         11
    41        422
    42         58
    43        199
    44          2
    49          0
    50          4
    51         14
    52          6
    53         60
    54         19
    55        999
    56        552
    57        182
    58          6
    63          1
    65         12
    66          4
    67         59
    68         28
    69        596
    70        239
    71         18
    77         10
    78          1
    79         13
    80          1
    81         23
    82         12
    83        212
    84         59
    85          5
    91          2
    93          1
    95          5
    96          1
    97         16
    98         21
    99          1
   109          0
   110          1
   111         31
   112          3
   140         77
   141          7