##TITLE=Library Entry 68795
##JCAMP-DX=Revision 4.10 
##DATA TYPE=MASS SPECTRUM
##SAMPLE DESCRIPTION=Exported from NIST MS Search
##NAMES=HP
##CAS NAME=2,2'-Bi-1,4:5,8-dimethanonaphthalene, eicosahydro-
##MOLFORM=C24H34
##CAS REGISTRY NO=15914-97-3
##MP= -300
##BP= -300
##MW= 322
##$RETENTION INDEX=0
##$CONDENSED SPECTRUM=NO
##NPOINTS= 87
##XYDATA=(XY..XY) 1 
    27         77
    29         63
    39        126
    40         25
    41        394
    42         28
    43         14
    52         39
    53         21
    54        109
    55         25
    56        140
    65        112
    66        408
    67        816
    68         63
    69         21
    77        225
    78        101
    79        495
    80        246
    81        274
    82         21
    83         14
    91        523
    92        211
    93        323
    94         70
    95        999
    96         77
   103         28
   104         45
   105        190
   106         98
   107         70
   109         28
   115         42
   116         28
   117        126
   118         49
   119        126
   120         49
   121        105
   122         14
   128         53
   129        105
   130         45
   131        112
   132         56
   133        157
   134        143
   135         77
   141         16
   143         31
   145         42
   146        126
   147        218
   148         70
   149         25
   157         21
   159        126
   160        126
   161        859
   162        112
   172         28
   173         56
   174         39
   187         91
   188         31
   189         11
   190         21
   212         11
   224         14
   225         98
   226        633
   227        295
   228        397
   229         77
   254         14
   255         63
   281        112
   282         25
   294         21
   320        105
   321         31
   322        352
   323         98