##TITLE=Library Entry 10173
##JCAMP-DX=Revision 4.10 
##DATA TYPE=MASS SPECTRUM
##SAMPLE DESCRIPTION=Insect Chem. Ecol. Lab., USDA, Beltsville, MD 20705
##NAMES=HP
##CAS NAME=Butanedioic acid, hydroxy-, bis[1-methylbutyl] ester
##MOLFORM=C14H26O5
##CAS REGISTRY NO=15913-11-8
##MP= -300
##BP= -300
##MW= 274
##$RETENTION INDEX=0
##$CONDENSED SPECTRUM=NO
##NPOINTS= 142
##XYDATA=(XY..XY) 1 
    41        281
    42        139
    43        999
    44        178
    45        178
    46          4
    47         16
    48          4
    52          1
    53         20
    54         10
    55        206
    56         15
    57         15
    58          6
    59          4
    60         12
    61          3
    62          1
    63          1
    65          2
    67          6
    68          3
    69         40
    70        115
    71        594
    72         69
    73         36
    74          3
    75          0
    76          1
    77          1
    79          1
    80          0
    81          3
    82          6
    83          5
    86         18
    87         69
    88         19
    89        660
    90        243
    91         25
    92          2
    95          1
    96          0
    97          6
    98          1
    99         24
   100         13
   101         12
   102          0
   105          6
   106          0
   107          6
   108          0
   109          0
   111          2
   112          0
   113          2
   114          2
   115         10
   116         13
   117        140
   118         18
   119          3
   123          0
   124          1
   125          1
   127          0
   128          0
   129          1
   130          2
   131          3
   132          2
   133          9
   134         25
   135         55
   136          2
   137          0
   139          1
   140          0
   141          2
   142          1
   143          3
   144          1
   145          2
   146          0
   147          0
   155          0
   156          0
   157          6
   158          1
   159        113
   160         31
   161          8
   162          0
   169          3
   170          1
   171          2
   173          2
   174          0
   175          1
   176          2
   177          1
   178          1
   179          0
   183          1
   184          0
   185          1
   186          1
   187         91
   188         13
   189          3
   190          0
   191          1
   199          0
   201          1
   202          1
   203          3
   204          3
   205         19
   206          7
   207          1
   215          5
   216          0
   217          0
   227          0
   229          0
   231          0
   232         22
   233          2
   234          0
   257          3
   258          3
   259          1
   260          0
   272          0
   273          0
   274         10
   275          3
   276          0