##TITLE=Library Entry 81186
##JCAMP-DX=Revision 4.10 
##DATA TYPE=MASS SPECTRUM
##SAMPLE DESCRIPTION=Exported from NIST MS Search
##NAMES=HP
##CAS NAME=3-Butenenitrile, 2-(benzoyloxy)-4-phenyl-
##MOLFORM=C17H13NO2
##CAS REGISTRY NO=1591-17-9
##MP= -300
##BP= -300
##MW= 263
##$RETENTION INDEX=0
##$CONDENSED SPECTRUM=NO
##NPOINTS= 37
##XYDATA=(XY..XY) 1 
    41         27
    42         23
    43         33
    45         16
    50         16
    51         84
    52         16
    57         10
    59         23
    63         16
    65         10
    69          6
    74         16
    75         10
    76         16
    77        202
    78         27
    83          6
    89          6
   102         10
   103         23
   105        999
   106         67
   113          6
   114         54
   115        168
   116         40
   123         10
   131         50
   132          6
   140        101
   141        219
   142        118
   143          3
   182         16
   263        141
   264         33