##TITLE=Library Entry 25939
##JCAMP-DX=Revision 4.10 
##DATA TYPE=MASS SPECTRUM
##SAMPLE DESCRIPTION=Exported from NIST MS Search
##NAMES=HP
##CAS NAME=Butanethioic acid, 3-oxo-, S-(1,1-dimethylethyl) ester
##MOLFORM=C8H14O2S
##CAS REGISTRY NO=15925-47-0
##MP= -300
##BP= -300
##MW= 174
##$RETENTION INDEX=0
##$CONDENSED SPECTRUM=NO
##NPOINTS= 20
##XYDATA=(XY..XY) 1 
    27        120
    28        130
    29        190
    39        120
    41        380
    42         60
    43        320
    55         80
    56        110
    57        999
    58        120
    69         40
    84         50
    85        560
    90        170
    91         70
   118        430
   119        140
   174        250
   175         30