##TITLE=Library Entry 90988
##JCAMP-DX=Revision 4.10 
##DATA TYPE=MASS SPECTRUM
##SAMPLE DESCRIPTION=Humboldt-Universitat zu Berlin, Department of Chemistry
, Analytical Group
##NAMES=HP
##CAS NAME=Pyrrolidine, 1-[2-(4-chlorophenyl)-1-thioxoethyl]-
##MOLFORM=C12H14ClNS
##CAS REGISTRY NO=159298-82-5
##MP= -300
##BP= -300
##MW= 239
##$RETENTION INDEX=0
##$CONDENSED SPECTRUM=NO
##NPOINTS= 200
##XYDATA=(XY..XY) 1 
    12          1
    13          1
    14          5
    15         38
    26         22
    27        172
    28         72
    29        141
    30         54
    31         26
    32         17
    33          3
    34          2
    35          4
    36          5
    37          6
    38         21
    39        168
    40         29
    41        151
    42         55
    43         66
    44         17
    45         74
    46          7
    47         10
    48          3
    49          6
    50         43
    51         54
    52         14
    53         37
    54         39
    55        401
    56         43
    57         15
    58         46
    59         39
    60         58
    61         15
    62         34
    63        112
    64         24
    65         22
    66         12
    67         30
    68         90
    69         35
    70        159
    71         36
    72        485
    73         51
    74         43
    75         56
    76         15
    77         27
    78         12
    79          4
    81         43
    82         16
    83          6
    84         13
    85         23
    86        103
    87         24
    88         29
    89        240
    90         64
    91         43
    92          6
    93          9
    94          7
    95          6
    96        225
    97         28
    98         83
    99         62
   100         11
   101         73
   102         33
   103         10
   104          4
   105          3
   106          4
   107          3
   108         10
   109          3
   110          2
   111         10
   112         13
   114        999
   115         78
   116        114
   117         17
   118          3
   120          8
   121         18
   122          5
   123         25
   124         11
   125        359
   126         45
   127        117
   128         30
   129         14
   130         11
   131          3
   132          9
   133         42
   134         81
   135         27
   136         14
   137         29
   138         12
   139         11
   140          4
   141          3
   142          5
   143         33
   144          9
   145          2
   146          4
   147          7
   148          7
   149          9
   150         31
   151         20
   152         17
   153          8
   154          4
   155         13
   156          5
   157         20
   158          2
   159          5
   160          6
   161          3
   162          4
   163          3
   164         14
   165         12
   166          5
   168         62
   169         13
   170         76
   171         31
   172          7
   173          2
   174          2
   175          2
   176          2
   177          5
   178         67
   179         10
   180         27
   181          4
   182          2
   183          2
   184          4
   185          1
   186          1
   188          0
   190          0
   191          1
   192          1
   194          1
   195          1
   196          2
   197          1
   198          1
   199          0
   200          1
   201          0
   202          5
   203          8
   204         25
   205          6
   206        109
   207         18
   208         37
   209          5
   210          3
   211          1
   212          1
   222          0
   223          6
   224          1
   225          2
   226          0
   230          1
   232          0
   236          2
   237          0
   238         41
   239        466
   240         85
   241        170
   242         25
   243          8
   244          1