##TITLE=Library Entry 38483
##JCAMP-DX=Revision 4.10 
##DATA TYPE=MASS SPECTRUM
##SAMPLE DESCRIPTION=Chemical Concepts
##NAMES=HP
##CAS NAME=2,2'-Bifuran, octahydro-
##MOLFORM=C8H14O2
##CAS REGISTRY NO=1592-33-2
##MP= -300
##BP= -300
##MW= 142
##$RETENTION INDEX=0
##$CONDENSED SPECTRUM=NO
##NPOINTS= 58
##XYDATA=(XY..XY) 1 
    26         10
    27        164
    29         68
    30          4
    31         16
    37          2
    38          6
    39        103
    40         18
    41        233
    42         70
    43        620
    44         23
    45          2
    50          2
    51          5
    52          2
    53         13
    54          5
    55         43
    56         11
    57          5
    58          7
    59          0
    62          0
    63          0
    65          2
    66          1
    67          8
    68          4
    69         15
    70        273
    71        999
    72         43
    73         11
    74          0
    77          2
    78          0
    79          3
    80          1
    81          2
    82          1
    83          3
    84         26
    85          1
    91          0
    93          0
    95          1
    96          0
    97         10
    98          1
    99          2
   100         10
   101          0
   110          0
   111          1
   141          0
   142          1