##TITLE=Library Entry 18656
##JCAMP-DX=Revision 4.10 
##DATA TYPE=MASS SPECTRUM
##SAMPLE DESCRIPTION=A.A.Kutin, Moscow, Russia
##NAMES=HP
##CAS NAME=1H-1.2,4-triazole-1-propanenitrile, 3-nitro-
##MOLFORM=C5H5N5O2
##CAS REGISTRY NO=159209-54-8
##MP= -300
##BP= -300
##MW= 167
##$RETENTION INDEX=0
##$CONDENSED SPECTRUM=NO
##NPOINTS= 104
##XYDATA=(XY..XY) 1 
    33          0
    34          0
    36          2
    37         15
    38        182
    39        407
    40        492
    41        337
    42        359
    43         33
    44         34
    45         15
    46        568
    47          3
    48          3
    50          6
    51         69
    52        203
    53        539
    54        999
    55         86
    56         17
    57         15
    58         11
    60          1
    62          0
    63          2
    64          6
    65          8
    66         19
    67         39
    68         34
    69        243
    70         21
    71          6
    72          0
    73         16
    74          0
    76          1
    77          4
    78          1
    79          6
    80          8
    81         39
    82         67
    83         12
    84         11
    85          5
    86        106
    87          3
    88          0
    89          0
    90          0
    91          3
    92          1
    93          1
    94         10
    95          3
    96          3
    97         18
    98         14
    99          1
   100         47
   101          6
   104          0
   105          2
   107          7
   108          1
   109          1
   110          2
   111          6
   112          2
   114        158
   115         16
   116          1
   119          3
   120          0
   121          6
   122          0
   123          0
   124          1
   125          0
   127        350
   128         17
   129          2
   133          0
   135          0
   137         19
   138          1
   139          0
   141          0
   143          1
   145          0
   147          0
   149          1
   150          0
   151         32
   152          2
   153          0
   163          0
   165          0
   167        426
   168         37
   169          3