##TITLE=Library Entry 97606
##JCAMP-DX=Revision 4.10 
##DATA TYPE=MASS SPECTRUM
##SAMPLE DESCRIPTION=Japan AIST/NIMC Database- Spectrum MS-IW-4257
##NAMES=HP
##CAS NAME=Benzene, 1-(chloromethyl)-4-ethenyl-
##MOLFORM=C9H9Cl
##CAS REGISTRY NO=1592-20-7
##MP= -300
##BP= -300
##MW= 152
##$RETENTION INDEX=0
##$CONDENSED SPECTRUM=NO
##NPOINTS= 74
##XYDATA=(XY..XY) 1 
    26          1
    27          7
    28          1
    35          2
    36         23
    37          2
    38          9
    39         42
    40          3
    41          5
    43          1
    44          1
    45          1
    49          2
    50         16
    51         29
    52          8
    53          3
    55          1
    56          1
    57         47
    58         26
    59          1
    61          4
    62         13
    63         40
    64          8
    65         32
    66          2
    73          4
    74          8
    75         13
    76         11
    77         17
    78          8
    79          1
    80          1
    82          1
    85          2
    86          4
    87          6
    88          3
    89         39
    90          8
    91        108
    92          9
    98          1
    99          3
   101          3
   102         15
   103          9
   104          2
   105          2
   113          4
   114          6
   115        266
   116         70
   117        999
   118        118
   119         13
   120          1
   121          1
   125         10
   126          1
   127          3
   128          1
   149          2
   150          1
   151         59
   152        365
   153         62
   154        124
   155         14
   156          2