##TITLE=Library Entry 58140
##JCAMP-DX=Revision 4.10 
##DATA TYPE=MASS SPECTRUM
##SAMPLE DESCRIPTION=NIST Mass Spectrometry Data Center
##NAMES=HP
##CAS NAME=Azelaic acid, monoethyl ester
##MOLFORM=C11H20O4
##CAS REGISTRY NO=1593-55-1
##MP= -300
##BP= -300
##MW= 216
##$RETENTION INDEX=1666
##$CONDENSED SPECTRUM=NO
##NPOINTS= 95
##XYDATA=(XY..XY) 1 
    26          7
    27         93
    28         37
    29        236
    30          8
    31         23
    39        119
    40         25
    41        400
    42        166
    43        289
    44         21
    45        240
    46          7
    51          8
    52          5
    53         59
    54         42
    55        924
    56        106
    57        133
    58         13
    59         68
    60        589
    61        302
    62          9
    63          4
    65         15
    66         10
    67        149
    68        101
    69        352
    70        366
    73        430
    74         62
    77         13
    79         51
    80         45
    81        137
    82        131
    83        535
    84        275
    86         16
    87         93
    88        999
    89        104
    90          9
    91         11
    93         33
    94          7
    96        134
    97        340
    98        265
    99         52
   100         15
   101        273
   102         35
   106         10
   107         58
   108         15
   109         26
   110         74
   111        287
   112         29
   113         20
   114         44
   115         73
   122          6
   123         59
   124        335
   125        253
   126         49
   127         28
   128         19
   129         62
   130         13
   134         20
   135         26
   136         10
   137         43
   140          5
   142         39
   143         18
   144         34
   151         28
   152        977
   153        107
   154         36
   157        111
   170         45
   171        640
   172         62
   180          5
   198         18
   199         11