##TITLE=Library Entry 109328
##JCAMP-DX=Revision 4.10 
##DATA TYPE=MASS SPECTRUM
##SAMPLE DESCRIPTION=Japan AIST/NIMC Database- Spectrum MS-IW-3793
##NAMES=HP
##CAS NAME=2H-Octahydropyrido[1,2-a]pyrazin-1-one
##MOLFORM=C8H14N2O
##CAS REGISTRY NO=15932-71-5
##MP= -300
##BP= -300
##MW= 154
##$RETENTION INDEX=0
##$CONDENSED SPECTRUM=NO
##NPOINTS= 100
##XYDATA=(XY..XY) 1 
    14          3
    15         29
    16          1
    18          2
    26         17
    27        121
    28        195
    29         62
    30         86
    31          2
    37          3
    38          9
    39        109
    40         31
    41        324
    42        262
    43        141
    44         86
    45          6
    46          1
    47          2
    49         10
    50          7
    51         17
    52         18
    53         53
    54        130
    55        369
    56        180
    57         26
    58          6
    59          1
    61          1
    62          3
    63          7
    64          2
    65         13
    66         11
    67         71
    68        136
    69        421
    70        307
    71         30
    72          5
    73          1
    75          3
    76          7
    77          4
    78         10
    79          7
    80         32
    81         27
    82        144
    83        565
    84        833
    85         52
    86          3
    87          1
    91         15
    92         11
    93          8
    94         21
    95         17
    96        329
    97        980
    98        293
    99         20
   100          1
   106          4
   107          4
   108         13
   109          8
   110         39
   111        239
   112         23
   113          7
   118          1
   119          1
   121          3
   122          2
   123         16
   124         13
   125        999
   126        782
   127         57
   128          2
   133          1
   134          1
   135          9
   136         10
   137         10
   138          1
   139          3
   149          2
   151          6
   152         11
   153         46
   154        808
   155         80
   156          6