##TITLE=Library Entry 3147
##JCAMP-DX=Revision 4.10 
##DATA TYPE=MASS SPECTRUM
##SAMPLE DESCRIPTION=Chemical Concepts
##NAMES=HP
##CAS NAME=Bicyclo[5.1.0]octane-8,8-dicarbonitrile, 1-(1-cyclopenten-3-on-1-
yl)-
##MOLFORM=C15H16N2O
##CAS REGISTRY NO=159380-93-5
##MP= -300
##BP= -300
##MW= 240
##$RETENTION INDEX=0
##$CONDENSED SPECTRUM=NO
##NPOINTS= 152
##XYDATA=(XY..XY) 1 
    26         48
    27        767
    28        107
    29        366
    30         27
    31         13
    38         50
    39        739
    40        128
    41        999
    42         64
    43         65
    45         11
    50        111
    51        415
    52        233
    53        542
    54        202
    55        351
    56         84
    57         21
    58         12
    59          8
    62         39
    63        157
    64         96
    65        291
    66        141
    67        769
    68        127
    69        243
    70         26
    71          8
    74         18
    75         59
    76         81
    77        570
    78        237
    79        573
    80        255
    81        488
    82        447
    83         96
    84         12
    87         18
    88         47
    89         85
    90         62
    91        506
    92        135
    93        432
    94        166
    95        119
    96        286
    97         30
   100         12
   101         76
   102         96
   103        142
   104         81
   105        319
   106        106
   107        647
   108        187
   109        225
   110         41
   114         54
   115        148
   116        148
   117        147
   118        126
   119        157
   120         98
   121        269
   122         86
   123         37
   126         11
   127         45
   128        134
   129        167
   130        139
   131        173
   132         79
   133        194
   134         99
   135        629
   136        223
   137         26
   140         59
   141         74
   142        164
   143        156
   144        181
   145         75
   146         41
   147         86
   148         49
   149        293
   150         36
   153         26
   154         50
   155        270
   156        250
   157        260
   158        164
   159        134
   160        149
   161         37
   162         20
   166         27
   167         37
   168         93
   169        411
   170        241
   171        145
   172        173
   173         43
   174         21
   175        162
   176         28
   180         31
   181         58
   182         47
   183        387
   184        223
   185        182
   186         94
   187         25
   193         11
   194         31
   195         57
   196         77
   197        315
   198        303
   199         79
   200         33
   207         17
   209         52
   210         15
   211        238
   212        147
   213        603
   214         91
   221         18
   222         51
   223         31
   224         12
   225         58
   239         69
   240        635
   241        120
   242         15