##TITLE=Library Entry 18954
##JCAMP-DX=Revision 4.10 
##DATA TYPE=MASS SPECTRUM
##SAMPLE DESCRIPTION=Chemical Concepts
##NAMES=HP
##CAS NAME=Bicyclo[4.1.0]heptane, 7,7-dicyano-1-(cyclohex-1-en-3-on-1-yl)-
##MOLFORM=C15H16N2O
##CAS REGISTRY NO=159380-91-3
##MP= -300
##BP= -300
##MW= 240
##$RETENTION INDEX=0
##$CONDENSED SPECTRUM=NO
##NPOINTS= 126
##XYDATA=(XY..XY) 1 
    26         11
    27        186
    28         32
    29         91
    38         16
    39        396
    40         51
    41        375
    42         31
    43         22
    50         27
    51        108
    52         71
    53         94
    54         37
    55        999
    56         33
    62         11
    63         63
    64         45
    65        148
    66         64
    67        194
    68         54
    69         33
    71         10
    75         18
    76         26
    77        209
    78        100
    79        165
    80         60
    81         69
    82        264
    83         21
    84         10
    88         22
    89         40
    90         26
    91        212
    92         52
    93        127
    94         27
    95        127
    96         14
    97         14
   101         26
   102         37
   103         45
   104         32
   105         69
   106         36
   107         54
   108         60
   110         22
   114         23
   115        102
   116         69
   117         41
   118         35
   119         62
   120         22
   121        318
   122         32
   123         13
   127         23
   128         44
   129         59
   130         39
   131         66
   132         19
   133         27
   134         34
   135         34
   136         17
   140         20
   141         31
   142        115
   143         88
   144         75
   145         28
   146         16
   147         56
   148         21
   149         56
   153         11
   154         20
   155         72
   156        142
   157         85
   158         42
   159         16
   166         13
   167         21
   168         46
   169        250
   170        110
   171         73
   172         68
   173         17
   175         19
   181         16
   182         18
   183        172
   184        282
   185        170
   186         86
   187         13
   194         16
   195         41
   196         43
   197        128
   198         43
   199         15
   200         12
   211        137
   212        182
   213        321
   214         55
   222         13
   223         38
   224         10
   225         18
   239        166
   240        323
   241         54