##TITLE=Library Entry 37362
##JCAMP-DX=Revision 4.10 
##DATA TYPE=MASS SPECTRUM
##SAMPLE DESCRIPTION=V.T.Borrett, Aust.J.Chem., 47, 2065 (1994)
##NAMES=HP
##CAS NAME=3,7-Dimethyl-3-octyl methylphosphonofluoridate
##MOLFORM=C11H24FO2P
##CAS REGISTRY NO=159395-79-6
##MP= -300
##BP= -300
##MW= 238
##$RETENTION INDEX=0
##$CONDENSED SPECTRUM=NO
##NPOINTS= 35
##XYDATA=(XY..XY) 1 
    39        114
    40         20
    41        393
    42        113
    43        259
    51         11
    52          8
    53         63
    54         35
    55        916
    56        322
    57        110
    65         17
    67        105
    68         35
    69        625
    70        999
    71        157
    77         11
    79         16
    80         16
    81         25
    82         11
    83        180
    84         81
    85         16
    97         26
    98         44
    99        167
   111         97
   112         16
   125          8
   140        127
   141         11
   153         17