##TITLE=Library Entry 18573
##JCAMP-DX=Revision 4.10 
##DATA TYPE=MASS SPECTRUM
##SAMPLE DESCRIPTION=Chemical Concepts
##NAMES=HP
##CAS NAME=Bicyclo[3.1.0]hexane-6,6-dicarbonitrile, 1-(1-cyclopenten-3-on-1-
yl)-
##MOLFORM=C13H12N2O
##CAS REGISTRY NO=159380-89-9
##MP= -300
##BP= -300
##MW= 212
##$RETENTION INDEX=0
##$CONDENSED SPECTRUM=NO
##NPOINTS= 165
##XYDATA=(XY..XY) 1 
    25          2
    26         79
    27        823
    28        134
    29         92
    30         11
    31         11
    33          0
    35          1
    37         20
    38        107
    39        936
    40         65
    41        622
    42         43
    43         56
    44         12
    45         13
    46          1
    47          2
    49          4
    50        191
    51        583
    52        282
    53        999
    54         94
    55        143
    56         17
    57         12
    58         12
    59          7
    60          2
    61         22
    62         71
    63        279
    64        133
    65        417
    66        136
    67         95
    68         84
    69         16
    70          5
    71          6
    72          2
    73          8
    74         29
    75         92
    76        110
    77        561
    78        232
    79        453
    80         91
    81        544
    82         55
    83          8
    84          5
    85          3
    86          9
    87         23
    88         64
    89        113
    90         64
    91        539
    92        120
    93        182
    94         27
    95         15
    96          6
    97          1
    98          1
    99         11
   100         25
   101         97
   102        107
   103        114
   104         84
   105        116
   106         59
   107        159
   108         66
   109         13
   110          2
   112          3
   113         13
   114         43
   115        187
   116        140
   117        150
   118         49
   119        103
   120         42
   121         44
   122          8
   123          1
   125          3
   126          6
   127         47
   128        143
   129        187
   130        158
   131         65
   132         50
   133         31
   134         23
   135          3
   139          5
   140         56
   141         90
   142        339
   143        166
   144        117
   145         45
   146         23
   147        119
   148         24
   149          3
   150          0
   151          2
   152          3
   153         19
   154         39
   155        461
   156        479
   157        375
   158        145
   159         22
   160         13
   161          1
   163          1
   165          1
   166         21
   167         30
   168        114
   169        500
   170        221
   171        103
   172         59
   173         11
   177          0
   178          2
   179          7
   180          3
   181         10
   182         13
   183        957
   184        732
   185        127
   186         18
   187          1
   192          0
   193         34
   194         89
   195        182
   196         36
   197        135
   198         15
   199          2
   202          0
   207          0
   209          1
   210          0
   211        135
   212        228
   213         32
   214          5