##TITLE=Library Entry 50088
##JCAMP-DX=Revision 4.10 
##DATA TYPE=MASS SPECTRUM
##SAMPLE DESCRIPTION=MYNARD C. HAMMING
##NAMES=HP
##CAS NAME=Cyclohexanone, 5-methyl-2-(1-methylethylidene)-
##MOLFORM=C10H16O
##CAS REGISTRY NO=15932-80-6
##MP= -300
##BP= -300
##MW= 152
##$RETENTION INDEX=0
##$CONDENSED SPECTRUM=NO
##NPOINTS= 99
##XYDATA=(XY..XY) 1 
    13          5
    14         13
    15         93
    16          3
    17          5
    18         16
    19          3
    26         25
    27        339
    28         82
    29        161
    30          4
    31          6
    32          4
    37         10
    38         34
    39        472
    40        111
    41        610
    42        108
    43        187
    44          7
    45          5
    46          2
    49          3
    50         32
    51         95
    52         51
    53        250
    54         66
    55        202
    56         36
    57         17
    58          4
    59         11
    60          4
    61          6
    62         11
    63         31
    64         11
    65         77
    66         61
    67        728
    68        231
    69        263
    70         32
    71         10
    72          1
    74          4
    75          5
    76          1
    77         81
    78         25
    79        104
    80         93
    81        999
    82        422
    83         55
    84         10
    85          3
    89          4
    91         45
    92         10
    93         47
    94         20
    95        138
    96         33
    97         22
    98          3
   103          4
   105         10
   106          3
   107         21
   108         18
   109        406
   110         75
   111         10
   112          2
   115          1
   117          1
   119         17
   120          2
   121         10
   122          4
   123         35
   124         17
   125          3
   133          2
   134          3
   135          3
   136          4
   137        187
   138         19
   139          4
   150          2
   151          8
   152        463
   153         54
   154          4