##TITLE=Library Entry 1418
##JCAMP-DX=Revision 4.10 
##DATA TYPE=MASS SPECTRUM
##SAMPLE DESCRIPTION=Japan AIST/NIMC Database- Spectrum MS-NW-2415
##NAMES=HP
##CAS NAME=Thiocyanic acid, 2,4-dinitrophenyl ester
##MOLFORM=C7H3N3O4S
##CAS REGISTRY NO=1594-56-5
##MP= -300
##BP= -300
##MW= 225
##$RETENTION INDEX=1925
##$CONDENSED SPECTRUM=NO
##NPOINTS= 144
##XYDATA=(XY..XY) 1 
    12          2
    14          1
    15          1
    16          4
    17          2
    18          7
    25          1
    26         10
    27         16
    28         22
    29         14
    30        999
    31          4
    32         10
    34          1
    36          4
    37         44
    38         67
    39         50
    40          4
    41          2
    42          4
    43         21
    44         23
    45        166
    46         35
    47          9
    48         12
    49         14
    50         53
    51         71
    52         28
    53         32
    54          8
    55          4
    56          3
    57         36
    58         62
    59          9
    60          9
    61         65
    62        166
    63        381
    64         67
    65         14
    66          7
    67          5
    68         10
    69        456
    70         91
    71         27
    72          6
    73         34
    74        248
    75        256
    76         66
    77         54
    78         20
    79        227
    80         29
    81         52
    82        179
    83         69
    84         14
    85          9
    86         10
    87         13
    88        243
    89         53
    90          8
    91        141
    92         14
    93         58
    94        133
    95        103
    96         25
    97          9
    98          9
    99          4
   100          6
   101         12
   102          3
   103        104
   104         71
   105         34
   106         92
   107        153
   108         18
   109         39
   110          5
   111          5
   112          7
   113          1
   114         29
   115        296
   116         31
   117          7
   118          3
   119          5
   120         30
   121        101
   122         24
   123         26
   124          4
   125          4
   130          1
   131        234
   132         50
   133        165
   134         19
   135          9
   136         13
   137         56
   138          7
   139          5
   144          2
   147          4
   148          3
   149         50
   150          6
   151         41
   152         37
   153          9
   154          2
   161         59
   162          6
   163          9
   164          1
   165          1
   167          3
   179         51
   180          5
   181          3
   183         60
   184          5
   185          3
   195         16
   196          1
   209         16
   210          1
   225        462
   226         44
   227         24
   228          3