##TITLE=Library Entry 1335
##JCAMP-DX=Revision 4.10 
##DATA TYPE=MASS SPECTRUM
##SAMPLE DESCRIPTION=Chemical Concepts
##NAMES=HP
##CAS NAME=1H-Indene-3-ethanamine
##MOLFORM=C11H13N
##CAS REGISTRY NO=15940-39-3
##MP= -300
##BP= -300
##MW= 159
##$RETENTION INDEX=0
##$CONDENSED SPECTRUM=NO
##NPOINTS= 79
##XYDATA=(XY..XY) 1 
    26          0
    27          8
    28         13
    29          2
    30        999
    31         18
    37          0
    38          1
    39         16
    41          1
    42          3
    43          1
    44         28
    45          0
    50         10
    51         26
    52          6
    53          4
    54          0
    56          0
    57          0
    61          1
    62          5
    63         22
    64          7
    65         11
    66          0
    69          0
    70          0
    74          7
    75         10
    76         10
    77         32
    78         12
    79          1
    80          0
    85          0
    86          2
    87          3
    88          2
    89         13
    90          1
    91         11
    92          0
    98          1
    99          1
   100          1
   101          7
   102         21
   103          6
   104          0
   105          0
   113          3
   114          2
   115         98
   116         18
   117          2
   125          0
   126         12
   127         53
   128        148
   129        133
   130        476
   131         50
   132          3
   139          4
   140          1
   141         24
   142         18
   143          5
   144          1
   154          2
   155          0
   156          6
   157          2
   158          1
   159        105
   160         13
   161          0