##TITLE=Library Entry 82830
##JCAMP-DX=Revision 4.10 
##DATA TYPE=MASS SPECTRUM
##SAMPLE DESCRIPTION=V.A.KOPTYUG, ATLAS OF MASS SPECTRA OF ORGANIC COMPOUNDS
##NAMES=HP
##CAS NAME=Benzene, 1-methyl-3-hexyl-
##MOLFORM=C13H20
##CAS REGISTRY NO=1595-03-5
##MP= -300
##BP= -300
##MW= 176
##$RETENTION INDEX=1603
##$CONDENSED SPECTRUM=NO
##NPOINTS= 33
##XYDATA=(XY..XY) 1 
    50         22
    51         37
    52         25
    53         29
    55         31
    63         28
    65         43
    77         97
    78         52
    79         72
    80         19
    81         19
    89         19
    90         15
    91        129
    92         81
    93         23
   103         56
   104        125
   105        853
   106        999
   107        110
   115         32
   116         15
   117         46
   118         42
   119        140
   120         25
   131         17
   133         38
   147         47
   176        314
   177         50