##TITLE=Library Entry 100480
##JCAMP-DX=Revision 4.10 
##DATA TYPE=MASS SPECTRUM
##SAMPLE DESCRIPTION=Chemical Concepts
##NAMES=HP
##CAS NAME=Benzene, 1-methyl-4-(1-methylpropyl)-
##MOLFORM=C11H16
##CAS REGISTRY NO=1595-16-0
##MP= -300
##BP= -300
##MW= 148
##$RETENTION INDEX=1090
##$CONDENSED SPECTRUM=NO
##NPOINTS= 82
##XYDATA=(XY..XY) 1 
    26          2
    27         36
    29         17
    37          0
    38          4
    39         51
    40          2
    41         59
    42          2
    50         10
    51         29
    52         10
    53         14
    54          1
    55         11
    56          1
    57          1
    58          1
    59          0
    61          1
    62          5
    63         21
    64          8
    65         40
    66          4
    67          1
    70          1
    71          1
    72          0
    73          1
    74          3
    75          5
    76          3
    77         51
    78         16
    79         19
    80          1
    81          0
    83          0
    85          1
    86          2
    87          1
    88          1
    89         11
    90          4
    91        119
    92         14
    93         18
    94          1
    95          1
    96          1
    97          0
    99          1
   100          0
   101          2
   102          7
   103         30
   104         22
   105         85
   106         10
   113          2
   114          2
   115         44
   116         17
   117         59
   118         22
   119        999
   120         90
   121          4
   127          2
   128          3
   129          3
   130          1
   131          5
   132          2
   133         22
   134          2
   146          1
   147          2
   148        147
   149         18
   150          1