##TITLE=Library Entry 24104
##JCAMP-DX=Revision 4.10 
##DATA TYPE=MASS SPECTRUM
##SAMPLE DESCRIPTION=RADIAN CORP
##NAMES=HP
##CAS NAME=Oxirane, [(hexadecyloxy)methyl]-
##MOLFORM=C19H38O2
##CAS REGISTRY NO=15965-99-8
##MP= -300
##BP= -300
##MW= 298
##$RETENTION INDEX=0
##$CONDENSED SPECTRUM=NO
##NPOINTS= 94
##XYDATA=(XY..XY) 1 
    15          3
    19          6
    26          4
    27         53
    29        301
    30         18
    31        146
    39         33
    40          7
    41        436
    42         97
    43        715
    44         40
    45        108
    46          4
    47          5
    53         23
    54         53
    55        537
    56        179
    57        999
    58        488
    59        204
    60         10
    61          2
    65          5
    66         13
    67        115
    68        116
    69        431
    70        138
    71        500
    72         31
    73         15
    74         73
    75         92
    76          4
    77         17
    79         16
    80          8
    81         84
    82        143
    83        382
    84         83
    85        274
    86         23
    87         87
    88          7
    89         18
    93          8
    94          6
    95         71
    96         73
    97        302
    98         53
    99         63
   100         21
   101         12
   102          6
   108          1
   109         35
   110         25
   111        132
   112         30
   113         31
   114          1
   115          7
   117          7
   121          4
   123         20
   124         15
   125         52
   126         13
   127         16
   129          3
   135          5
   137         11
   138          9
   139         15
   140          6
   141         10
   151          2
   152          3
   153          5
   154          2
   155          5
   168          1
   169          3
   224          1
   250          2
   267          4
   281         21
   282          3
   283          1