##TITLE=Library Entry 14402
##JCAMP-DX=Revision 4.10 
##DATA TYPE=MASS SPECTRUM
##SAMPLE DESCRIPTION=J. Klune, Insect Chem. Ecol. Lab., USDA, Beltsville, MD
 20705
##NAMES=HP
##CAS NAME=13,13,14,14,14-Pentafluoro-Z-11-tetradecen-1-ol acetate
##MOLFORM=C16H25F5O2
##CAS REGISTRY NO=159600-13-2
##MP= -300
##BP= -300
##MW= 344
##$RETENTION INDEX=0
##$CONDENSED SPECTRUM=NO
##NPOINTS= 112
##XYDATA=(XY..XY) 1 
    41        161
    42         59
    43        999
    55        217
    56         11
    61        244
    67         79
    68         25
    69        177
    71         26
    73        117
    77         24
    81        280
    82        160
    83        154
    85         91
    95        465
    96        185
    97         99
    98         19
   101        135
   103         32
   109        387
   110         67
   111         18
   114         15
   115         18
   116        129
   117         13
   121         13
   123        152
   124        100
   125         18
   127         38
   129         17
   135         16
   137         21
   138         87
   139         18
   141         21
   143         11
   145         14
   149         20
   150         13
   153         11
   155         20
   156         11
   158        272
   159         42
   163         16
   165         14
   166         19
   167         21
   169         18
   172         32
   173         21
   177         13
   179         14
   181         18
   183         16
   185         32
   186         22
   187         26
   189         11
   193         15
   195         17
   197         13
   198         12
   199        100
   200        118
   201         46
   203         13
   205         11
   207         13
   209         22
   211         14
   213        127
   214        149
   215        189
   216         11
   221         16
   224         18
   225         18
   227        129
   228        117
   229        155
   230         12
   239         12
   241         85
   242         30
   243         36
   244         19
   245         27
   255         54
   256         50
   263         12
   264        129
   265         17
   284        633
   285        143
   286         12
   299         12
   303         57
   304         57
   305        103
   323         67
   324         14
   325        120
   342         86
   343         14
   344        541
   345         36