##TITLE=Library Entry 14857
##JCAMP-DX=Revision 4.10 
##DATA TYPE=MASS SPECTRUM
##SAMPLE DESCRIPTION=Chemical Concepts
##NAMES=HP
##CAS NAME=N2-Cyano-2-[3-cyano-6-phenyl-4-(trifluoromethyl)-2-pyridylthio]ac
etamidine
##MOLFORM=C16H10F3N5S
##CAS REGISTRY NO=159717-92-7
##MP= -300
##BP= -300
##MW= 361
##$RETENTION INDEX=0
##$CONDENSED SPECTRUM=NO
##NPOINTS= 225
##XYDATA=(XY..XY) 1 
    33         83
    34         11
    38         29
    39        146
    40         28
    41        169
    43        999
    45        359
    46         97
    47         39
    48          9
    50        133
    51        230
    52         43
    53         23
    55         63
    56         14
    57         32
    58          9
    59         11
    60         20
    61         11
    62         35
    63         95
    64         17
    65         17
    66         23
    68        357
    69        124
    70         40
    72        171
    73         46
    74         69
    75         94
    76        100
    77        247
    78         30
    79         14
    80          9
    81         28
    82         43
    83         20
    84         12
    85         13
    86         16
    87         36
    88         24
    89         25
    91         20
    92         17
    93         23
    94         16
    95          9
    96          9
    97         15
    98         21
    99         40
   100         44
   102        127
   103         30
   104         25
   105         16
   106         15
   107         46
   108         13
   109          9
   111         21
   112         26
   114        350
   115         23
   116         13
   117         11
   119          8
   120         16
   121          9
   122          8
   123         29
   124         28
   125         46
   126         36
   127         35
   128         41
   129          9
   130          8
   131         11
   132         38
   133         23
   134         11
   135         31
   136         13
   137         12
   138         17
   139         17
   140         26
   143          9
   144         21
   145         12
   146          8
   147          8
   148          9
   149         27
   150         51
   151         95
   152         68
   153         16
   154         17
   156          9
   157         21
   158         19
   159          9
   160         11
   163          9
   164         22
   165         18
   166         10
   167         12
   169         14
   170         24
   171         24
   175         17
   176         33
   177         54
   178         74
   179        136
   180         39
   181         34
   182         28
   183         26
   184          9
   188          9
   189         12
   192          9
   193          9
   194         10
   195         16
   196         29
   197         22
   198          9
   199         11
   200         51
   201         17
   202         28
   207         29
   208         20
   209         29
   210         25
   211          8
   214         11
   215         10
   216          9
   217          8
   220         48
   221         21
   222         19
   223         28
   224         19
   225         14
   227        146
   228         50
   229         11
   232         21
   233          9
   234         18
   236         49
   239         11
   241          8
   245          9
   246         44
   247         84
   248        102
   249         52
   250          9
   252         14
   253         33
   254          8
   255         12
   259         48
   260         17
   261          9
   262          9
   263         21
   264         10
   266          9
   267         13
   272         18
   273         30
   274         33
   275          9
   278         13
   279         38
   280         95
   281         25
   286         14
   287         17
   288         30
   289        150
   290        118
   292        284
   293        185
   294        258
   295         45
   296         14
   297          9
   299         72
   300         89
   301         48
   302         87
   303         25
   314          9
   316          9
   318        168
   319        170
   320         70
   321         30
   328        464
   329         77
   334         58
   335         12
   342         20
   343         43
   344         84
   345         19
   361        948
   362        145
   363         45