##TITLE=Library Entry 27564
##JCAMP-DX=Revision 4.10 
##DATA TYPE=MASS SPECTRUM
##SAMPLE DESCRIPTION=Chemical Concepts
##NAMES=HP
##CAS NAME=Methane, (t-butylphosphino)(2,4,6-tri-t-butylphenylphosphino)-
##MOLFORM=C23H42P2
##CAS REGISTRY NO=159726-74-6
##MP= -300
##BP= -300
##MW= 380
##$RETENTION INDEX=0
##$CONDENSED SPECTRUM=NO
##NPOINTS= 255
##XYDATA=(XY..XY) 1 
    27         11
    29        152
    30          2
    31          0
    37          0
    38          1
    39         14
    41        217
    42         10
    43         17
    44          0
    45          3
    46          1
    47          2
    48          4
    49          8
    50          1
    51          2
    52          0
    53          5
    54          0
    55         19
    56          5
    57        999
    58         40
    59          3
    60          0
    61          5
    62          4
    63          1
    64          1
    65          3
    66          0
    67          2
    68          0
    69          3
    70          0
    71          2
    72          0
    73          3
    74          1
    75          1
    76          1
    77          6
    78          2
    79          7
    80          0
    81          1
    82          0
    83          1
    84          0
    85          2
    86          1
    87          9
    88          2
    89          2
    90          0
    91         17
    92          2
    93          2
    94          1
    95          2
    96          0
    97          1
    98          0
    99          0
   100          0
   101          2
   102          2
   103          6
   104          8
   105          9
   106          1
   107          1
   108          2
   109          4
   110          1
   111          1
   112          3
   115         15
   116          7
   117          8
   118          3
   119          4
   120          0
   121          2
   122          3
   123          3
   124          0
   125          0
   126          2
   127          2
   128         12
   129         16
   130          6
   131          9
   132          2
   133         13
   134          3
   135         15
   136          1
   137          1
   139          0
   141          8
   142          8
   143          9
   144          5
   145          4
   146          2
   147         17
   148          4
   149         22
   150          6
   151          3
   152          2
   153          9
   154          4
   155          6
   156          5
   157          5
   158          1
   159          3
   160          2
   161         11
   162          4
   163         27
   164         10
   165          9
   166          4
   167          2
   168          1
   169          2
   170          3
   171          4
   172          1
   173          5
   174          2
   175          7
   176          3
   177         21
   178          8
   179          4
   180          1
   181          1
   182          0
   183          1
   184          1
   185          4
   186          1
   187          4
   188          3
   189         10
   190          2
   191         10
   192          1
   193          1
   194          0
   195          3
   196          0
   197          0
   199          1
   200          1
   201          2
   202          7
   203         12
   204          4
   205         19
   206          7
   207          7
   208          1
   209         42
   210          7
   211          8
   212          1
   213          0
   215          4
   216          1
   217          5
   218          3
   219         22
   220          9
   221         13
   222          2
   223          0
   227          0
   229          9
   230          2
   231         27
   232          6
   233         85
   234         16
   235          3
   236          0
   237          1
   241          1
   243          1
   244          2
   245          7
   246          4
   247         10
   248          5
   249          1
   250          0
   251         13
   252          3
   253          0
   256          0
   257          1
   258          0
   259          8
   260          3
   261         21
   262          6
   263          2
   264          0
   265         29
   266         13
   267        296
   268         46
   269          3
   273          3
   274          1
   275         16
   276          4
   277         45
   278          9
   279          1
   280          0
   281          1
   282          1
   283          1
   289         12
   290          3
   291          5
   292          1
   293          1
   307          5
   308          1
   309          1
   321          2
   323        829
   324        159
   325         16
   326          1
   337          2
   338          0
   339          1
   363          0
   365          4
   366          1
   377          1
   378          0
   379         10
   380          3
   381          1