##TITLE=Library Entry 32292
##JCAMP-DX=Revision 4.10 
##DATA TYPE=MASS SPECTRUM
##SAMPLE DESCRIPTION=A.A.Kutin, Moscow, Russia
##NAMES=HP
##CAS NAME=4-Phenyl-2,4,6-triazatricyclo[5.2.1.0(2,6)]dec-8-ene-3,5-dione
##MOLFORM=C13H11N3O2
##CAS REGISTRY NO=15971-63-8
##MP= -300
##BP= -300
##MW= 241
##$RETENTION INDEX=0
##$CONDENSED SPECTRUM=NO
##NPOINTS= 56
##XYDATA=(XY..XY) 1 
    33         12
    34          1
    37          5
    38         19
    39         71
    40         70
    41         15
    42          4
    43          1
    44          3
    45          0
    50         10
    51         24
    52         19
    53         18
    54          4
    55          0
    56          1
    59          0
    62          2
    63         23
    64         47
    66        999
    67         51
    69          3
    70          2
    74          0
    75          0
    76          2
    77         13
    78          6
    79         29
    80         21
    81          0
    88          0
    91         68
    92          5
    93          5
    94          8
    95          1
   102          0
   103          0
   104          0
   105          0
   119        228
   120         27
   121         33
   122         35
   123          1
   135          0
   199          0
   214          1
   239          1
   241        242
   242         33
   243          2