##TITLE=Library Entry 17707
##JCAMP-DX=Revision 4.10 
##DATA TYPE=MASS SPECTRUM
##SAMPLE DESCRIPTION=MASS SPECTROMETRY CENTER, UNIV. OF UTAH EPA-PTSEL 4160
##NAMES=HP
##CAS NAME=Alachlor
##MOLFORM=C14H20ClNO2
##CAS REGISTRY NO=15972-60-8
##MP= -300
##BP= -300
##MW= 269
##$RETENTION INDEX=1894
##$CONDENSED SPECTRUM=NO
##NPOINTS= 128
##XYDATA=(XY..XY) 1 
    14         12
    15         59
    26          6
    27         48
    28         59
    29        102
    30         11
    31         11
    32          7
    34          2
    35          5
    36         15
    38         11
    39         55
    40          3
    41         40
    42         32
    43         19
    44         15
    45        999
    46         28
    47          1
    49         47
    50         12
    51         55
    52         17
    53         24
    54          0
    55          2
    58          0
    59         32
    62          5
    63         24
    64          7
    65         39
    66          8
    75         13
    76         12
    77        120
    78         26
    79         49
    80          0
    81          3
    89         21
    90         21
    91         89
    92         13
    93         17
    97          2
    99          0
   101          0
   102         14
   103         37
   104         21
   105         44
   106         10
   109          0
   115         43
   116         23
   117         87
   118         67
   119         24
   120         16
   121         11
   123          0
   127          4
   128         20
   129         10
   130         72
   131         57
   132         87
   133         23
   134         13
   142          7
   143         17
   144         40
   145         23
   146        134
   147         47
   148         55
   149         18
   156          2
   158         31
   159         25
   160        378
   161         91
   162         87
   163         13
   164          8
   170          2
   172         27
   173         12
   174         38
   175         19
   176         20
   177          1
   178          2
   186         16
   188        304
   189         46
   190         55
   191         14
   193          1
   194         10
   195          0
   196          7
   202         52
   203          6
   206         20
   207         16
   208         21
   209          4
   210          3
   220          7
   222          7
   224         93
   225         14
   226         36
   227          0
   234         35
   235          4
   237        115
   238         81
   239         49
   240         29
   269         87
   270         15
   271         31