##TITLE=Library Entry 62348
##JCAMP-DX=Revision 4.10 
##DATA TYPE=MASS SPECTRUM
##SAMPLE DESCRIPTION=A.A.Kutin, Moscow, Russia
##NAMES=HP
##CAS NAME=Acetamide, N-(2,3-dihydro-1-benzyl-2-oxo-3-indolyl)-
##MOLFORM=C17H16N2O2
##CAS REGISTRY NO=159884-40-9
##MP= -300
##BP= -300
##MW= 280
##$RETENTION INDEX=0
##$CONDENSED SPECTRUM=NO
##NPOINTS= 189
##XYDATA=(XY..XY) 1 
    33          1
    34          0
    35          0
    37          3
    38         13
    39         87
    40         14
    41         32
    42         27
    43        363
    44         13
    45          3
    49          1
    50         33
    51         80
    52         24
    53          5
    54          2
    55          1
    56          1
    57          1
    58          0
    59          1
    60          2
    61          3
    62         15
    63         58
    64         36
    65        197
    66         14
    67          2
    68          0
    69          1
    70          1
    71          1
    72          0
    73          1
    74          8
    75         19
    76         41
    77        100
    78         30
    79          9
    80          1
    81          0
    83          3
    84          2
    85          0
    86          3
    87          6
    89         91
    90        100
    91        999
    92        129
    93          7
    94          0
    96          3
    97          4
    98          2
    99          1
   100         15
   101          4
   102         33
   103         20
   104         46
   105         12
   106         16
   107          2
   108          0
   109          0
   110          0
   111          1
   112          0
   113          1
   114          2
   115          6
   116         16
   117         26
   118         70
   119         32
   120         21
   121          2
   122          0
   124          0
   125          1
   126          2
   127          3
   128          7
   129         59
   130         13
   131         36
   132         19
   133          8
   134          1
   135          0
   137          0
   138          0
   139          2
   140          1
   141          1
   142          2
   143          7
   144         17
   145         36
   147        729
   148         68
   149          6
   150          1
   151          4
   152         10
   153          3
   154          1
   155          0
   156          0
   157          1
   158          1
   159          3
   160         13
   161          3
   162          1
   163          1
   164          4
   165         14
   166          3
   167          4
   168          0
   169          0
   170          2
   171         20
   172          2
   173          0
   175          0
   176          1
   177          2
   178          3
   179          5
   180         23
   181          5
   182          1
   183          0
   184          0
   186          0
   187          0
   189          2
   190          4
   191          5
   192         12
   193         30
   194          8
   195          0
   204          2
   205          2
   206          2
   207          7
   208          4
   209          7
   210          2
   211          0
   218          1
   219          9
   220          6
   221          3
   222          9
   223          2
   224          0
   230          0
   231          0
   232          1
   233          8
   234          7
   237        226
   238        123
   239         22
   240          2
   241          0
   258          0
   259          1
   260          2
   262         50
   263          5
   264          0
   273          0
   274          0
   275          1
   276          2
   277          7
   280        130
   281         17
   282          1