##TITLE=Library Entry 84603
##JCAMP-DX=Revision 4.10 
##DATA TYPE=MASS SPECTRUM
##SAMPLE DESCRIPTION=NIST Mass Spectrometry Data Center, 1994
##NAMES=HP
##CAS NAME=2-Butyl-3-methylpyrazine
##MOLFORM=C9H14N2
##CAS REGISTRY NO=15987-00-5
##MP= -300
##BP= -300
##MW= 150
##$RETENTION INDEX=1123
##$CONDENSED SPECTRUM=NO
##NPOINTS= 71
##XYDATA=(XY..XY) 1 
    13          0
    14          3
    15         34
    16          0
    26         78
    27        158
    28         65
    29         52
    30          3
    37          7
    38         23
    39        164
    40         84
    41        139
    42        136
    43         18
    44          1
    49          1
    50         13
    51         33
    52         58
    53         65
    54         39
    55         12
    56          2
    57          1
    60          1
    61          1
    62          2
    63          7
    64         10
    65         18
    66         47
    67         99
    68         16
    69          3
    73          0
    75          1
    76          1
    77          7
    78          8
    79         10
    80         47
    81         22
    82         26
    83          2
    84          0
    91          2
    93         49
    94         16
    95          6
   104          1
   105          2
   107        139
   108        999
   109         69
   110          2
   118          2
   119         13
   121        103
   122         21
   123          1
   131          2
   132          2
   133          4
   135         53
   136          5
   147          1
   149          7
   150          2
   151          0