##TITLE=Library Entry 85219
##JCAMP-DX=Revision 4.10 
##DATA TYPE=MASS SPECTRUM
##SAMPLE DESCRIPTION=NIST Mass Spectrometry Data Center
##NAMES=HP
##CAS NAME=2-Methyl-3-propylpyrazine
##MOLFORM=C8H12N2
##CAS REGISTRY NO=15986-80-8
##MP= -300
##BP= -300
##MW= 136
##$RETENTION INDEX=1091
##$CONDENSED SPECTRUM=NO
##NPOINTS= 62
##XYDATA=(XY..XY) 1 
    14          3
    15         33
    18          1
    26         87
    27        153
    28         67
    29         50
    30          2
    37         13
    38         40
    39        187
    40        113
    41        144
    42        153
    43         13
    50         24
    51         50
    52         78
    53         73
    54         26
    55          5
    56          1
    59          2
    60          2
    61          1
    62          4
    63         10
    64         15
    65         22
    66         55
    67        178
    68         25
    69          3
    70          6
    75          2
    76          2
    77          8
    78          9
    79         12
    80         45
    81         21
    82         26
    83          2
    91          1
    93         72
    94         28
    95          8
    96          1
   104          1
   105          3
   107        148
   108        999
   109         75
   110          2
   118          2
   119         13
   121        219
   122         16
   133          3
   135         45
   136         61
   137          7