##TITLE=Library Entry 55240
##JCAMP-DX=Revision 4.10 
##DATA TYPE=MASS SPECTRUM
##SAMPLE DESCRIPTION=Exported from NIST MS Search
##NAMES=HP
##CAS NAME=Propane, 1,2,2-trichloro-1,1,3,3,3-pentafluoro-
##MOLFORM=C3Cl3F5
##CAS REGISTRY NO=1599-41-3
##MP= -300
##BP= -300
##MW= 236
##$RETENTION INDEX=0
##$CONDENSED SPECTRUM=NO
##NPOINTS= 96
##XYDATA=(XY..XY) 1 
    24          1
    28         17
    31         34
    32          5
    35          6
    36          1
    37          2
    38          1
    40          1
    43          2
    44          2
    47         30
    48          1
    49         10
    50          7
    55          2
    59          1
    61          1
    62          3
    66          9
    68          3
    69        258
    70          3
    73          1
    74          5
    78         12
    80          4
    81          3
    82         15
    83          1
    84         10
    85        999
    86         13
    87        325
    88          4
    90          1
    91          1
    92          1
    93         16
    94          2
    96          1
    97         11
    98          1
    99          4
   100          1
   101         62
   102          1
   103         40
   104          1
   105          7
   109          2
   111          1
   112          4
   113          6
   115          4
   116         16
   117         19
   118          5
   119         18
   121          6
   123          1
   129          1
   131         24
   132         79
   133          2
   134         51
   135          2
   136          8
   137          1
   147         19
   148          6
   149          7
   150          5
   151         65
   152          3
   153         42
   154          1
   155          7
   165          1
   166         13
   167         25
   168          5
   169         24
   170          1
   171          8
   173          1
   201        128
   202          5
   203         83
   204          3
   205         13
   215          1
   217          4
   219          4
   221          1
   223          1