##TITLE=Library Entry 38962
##JCAMP-DX=Revision 4.10 
##DATA TYPE=MASS SPECTRUM
##SAMPLE DESCRIPTION=R.T.HOLMAN,UNIVERSITY OF MINNESOTA
##NAMES=HP
##CAS NAME=9,12-Octadecadienal, dimethyl acetal
##MOLFORM=C20H38O2
##CAS REGISTRY NO=1599-51-5
##MP= -300
##BP= -300
##MW= 310
##$RETENTION INDEX=2422
##$CONDENSED SPECTRUM=NO
##NPOINTS= 190
##XYDATA=(XY..XY) 1 
    21         10
    26         17
    27        120
    28         80
    29        270
    30         20
    31        140
    32         12
    36         27
    37          3
    38         11
    39        140
    40         26
    41        760
    42         69
    43        330
    44         56
    45        160
    46          4
    47         56
    50          6
    51         18
    52         11
    53        120
    54        210
    55        540
    56         91
    57        220
    58         56
    59         32
    60         17
    61          6
    62          2
    63          7
    64          3
    65         51
    66         66
    67        690
    68        195
    69        290
    70         64
    71        999
    72         63
    73         37
    74         12
    75        999
    76         37
    77        100
    78         69
    79        470
    80        370
    81        520
    82        200
    83        160
    84        140
    85        110
    86         13
    87         13
    88          6
    89          5
    90          2
    91        250
    92         67
    93        320
    94        180
    95        390
    96        150
    97        240
    98         64
    99         34
   100          7
   101         20
   102          4
   103          7
   104         15
   105         90
   106         33
   107        160
   108        100
   109        180
   110         92
   111         84
   112         37
   113         30
   114          9
   115         22
   116          7
   117         16
   118          7
   119         73
   120         30
   121        170
   122        115
   123        100
   124         46
   125         62
   126         26
   127         17
   128         17
   129         21
   130          7
   131         15
   132          7
   133         66
   134         32
   135        140
   136         71
   137         63
   138         27
   139         23
   140         10
   141        150
   142         25
   143         11
   144          2
   145         90
   146          5
   147         51
   148         27
   149         76
   150         50
   151         48
   152         20
   153         20
   154         16
   155         55
   156         17
   157         10
   158          3
   159          9
   160          4
   161         37
   162         16
   163         42
   164         25
   165         27
   166         12
   167         20
   168         11
   169         30
   170          8
   171          8
   172          2
   173          7
   174          4
   175         31
   176         21
   177         24
   178         12
   179         13
   180          7
   181         10
   182          9
   183         15
   184          7
   185         13
   186         30
   187          5
   188          2
   189         18
   190          6
   191         17
   192          6
   193          9
   194          4
   195          4
   196          2
   197         10
   198          4
   199          5
   200          2
   201          4
   202          2
   203          9
   204          2
   205         11
   206          2
   207         17
   208          9
   209          7
   210         30
   211         10
   212          4
   213          4
   214          1
   215          5
   246         12
   247         20
   278        220
   279         88