##TITLE=Library Entry 45598
##JCAMP-DX=Revision 4.10 
##DATA TYPE=MASS SPECTRUM
##SAMPLE DESCRIPTION=Insect Chem. Ecol. Lab., USDA, Beltsville, MD 20705
##NAMES=HP
##CAS NAME=Hexanal dimethyl acetal
##MOLFORM=C8H18O2
##CAS REGISTRY NO=1599-47-9
##MP= -300
##BP= -300
##MW= 146
##$RETENTION INDEX=929
##$CONDENSED SPECTRUM=NO
##NPOINTS= 78
##XYDATA=(XY..XY) 1 
    41         71
    42         11
    43         54
    44         21
    45        106
    46          4
    47         67
    48          2
    52          1
    53          9
    54          3
    55        114
    56         13
    57         22
    58         47
    59         18
    60          2
    61          1
    62          0
    63          2
    64          1
    65          2
    66          1
    67         10
    68          2
    69         11
    70          4
    71         46
    72          5
    73          4
    74          0
    75        999
    76         44
    77         10
    78          2
    79          5
    80          2
    81         10
    82          8
    83        111
    84         18
    85         14
    86          8
    87          2
    88          3
    89          1
    91          3
    92          0
    93          3
    94          1
    95          7
    96          3
    97          8
    98          2
    99          4
   100          1
   101          2
   102          1
   103          1
   104          0
   105          4
   106          0
   113          3
   114          0
   115        225
   116         23
   117          3
   119          3
   129          1
   130          1
   131          5
   132          1
   143          1
   144          1
   145          0
   146         13
   147          2
   148          2