##TITLE=Library Entry 24494
##JCAMP-DX=Revision 4.10 
##DATA TYPE=MASS SPECTRUM
##SAMPLE DESCRIPTION=Japan AIST/NIMC Database- Spectrum MS-NW-6119
##NAMES=HP
##CAS NAME=1-Docosene
##MOLFORM=C22H44
##CAS REGISTRY NO=1599-67-3
##MP= -300
##BP= -300
##MW= 308
##$RETENTION INDEX=2193
##$CONDENSED SPECTRUM=NO
##NPOINTS= 136
##XYDATA=(XY..XY) 1 
    15          2
    26          3
    27         79
    28         19
    29        276
    30          7
    37          1
    38          1
    39         75
    40         15
    41        638
    42        142
    43        950
    44         31
    49          1
    50          1
    51          4
    52          3
    53         40
    54        127
    55        847
    56        431
    57        999
    58         43
    61          1
    63          1
    65          7
    66         15
    67        141
    68        158
    69        623
    70        398
    71        509
    72         30
    73          1
    76          1
    77          6
    78          2
    79         11
    80          9
    81         94
    82        305
    83        809
    84        292
    85        305
    86         21
    91          2
    93          3
    94          3
    95         50
    96        203
    97        864
    98        214
    99         91
   100          8
   105          1
   107          1
   108          2
   109         22
   110         91
   111        462
   112        159
   113         62
   114          5
   122          3
   123         16
   124         66
   125        276
   126        111
   127         42
   128          4
   136          2
   137         10
   138         50
   139        149
   140         82
   141         32
   142          3
   151          4
   152         40
   153         99
   154         72
   155         22
   156          3
   165          2
   166         31
   167         70
   168         52
   169         18
   170          2
   179          1
   180         24
   181         53
   182         46
   183         14
   184          3
   194         19
   195         36
   196         34
   197          9
   198          1
   208         14
   209         27
   210         27
   211          8
   212          1
   222         13
   223         22
   224         21
   225          7
   226          1
   236         10
   237         16
   238         19
   239          6
   240          1
   250          7
   251         10
   252         13
   253          4
   264          4
   265          9
   266         15
   267          4
   268          1
   278          2
   279          5
   280         38
   281          9
   282          1
   293          1
   306          2
   308        296
   309         74
   310         10
   311          1