##TITLE=Library Entry 31772
##JCAMP-DX=Revision 4.10 
##DATA TYPE=MASS SPECTRUM
##SAMPLE DESCRIPTION=Dennis Rohrbaugh, CBDCOM/ERDEC, Edgewood, MD
##NAMES=HP
##CAS NAME=Di(tert-butyl) trisulfide, perfluoro-
##MOLFORM=C8F18S3
##CAS REGISTRY NO=16005-64-4
##MP= -300
##BP= -300
##MW= 534
##$RETENTION INDEX=0
##$CONDENSED SPECTRUM=NO
##NPOINTS= 19
##XYDATA=(XY..XY) 1 
    64        999
    66        102
    69        446
    83         22
    93          9
    94         14
    96        114
    98         14
   113        182
   131         10
   144          7
   163         16
   283         13
   315         28
   316          2
   317          4
   534          5
   535          1
   536          1