##TITLE=Library Entry 21295
##JCAMP-DX=Revision 4.10 
##DATA TYPE=MASS SPECTRUM
##SAMPLE DESCRIPTION=Japan AIST/NIMC Database- Spectrum MS-NW-1148
##NAMES=HP
##CAS NAME=Thiophene, tetrahydro-, 1-oxide
##MOLFORM=C4H8OS
##CAS REGISTRY NO=1600-44-8
##MP= -300
##BP= -300
##MW= 104
##$RETENTION INDEX=0
##$CONDENSED SPECTRUM=NO
##NPOINTS= 59
##XYDATA=(XY..XY) 1 
    14          2
    15          7
    25          1
    26         32
    27        146
    28         74
    29        135
    30          2
    31          9
    32         19
    33          4
    34          5
    35          4
    37          6
    38         10
    39        122
    40         19
    41        187
    42         67
    43          9
    44          8
    45         65
    46         42
    47         76
    48         59
    49          9
    50         29
    51         13
    52          3
    53         45
    54         51
    55        999
    56         82
    57          5
    58         13
    59         37
    60         28
    61         11
    62          5
    63        309
    64          6
    65         14
    69          1
    71          4
    73          2
    75          2
    76         35
    77          2
    78          2
    85         17
    86          6
    87         34
    88         10
    89          9
   103          1
   104        540
   105         30
   106         25
   107          1