##TITLE=Library Entry 89456
##JCAMP-DX=Revision 4.10 
##DATA TYPE=MASS SPECTRUM
##SAMPLE DESCRIPTION=J. Daly, M. Garraffo, T. Spande, LBC, NIDDK, NIH, Bethe
sda, MD 20892
##NAMES=HP
##CAS NAME=(2R,6R)-2-Methyl-6-nonylpiperidin-4-one
##MOLFORM=C15H29NO
##CAS REGISTRY NO=160095-43-2
##MP= -300
##BP= -300
##MW= 239
##$RETENTION INDEX=0
##$CONDENSED SPECTRUM=NO
##NPOINTS= 25
##XYDATA=(XY..XY) 1 
    55         35
    56         22
    57         17
    58         15
    68         20
    69         33
    70        311
    71         22
    82         19
    83         33
    84         34
    96         19
    97         10
    98         15
   110         13
   112        999
   113         77
   126        101
   127         12
   140         22
   154         10
   182         35
   196         27
   224         13
   238         14