##TITLE=Library Entry 17665
##JCAMP-DX=Revision 4.10 
##DATA TYPE=MASS SPECTRUM
##SAMPLE DESCRIPTION=Japan AIST/NIMC Database- Spectrum MS-NW-5810
##NAMES=HP
##CAS NAME=Acetic acid, 2,2'-thiobis-, dimethyl ester
##MOLFORM=C6H10O4S
##CAS REGISTRY NO=16002-29-2
##MP= -300
##BP= -300
##MW= 178
##$RETENTION INDEX=0
##$CONDENSED SPECTRUM=NO
##NPOINTS= 98
##XYDATA=(XY..XY) 1 
    12          1
    13          3
    14         28
    15        224
    16          2
    17          1
    18          8
    25          1
    26          3
    27         24
    28         40
    29         54
    30         11
    31         29
    32          9
    33          5
    34          6
    35          8
    36          1
    40          1
    41          8
    42        132
    43        224
    44         16
    45        999
    46        137
    47         35
    48          9
    49          2
    53          1
    55          3
    56          1
    57          6
    58         18
    59        204
    60         40
    61        200
    62          8
    63          9
    69          1
    70          1
    72          3
    73          8
    74        326
    75         21
    76          6
    77         34
    78          2
    79          3
    85          1
    86          4
    87         75
    88          7
    89          8
    90          2
    91        206
    92          9
    93          9
    94          1
    95          1
    96          1
    98          1
   100          1
   101         46
   102          3
   103          7
   104         36
   105         45
   106          6
   107          4
   108          1
   113          5
   114         19
   115          2
   116          1
   117          1
   118        234
   119        441
   120         38
   121         23
   122          1
   123          1
   128          1
   132          1
   135          1
   140          1
   143          1
   144          1
   145          1
   146        649
   147         64
   148         35
   149          4
   151          2
   178        157
   179         14
   180         11
   181          1