##TITLE=Library Entry 59220
##JCAMP-DX=Revision 4.10 
##DATA TYPE=MASS SPECTRUM
##SAMPLE DESCRIPTION=Japan AIST/NIMC Database- Spectrum MS-IW-1553
##NAMES=HP
##CAS NAME=N-Cbz-L-alanyl-L-alanine
##MOLFORM=C14H18N2O5
##CAS REGISTRY NO=16012-70-7
##MP= -300
##BP= -300
##MW= 294
##$RETENTION INDEX=0
##$CONDENSED SPECTRUM=NO
##NPOINTS= 133
##XYDATA=(XY..XY) 1 
    14          1
    15         18
    16          1
    17          5
    18         32
    26          7
    27         38
    28         72
    29         21
    30          3
    31          8
    32          1
    36          5
    37          4
    38          9
    39         40
    40         10
    41         25
    42         72
    43         58
    44        374
    45         21
    46          1
    49          2
    50         23
    51         59
    52         17
    53         17
    54          6
    55         20
    56         15
    57         10
    58          1
    60          1
    61          3
    62          7
    63         19
    64          5
    65         69
    66          5
    67          2
    68          3
    69          8
    70        128
    71         11
    72          4
    73          6
    74         11
    75          5
    76          5
    77        139
    78         34
    79        265
    80         24
    81          5
    82          2
    83          4
    84          4
    85          4
    86          4
    87          2
    88        156
    89         39
    90         39
    91        999
    92        116
    93          7
    95          2
    96          2
    97          6
    98          2
    99         22
   100          3
   105         20
   106         10
   107        238
   108        289
   109         24
   110          2
   111          3
   112          4
   113        108
   114         19
   115          3
   116         10
   117          1
   118          5
   119          1
   121          1
   123          1
   124          1
   125          3
   126          1
   127          3
   132          1
   133          1
   134        251
   135         26
   136          2
   137          1
   139          2
   140         16
   141        367
   142         51
   143          5
   145          3
   149          2
   151          1
   157          1
   159          3
   168          9
   169          2
   171          2
   177          3
   178        219
   179         52
   180          6
   186         44
   187         34
   188          3
   203          1
   205          5
   206          6
   207          1
   249          1
   250          3
   251          2
   276          9
   277          2
   278          2
   294         69
   295         14
   296          2