##TITLE=Library Entry 54681
##JCAMP-DX=Revision 4.10 
##DATA TYPE=MASS SPECTRUM
##SAMPLE DESCRIPTION=CARL DJERASSI DEPT OF CHEM STANFORD UNIV STANFORD CALIF
 94305
##NAMES=HP
##CAS NAME=Furfuryl alcohol, tetrahydro-5-methyl-, cis-
##MOLFORM=C6H12O2
##CAS REGISTRY NO=16015-08-0
##MP= -300
##BP= -300
##MW= 116
##$RETENTION INDEX=0
##$CONDENSED SPECTRUM=NO
##NPOINTS= 20
##XYDATA=(XY..XY) 1 
    41        330
    42         40
    43        360
    44        130
    45        130
    53         10
    54         10
    55        110
    56        140
    57        300
    58         10
    59         10
    61         20
    67        170
    68         10
    74         10
    85        999
    86         50
    98         10
   101         10