##TITLE=Library Entry 87603
##JCAMP-DX=Revision 4.10 
##DATA TYPE=MASS SPECTRUM
##SAMPLE DESCRIPTION=J.E. WILKINSON S-CUBED, SAN DIEGO, CA.
##NAMES=HP
##CAS NAME=Pyridine, 2,6-dichloro-3-nitro-
##MOLFORM=C5H2Cl2N2O2
##CAS REGISTRY NO=16013-85-7
##MP= -300
##BP= -300
##MW= 192
##$RETENTION INDEX=0
##$CONDENSED SPECTRUM=NO
##NPOINTS= 87
##XYDATA=(XY..XY) 1 
    40          7
    41          0
    42          0
    44          7
    46         75
    47         93
    48         30
    49        188
    50        419
    51         92
    52         24
    53          2
    54          0
    55          1
    59          2
    60        186
    61         40
    62        195
    63         63
    64        110
    65          6
    66          0
    71          3
    72         40
    73        153
    74         59
    75        357
    76        350
    77         18
    80          0
    82          0
    83          7
    84        153
    85        349
    86         94
    87        111
    88         12
    89          1
    94          0
    95         15
    96          0
    97          9
    98          2
    99          6
   100          0
   101          0
   107          0
   108          0
   109         12
   110        999
   111        141
   112        321
   113         41
   114          0
   119         63
   120          7
   121         39
   122          3
   123          2
   127          0
   134        582
   135         25
   136        379
   137         13
   138         57
   139          0
   145          0
   146        660
   147         37
   148        421
   149         20
   150         65
   151          0
   162        196
   163          7
   164        125
   165          2
   166         16
   176         18
   178          9
   180          0
   192        695
   193         40
   194        447
   195         24
   196         70
   197          1