##TITLE=Library Entry 49228
##JCAMP-DX=Revision 4.10 
##DATA TYPE=MASS SPECTRUM
##SAMPLE DESCRIPTION=Exported from NIST MS Search
##NAMES=HP
##CAS NAME=Hydrazinecarboxamide, 2-[1-(2-methyl-1-cyclopenten-1-yl)ethyliden
e]-
##MOLFORM=C9H15N3O
##CAS REGISTRY NO=1601-03-2
##MP= -300
##BP= -300
##MW= 181
##$RETENTION INDEX=0
##$CONDENSED SPECTRUM=NO
##NPOINTS= 50
##XYDATA=(XY..XY) 1 
    39        430
    40        100
    41        490
    42        490
    43        280
    51        150
    52        170
    53        360
    54         90
    55        180
    56         60
    57        160
    65        220
    66         90
    67        140
    68        100
    69        819
    70         70
    77        430
    78        110
    79        999
    80        350
    81        270
    82        100
    83         60
    91        270
    92         70
    93        280
    94        210
    95        140
    96        170
   105         70
   106        390
   107        170
   108         80
   109        400
   110        929
   111         90
   120        689
   121        519
   122        470
   123        619
   124         70
   137        250
   138        260
   153        320
   164         60
   166        150
   181        809
   182        110