##TITLE=Library Entry 2868
##JCAMP-DX=Revision 4.10 
##DATA TYPE=MASS SPECTRUM
##SAMPLE DESCRIPTION=CARL DJERASSI DEPT OF CHEM STANFORD UNIV STANFORD CALIF
 94305
##NAMES=HP
##CAS NAME=2(1H)-Naphthalenone, octahydro-, trans-
##MOLFORM=C10H16O
##CAS REGISTRY NO=16021-08-2
##MP= -300
##BP= -300
##MW= 152
##$RETENTION INDEX=0
##$CONDENSED SPECTRUM=NO
##NPOINTS= 62
##XYDATA=(XY..XY) 1 
    41        999
    42        240
    43        150
    44         20
    45         10
    50         40
    51        110
    52         60
    53        350
    54        430
    55        980
    56         90
    57         40
    58         10
    63         30
    65        100
    66         90
    67        750
    68        370
    69        150
    70        130
    71         70
    77        100
    78         80
    79        320
    80        130
    81        900
    82        350
    83        120
    84         40
    85         10
    91         90
    92         50
    93        190
    94        130
    95        450
    96        380
    97        250
    98         40
   105         40
   106         40
   107         30
   108        850
   109        250
   110        300
   111         50
   119         70
   120         10
   121         20
   122         20
   123        150
   124         70
   125         10
   133         20
   134        120
   135         20
   136         10
   137         80
   138         20
   151         30
   152        560
   153         80