##TITLE=Library Entry 17058
##JCAMP-DX=Revision 4.10 
##DATA TYPE=MASS SPECTRUM
##SAMPLE DESCRIPTION=NIST Mass Spectrometry Data Center, 2009
##NAMES=HP
##CAS NAME=Acetic acid, (2-methoxyethoxy)-
##MOLFORM=C5H10O4
##CAS REGISTRY NO=16024-56-9
##MP= -300
##BP= -300
##MW= 134
##$RETENTION INDEX=0
##$CONDENSED SPECTRUM=NO
##NPOINTS= 50
##XYDATA=(XY..XY) 1 
    14          7
    15         68
    16          2
    17          2
    18          1
    19          2
    25          1
    26         15
    27         46
    28        100
    29        243
    30         21
    31        260
    32          5
    33         20
    39          1
    41          8
    42         45
    43         99
    44         34
    45        999
    46         25
    47          3
    49          1
    55          1
    56          1
    57         19
    58        311
    59        205
    60         60
    61        130
    62          3
    63          1
    72          1
    73          3
    74          6
    75          6
    76          3
    77          4
    84          1
    87          4
    88          4
    89         69
    90         10
    91          1
   102         37
   103          2
   104          2
   116         22
   117          1