##TITLE=Library Entry 82153
##JCAMP-DX=Revision 4.10 
##DATA TYPE=MASS SPECTRUM
##SAMPLE DESCRIPTION=LAC, NIDDK, NIH, Bethesda, MD 20892
##NAMES=HP
##CAS NAME=1,2,3,4-tetrahydro-1.beta., 2.alpha., 3.alpha., 4.-beta.-4-aminop
henanthrene-1,2,3-triol
##MOLFORM=C35H27NO6
##CAS REGISTRY NO=160290-33-5
##MP= -300
##BP= -300
##MW= 557
##$RETENTION INDEX=0
##$CONDENSED SPECTRUM=NO
##NPOINTS= 232
##XYDATA=(XY..XY) 1 
    41         18
    42          5
    43         34
    44          7
    45          5
    47         24
    48          8
    49          7
    50         15
    51         36
    52          5
    53          4
    55         28
    56          9
    57         30
    58          1
    59          2
    60          2
    62          2
    63          5
    64          1
    65          6
    66          2
    67          8
    68          4
    69         22
    70          9
    71         20
    72          1
    73          5
    74          5
    75          4
    76          2
    77        293
    78         26
    79          8
    80          2
    81         10
    82          4
    83        138
    85         82
    87         13
    89         14
    91         26
    92          6
    93          3
    94          3
    95         11
    96          5
    97         14
    98          3
    99          6
   101          2
   105        999
   106         72
   107         16
   108          6
   109          7
   110          4
   111         12
   112          3
   113          5
   115          6
   116          1
   117          4
   118          4
   119          6
   120          4
   121          2
   122         34
   123          9
   124          6
   125          8
   126          3
   127         13
   128          8
   129         10
   130          2
   131          2
   132          1
   133          4
   134          1
   135          3
   136          7
   137          4
   138          1
   139          9
   140          4
   141         17
   142          3
   143          5
   144          2
   145          3
   147          2
   149         11
   150          3
   151          7
   152         15
   153         25
   154         14
   155          8
   156          3
   157          2
   159          2
   161          2
   163          4
   164          2
   165         29
   166         24
   167         54
   168         15
   169          6
   170          1
   171          4
   173          2
   175          2
   176          3
   177          4
   178         10
   179          7
   180         83
   181         33
   182          9
   184        133
   185         16
   186          2
   187          2
   189          3
   190          4
   191          9
   192         31
   193         43
   194         17
   195          5
   196         12
   197          6
   198          1
   199          2
   202          2
   203          3
   205          4
   206          2
   207          4
   208        197
   209         68
   210         19
   211          5
   212          3
   213          2
   215         14
   216          2
   217          2
   219          3
   220          1
   221          3
   222          2
   223          3
   224          3
   225          5
   226          4
   227          2
   229          1
   231          2
   232          1
   233          2
   234          2
   235          2
   236          3
   237          2
   238          3
   239          4
   240          4
   241          2
   245          2
   246          1
   247          2
   248          2
   249          2
   250          2
   251          3
   252          4
   253          3
   254          4
   255          1
   256          2
   257          2
   258          1
   259          1
   260          2
   261          1
   262          3
   263          2
   264          2
   265          1
   266          3
   267          2
   268          3
   269          1
   270          1
   272          1
   274          2
   275          1
   276          2
   278          2
   280          2
   282          2
   284          8
   285          5
   286          2
   288          2
   289          1
   290          1
   292          1
   295          6
   296          3
   298          3
   300          2
   302          1
   312          2
   313        654
   314        180
   315         27
   316          4
   317          7
   318          3
   324          2
   330         26
   331          5
   332          1
   418          2
   435         15
   436          4