##TITLE=Library Entry 43071
##JCAMP-DX=Revision 4.10 
##DATA TYPE=MASS SPECTRUM
##SAMPLE DESCRIPTION=NIST Mass Spectrometry Data Center, 1994
##NAMES=HP
##CAS NAME=Iodotrimethylsilane
##MOLFORM=C3H9ISi
##CAS REGISTRY NO=16029-98-4
##MP= -300
##BP= -300
##MW= 200
##$RETENTION INDEX=0
##$CONDENSED SPECTRUM=NO
##NPOINTS= 59
##XYDATA=(XY..XY) 1 
     4          0
    14          4
    15         20
    26          2
    27          8
    28         30
    29         37
    30          3
    31          6
    32          3
    40          2
    41         15
    42         53
    43        131
    44         40
    45        214
    46         16
    47          9
    52          7
    53         31
    54          7
    55         28
    56          5
    57         21
    58         34
    59         11
    60          2
    65          2
    66         14
    67          2
    70          5
    71          7
    73        999
    74         79
    75         30
    87          2
   115          1
   127         42
   128         22
   131          8
   133          2
   141          2
   155         72
   156         16
   157        101
   158          5
   159          3
   167          1
   168          6
   169         19
   170         14
   171         27
   172          2
   185        271
   186         20
   187         11
   200        212
   201         19
   202          8