##TITLE=Library Entry 84851
##JCAMP-DX=Revision 4.10 
##DATA TYPE=MASS SPECTRUM
##SAMPLE DESCRIPTION=Japan AIST/NIMC Database- Spectrum MS-NW-1045
##NAMES=HP
##CAS NAME=2-Pyridinamine, 3-methyl-
##MOLFORM=C6H8N2
##CAS REGISTRY NO=1603-40-3
##MP= -300
##BP= -300
##MW= 108
##$RETENTION INDEX=1099
##$CONDENSED SPECTRUM=NO
##NPOINTS= 57
##XYDATA=(XY..XY) 1 
    14          1
    15          4
    17          1
    18          1
    25          2
    26         12
    27         53
    28         69
    29          9
    30         19
    36          1
    37         14
    38         32
    39        113
    40         26
    41         36
    42         19
    43         26
    44          2
    49          6
    50         26
    51         42
    52         58
    53        125
    54         61
    55         23
    56         45
    57          2
    60          1
    61          6
    62         11
    63         31
    64         49
    65         39
    66         29
    67         23
    68         17
    69          2
    75          4
    76          5
    77          2
    78         13
    79         18
    80        507
    81        208
    82         15
    90          6
    91        120
    92         19
    93         10
    94          6
   105          7
   106          5
   107        194
   108        999
   109         71
   110          2