##TITLE=Library Entry 86967
##JCAMP-DX=Revision 4.10 
##DATA TYPE=MASS SPECTRUM
##SAMPLE DESCRIPTION=Chemical Concepts
##NAMES=HP
##CAS NAME=4-Hexyloxyphenyl.-beta-d-glucopyranoside
##MOLFORM=C18H28O7
##CAS REGISTRY NO=160308-20-3
##MP= -300
##BP= -300
##MW= 356
##$RETENTION INDEX=0
##$CONDENSED SPECTRUM=NO
##NPOINTS= 85
##XYDATA=(XY..XY) 1 
    35          1
    36          5
    37          5
    39        188
    41        477
    43        806
    44         70
    45        112
    47         19
    50         19
    51         15
    53         96
    55        218
    57        211
    58         12
    60        127
    61         74
    63         27
    65         66
    66         14
    67         19
    69         85
    71         67
    73        120
    74          8
    75          6
    77         29
    78          6
    79          6
    81         78
    82         18
    83         17
    85         74
    87         34
    88          4
    89          7
    91         12
    93         29
    94         43
    95         15
    97         24
    98          5
    99          6
   100          2
   101          8
   103          5
   105          3
   107         11
   110        999
   111         77
   112          7
   113          2
   115          4
   119          1
   121          5
   123         28
   124          3
   125          1
   127          7
   129          1
   131          1
   132          1
   133          2
   135          6
   136          1
   137          1
   138          1
   139          1
   145          4
   147          2
   149          3
   151          5
   152          6
   162          5
   163          1
   164          1
   171          1
   180          1
   190          1
   191          2
   194        308
   195         29
   196          3
   236          1
   356          1