##TITLE=Library Entry 90933
##JCAMP-DX=Revision 4.10 
##DATA TYPE=MASS SPECTRUM
##SAMPLE DESCRIPTION=NIST Mass Spectrometry Data Center, 1990.
##NAMES=HP
##CAS NAME=2-Thiazolamine, 4-methyl-
##MOLFORM=C4H6N2S
##CAS REGISTRY NO=1603-91-4
##MP= -300
##BP= -300
##MW= 114
##$RETENTION INDEX=1414
##$CONDENSED SPECTRUM=NO
##NPOINTS= 62
##XYDATA=(XY..XY) 1 
    12          3
    13          4
    14          4
    15         18
    16          5
    17          4
    18          5
    25          5
    26         26
    27         57
    28        100
    29          7
    30          3
    32         15
    33          6
    37         18
    38         38
    39        132
    40         52
    41         53
    42        183
    43        130
    44         26
    45        298
    46         71
    47         22
    48          5
    51         12
    52         14
    53         16
    54         19
    55         18
    56         15
    57         25
    58         10
    59         17
    60         48
    61         59
    62          5
    63          5
    66          6
    67         14
    68         16
    69        101
    70         60
    71        567
    72        455
    73        110
    74         31
    75          4
    81         57
    82          7
    85          7
    86         18
    87         40
    89          2
    97          2
   112          7
   114        999
   115         61
   116         40
   117          2