##TITLE=Library Entry 43561
##JCAMP-DX=Revision 4.10 
##DATA TYPE=MASS SPECTRUM
##SAMPLE DESCRIPTION=Div. of Experiment Therapeutics WRAIR, WRAMC, Washingto
n DC 20307
##NAMES=HP
##CAS NAME=2-[2-[5-Trimethylsilyl]thienyl]thiazolidine
##MOLFORM=C10H17NS2Si
##CAS REGISTRY NO=16037-25-5
##MP= -300
##BP= -300
##MW= 243
##$RETENTION INDEX=0
##$CONDENSED SPECTRUM=NO
##NPOINTS= 195
##XYDATA=(XY..XY) 1 
    41         10
    42          8
    43         61
    44         29
    45        154
    46         12
    47          9
    50          2
    51         12
    52          6
    53         19
    54         22
    55         14
    56          5
    57          9
    58         27
    59         86
    60         20
    61         67
    62          3
    63         13
    64         12
    65         19
    66          7
    67          8
    68          2
    69         18
    70          7
    71          6
    72          7
    73        999
    74         90
    75         91
    76         11
    77         39
    78         16
    79         21
    80          6
    81          4
    82          3
    83         50
    84         21
    85         11
    86         10
    87          3
    88         10
    89          3
    90         13
    91         45
    92          9
    93         18
    94          3
    95         14
    96          9
    97         31
    98          5
    99          5
   100          7
   101          7
   102          4
   103          2
   104          7
   105          6
   106          9
   107          5
   108          3
   109         12
   110         12
   111         26
   112          5
   113          6
   114         11
   115         44
   116          7
   117          6
   118          3
   119          3
   120          4
   121          8
   122          4
   123          8
   124         22
   125         31
   126          7
   127         19
   128          3
   129          4
   130          1
   131          2
   132          2
   133          5
   134          4
   135          3
   136         13
   137         17
   138        173
   139         40
   140         38
   141         25
   142          6
   143          4
   144          1
   145          0
   146          1
   147          2
   148          2
   149          2
   150          2
   151         14
   152         24
   153         21
   154         14
   155          9
   156          3
   157          3
   158          1
   159          0
   160          0
   161          1
   162          1
   163          1
   164          2
   165          7
   166         64
   167         80
   168         65
   169         77
   170         84
   171         16
   172          9
   173          2
   174          1
   175          1
   176          0
   178          1
   179          1
   180          7
   181         20
   182         84
   183        163
   184         55
   185         22
   186          6
   187          8
   188          2
   189          1
   190          0
   192          0
   194         28
   195         15
   196        100
   197         46
   198         17
   199         17
   200         15
   201          4
   202          2
   203          1
   204          1
   205          1
   206          0
   207          0
   208          8
   209          5
   210        287
   211        100
   212         42
   213         19
   214         10
   215         42
   216          7
   217          5
   218          0
   219          3
   220          0
   223          0
   224          3
   225          1
   226         10
   227         21
   228         19
   229          3
   230          1
   235          1
   236          1
   237          0
   239          1
   240          8
   241         20
   242        173
   243        429
   244         63
   245         19
   246          5
   247          0