##TITLE=Library Entry 79145
##JCAMP-DX=Revision 4.10 
##DATA TYPE=MASS SPECTRUM
##SAMPLE DESCRIPTION=Chemical Concepts
##NAMES=HP
##CAS NAME=Benzeneacetic acid, .alpha.-oxo-, ethyl ester
##MOLFORM=C10H10O3
##CAS REGISTRY NO=1603-79-8
##MP= -300
##BP= -300
##MW= 178
##$RETENTION INDEX=0
##$CONDENSED SPECTRUM=NO
##NPOINTS= 54
##XYDATA=(XY..XY) 1 
    26          2
    27         20
    28          7
    29         23
    30          1
    37          0
    38          2
    39          5
    40          0
    41          0
    42          0
    43          2
    44          2
    45          0
    49          1
    50         22
    51         78
    52          4
    53          3
    55          0
    56          0
    57          0
    62          1
    63          1
    65          1
    69          0
    73          1
    74          6
    75          5
    76         12
    77        285
    78         20
    79          1
    81          0
    91          0
    98          1
    99          2
   100          0
   103          0
   104          3
   105        999
   106         79
   107          6
   121          0
   122          9
   123          0
   135          0
   149          1
   150         44
   151          4
   152          0
   178         19
   179          2
   180          0