##TITLE=Library Entry 50119
##JCAMP-DX=Revision 4.10 
##DATA TYPE=MASS SPECTRUM
##SAMPLE DESCRIPTION=M. IWAMOTO TOYO RAYON CO., SONOYANA, OTSU, SHIGA-KEN, J
APAN
##NAMES=HP
##CAS NAME=1,4-Heptadiene, 3-methyl-
##MOLFORM=C8H14
##CAS REGISTRY NO=1603-01-6
##MP= -300
##BP= -300
##MW= 110
##$RETENTION INDEX=715
##$CONDENSED SPECTRUM=NO
##NPOINTS= 37
##XYDATA=(XY..XY) 1 
    15         56
    26         56
    27        488
    28         95
    29        252
    37         22
    38         54
    39        552
    40        102
    41        584
    42         65
    43         46
    50         74
    51        138
    52         71
    53        421
    54         89
    55        616
    56         65
    63         46
    65        110
    66        108
    67        730
    68        659
    69         78
    77        168
    78         52
    79        265
    80         74
    81        999
    82        112
    91         56
    93         71
    95        621
    96         56
   110        299
   111         29