##TITLE=Library Entry 30535
##JCAMP-DX=Revision 4.10 
##DATA TYPE=MASS SPECTRUM
##SAMPLE DESCRIPTION=NIST Mass Spectrometry Data Center
##NAMES=HP
##CAS NAME=Butanedioic acid, methyl-, dimethyl ester
##MOLFORM=C7H12O4
##CAS REGISTRY NO=1604-11-1
##MP= -300
##BP= -300
##MW= 160
##$RETENTION INDEX=1059
##$CONDENSED SPECTRUM=NO
##NPOINTS= 67
##XYDATA=(XY..XY) 1 
    14          2
    15         61
    16          1
    26          6
    27         31
    28         14
    29         55
    30          6
    31         15
    32          1
    33          2
    35          1
    37          2
    38          7
    39         87
    40         23
    41        176
    42        115
    43         55
    44          6
    45         26
    46          1
    47          3
    50          1
    51          1
    53          7
    54          3
    55         70
    56         18
    57          6
    58         19
    59        999
    60         30
    61          4
    67          2
    68          7
    69        150
    70         13
    71         10
    72         18
    73         17
    74         61
    75          5
    82          4
    83          1
    85         20
    87        135
    88         10
    89          1
    91          2
    95          1
    96          1
    98          1
    99         25
   100        209
   101        238
   102         14
   103          1
   113          9
   114          1
   115          8
   116          1
   128        294
   129        467
   130         33
   131          4
   145          1