##TITLE=Library Entry 27986
##JCAMP-DX=Revision 4.10 
##DATA TYPE=MASS SPECTRUM
##SAMPLE DESCRIPTION=STC 0009
##NAMES=HP
##CAS NAME=2-Undecanone, 6,10-dimethyl-
##MOLFORM=C13H26O
##CAS REGISTRY NO=1604-34-8
##MP= -300
##BP= -300
##MW= 198
##$RETENTION INDEX=1408
##$CONDENSED SPECTRUM=NO
##NPOINTS= 81
##XYDATA=(XY..XY) 1 
    26          9
    27         97
    29        130
    38          3
    39         92
    40         11
    41        282
    42         95
    43        983
    44         27
    45         18
    51          7
    52          3
    53         34
    54         15
    55        219
    56        102
    57        212
    58        999
    59        238
    60         11
    65          6
    66          3
    67         42
    68         59
    69        146
    70        111
    71        307
    72         30
    73          4
    77          5
    79          9
    80          6
    81         78
    82         67
    83         81
    84         45
    85        165
    86         21
    87          4
    91          5
    93          4
    94          5
    95         97
    96         40
    97         30
    98          6
    99         17
   101          4
   105          3
   107          2
   108          2
   109        107
   110         59
   111         34
   112         13
   113         36
   114          4
   115          2
   123         43
   124         41
   125         13
   126          3
   127          5
   128          3
   137         23
   138         17
   139          3
   140         63
   141         13
   151          5
   154          1
   155         14
   156          3
   165         14
   166          2
   180         80
   181         11
   183          8
   198         13
   199          2