##TITLE=Library Entry 52203
##JCAMP-DX=Revision 4.10 
##DATA TYPE=MASS SPECTRUM
##SAMPLE DESCRIPTION=Chemical Concepts
##NAMES=HP
##CAS NAME=Cyclohexanamine, N-(2-hydroxypropylidene)-, N-oxide
##MOLFORM=C9H17NO2
##CAS REGISTRY NO=160423-87-0
##MP= -300
##BP= -300
##MW= 171
##$RETENTION INDEX=0
##$CONDENSED SPECTRUM=NO
##NPOINTS= 44
##XYDATA=(XY..XY) 1 
    27         51
    28         68
    29         38
    30         30
    31         10
    39         86
    40         15
    41        300
    42         35
    43        119
    44         13
    46         50
    50          9
    51         17
    53         53
    54         79
    55        784
    56         78
    67         87
    68         23
    69         13
    70         13
    71         19
    72          8
    77         17
    79         19
    80         15
    81         36
    82         65
    83        999
    84         83
    97         27
    98          2
   107         18
   108          1
   110        262
   111         30
   112         28
   127          1
   128         18
   129          1
   152          1
   153         22
   154          2