##TITLE=Library Entry 63508
##JCAMP-DX=Revision 4.10 
##DATA TYPE=MASS SPECTRUM
##SAMPLE DESCRIPTION=Exported from NIST MS Search
##NAMES=HP
##CAS NAME=Imidazole-2-carboxamide, 1-benzyl-
##MOLFORM=C11H11N3O
##CAS REGISTRY NO=16042-27-6
##MP= -300
##BP= -300
##MW= 201
##$RETENTION INDEX=0
##$CONDENSED SPECTRUM=NO
##NPOINTS= 21
##XYDATA=(XY..XY) 1 
    27        100
    28        200
    39         60
    51         50
    65        100
    77         50
    89         50
    91        999
    92         90
    95         50
   106        180
   129         50
   130         50
   155         50
   156        170
   157        120
   183         70
   184        290
   201        999
   202        130
   203          9