##TITLE=Library Entry 85625
##JCAMP-DX=Revision 4.10 
##DATA TYPE=MASS SPECTRUM
##SAMPLE DESCRIPTION=NIST Mass Spectrometry Data Center, 1994
##NAMES=HP
##CAS NAME=6-Methyl-3,5-heptadiene-2-one
##MOLFORM=C8H12O
##CAS REGISTRY NO=1604-28-0
##MP= -300
##BP= -300
##MW= 124
##$RETENTION INDEX=1107
##$CONDENSED SPECTRUM=NO
##NPOINTS= 62
##XYDATA=(XY..XY) 1 
    15        144
    16          3
    26         44
    27        221
    28         14
    29         75
    30          2
    31          1
    37         21
    38         81
    39        398
    40         75
    41        268
    42         86
    43        541
    44         14
    45         11
    46          3
    47          3
    50         68
    51        104
    52         59
    53        258
    54         31
    55         76
    56          4
    61         15
    62         26
    63         51
    64         15
    65         89
    66         51
    67         29
    68         10
    69          5
    71          1
    73          2
    74          9
    75          3
    76          1
    77         87
    78          1
    79        332
    80          1
    81        430
    82         37
    83          1
    89          1
    91         34
    92          4
    93          6
    94         10
    95          9
    96          1
   105          3
   107         13
   109        999
   110         74
   111          4
   121          4
   124        118
   125         15