##TITLE=Library Entry 17943
##JCAMP-DX=Revision 4.10 
##DATA TYPE=MASS SPECTRUM
##SAMPLE DESCRIPTION=Chemical Concepts
##NAMES=HP
##CAS NAME=1-(Cyclohexyl-hydroxy-amino)-propan-2-ol
##MOLFORM=C9H19NO2
##CAS REGISTRY NO=160423-57-4
##MP= -300
##BP= -300
##MW= 173
##$RETENTION INDEX=0
##$CONDENSED SPECTRUM=NO
##NPOINTS= 102
##XYDATA=(XY..XY) 1 
    26          4
    27         65
    28         45
    29         81
    30         79
    31         43
    38          3
    39         81
    40         12
    41        349
    42         88
    43        128
    44         26
    45         69
    46        999
    47         19
    48          2
    49          2
    50          2
    51          7
    52          5
    53         40
    54         54
    55        674
    56         75
    57         38
    58         18
    59         34
    60         26
    65          8
    66          5
    67         64
    68         33
    69         32
    70         14
    71         15
    72         91
    73         23
    74         29
    75          2
    76         23
    77         11
    78          3
    79         22
    80          8
    81         60
    82         48
    83        733
    84         61
    85          7
    86         17
    87          2
    88          4
    90          9
    91          8
    93          3
    94          5
    95         11
    96         16
    97          6
    98         11
    99          5
   102          4
   108          3
   109          3
   110         27
   111          9
   112         87
   113          9
   114         13
   115          3
   116          3
   117          4
   121          2
   122          2
   123          3
   124          3
   125          4
   126         53
   127          8
   128        922
   129         86
   130         64
   131          5
   136          2
   137          2
   138          2
   139          2
   140          4
   141          4
   142          6
   154          7
   155          3
   156          9
   157          4
   158         22
   159          3
   171          2
   172         10
   173        145
   174         35
   175          4