##TITLE=Library Entry 76283
##JCAMP-DX=Revision 4.10 
##DATA TYPE=MASS SPECTRUM
##SAMPLE DESCRIPTION=P. VAINIOTALO, DEPT. CHEM., UNIV. JOENSUU, JOENSUU, FIN
LAND
##NAMES=HP
##CAS NAME=1,3-Oxathiolane, 2-methyl-2-isopropyl-
##MOLFORM=C7H14OS
##CAS REGISTRY NO=16047-98-6
##MP= -300
##BP= -300
##MW= 146
##$RETENTION INDEX=1015
##$CONDENSED SPECTRUM=NO
##NPOINTS= 30
##XYDATA=(XY..XY) 1 
    15         15
    18         14
    26         11
    27         72
    29         18
    35         11
    39         36
    41         90
    42         22
    43        913
    44         31
    45         81
    55         21
    58         23
    59        138
    60        481
    61        158
    62         25
    69         39
    71        102
    76         13
    86         66
    87         63
   101         13
   102         73
   103        999
   104         67
   105         54
   131         23
   146         82