##TITLE=Library Entry 109601
##JCAMP-DX=Revision 4.10 
##DATA TYPE=MASS SPECTRUM
##SAMPLE DESCRIPTION=A.A.Kutin, Moscow, Russia
##NAMES=HP
##CAS NAME=Purine-2,6(1H,3H)-dione, 7-(4-chlorobenzyl)-1,3-dimethyl-8-mercap
to-
##MOLFORM=C14H13ClN4O2S
##CAS REGISTRY NO=1604-81-5
##MP= -300
##BP= -300
##MW= 336
##$RETENTION INDEX=0
##$CONDENSED SPECTRUM=NO
##NPOINTS= 197
##XYDATA=(XY..XY) 1 
    33          1
    35          1
    36          1
    37          2
    38         11
    39         36
    40         21
    41         23
    42         41
    43         15
    44         31
    45         11
    46          1
    47          1
    49          3
    50         16
    51         22
    52         11
    53         21
    54         10
    55         16
    56         33
    57         14
    58         31
    59         12
    60         12
    61          6
    62         26
    63         73
    64         28
    65         19
    67        141
    68         16
    69         17
    70         48
    72         39
    73         34
    74         32
    75         24
    76          8
    77         17
    78          6
    79          6
    80          9
    81         10
    82         10
    83          7
    84          8
    85         16
    86         13
    87         13
    89        209
    90         53
    91         17
    92          3
    93          3
    94          6
    95          4
    96         12
    97         13
    99        206
   101         37
   102          5
   103          2
   104          1
   105          1
   106          0
   107          5
   108          3
   109          2
   110          4
   111         16
   112         10
   113          9
   114         15
   115         12
   116         17
   117          3
   119          1
   120          1
   121          6
   123         31
   125        999
   126        129
   127        279
   128         25
   129          4
   130          2
   131          0
   133          0
   134          1
   135          1
   136          3
   137         16
   138          8
   139          5
   140          5
   141          4
   142          7
   143          3
   144          0
   146          1
   147          0
   148          3
   150         33
   151          9
   152         31
   153          6
   154          9
   155          8
   156          4
   157          3
   158          1
   160          2
   162          1
   163          1
   164          1
   165          1
   166          1
   167          1
   168          4
   169          1
   170          2
   171          2
   172          0
   174          1
   175          0
   176          7
   177          3
   178          3
   179          1
   181          0
   182          3
   183          4
   184         27
   185          4
   186          1
   187          1
   189          0
   190          0
   191          3
   192          2
   193          2
   194          1
   196          0
   198          1
   200          0
   203          0
   205          4
   207          1
   209          3
   211         51
   212          8
   213          3
   214          1
   216          1
   217          0
   219          2
   220          0
   221          3
   222         41
   223          7
   224          3
   225          3
   229          0
   239          0
   242          0
   243          1
   244          0
   245          1
   246          0
   253          0
   256          2
   257          0
   267          0
   268          1
   278          0
   279          0
   281          0
   299          2
   300          2
   301          2
   302          5
   303         35
   304         11
   305         11
   306          3
   328          0
   333          3
   334         10
   335         28
   336        167
   337         39
   338         57
   339         11
   340          3
   347          1