##TITLE=Library Entry 50480
##JCAMP-DX=Revision 4.10 
##DATA TYPE=MASS SPECTRUM
##SAMPLE DESCRIPTION=Japan AIST/NIMC Database- Spectrum MS-NW-9252
##NAMES=HP
##CAS NAME=Cyclohexane, 2-chloro-4-methyl-1-(1-methylethyl)-, [1S-(1.alpha.,
2.beta.,4.beta.)]-
##MOLFORM=C10H19Cl
##CAS REGISTRY NO=16052-42-9
##MP= -300
##BP= -300
##MW= 174
##$RETENTION INDEX=0
##$CONDENSED SPECTRUM=NO
##NPOINTS= 94
##XYDATA=(XY..XY) 1 
    15          1
    26          1
    27         64
    28          5
    29         53
    30          1
    35          1
    36         10
    38          4
    39         78
    40         12
    41        222
    42         43
    43        163
    44          5
    45          1
    46          1
    47          1
    49          3
    50          2
    51         14
    52          7
    53         74
    54         80
    55        324
    56        109
    57         99
    58          5
    59          7
    61          1
    62          2
    63          7
    64          1
    65         19
    66          9
    67        282
    68         95
    69        177
    70         46
    71          6
    73          2
    75         20
    76          2
    77         34
    78          6
    79         48
    80        110
    81        999
    82        344
    83        145
    84         14
    85          1
    87          9
    88          8
    89         30
    90          5
    91         22
    92          3
    93         22
    94         85
    95        836
    96        229
    97         58
    98          4
    99          1
   101          1
   102          1
   103          6
   104          7
   105          5
   106          2
   107          3
   108          2
   109        100
   110         25
   111          9
   112          2
   115          2
   117          3
   118          5
   119          1
   120          2
   121          2
   122          1
   123        477
   124         48
   125          2
   130          2
   131          2
   132          1
   137         11
   138        412
   139         48
   140          3