##TITLE=Library Entry 4070
##JCAMP-DX=Revision 4.10 
##DATA TYPE=MASS SPECTRUM
##SAMPLE DESCRIPTION=R. SINNHUBER, DEP. FOOD SCI. TECHNOL., OREGON STATE UNI
V., U
##NAMES=HP
##CAS NAME=1,2-Dipropylcyclopropene-3-carboxylic acid
##MOLFORM=C10H16O2
##CAS REGISTRY NO=1605-38-5
##MP= -300
##BP= -300
##MW= 168
##$RETENTION INDEX=0
##$CONDENSED SPECTRUM=NO
##NPOINTS= 44
##XYDATA=(XY..XY) 1 
    27         80
    29        470
    39        700
    41        999
    43        680
    45        130
    51        260
    52        110
    53        360
    54         50
    55        620
    56         40
    57         40
    65        180
    66         90
    67        300
    68         60
    69        280
    70         30
    71        340
    77        340
    79        410
    81        250
    82         30
    83         80
    91        180
    93        190
    95         40
    97        290
    98         90
   107         40
   110         40
   111        150
   121         70
   123        440
   124         60
   135         10
   139        970
   140        100
   141         10
   149         10
   153         10
   167         10
   168         30