##TITLE=Library Entry 10265
##JCAMP-DX=Revision 4.10 
##DATA TYPE=MASS SPECTRUM
##SAMPLE DESCRIPTION=Drug Lab
##NAMES=HP
##CAS NAME=Bolasterone
##MOLFORM=C21H32O2
##CAS REGISTRY NO=1605-89-6
##MP= -300
##BP= -300
##MW= 316
##$RETENTION INDEX=2727
##$CONDENSED SPECTRUM=NO
##NPOINTS= 240
##XYDATA=(XY..XY) 1 
    37          3
    38          5
    39        156
    40         41
    41        528
    42         45
    43        999
    44         34
    45         38
    50         10
    51         54
    52         36
    53        283
    54         41
    55        728
    56         38
    57        178
    58        101
    59         38
    60          3
    62          2
    63         16
    64          8
    65        189
    66         75
    67        514
    68         93
    69        186
    70         17
    71        391
    72         78
    73         11
    74          8
    75          5
    76         12
    77        557
    78        124
    79        791
    80        117
    81        489
    82         65
    83        113
    84         14
    85         63
    86          8
    87          7
    88          4
    89         18
    90         10
    91        956
    92        155
    93        728
    94        157
    95        460
    96         56
    97        156
    98         18
    99         25
   100          9
   101          8
   102         13
   103         93
   104         44
   105        756
   106        154
   107        629
   108        232
   109        271
   110         66
   111         67
   112          6
   113         12
   114          5
   115        165
   116         69
   117        220
   118         81
   119        531
   120        201
   121        475
   122        383
   123        509
   124        623
   125         91
   126         10
   127         39
   128        140
   129        143
   130         62
   131        265
   132         93
   133        498
   134        219
   135        505
   136        113
   137         84
   138         15
   139          8
   140          4
   141         74
   142         68
   143        117
   144         57
   145        329
   146        129
   147        399
   148        205
   149        275
   150        107
   151        193
   152         56
   153         37
   154         17
   155         66
   156         40
   157        151
   158         59
   159        315
   160        117
   161        249
   162        124
   163        194
   164         42
   165         56
   166         13
   167         21
   168         13
   169         55
   170         40
   171        119
   172        124
   173        220
   174        195
   175        626
   176        219
   177        136
   178         30
   179         15
   180          6
   181         14
   182          8
   183         51
   184         27
   185         99
   186         48
   187        119
   188         81
   189         93
   190         40
   191         52
   192         33
   193        131
   194         24
   195         16
   196          7
   197         29
   198         60
   199        107
   200         59
   201        169
   202         54
   203        161
   204         42
   205          8
   206          2
   207         12
   208          4
   209         23
   210         11
   211         32
   212         18
   213         99
   214         46
   215         56
   216        121
   217         45
   218         10
   221          1
   223         16
   224          9
   225         52
   226         17
   227        132
   228         36
   229         32
   230         16
   231        120
   232         20
   237         10
   238         11
   239         38
   240         30
   241        125
   242         80
   243        117
   244         27
   245         46
   246         37
   247          5
   251          5
   252          5
   253          5
   254         72
   255         67
   256         73
   257         17
   258         30
   259         88
   260         19
   261          3
   265         46
   266         12
   267          5
   269          9
   270         13
   271          3
   272          3
   273          4
   274         37
   275          6
   279          2
   280         41
   281         16
   282          2
   283        489
   284        115
   285         15
   288          3
   296          4
   297          5
   298        877
   299        198
   300         27
   301        163
   302         34
   303          4
   314          3
   316        337
   317         78
   318          7