##TITLE=Library Entry 4718
##JCAMP-DX=Revision 4.10 
##DATA TYPE=MASS SPECTRUM
##SAMPLE DESCRIPTION=Japan AIST/NIMC Database- Spectrum MS-NW-5908
##NAMES=HP
##CAS NAME=EPPS
##MOLFORM=C9H20N2O4S
##CAS REGISTRY NO=16052-06-5
##MP= -300
##BP= -300
##MW= 252
##$RETENTION INDEX=0
##$CONDENSED SPECTRUM=NO
##NPOINTS= 234
##XYDATA=(XY..XY) 1 
    12          2
    13          3
    14         14
    15        129
    16         11
    17          3
    18         11
    24          3
    25          9
    26        109
    27        291
    28        602
    29        232
    30        219
    31         63
    32         21
    33         11
    34         24
    35          2
    36          3
    37          9
    38         19
    39        127
    40         57
    41        371
    42        999
    43        165
    44        208
    45         61
    46          5
    47          9
    48         96
    49          8
    50          8
    51         17
    52         31
    53         28
    54        124
    55        421
    56        746
    57        486
    58        353
    59         26
    60         16
    61          4
    62          4
    63          8
    64        109
    65         33
    66         17
    67         36
    68         65
    69         88
    70        491
    71         74
    72         85
    73         40
    74        114
    75          6
    76          5
    77         12
    78          9
    79         11
    80         30
    81         27
    82         79
    83         82
    84        196
    85         77
    86        193
    87         53
    88         75
    89          7
    90          4
    91          9
    92          9
    93         14
    94         24
    95         19
    96         40
    97        113
    98        447
    99        341
   100        160
   101         22
   102         11
   103          4
   104          6
   105          7
   106          9
   107         16
   108         19
   109         12
   110         14
   111         61
   112        390
   113        153
   114         20
   115         11
   116          5
   117          7
   118         11
   119         20
   120         21
   121         16
   122         22
   123         28
   124         12
   125         59
   126         19
   127         65
   128         37
   129         18
   130         12
   131         12
   132         13
   133         24
   134         21
   135         17
   136         11
   137         12
   138          9
   139        350
   140         47
   141        111
   142         58
   143        129
   144         17
   145         10
   146         12
   147         13
   148         13
   149         10
   150          9
   151          9
   152         32
   153         25
   154         20
   155         10
   156         15
   157         33
   158          9
   159         10
   160          9
   161         11
   162          9
   163         10
   164          7
   165         13
   166         99
   167         10
   168         10
   169          7
   170          9
   171         18
   172         16
   173         11
   174          8
   175          9
   176          6
   177          5
   178         68
   179         87
   180         23
   181         12
   182          7
   183          5
   184          5
   185          6
   186          7
   187          8
   188          7
   189          6
   190          5
   191         11
   192          9
   193         16
   194          9
   195          6
   196          6
   197          4
   198          4
   199          4
   200          5
   201          6
   202          5
   203          5
   204          4
   205          5
   206         26
   207          8
   208          7
   209          6
   210          5
   211          6
   212          4
   213          4
   214          4
   215          4
   216          5
   217          5
   218          4
   219         13
   220          7
   221        372
   222         52
   223         28
   224          7
   225          5
   226          3
   227          3
   228          2
   229          3
   230          3
   231          3
   232          4
   233          6
   234         64
   235         12
   236          8
   237          5
   238          2
   239          1
   245          2
   246          3
   247          2
   248          3
   249          3
   250          3
   251          6
   252          9
   253          9
   254          2
   255          1