##TITLE=Library Entry 86559
##JCAMP-DX=Revision 4.10 
##DATA TYPE=MASS SPECTRUM
##SAMPLE DESCRIPTION=Japan AIST/NIMC Database- Spectrum MS-NW-5730
##NAMES=HP
##CAS NAME=Diethylphenylphosphine
##MOLFORM=C10H15P
##CAS REGISTRY NO=1605-53-4
##MP= -300
##BP= -300
##MW= 166
##$RETENTION INDEX=0
##$CONDENSED SPECTRUM=NO
##NPOINTS= 117
##XYDATA=(XY..XY) 1 
    15          2
    26          9
    27         58
    28          6
    29         41
    30          1
    31          1
    32          1
    37          1
    38          4
    39         46
    40          3
    41         17
    42          1
    43          1
    44          3
    45         18
    46          1
    47         23
    48          1
    49          2
    50         23
    51         68
    52         12
    53          6
    55          4
    56         18
    57         89
    58         19
    59         26
    60         50
    61         14
    62          4
    63         15
    64          4
    65         96
    66          8
    67          1
    68          7
    69         18
    70          4
    71          4
    73          2
    74          8
    75          6
    76          6
    77         59
    78         96
    79         42
    80         15
    81         29
    82         12
    83        112
    84          7
    85          1
    87          2
    88          1
    89          5
    90          2
    91        128
    92         11
    93          2
    94          2
    95          9
    96          4
    97          2
   100          1
   102          3
   103          9
   104          9
   105         37
   106          5
   107        108
   108        173
   109        999
   110        365
   111         22
   112          1
   114          1
   115          3
   116          1
   117          3
   118          1
   119          1
   120          4
   121         32
   122          4
   123        168
   124         16
   125         23
   126          4
   128          1
   129          1
   131          1
   133         16
   134          3
   135          7
   136          3
   137         67
   138        600
   139         56
   140          2
   141          2
   142          4
   143          2
   144          1
   145          1
   146          2
   147          1
   148          1
   149          1
   151         50
   152          7
   165         27
   166        870
   167         98
   168          6