##TITLE=Library Entry 114652
##JCAMP-DX=Revision 4.10 
##DATA TYPE=MASS SPECTRUM
##SAMPLE DESCRIPTION=M.A.FRIEDMAN FAC. SCI. ST-JEROME, MARSEILLE, FRANCE
##NAMES=HP
##CAS NAME=Thiazole, 2-nitro-
##MOLFORM=C3H2N2O2S
##CAS REGISTRY NO=1606-76-4
##MP= -300
##BP= -300
##MW= 130
##$RETENTION INDEX=0
##$CONDENSED SPECTRUM=NO
##NPOINTS= 20
##XYDATA=(XY..XY) 1 
    26        220
    27        290
    29        120
    30        400
    42        140
    43        570
    44        440
    45        360
    56        290
    57        980
    58        490
    76        110
    83        180
    84        200
   100        480
   102         30
   114         60
   130        999
   131         60
   132         60