##TITLE=Library Entry 52585
##JCAMP-DX=Revision 4.10 
##DATA TYPE=MASS SPECTRUM
##SAMPLE DESCRIPTION=Chemical Concepts
##NAMES=HP
##CAS NAME=Triisobutyl phosphite
##MOLFORM=C12H27O3P
##CAS REGISTRY NO=1606-96-8
##MP= -300
##BP= -300
##MW= 250
##$RETENTION INDEX=0
##$CONDENSED SPECTRUM=NO
##NPOINTS= 120
##XYDATA=(XY..XY) 1 
    26          3
    27         69
    28         14
    29        170
    30          5
    31         18
    33          4
    34          0
    36          0
    37          0
    38          2
    39         59
    40         18
    41        255
    42         29
    43         62
    44          2
    45          5
    47         11
    48          1
    49          3
    50          1
    51          1
    52          0
    53          6
    54          2
    55         48
    56         67
    57        639
    58         30
    59          4
    60          0
    61          0
    62          0
    63          1
    64          0
    65         37
    66         24
    67          2
    68          0
    69          3
    70          2
    71          2
    72          6
    73         11
    74          1
    75          0
    77          2
    78         11
    79          2
    80          1
    81          1
    82         44
    83        999
    84          1
    85          6
    86          0
    87          0
    89          0
    90          0
    91          1
    92          0
    93          0
    94          0
    95          4
    96        107
    97         26
    98          1
    99          1
   103          1
   104          1
   105          1
   106          0
   107          2
   108          0
   109         11
   110          4
   111          0
   117          0
   118          0
   119          1
   120          2
   121         31
   122          2
   123         70
   124          2
   125          7
   126          0
   134          0
   135          0
   136          1
   137         13
   138         36
   139        104
   140          6
   141          1
   151          1
   152          0
   153          0
   155          0
   159          0
   163          0
   164          0
   165          2
   167          0
   176          0
   177         29
   178          2
   179          1
   181          1
   182          0
   191          0
   193          0
   195         44
   196          4
   197          0
   207          0
   249          0
   250          1
   251          0