##TITLE=Library Entry 18080
##JCAMP-DX=Revision 4.10 
##DATA TYPE=MASS SPECTRUM
##SAMPLE DESCRIPTION=A.A.Kutin, Moscow, Russia
##NAMES=HP
##CAS NAME=2-(4-Nitrophenyl)-benz(d)(1,3)oxazin-4-one
##MOLFORM=C14H8N2O4
##CAS REGISTRY NO=16063-05-1
##MP= -300
##BP= -300
##MW= 268
##$RETENTION INDEX=0
##$CONDENSED SPECTRUM=NO
##NPOINTS= 116
##XYDATA=(XY..XY) 1 
    33          2
    34          4
    37        105
    38        188
    39        361
    40         72
    41         21
    43         20
    44         26
    46         79
    48          3
    50        999
    51        164
    52         77
    53         70
    54          6
    55          7
    56          3
    57          7
    58          0
    59          0
    61         54
    62        147
    63        365
    64        293
    65         50
    66         15
    67          3
    68          2
    70         27
    71          2
    74        317
    75        469
    76        831
    77        105
    78         13
    79         23
    80          2
    81          1
    83         15
    84          7
    85          5
    86         13
    87         25
    88         38
    90        839
    92        300
    93         14
    94          2
    95          1
   103         41
   104        308
   105         50
   106          4
   108          0
   115         11
   116          6
   119         29
   120         69
   121          7
   137          5
   138         12
   139         66
   140         51
   141          6
   142          1
   143          0
   146        488
   147         40
   148          4
   150        150
   151         40
   152         12
   153          6
   154         25
   155          3
   156          0
   157          0
   165         13
   166        103
   167         24
   168          3
   169          1
   177         36
   178        221
   179         36
   180          3
   181          2
   182         31
   183          4
   184          0
   193          5
   194         33
   195          5
   196          1
   210         15
   211          2
   212          0
   213          0
   222         28
   223          0
   224        366
   225         56
   226          5
   227          0
   238         27
   239          5
   240          4
   241          0
   252          3
   253          0
   267         23
   268        425
   269         73
   270          8
   271          0