##TITLE=Library Entry 17317
##JCAMP-DX=Revision 4.10 
##DATA TYPE=MASS SPECTRUM
##SAMPLE DESCRIPTION=Japan AIST/NIMC Database- Spectrum MS-NW-6514
##NAMES=HP
##CAS NAME=Dicyclohexano-18-crown-6
##MOLFORM=C20H36O6
##CAS REGISTRY NO=16069-36-6
##MP= -300
##BP= -300
##MW= 372
##$RETENTION INDEX=0
##$CONDENSED SPECTRUM=NO
##NPOINTS= 197
##XYDATA=(XY..XY) 1 
    14          1
    15         35
    16          1
    17          1
    18          3
    26          6
    27         83
    28         78
    29         89
    30          8
    31         85
    32          1
    33          1
    39         39
    40          9
    41        306
    42         83
    43        201
    44        140
    45        999
    46         22
    47          3
    51          3
    52          2
    53         45
    54         57
    55        188
    56         20
    57        123
    58         56
    59         80
    60          7
    61          8
    62          3
    63          7
    64         12
    65          6
    66          8
    67        115
    68         27
    69        112
    70         82
    71         53
    72        169
    73        284
    74         11
    75         22
    76          2
    77         10
    78         14
    79         70
    80         57
    81        598
    82        199
    83        151
    84         24
    85         16
    86         33
    87        157
    88        108
    89        359
    90         19
    91         12
    92          3
    93          8
    94          9
    95         22
    96         41
    97        134
    98        205
    99        411
   100         37
   101         47
   102          9
   103         14
   104          5
   105         16
   106          6
   107         70
   108         10
   109         10
   110          6
   111         11
   112         28
   113         33
   114         24
   115         19
   116          9
   117         15
   118          2
   119         13
   120          4
   121          4
   122          3
   123          8
   124         25
   125         22
   126         63
   127         75
   128         11
   129         17
   130          3
   131          9
   132          3
   133         16
   134          5
   135          5
   136          1
   137          4
   138          2
   139          6
   140         53
   141        127
   142         94
   143        238
   144         23
   145          8
   146          1
   147          1
   148          1
   149          3
   150          2
   151          8
   152          1
   153          5
   154          6
   155         42
   156         17
   157         14
   158         22
   159         10
   160          6
   161          4
   162          1
   163          1
   166          2
   167          2
   168         21
   169         21
   170         29
   171         27
   172          7
   173          5
   175          1
   177          2
   178          1
   179          1
   182          1
   183          3
   184          9
   185         67
   186         42
   187        107
   188         11
   189          6
   195          1
   199          4
   200          2
   201          4
   202          4
   203          9
   204          1
   205          4
   212          3
   213          5
   214          4
   215          6
   216          1
   217          3
   218          1
   225          1
   228          1
   229          7
   230          4
   231         13
   232          2
   233          3
   245          1
   247          2
   249          2
   266          5
   267          2
   268          2
   269          1
   273          1
   274          1
   275          2
   277          2
   282          1
   283          2
   284          1
   285          2
   310          3
   311          1
   354          1
   372          5
   373          3