##TITLE=Library Entry 21577
##JCAMP-DX=Revision 4.10 
##DATA TYPE=MASS SPECTRUM
##SAMPLE DESCRIPTION=Chemical Concepts
##NAMES=HP
##CAS NAME=Bicyclo[3.3.1]nonane-2,8-dione
##MOLFORM=C9H12O2
##CAS REGISTRY NO=160651-01-4
##MP= -300
##BP= -300
##MW= 152
##$RETENTION INDEX=0
##$CONDENSED SPECTRUM=NO
##NPOINTS= 121
##XYDATA=(XY..XY) 1 
    25          0
    26         22
    27        256
    28         53
    29         51
    30          1
    31          4
    33          2
    34          2
    37          5
    38         19
    39        244
    40         67
    41        224
    42         42
    43         19
    44          4
    45          2
    46          4
    47          9
    48          4
    49          1
    50         15
    51         32
    52         19
    53         93
    54        134
    55        999
    56         62
    57          9
    58          1
    59          0
    60          1
    61          1
    62          4
    63         11
    64          3
    65         32
    66         32
    67        223
    68        210
    69         72
    70         31
    71          3
    72          0
    73          1
    74          5
    75          1
    76          0
    77         22
    78         10
    79         54
    80         66
    81        115
    82         70
    83         34
    84          6
    85          0
    86          0
    87          0
    88          0
    89          0
    90          0
    91         14
    92         20
    93         13
    94         19
    95        120
    96        194
    97         82
    98         27
    99          2
   100          0
   101          0
   102          0
   103          0
   104          0
   105          3
   106         14
   107         22
   108         51
   109        186
   110         45
   111          8
   112          0
   113          0
   114          0
   115          0
   116          1
   117          1
   118          0
   119          3
   120          0
   121          1
   122          3
   123         87
   124         64
   125          8
   126          0
   127          0
   128          0
   129          0
   130          0
   131          0
   132          0
   133          8
   134         18
   135          4
   136          0
   137         23
   138          4
   139          1
   140          0
   141          1
   142          0
   143          0
   151          2
   152        539
   153         80
   154          8
   155          0