##TITLE=Library Entry 56819
##JCAMP-DX=Revision 4.10 
##DATA TYPE=MASS SPECTRUM
##SAMPLE DESCRIPTION=Humboldt-Universitat zu Berlin, Department of Chemistry
, Analytical Group
##NAMES=HP
##CAS NAME=4-Bromo-N-(morpholin-4-yl-carbothioyl)benzamide
##MOLFORM=C12H13BrN2O2S
##CAS REGISTRY NO=160627-57-6
##MP= -300
##BP= -300
##MW= 328
##$RETENTION INDEX=0
##$CONDENSED SPECTRUM=NO
##NPOINTS= 215
##XYDATA=(XY..XY) 1 
    12          2
    14          7
    15         51
    16          5
    17         25
    18         81
    19          3
    25          3
    26         21
    27         86
    28        289
    29        153
    30        142
    31         23
    32         17
    33          3
    34          2
    35          2
    36          5
    37         11
    38         22
    39         12
    40          8
    41         51
    42        121
    43         57
    44         76
    45         41
    46          7
    47          4
    48          2
    49         10
    50        175
    51         40
    52          8
    53         12
    54         33
    55         60
    56        119
    57         86
    58        118
    59         29
    60         82
    61         11
    62          9
    63          7
    64          3
    65          4
    67          4
    68         11
    69         56
    70         16
    71          9
    72         19
    73         16
    74         71
    75        193
    76        207
    77         33
    78          3
    79          5
    80          2
    81          4
    82          5
    83          7
    84          7
    85         41
    86        999
    87         80
    88         17
    89          4
    90          4
    91          7
    92          2
    93          2
    95          5
    96          3
    97          3
    98          2
    99          3
   100          4
   101         30
   102         13
   103         15
   104         38
   105         11
   106          5
   107          6
   108          9
   109         15
   110          3
   111          4
   112          2
   113         58
   114          7
   115         18
   116          6
   117          5
   118         18
   119          3
   120          2
   121          1
   124          1
   125          1
   127          2
   128         28
   129         25
   130         21
   131         13
   132          2
   133          3
   134          2
   135          1
   136          3
   137          4
   141          2
   143          1
   144          6
   145         45
   146          5
   147          3
   149          2
   152          2
   154          6
   155        240
   156         20
   157        238
   158         16
   159          1
   164         14
   165          2
   171          5
   173          2
   181          1
   183        403
   184         39
   185        397
   186         35
   187          7
   188          6
   189          6
   190          7
   191          2
   199          1
   200          3
   201          1
   202          3
   208          1
   210          5
   211          1
   212          4
   213          1
   214          1
   215          2
   216          2
   217          2
   218          2
   225          1
   226          1
   227          1
   228          1
   229          1
   230          0
   232          1
   239          0
   240          1
   241          2
   242          5
   243         15
   244          6
   245         13
   246          2
   247          1
   249          3
   250          0
   253          2
   254          0
   255          2
   256          1
   257          0
   258          3
   259          1
   260          2
   261          0
   266          0
   267          1
   268          1
   269          1
   270          1
   271          1
   272          2
   273          1
   274          2
   282          1
   283         10
   284          8
   285         18
   286          8
   287          8
   288          1
   289          0
   295          7
   296          1
   297          8
   298          1
   299          3
   300          1
   301          3
   302          1
   328         82
   329         14
   330         84
   331         13
   332          5
   333          0