##TITLE=Library Entry 51274
##JCAMP-DX=Revision 4.10 
##DATA TYPE=MASS SPECTRUM
##SAMPLE DESCRIPTION=NIST Mass Spectrometry Data Center, 1990.
##NAMES=HP
##CAS NAME=Cyclopentylcyclohexane
##MOLFORM=C11H20
##CAS REGISTRY NO=1606-08-2
##MP= -300
##BP= -300
##MW= 152
##$RETENTION INDEX=1218
##$CONDENSED SPECTRUM=NO
##NPOINTS= 51
##XYDATA=(XY..XY) 1 
    14          4
    26         10
    27        103
    28         91
    29         90
    32         14
    39        300
    40         77
    41        624
    42        107
    43         36
    44          5
    50         14
    51         47
    52         30
    53        183
    54        201
    55        689
    56         40
    57          6
    63         13
    65         94
    67        989
    68        653
    69        219
    70         15
    77         89
    78         23
    79        148
    80         59
    81        374
    82        999
    83        629
    84         36
    85          4
    91         38
    92          4
    93         29
    94          4
    95        161
    96        325
    97         71
    98          4
   107          7
   109        120
   110         64
   111          6
   123         22
   124         46
   152        211
   153         23