##TITLE=Library Entry 53467
##JCAMP-DX=Revision 4.10 
##DATA TYPE=MASS SPECTRUM
##SAMPLE DESCRIPTION=J.LLOYD PFLUG,FRANK J.SEILER RES.LAB.,USAF ACADEMY,CO 8
0840,USA
##NAMES=HP
##CAS NAME=1-Nitro-2-methyl propene
##MOLFORM=C4H7NO2
##CAS REGISTRY NO=1606-30-0
##MP= -300
##BP= -300
##MW= 101
##$RETENTION INDEX=0
##$CONDENSED SPECTRUM=NO
##NPOINTS= 54
##XYDATA=(XY..XY) 1 
    13          8
    14         19
    15         53
    16         14
    18          9
    19          8
    25         10
    26         85
    27        603
    28        342
    29        786
    30        247
    31         40
    36         11
    37         72
    38        153
    39        866
    40         79
    41        233
    42        136
    43        326
    44         37
    45         23
    46        100
    48          7
    49         40
    50        182
    51        232
    52         83
    53        614
    54        119
    55        663
    56        527
    57        123
    58         88
    59         15
    60         10
    64          7
    66          9
    67          9
    68         13
    69         12
    70         16
    71          7
    72         71
    73         19
    74          9
    82          7
    83         11
    84        999
    85         63
   100         10
   101        117
   102         12