##TITLE=Library Entry 18851
##JCAMP-DX=Revision 4.10 
##DATA TYPE=MASS SPECTRUM
##SAMPLE DESCRIPTION=SHELL RESEARCH LIMITED THORNTON RESEARCH CENTRE
##NAMES=HP
##CAS NAME=1-Penten-3-one, 4-methyl-
##MOLFORM=C6H10O
##CAS REGISTRY NO=1606-47-9
##MP= -300
##BP= -300
##MW= 98
##$RETENTION INDEX=830
##$CONDENSED SPECTRUM=NO
##NPOINTS= 20
##XYDATA=(XY..XY) 1 
    26         43
    27        270
    28         56
    29         31
    38         26
    39         74
    40         25
    41        154
    42         44
    43        188
    53         20
    55        999
    56         88
    57         26
    69         38
    70        107
    71         28
    83         19
    98         98
    99         17