##TITLE=Library Entry 18951
##JCAMP-DX=Revision 4.10 
##DATA TYPE=MASS SPECTRUM
##SAMPLE DESCRIPTION=J.LLOYD PFLUG,FRANK J.SEILER RES.LAB.,USAF ACADEMY,CO 8
0840,USA
##NAMES=HP
##CAS NAME=3-Nitro-2-methyl propene
##MOLFORM=C4H7NO2
##CAS REGISTRY NO=1606-31-1
##MP= -300
##BP= -300
##MW= 101
##$RETENTION INDEX=0
##$CONDENSED SPECTRUM=NO
##NPOINTS= 42
##XYDATA=(XY..XY) 1 
    13          3
    14          2
    15         10
    16          2
    26         24
    27        183
    28         51
    29        290
    30         72
    31          4
    37         25
    38         55
    39        300
    40         36
    41         61
    42         10
    43         73
    44          8
    45          4
    46         42
    49         10
    50         55
    51         63
    52         24
    53        191
    54         37
    55        999
    56         59
    57          4
    58          4
    59          3
    60          5
    61          3
    67          4
    69          6
    71          3
    72          3
    73          0
    74          2
    84         23
    85          4
   101          3