##TITLE=Library Entry 34039
##JCAMP-DX=Revision 4.10 
##DATA TYPE=MASS SPECTRUM
##SAMPLE DESCRIPTION=Chemical Concepts
##NAMES=HP
##CAS NAME=2-Methyl-4-pentafluoroethyl-5,5-di(trifluoromethyl)-1-pyrrolin-4-
ol
##MOLFORM=C9H6F11NO
##CAS REGISTRY NO=160733-19-7
##MP= -300
##BP= -300
##MW= 353
##$RETENTION INDEX=0
##$CONDENSED SPECTRUM=NO
##NPOINTS= 47
##XYDATA=(XY..XY) 1 
    33         27
    37         41
    39        652
    41        832
    42        431
    43        181
    45        171
    46         57
    47         45
    50        129
    51        120
    52         55
    53         50
    54         42
    55         46
    57         93
    58        101
    59         54
    61         23
    63         27
    64         25
    65         27
    67        155
    69        999
    70         21
    73         24
    75         67
    76         43
    77         24
    81         28
    91         20
    93         88
    96        103
   100        129
   101         19
   102         26
   117         22
   119         98
   121         18
   122         59
   140         20
   141         25
   150         94
   172        161
   191        315
   192         29
   234         72