##TITLE=Library Entry 86723
##JCAMP-DX=Revision 4.10 
##DATA TYPE=MASS SPECTRUM
##SAMPLE DESCRIPTION=Chemical Concepts
##NAMES=HP
##CAS NAME=Phenol, 4-(4-nitrophenyl)amino-
##MOLFORM=C12H10N2O3
##CAS REGISTRY NO=16078-86-7
##MP= -300
##BP= -300
##MW= 230
##$RETENTION INDEX=0
##$CONDENSED SPECTRUM=NO
##NPOINTS= 134
##XYDATA=(XY..XY) 1 
    25          7
    26         55
    27        161
    28        204
    29         43
    30         33
    31          4
    32          4
    35          2
    36          3
    37         20
    38         55
    39        191
    40         48
    41         77
    42         40
    43         17
    44         10
    45          3
    46          4
    49          8
    50        110
    51         91
    52        197
    53        285
    54        143
    55         77
    56         13
    57          7
    59         12
    60         18
    61         17
    62         36
    63         95
    64         77
    65        211
    66         41
    67         14
    68         24
    69         12
    70          8
    71          4
    72          2
    73          3
    74         19
    75         36
    76         77
    77         40
    78         23
    79         29
    80        599
    81        160
    82         49
    83          9
    85          2
    87          2
    88          2
    89          7
    90         12
    91         29
    92         83
    93         26
    94          6
    95          3
    97          2
   101          4
   102          7
   103          7
   104          5
   105         11
   106          6
   107         12
   108        599
   109        999
   110         71
   111          6
   113          2
   115         17
   116          6
   117         10
   118          3
   120          5
   122          3
   125          2
   126          4
   127         25
   128         40
   129         27
   130         23
   131          6
   132          3
   133          4
   139         15
   140          6
   141          6
   142          2
   143          3
   144          8
   145          2
   146          2
   147          7
   148          4
   149          7
   150          2
   152          4
   153          6
   154         34
   155         17
   156        106
   157         17
   158          2
   165          3
   166          6
   167         12
   168          6
   169          2
   171          2
   172          4
   180          2
   181          4
   182         11
   183         36
   184        195
   185         28
   186          2
   200         17
   201          2
   209          2
   210          2
   214          5
   229         10
   230        764
   231        111
   232         11