##TITLE=Library Entry 40430
##JCAMP-DX=Revision 4.10 
##DATA TYPE=MASS SPECTRUM
##SAMPLE DESCRIPTION=A.S.Moskovkin,I.M.Karnaukh, Russian Center on Disaster
 Medicine
##NAMES=HP
##CAS NAME=9-Hydroxymethyl-1-phenyl-3,6-diazahomoadamantan-9-ol
##MOLFORM=C16H22N2O2
##CAS REGISTRY NO=160777-83-3
##MP= -300
##BP= -300
##MW= 274
##$RETENTION INDEX=0
##$CONDENSED SPECTRUM=NO
##NPOINTS= 99
##XYDATA=(XY..XY) 1 
    39         15
    41         20
    42         97
    51         28
    56         22
    58         84
    64         14
    65         21
    68         15
    72        999
    73         53
    74         11
    77         49
    78         29
    82         24
    85         11
    86         10
    89         11
    90         13
    91         81
    98         13
    99         13
   102         38
   103        117
   105         11
   106         12
   110         13
   113         39
   115        136
   116         37
   117         44
   118         16
   126         18
   127         46
   128        113
   129         69
   130         26
   131         15
   139         19
   140         13
   141         70
   142         46
   143         49
   144         39
   146         16
   153         23
   154         85
   155        138
   156         82
   157         30
   158         25
   167         57
   168        112
   169        133
   170        100
   171         51
   172         27
   181         11
   182         55
   183         49
   184         38
   185         34
   186         39
   187         13
   194         22
   195         16
   196         38
   198         46
   199         12
   200         29
   201          9
   211         15
   212         27
   213         25
   214         20
   215         10
   224          9
   225         38
   226         26
   227        141
   228         46
   230          6
   237          7
   238          7
   240          6
   243        228
   244         47
   245          5
   253          3
   254         18
   255         22
   256        409
   257         82
   258         12
   272         13
   273         10
   274        313
   275         57
   276          5