##TITLE=Library Entry 19079
##JCAMP-DX=Revision 4.10 
##DATA TYPE=MASS SPECTRUM
##SAMPLE DESCRIPTION=V.G.Zaikin, Petrochem. Synth. Inst., Moscow
##NAMES=HP
##CAS NAME=Dichloroacetic acid, undec-10-enyl ester
##MOLFORM=C13H22Cl2O2
##CAS REGISTRY NO=160811-92-7
##MP= -300
##BP= -300
##MW= 280
##$RETENTION INDEX=0
##$CONDENSED SPECTRUM=NO
##NPOINTS= 78
##XYDATA=(XY..XY) 1 
    26         25
    27        134
    28         34
    29        215
    31          7
    35          7
    36         59
    37         11
    38         31
    39        221
    40         59
    41        809
    42        211
    43        615
    44        122
    45          7
    47         10
    48         28
    49         12
    50         19
    51         28
    52         17
    53         88
    54        489
    55        999
    56        212
    57        341
    58        327
    59         23
    60          7
    65         13
    66         49
    67        419
    68        518
    69        615
    70        131
    71        491
    72         29
    73          6
    75          6
    76         48
    77         17
    78         21
    79         29
    80         19
    81        319
    82        431
    83        338
    84         78
    85         91
    86        376
    87        175
    88          8
    91         21
    93         12
    94         11
    95        199
    96        195
    97        207
    98         29
    99        106
   100         11
   108          9
   109        105
   110        103
   111         69
   112         11
   113         31
   121          8
   123         49
   124         59
   125          6
   151          4
   152         45
   153          6
   197        145
   198         28
   199          6