##TITLE=Library Entry 27903
##JCAMP-DX=Revision 4.10 
##DATA TYPE=MASS SPECTRUM
##SAMPLE DESCRIPTION=NIST Mass Spectrometry Data Center
##NAMES=HP
##CAS NAME=Oxirane, methyl-, (S)-
##MOLFORM=C3H6O
##CAS REGISTRY NO=16088-62-3
##MP= -300
##BP= -300
##MW= 58
##$RETENTION INDEX=0
##$CONDENSED SPECTRUM=NO
##NPOINTS= 35
##XYDATA=(XY..XY) 1 
    12          1
    13          4
    14         20
    15         57
    16          1
    19          1
    20          1
    24          3
    25         22
    26        292
    27        473
    28        735
    29        582
    30         87
    31        273
    32          8
    36          6
    37         37
    38         54
    39        111
    40         13
    41         30
    42         79
    43        740
    44         18
    45          2
    52          2
    53          9
    54          1
    55         21
    56          2
    57         97
    58        999
    59         34
    60          2