##TITLE=Library Entry 100326
##JCAMP-DX=Revision 4.10 
##DATA TYPE=MASS SPECTRUM
##SAMPLE DESCRIPTION=V.G.Zaikin, TIPS, Russian Acad. Sci.
##NAMES=HP
##CAS NAME=1-Methyl-1-silabenzocyclobutene
##MOLFORM=C8H10Si
##CAS REGISTRY NO=160841-06-5
##MP= -300
##BP= -300
##MW= 134
##$RETENTION INDEX=0
##$CONDENSED SPECTRUM=NO
##NPOINTS= 54
##XYDATA=(XY..XY) 1 
    39         97
    40         12
    41         30
    42         24
    43        254
    44         67
    45         42
    50         34
    51         85
    52         30
    53        206
    54         24
    55         48
    56          9
    57         15
    62         18
    63         61
    64         12
    65         67
    66         76
    67        103
    68         18
    69         36
    76         12
    77         79
    78         61
    79         42
    81         24
    89         42
    90         24
    91         89
    92         42
    93        188
    94         24
    95         21
   102         12
   103         61
   104         91
   105        127
   106         54
   107         33
   108         12
   117         95
   118         48
   119        999
   120        127
   121         43
   131         55
   132         24
   133        182
   134        806
   135        116
   136         33
   137          2