##TITLE=Library Entry 40373
##JCAMP-DX=Revision 4.10 
##DATA TYPE=MASS SPECTRUM
##SAMPLE DESCRIPTION=Tox21 Consortium/NIST Mass Spectrometry Data Center, 20
12
##NAMES=HP
##CAS NAME=Carbamic acid, dimethyl-, 3-(dimethylamino)phenyl ester
##MOLFORM=C11H16N2O2
##CAS REGISTRY NO=16088-19-0
##MP= -300
##BP= -300
##MW= 208
##$RETENTION INDEX=1850
##$CONDENSED SPECTRUM=NO
##NPOINTS= 91
##XYDATA=(XY..XY) 1 
    15          8
    18          5
    27          2
    28          8
    29          1
    30          1
    37          1
    38          4
    39         14
    40          3
    41          7
    42         51
    43         10
    44          9
    45          1
    50          6
    51         10
    52         11
    53          5
    54          2
    55          3
    56         18
    57          1
    58          3
    59          2
    61          1
    62          3
    63         22
    64         15
    65         42
    66         23
    67         16
    68          4
    69          1
    72        999
    73         38
    74          4
    75          2
    76          4
    77         20
    78         13
    79         12
    80          4
    81          2
    82          2
    88          1
    89          1
    90          3
    91          8
    92         28
    93         16
    94          5
    95          1
   103          4
   104         19
   105         10
   106          7
   107         12
   108         69
   109          8
   110          1
   117          1
   118          6
   119          4
   120         17
   121          6
   122          5
   123          1
   134          5
   135         19
   136         27
   137         12
   138          2
   147          1
   148          1
   149          1
   150         35
   151         10
   152          1
   154          1
   161          1
   162          1
   163          3
   164          6
   165          1
   191          1
   205          1
   207         13
   208        323
   209         41
   210          4