##TITLE=Library Entry 66831
##JCAMP-DX=Revision 4.10 
##DATA TYPE=MASS SPECTRUM
##SAMPLE DESCRIPTION=NIST Mass Spectrometry Data Center
##NAMES=HP
##CAS NAME=Quinone 2,4-dinitrophenylhydrazone
##MOLFORM=C12H8N4O5
##CAS REGISTRY NO=16081-15-5
##MP= -300
##BP= -300
##MW= 288
##$RETENTION INDEX=0
##$CONDENSED SPECTRUM=NO
##NPOINTS= 139
##XYDATA=(XY..XY) 1 
    14          4
    17          7
    18          8
    26         18
    27         19
    28          9
    29         17
    30         39
    37         16
    38         54
    39        283
    41          4
    42          7
    43          7
    44          2
    45          4
    46          5
    50         72
    51        105
    52        448
    53        149
    54         23
    55         27
    56          7
    61         23
    62         64
    63        161
    64        108
    65        690
    66         46
    67         13
    69         10
    74         41
    75         78
    76         43
    77         65
    78         34
    79        175
    80        159
    81         36
    82          2
    86          6
    87         10
    88         15
    89         37
    90         20
    91         32
    92         24
    93        999
    94         71
    95          4
    96         10
    99          6
   101         13
   102         14
   103         23
   104         24
   105         14
   106         22
   107        308
   108         46
   109          8
   110          3
   113         20
   114         11
   115         18
   116          8
   117         14
   118         19
   119         27
   120         43
   121        484
   122         52
   123         13
   126         22
   127        117
   128         28
   129         27
   130         17
   131         31
   132         15
   134          1
   135         27
   136         11
   137          4
   139         31
   140          6
   141         11
   142         12
   144         12
   146          7
   148          5
   150         12
   152         24
   153         63
   154         36
   155         52
   156         31
   157         12
   158         20
   159          8
   160         20
   161         11
   164         15
   165          7
   169         25
   170         12
   171         11
   175          6
   180          9
   181         46
   182         43
   183         27
   184          8
   192          6
   193          3
   195         23
   197         22
   198         14
   203          8
   208          3
   209          8
   210         80
   211         23
   212          5
   213          8
   226        193
   227         51
   228         10
   240         31
   253         12
   255         17
   256        895
   257        137
   258         45
   259          7
   272         25
   288        102
   289         19