##TITLE=Library Entry 46359
##JCAMP-DX=Revision 4.10 
##DATA TYPE=MASS SPECTRUM
##SAMPLE DESCRIPTION=Japan AIST/NIMC Database- Spectrum MS-NW-5443
##NAMES=HP
##CAS NAME=Hexametapil
##MOLFORM=C6H18N3P
##CAS REGISTRY NO=1608-26-0
##MP= -300
##BP= -300
##MW= 163
##$RETENTION INDEX=0
##$CONDENSED SPECTRUM=NO
##NPOINTS= 80
##XYDATA=(XY..XY) 1 
    12          1
    13          2
    14          7
    15         71
    16          1
    17          1
    26          4
    27         24
    28         75
    29         40
    30         51
    31         79
    32          4
    33          8
    38          4
    39          5
    40         15
    41         23
    42        168
    43         55
    44        290
    45        124
    46         17
    47         19
    48          5
    49          6
    51          1
    55          1
    56          2
    57          3
    58         11
    59         41
    60        229
    61         12
    62          4
    63          3
    70          1
    71          1
    72          1
    73          7
    74         25
    75         77
    76        999
    77         29
    78          3
    81         15
    82          2
    87          1
    88          2
    89          1
    90         18
    91         36
    92         25
    93          7
    94          9
   102          1
   103          1
   105          2
   106          1
   107          3
   108          7
   109          1
   110          2
   112          1
   117          1
   118          9
   119        986
   120         54
   121          3
   122          1
   129          1
   130          1
   133          2
   135         34
   136         16
   137          1
   148          2
   163        273
   164         22
   165          1