##TITLE=Library Entry 46567
##JCAMP-DX=Revision 4.10 
##DATA TYPE=MASS SPECTRUM
##SAMPLE DESCRIPTION=ASES Database, Dalian Institute, P.R. China
##NAMES=HP
##CAS NAME=2-Propen-1-one, 3-(4-fluorophenyl)-1-phenyl-
##MOLFORM=C15H11FO
##CAS REGISTRY NO=1608-51-1
##MP= -300
##BP= -300
##MW= 226
##$RETENTION INDEX=0
##$CONDENSED SPECTRUM=NO
##NPOINTS= 23
##XYDATA=(XY..XY) 1 
    50        511
    51        908
    63        138
    75        429
    76        128
    77        999
    89         20
    95        250
   101        501
   102        100
   105        348
   121        188
   130         49
   149        200
   178         29
   179         10
   183         69
   196         60
   197        129
   198         99
   207         19
   225        150
   226        298