##TITLE=Library Entry 53794
##JCAMP-DX=Revision 4.10 
##DATA TYPE=MASS SPECTRUM
##SAMPLE DESCRIPTION=Japan AIST/NIMC Database- Spectrum MS-NW-2970
##NAMES=HP
##CAS NAME=Propane, 2-isocyanato-2-methyl-
##MOLFORM=C5H9NO
##CAS REGISTRY NO=1609-86-5
##MP= -300
##BP= -300
##MW= 99
##$RETENTION INDEX=0
##$CONDENSED SPECTRUM=NO
##NPOINTS= 35
##XYDATA=(XY..XY) 1 
    13          1
    14          6
    15         79
    25          1
    26         14
    27         57
    28         69
    29        100
    30          7
    37          5
    38          9
    39         59
    40         28
    41        170
    42         28
    43         10
    44          2
    49          1
    50          3
    51          5
    52          6
    53          6
    54         10
    55         20
    56        263
    57         74
    58          3
    68          7
    70          3
    82          1
    83          5
    84        999
    85         49
    86          3
    99          2