##TITLE=Library Entry 52820
##JCAMP-DX=Revision 4.10 
##DATA TYPE=MASS SPECTRUM
##SAMPLE DESCRIPTION=Drug Lab
##NAMES=HP
##CAS NAME=Propanamide, N-phenyl-N-4-piperidinyl-
##MOLFORM=C14H20N2O
##CAS REGISTRY NO=1609-66-1
##MP= -300
##BP= -300
##MW= 232
##$RETENTION INDEX=2007
##$CONDENSED SPECTRUM=NO
##NPOINTS= 115
##XYDATA=(XY..XY) 1 
    42        143
    43         39
    44         34
    45          2
    50         12
    51         76
    52         14
    53         36
    54         60
    55        237
    56        349
    57        402
    58         21
    59          2
    62          2
    63         14
    64         20
    65         47
    66         22
    67         30
    68        435
    69         30
    70         16
    71          7
    72          4
    73          1
    74         11
    75          4
    76         11
    77        268
    78         37
    79         15
    80         39
    82        775
    83        999
    84        429
    85         30
    86          2
    87          1
    89          7
    90         11
    91        114
    92         43
    93        430
    94        111
    95          8
    96          1
    97          2
    98          5
    99          8
   100          3
   101          2
   102          2
   103         18
   104        109
   105         43
   106         62
   107         12
   108          1
   112          3
   114          1
   115          9
   116         13
   117         62
   118        247
   119        112
   120        458
   121         44
   122         11
   123          1
   125          4
   126          1
   127         47
   128         12
   129          5
   130         73
   131         38
   132        204
   133         87
   134         27
   135          2
   141         19
   142         30
   143          8
   144         24
   145         12
   146        153
   147         52
   148         31
   149         51
   150        276
   151         31
   152          2
   156          1
   157          1
   158         46
   159        443
   160         65
   161          6
   162          1
   173          5
   174         14
   175        427
   176         64
   177          5
   188          5
   189          6
   190          1
   202          2
   203         18
   204          3
   215          1
   231          1
   232         15
   233          7