##TITLE=Library Entry 514
##JCAMP-DX=Revision 4.10 
##DATA TYPE=MASS SPECTRUM
##SAMPLE DESCRIPTION=Japan AIST/NIMC Database- Spectrum MS-IW-3833
##NAMES=HP
##CAS NAME=Diethyl pyrocarbonate
##MOLFORM=C6H10O5
##CAS REGISTRY NO=1609-47-8
##MP= -300
##BP= -300
##MW= 162
##$RETENTION INDEX=0
##$CONDENSED SPECTRUM=NO
##NPOINTS= 43
##XYDATA=(XY..XY) 1 
    13          1
    14          6
    15         32
    16          2
    18          1
    25          1
    26         40
    27        285
    28        197
    29        999
    30         74
    31        268
    32          4
    39          1
    40          1
    41         25
    42         12
    43         72
    44        118
    45        721
    46         36
    47         35
    55          3
    56          7
    57          1
    58          1
    59         49
    60          2
    61          1
    63        626
    64          8
    65          4
    73         41
    74          4
    75         10
    77          1
    85          4
    89          1
    90         47
    91        387
    92         13
    93          3
   118          1