##TITLE=Library Entry 109181
##JCAMP-DX=Revision 4.10 
##DATA TYPE=MASS SPECTRUM
##SAMPLE DESCRIPTION=LAC, NIDDK, NIH, Bethesda, MD 20892
##NAMES=HP
##CAS NAME=1-Hydroxy-4-[phenylsulfonyl]-2-butanone
##MOLFORM=C10H12O4S
##CAS REGISTRY NO=160956-37-6
##MP= -300
##BP= -300
##MW= 228
##$RETENTION INDEX=0
##$CONDENSED SPECTRUM=NO
##NPOINTS= 68
##XYDATA=(XY..XY) 1 
    41         21
    42         60
    43          8
    44          0
    45         10
    47          2
    48          5
    49        117
    50         63
    51        285
    52         15
    53         12
    55        544
    56         25
    57          3
    58          2
    59          4
    62          3
    63          8
    64          3
    65         19
    66          4
    69         12
    70          3
    71          2
    73          3
    74         15
    75         13
    76         23
    77        631
    78         77
    79         71
    80          0
    81          5
    82          1
    84          0
    89          1
    91         11
    93          2
    94         14
    95          2
    97         35
    99          7
   103          0
   104          8
   105         27
   106          4
   107          4
   108          0
   109          4
   112          2
   121          0
   123          0
   125        999
   126         75
   127         49
   128          2
   141         25
   142          7
   143         26
   144          2
   145          1
   170          2
   197        211
   198         21
   199         11
   228          4
   230          1