##TITLE=Library Entry 58522
##JCAMP-DX=Revision 4.10 
##DATA TYPE=MASS SPECTRUM
##SAMPLE DESCRIPTION=NIST Mass Spectrometry Data Center, 1998.
##NAMES=HP
##CAS NAME=2-Propenoic acid, 3-chloro-, (Z)-
##MOLFORM=C3H3ClO2
##CAS REGISTRY NO=1609-93-4
##MP= -300
##BP= -300
##MW= 106
##$RETENTION INDEX=0
##$CONDENSED SPECTRUM=NO
##NPOINTS= 64
##XYDATA=(XY..XY) 1 
    12          4
    13          8
    14          8
    15          6
    16          3
    17          1
    18          2
    24         23
    25        116
    26        532
    27        198
    28         38
    29         58
    30          1
    31          2
    35         49
    36         36
    37         30
    38         14
    39          2
    40          6
    41         22
    42         91
    43         50
    44         59
    45        520
    46          9
    47         25
    48         19
    49         17
    50          9
    51          5
    52         25
    53        148
    54         37
    55          5
    56          1
    59         18
    60        109
    61        652
    62         69
    63        215
    64         12
    65          5
    67          1
    69          3
    71        686
    72         27
    73          4
    76          2
    78        240
    79          5
    80         83
    81          1
    87          7
    89        999
    90         36
    91        323
    92         10
   106        839
   107         29
   108        271
   109         10
   110          2