##TITLE=Library Entry 48857
##JCAMP-DX=Revision 4.10 
##DATA TYPE=MASS SPECTRUM
##SAMPLE DESCRIPTION=R.T.HOLMAN,UNIVERSITY OF MINNESOTA
##NAMES=HP
##CAS NAME=3,6-Dodecadienoic acid, methyl ester
##MOLFORM=C13H22O2
##CAS REGISTRY NO=16106-01-7
##MP= -300
##BP= -300
##MW= 210
##$RETENTION INDEX=1482
##$CONDENSED SPECTRUM=NO
##NPOINTS= 113
##XYDATA=(XY..XY) 1 
    38         10
    39        210
    40         40
    41        570
    42         70
    43        210
    44         60
    45         40
    50         10
    51         40
    52         30
    53        140
    54        180
    55        510
    56         60
    57         90
    58         10
    59        270
    60         10
    63         10
    64         10
    65         80
    66        100
    67        610
    68        150
    69        160
    70         30
    71         90
    72         20
    73         10
    74        130
    75         20
    77        230
    78        110
    79        999
    80        760
    81        550
    82        160
    83        100
    84        270
    85         70
    86         10
    87         50
    88         10
    91        180
    92         40
    93        500
    94        210
    95        240
    96        200
    97        130
    98        170
    99         20
   100         70
   101         20
   103         10
   104         10
   105         40
   106         20
   107        120
   108         60
   109        110
   110         50
   111         80
   112         20
   113         70
   114         50
   115         20
   117         10
   119         20
   120         10
   121        220
   122         60
   123         50
   124         20
   125         20
   126         80
   127         20
   128         10
   129         10
   131         10
   133         10
   134         20
   135         70
   136        490
   137         80
   138         40
   139         20
   140        180
   141         40
   142         10
   143         10
   149         50
   150        160
   151         40
   152         10
   153         20
   154         20
   155         10
   161         30
   162         10
   163         10
   167         10
   168         10
   169         10
   178        110
   179         70
   180         20
   181         10
   207         10
   210        220
   211         30
   212         10