##TITLE=Library Entry 3543
##JCAMP-DX=Revision 4.10 
##DATA TYPE=MASS SPECTRUM
##SAMPLE DESCRIPTION=Exported from NIST MS Search
##NAMES=HP
##CAS NAME=2-Penten-1-ol, 2-methyl-
##MOLFORM=C6H12O
##CAS REGISTRY NO=1610-29-3
##MP= -300
##BP= -300
##MW= 100
##$RETENTION INDEX=0
##$CONDENSED SPECTRUM=NO
##NPOINTS= 61
##XYDATA=(XY..XY) 1 
    14          3
    15         21
    17         24
    19          5
    20          2
    26         30
    27        198
    28         69
    29        181
    30         24
    31         21
    32          3
    37         14
    38         34
    39        339
    40         61
    41        999
    42        106
    43        458
    44         14
    49          4
    50         28
    51         43
    52         20
    53        143
    54         53
    55        196
    56         57
    57        159
    58        133
    60          3
    61          4
    62         10
    63         15
    64          4
    65         42
    66         14
    67        238
    68         35
    69        386
    70         41
    71        700
    72         33
    75          4
    77         11
    78          2
    79         40
    80          4
    81         31
    82        106
    83         20
    84          7
    85         67
    86          4
    95          4
    96          9
    97         32
    98         20
    99         20
   100        222
   101         16