##TITLE=Library Entry 52888
##JCAMP-DX=Revision 4.10 
##DATA TYPE=MASS SPECTRUM
##SAMPLE DESCRIPTION=A.A.Kutin, Moscow, Russia
##NAMES=HP
##CAS NAME=Acetamide, 2-phenyl-N-cyclohexyl-N-ethyl-
##MOLFORM=C16H23NO
##CAS REGISTRY NO=161062-43-7
##MP= -300
##BP= -300
##MW= 245
##$RETENTION INDEX=0
##$CONDENSED SPECTRUM=NO
##NPOINTS= 176
##XYDATA=(XY..XY) 1 
    33          0
    35          4
    36         15
    37          4
    39        143
    41        321
    42         54
    43         50
    44         97
    46         20
    47          0
    48          0
    50         19
    51         40
    52         24
    53         40
    55        506
    56        156
    58         40
    59          2
    60          1
    61          2
    62          9
    63         37
    65        172
    67         49
    68         28
    69         15
    70         36
    71         66
    72        156
    74          9
    75          3
    77         27
    78         12
    80        343
    81         46
    83        999
    84        480
    85         32
    86          4
    87          3
    89         62
    91        772
    92        249
    93         21
    94          2
    96         13
    98         89
    99          8
   100          1
   101          6
   102          1
   103          4
   104          8
   105         13
   106          9
   107          4
   108          1
   110          9
   112         46
   113          3
   115          7
   116          3
   118         65
   119         13
   120          6
   121          9
   122          1
   124          7
   126         79
   127         35
   128         21
   129          3
   130          2
   131          2
   132          2
   133          1
   134         10
   135         38
   136          8
   137          1
   138          1
   139          3
   140          5
   141          2
   143          1
   144          1
   145          3
   146          6
   147          2
   148          4
   149          1
   150          0
   151          1
   152          3
   154        430
   155         37
   156          4
   158          9
   159          3
   160          3
   162         41
   163         22
   164        136
   165         15
   166          5
   167         13
   168         15
   169         15
   170          7
   171          2
   172          0
   174          2
   175          0
   176          0
   177          1
   178          2
   179          1
   180          1
   181          1
   182          0
   183          0
   184          0
   185          1
   186          1
   188         74
   189         10
   190          1
   191          0
   192          0
   193          0
   194          1
   195          1
   196          3
   198         83
   199         10
   200          1
   202         12
   203          4
   204          1
   205          0
   206          0
   207          1
   208          0
   209          0
   210          4
   211          0
   212          0
   214          1
   216         50
   217          7
   218          0
   219          0
   222          0
   223          0
   224          0
   225          1
   226          0
   227          0
   228          0
   229          0
   230          1
   231          0
   232          0
   235          0
   236          2
   237          0
   238          0
   239          0
   241          4
   242          1
   245        357
   246         56
   247          5
   248          0