##TITLE=Library Entry 22225
##JCAMP-DX=Revision 4.10 
##DATA TYPE=MASS SPECTRUM
##SAMPLE DESCRIPTION=Div. of Experiment Therapeutics WRAIR, WRAMC, Washingto
n DC 20307
##NAMES=HP
##CAS NAME=1-[n-Dodecyl]aziridine
##MOLFORM=C14H29N
##CAS REGISTRY NO=16106-74-4
##MP= -300
##BP= -300
##MW= 211
##$RETENTION INDEX=0
##$CONDENSED SPECTRUM=NO
##NPOINTS= 83
##XYDATA=(XY..XY) 1 
    41        640
    42        402
    43        881
    44        660
    45         11
    46         70
    47          7
    49         35
    51         16
    52          1
    53         38
    55        453
    56        999
    57        631
    58        286
    59         42
    60          4
    63          4
    65          6
    67         46
    69        168
    70        333
    71        548
    72         65
    73         19
    74          6
    77          3
    79         12
    80          2
    81         32
    82         43
    84        778
    85         47
    86        449
    87         29
    88          9
    92         36
    93          1
    94         16
    95         16
    96         26
    98        336
   100        510
   101         24
   102          6
   109          6
   110         11
   112        297
   113         33
   114         11
   116          5
   123          5
   124          6
   126        180
   127         18
   128          7
   130          1
   135          2
   137          1
   138          5
   140        122
   141         15
   142          7
   149          1
   152          3
   153          1
   154         76
   155          8
   156          5
   166          2
   168         98
   169         14
   170          2
   182         57
   183          8
   184          2
   196         30
   197          3
   198          1
   210         16
   211         49
   212          7
   213          1