##TITLE=Library Entry 21871
##JCAMP-DX=Revision 4.10 
##DATA TYPE=MASS SPECTRUM
##SAMPLE DESCRIPTION=R.T.HOLMAN,UNIVERSITY OF MINNESOTA
##NAMES=HP
##CAS NAME=9-Octadecenoic acid, 2-phenyl-1,3-dioxan-5-yl ester
##MOLFORM=C28H44O4
##CAS REGISTRY NO=16106-28-8
##MP= -300
##BP= -300
##MW= 444
##$RETENTION INDEX=0
##$CONDENSED SPECTRUM=NO
##NPOINTS= 229
##XYDATA=(XY..XY) 1 
    26         17
    27        230
    28        120
    29        410
    30         13
    31         36
    32          7
    36         11
    37          6
    38          9
    39        120
    40         28
    41        770
    42        150
    43        680
    44         57
    45         19
    50         21
    51         56
    52         18
    53         65
    54        200
    55        999
    56        190
    57        620
    58         42
    59         14
    60         33
    61         10
    62          5
    63         10
    64          5
    65         22
    66         17
    67        320
    68        110
    69        520
    70        100
    71        120
    72         11
    73         41
    74         15
    75         10
    76         12
    77        180
    78         64
    79        250
    80         44
    81        240
    82         76
    83        320
    84         65
    85         68
    86          8
    87         13
    88          6
    89         15
    90         23
    91        240
    92         33
    93         47
    94         21
    95        170
    96         51
    97        170
    98         73
    99         45
   100         31
   101         25
   102          8
   103         12
   104         10
   105        590
   106        100
   107        210
   108         35
   109         88
   110         30
   111         73
   112         22
   113         31
   114          8
   115         14
   116        260
   117         45
   118         12
   119         27
   120         12
   121         42
   122         14
   123         46
   124         17
   125         27
   126          8
   127         27
   128         11
   129        840
   130         72
   131         16
   133         20
   134         15
   135         41
   136         11
   137         27
   138         11
   139         14
   140          6
   141        120
   142         24
   143         58
   144         15
   145          6
   147         16
   148         10
   149         54
   150         10
   151         21
   152         12
   153         17
   154         15
   155         77
   156         15
   157         38
   158         14
   161         10
   162         23
   163        210
   164         27
   165         21
   166          8
   167         14
   168          8
   169         29
   170          8
   171         54
   172         57
   173         12
   174          5
   175          5
   177          8
   178          6
   179         23
   180          9
   181         13
   182          6
   183         30
   184          9
   185        250
   186         35
   187          5
   191          5
   193          8
   194          5
   195          6
   197         14
   198          5
   199         36
   200          8
   207          6
   211         18
   212          7
   213         13
   217         12
   220         21
   221         12
   225         21
   226          6
   227          9
   228         15
   233         46
   234          9
   239         60
   240         23
   241         19
   242         18
   243          8
   245          7
   246         19
   247         20
   248          5
   253         70
   254         16
   255         10
   256          8
   257          9
   258          7
   261         24
   262          9
   263         14
   264         13
   265        120
   266         25
   267         21
   268          6
   275          7
   279          7
   280          7
   281         18
   282          5
   289         10
   295         50
   296         12
   303          5
   309         18
   310          6
   317          5
   323          9
   324         10
   327         14
   331          9
   333          6
   335          8
   336         11
   337         52
   338        999
   339        240
   340         34
   341          5
   345          9
   352         22
   353        110
   354         24
   361          8
   362          6
   367         31
   368          7
   443         64
   444         42
   445         11