##TITLE=Library Entry 52797
##JCAMP-DX=Revision 4.10 
##DATA TYPE=MASS SPECTRUM
##SAMPLE DESCRIPTION=Exported from NIST MS Search
##NAMES=HP
##CAS NAME=Hexane, 1,6-dicyclohexyl-
##MOLFORM=C18H34
##CAS REGISTRY NO=1610-23-7
##MP= -300
##BP= -300
##MW= 250
##$RETENTION INDEX=0
##$CONDENSED SPECTRUM=NO
##NPOINTS= 127
##XYDATA=(XY..XY) 1 
    36          1
    37          1
    38          2
    39         77
    40         16
    41        439
    42         50
    43         81
    44          3
    45          1
    46          1
    49          1
    50          1
    51          4
    52          4
    53         41
    54         77
    55        611
    56         46
    57         22
    58          1
    59          1
    60          1
    61          1
    62          1
    63          1
    64          1
    65          7
    66          8
    67        173
    68         38
    69        106
    70         11
    71          6
    72          1
    73          1
    74          1
    75          1
    76          1
    77          7
    78          2
    79         14
    80          7
    81         69
    82        736
    83        999
    84         70
    85          5
    86          1
    91          3
    92          1
    93          3
    94          2
    95         24
    96        113
    97         72
    98          6
    99          1
   100          1
   101          1
   102          1
   103          1
   104          1
   105          1
   106          1
   107          1
   108          2
   109         29
   110          9
   111         10
   112          1
   113          1
   114          1
   115          1
   116          1
   117          1
   118          1
   119          1
   120          1
   121          1
   122          1
   123          4
   124          6
   125          3
   126          1
   127          1
   128          1
   135          1
   136          1
   137          3
   138          5
   139          5
   140          1
   141          1
   150          1
   151          1
   152          1
   153          1
   154          1
   155          1
   164          1
   165          1
   166         15
   167         11
   168          2
   169          1
   177          1
   178          1
   179          1
   180          1
   181          1
   191          1
   192          1
   193          1
   194          1
   206          1
   207          1
   208          1
   220          1
   221          1
   222          1
   248          1
   249          1
   250         55
   251         11
   252          1
   253          1