##TITLE=Library Entry 70130
##JCAMP-DX=Revision 4.10 
##DATA TYPE=MASS SPECTRUM
##SAMPLE DESCRIPTION=Exported from NIST MS Search
##NAMES=HP
##CAS NAME=Methane, tricyclohexyl-
##MOLFORM=C19H34
##CAS REGISTRY NO=1610-24-8
##MP= -300
##BP= -300
##MW= 262
##$RETENTION INDEX=0
##$CONDENSED SPECTRUM=NO
##NPOINTS= 118
##XYDATA=(XY..XY) 1 
    29        156
    30          3
    31          1
    32          1
    37          1
    38          1
    39        100
    40         16
    41        640
    42         36
    43         64
    44          2
    50          1
    51          7
    52          7
    53         74
    54         89
    55        810
    56         45
    57         10
    58          1
    63          1
    64          1
    65         10
    66         15
    67        244
    68         44
    69        134
    70          8
    71          3
    72          1
    74          1
    76          1
    77         31
    78         10
    79         69
    80         38
    81        171
    82        154
    83        942
    84         67
    85          3
    86          1
    89          1
    90          1
    91         36
    92          8
    93         23
    94         14
    95        153
    96        180
    97        999
    98         81
    99          3
   102          1
   103          1
   104          1
   105          6
   106          1
   107         10
   108          9
   109        108
   110         11
   111         40
   112          3
   113          1
   115          2
   116          1
   117          2
   118          1
   119          1
   120          1
   121          9
   122          9
   123         86
   124          9
   125          1
   126          1
   127          1
   128          1
   129          1
   130          1
   131          1
   132          1
   133          1
   134          1
   135         15
   136          5
   137         22
   138          3
   139          1
   147          1
   148          1
   149          2
   150          1
   151          1
   152          1
   163          1
   164          1
   165          4
   166          1
   172          1
   173          9
   174          5
   175          1
   176          1
   177          5
   178        310
   179        470
   180         66
   181          4
   182          1
   256          1
   257          1
   260          1
   261          1
   262          3
   263          1