##TITLE=Library Entry 43553
##JCAMP-DX=Revision 4.10 
##DATA TYPE=MASS SPECTRUM
##SAMPLE DESCRIPTION=Chemical Concepts
##NAMES=HP
##CAS NAME=Hexasiloxane, 1,11-dichloro-1,1,3,3,5,5,7,7,9,9,11,11-dodecamethy
l-
##MOLFORM=C12H36Cl2O5Si6
##CAS REGISTRY NO=16106-81-3
##MP= -300
##BP= -300
##MW= 498
##$RETENTION INDEX=0
##$CONDENSED SPECTRUM=NO
##NPOINTS= 297
##XYDATA=(XY..XY) 1 
    25          0
    26          3
    27          1
    33          0
    35          0
    36         11
    38          3
    39          4
    40          2
    43          2
    44          2
    45         58
    46          1
    47          1
    48          0
    51          0
    53          4
    55          3
    56          1
    57          2
    58          0
    59         44
    60          4
    61          2
    63          3
    64          2
    65         11
    67          4
    68          0
    71          1
    73        999
    74         84
    75         38
    76          3
    77          1
    78          0
    79          4
    80          0
    81          4
    82          1
    83          3
    84          0
    85          7
    86          1
    87          7
    88          0
    91          2
    93         86
    94         10
    95         34
    96          8
    97          5
    99          1
   100          1
   101          3
   102          2
   103          3
   105          3
   106          3
   107          1
   108          2
   112          1
   115          6
   116          1
   117         11
   118          3
   119          7
   120          4
   122          2
   123          3
   125          1
   127          1
   128          0
   131         16
   133         32
   134          3
   135          2
   137         10
   138          0
   139          9
   140          0
   141          0
   143          0
   144          1
   145          1
   147        205
   148         36
   149         24
   150          3
   151         10
   152          4
   153         10
   154          1
   155          6
   157          0
   160          0
   161          2
   162          5
   163          4
   164          1
   165         11
   166          1
   167        244
   168         29
   169         92
   170         16
   171         10
   172          0
   173          1
   175          1
   176          2
   177          9
   178          2
   179          7
   180          2
   181          3
   183          3
   185          4
   186          0
   187          7
   188          1
   189         27
   190          6
   191         43
   192          9
   193         30
   194          4
   195          5
   197          4
   198          0
   199          1
   201          2
   203          3
   205         19
   206          2
   207         80
   208         20
   209         15
   210          1
   211         19
   212          1
   213          7
   215          3
   216          2
   217          0
   218          1
   219          4
   220          1
   221         44
   222          9
   223         12
   224          2
   225         20
   226          1
   227         30
   228          6
   229         11
   230          1
   231          2
   232          2
   233          3
   235          2
   236          1
   237         14
   238          2
   239          1
   241        832
   242        188
   243        363
   244         86
   245         45
   246          6
   247          9
   249         49
   250         14
   251         54
   252         13
   253         15
   255          2
   256          2
   258          1
   259          1
   261         51
   262         11
   263         43
   264          7
   265         39
   266         12
   267        680
   268        161
   269        112
   270         24
   271         14
   272          0
   273          4
   274          1
   275          2
   278          1
   279          0
   281        281
   282         85
   283         58
   284         13
   285         16
   286          3
   287        100
   288         23
   289         34
   290          6
   291          5
   293          0
   294          4
   295          0
   296          4
   297          2
   299          5
   301        330
   302         68
   303        122
   304         33
   305         20
   306          6
   307          3
   308          1
   309          3
   310          1
   311          0
   312          3
   313          0
   316          2
   318          2
   320          1
   321          0
   322          1
   323         16
   324          5
   325          5
   326          3
   327          0
   328          1
   329          0
   334          0
   336          1
   339          0
   340          0
   341          2
   343          6
   344          3
   345          9
   346          2
   347          0
   348          0
   349          0
   352          2
   353          0
   354          2
   355          9
   356          4
   357          1
   359         22
   360          4
   361         13
   362          1
   363          2
   364          1
   365          2
   366          1
   368          0
   369          1
   375        160
   376         53
   377         93
   378         30
   379         18
   380          1
   381          0
   383          0
   384          0
   386          1
   387          0
   388          1
   389          2
   390          1
   392          0
   393          1
   395          6
   396          1
   397          6
   398          4
   399          1
   483         20
   484          8
   485         17
   486          8
   487          7
   488          2
   489          2