##TITLE=Library Entry 98961
##JCAMP-DX=Revision 4.10 
##DATA TYPE=MASS SPECTRUM
##SAMPLE DESCRIPTION=NIST Mass Spectrometry Data Center, 1998.
##NAMES=HP
##CAS NAME=Carbetamide
##MOLFORM=C12H16N2O3
##CAS REGISTRY NO=16118-49-3
##MP= -300
##BP= -300
##MW= 236
##$RETENTION INDEX=1974
##$CONDENSED SPECTRUM=NO
##NPOINTS= 103
##XYDATA=(XY..XY) 1 
    14          1
    15          6
    16          1
    18          8
    19          1
    25          1
    26         11
    27         54
    28         50
    29        124
    30         53
    31          3
    36          1
    37         22
    38         42
    39         63
    40         15
    41         25
    42         23
    43         44
    44        262
    45        213
    46         46
    47          2
    48          1
    49          6
    50         36
    51         61
    52         28
    53          4
    54         10
    55         43
    56         24
    57         11
    58         82
    59         16
    61         13
    62         22
    63         73
    64        157
    65        100
    66         26
    67          3
    68          1
    70          2
    71          5
    72        273
    73        138
    74        131
    75         12
    76         10
    77         96
    78          8
    79          1
    80          1
    82          1
    84          3
    85          1
    86          1
    87          3
    88          4
    89          2
    90         15
    91        254
    92         91
    93        200
    94         15
    98          3
    99          2
   100         23
   101          2
   102         24
   103          2
   104          6
   105          7
   106         23
   107          2
   116          1
   117         18
   119        999
   120        234
   121         34
   122          3
   132          5
   133          1
   136          1
   137          6
   138          1
   144          2
   146          1
   147          4
   148          1
   150          9
   151          1
   162          1
   164          3
   165         17
   166          1
   191          2
   192          4
   236         45
   237          6
   238          1