##TITLE=Library Entry 77254
##JCAMP-DX=Revision 4.10 
##DATA TYPE=MASS SPECTRUM
##SAMPLE DESCRIPTION=D.HENNEBERG, MAX-PLANCK INSTITUTE, MULHEIM, WEST GERMAN
Y
##NAMES=HP
##CAS NAME=Benzenemethanimine
##MOLFORM=C7H7N
##CAS REGISTRY NO=16118-22-2
##MP= -300
##BP= -300
##MW= 105
##$RETENTION INDEX=0
##$CONDENSED SPECTRUM=NO
##NPOINTS= 53
##XYDATA=(XY..XY) 1 
    26         23
    27         46
    28        178
    29          0
    32          1
    33          3
    34          3
    35          4
    37         34
    38         34
    39         76
    40          0
    42          2
    43          6
    47          1
    48          7
    49         29
    50        230
    51        373
    52        146
    53         11
    55          3
    57          3
    60          3
    61         10
    62         15
    63         27
    64          6
    66          2
    73         18
    74         53
    75         48
    76        148
    77        454
    78        330
    79         19
    81          0
    86          0
    88          3
    89          1
    90          1
    91          7
    93          2
    96          6
    97          1
    99          3
   100          5
   102          7
   103        247
   104        999
   105        852
   106         54
   107          4