##TITLE=Library Entry 100837
##JCAMP-DX=Revision 4.10 
##DATA TYPE=MASS SPECTRUM
##SAMPLE DESCRIPTION=L.F.ZERILLI RES. LABS., GRUPPO LEPETIT S.P.A., MILAN, I
TALY
##NAMES=HP
##CAS NAME=1,2,4-Oxadiazole, 5-(4-methylphenyl)-3-phenyl-
##MOLFORM=C15H12N2O
##CAS REGISTRY NO=16112-24-6
##MP= -300
##BP= -300
##MW= 236
##$RETENTION INDEX=0
##$CONDENSED SPECTRUM=NO
##NPOINTS= 39
##XYDATA=(XY..XY) 1 
    18         10
    27         20
    28         20
    38         10
    39         70
    40         10
    41         20
    50         30
    51         60
    52         20
    53         10
    62         15
    63         70
    64        100
    65         80
    66         10
    74         10
    75         20
    76         40
    77         70
    78         10
    87         10
    88         10
    89         90
    90         60
    91        240
    92         20
   102         20
   103        110
   104         10
   116         40
   117         80
   118         50
   119        999
   120         90
   121         10
   236        610
   237        110
   238         10