##TITLE=Library Entry 6240
##JCAMP-DX=Revision 4.10 
##DATA TYPE=MASS SPECTRUM
##SAMPLE DESCRIPTION=Exported from NIST MS Search
##NAMES=HP
##CAS NAME=Carbonodithioic acid, S,S-bis(1-methylethyl) ester
##MOLFORM=C7H14OS2
##CAS REGISTRY NO=16118-33-5
##MP= -300
##BP= -300
##MW= 178
##$RETENTION INDEX=0
##$CONDENSED SPECTRUM=NO
##NPOINTS= 24
##XYDATA=(XY..XY) 1 
    41        269
    42         95
    43        999
    44         44
    45         33
    47         39
    60         39
    61        178
    74         33
    75         59
    76        252
    77         50
    78         16
   103        120
   108          8
   117          9
   118         29
   135          2
   136          1
   138          5
   150         35
   178        219
   179         21
   180         19