##TITLE=Library Entry 10044
##JCAMP-DX=Revision 4.10 
##DATA TYPE=MASS SPECTRUM
##SAMPLE DESCRIPTION=T.NAGASAWA, LAB. CHEM., NAGOYA GAKUIN UNIV., OSAKA, JAP
A
##NAMES=HP
##CAS NAME=p-Menthane-1,3-diol
##MOLFORM=C10H20O2
##CAS REGISTRY NO=1612-98-2
##MP= -300
##BP= -300
##MW= 172
##$RETENTION INDEX=1394
##$CONDENSED SPECTRUM=NO
##NPOINTS= 48
##XYDATA=(XY..XY) 1 
    39        210
    40         30
    41        550
    42         40
    43        999
    53        100
    54         40
    55        410
    56        200
    57        100
    58        230
    59         50
    67         90
    68         40
    69        350
    70        200
    71        290
    77         40
    79         70
    80         20
    81        170
    82         20
    83        130
    84        170
    85         40
    86         30
    87        900
    88         30
    89         50
    91         40
    93        160
    94         30
    95         70
    96         70
    97        150
   107         60
   110         30
   111        350
   112         80
   113         70
   121        130
   125         50
   129         20
   136        110
   139         80
   154         80
   157         10
   172          2