##TITLE=Library Entry 56996
##JCAMP-DX=Revision 4.10 
##DATA TYPE=MASS SPECTRUM
##SAMPLE DESCRIPTION=Exported from NIST MS Search
##NAMES=HP
##CAS NAME=Thiophene, 2-butyltetrahydro-
##MOLFORM=C8H16S
##CAS REGISTRY NO=1613-49-6
##MP= -300
##BP= -300
##MW= 144
##$RETENTION INDEX=1168
##$CONDENSED SPECTRUM=NO
##NPOINTS= 100
##XYDATA=(XY..XY) 1 
    26         22
    27        188
    28         24
    29        112
    30          3
    31          1
    32          2
    33          2
    34          3
    35          5
    36          1
    37          4
    38         10
    39        123
    40         15
    41        157
    42         17
    43         21
    44          2
    45        172
    46         23
    47         60
    48          2
    49          3
    50          7
    51         14
    52          6
    53         53
    54         16
    55         61
    56          9
    57          8
    58         28
    59         64
    60         40
    61         22
    62          4
    63          4
    64          1
    65          9
    66          5
    67         40
    68         22
    69         18
    70          3
    71         12
    72          3
    73         16
    74         16
    75          3
    76          1
    77          7
    78          2
    79          6
    80          1
    81         20
    82          6
    83          4
    84          6
    85         32
    86         14
    87        999
    88         61
    89         46
    90          2
    91          2
    92          1
    93          1
    95          4
    96          1
    97         58
    98         31
    99          7
   100          4
   101         64
   102          7
   103          3
   104          1
   105          1
   108          1
   109          2
   110          3
   111         21
   112          2
   113          2
   114          1
   115          6
   116          1
   117          1
   121          1
   123          2
   124          1
   125          2
   129          2
   142          1
   143          3
   144        130
   145         13
   146          6
   147          1