##TITLE=Library Entry 97059
##JCAMP-DX=Revision 4.10 
##DATA TYPE=MASS SPECTRUM
##SAMPLE DESCRIPTION=NIST Mass Spectrometry Data Center
##NAMES=HP
##CAS NAME=Pregnane-3,20-diol, (3.alpha.,5.beta.,20S)-, 2TMS derivative
##MOLFORM=C27H52O2Si2
##CAS REGISTRY NO=16134-56-8
##MP= -300
##BP= -300
##MW= 464
##$RETENTION INDEX=2804
##$CONDENSED SPECTRUM=NO
##NPOINTS= 174
##XYDATA=(XY..XY) 1 
    29          2
    39          1
    41          7
    42          1
    43          5
    44          1
    45          7
    47          3
    53          2
    54          1
    55         18
    56          1
    57          1
    58          1
    59          6
    60          2
    61          8
    62          1
    65          2
    66          1
    67         19
    68          3
    69          8
    70          1
    71          1
    72          5
    73        181
    74         19
    75        145
    76         11
    77         11
    78          2
    79         23
    80          4
    81         30
    82          3
    83          6
    84          1
    85          2
    87          3
    88          1
    89          5
    91         23
    92          4
    93         30
    94         16
    95         26
    96          2
    97          2
    98          1
    99          1
   101          9
   102          3
   103         14
   104          2
   105         23
   106          7
   107         27
   108          7
   109         14
   110          2
   111          1
   113          1
   114          1
   115          4
   116         39
   117        999
   118        110
   119         56
   120          7
   121         16
   122          6
   123          5
   124          1
   125          1
   127          3
   128          1
   129         13
   130          4
   131          9
   132          3
   133         15
   134          4
   135         12
   136          2
   137          1
   141          1
   142          5
   143         11
   144          3
   145         10
   146          3
   147         15
   148          4
   149          9
   150          1
   151          1
   155          5
   156          2
   157          3
   158          1
   159          9
   160          3
   161         11
   162          4
   163          4
   164          1
   165          1
   167          1
   169          1
   171          2
   172          1
   173          6
   174          3
   175          7
   176          2
   177          1
   181          1
   183          1
   185          2
   186          1
   187          5
   188          3
   189          3
   190          1
   191          1
   197          1
   199          2
   200          4
   201          7
   202          2
   203          2
   213          3
   214          2
   215          4
   216          3
   217          3
   227          2
   228          2
   229          3
   230          3
   231          1
   241          4
   242          2
   243          3
   255          5
   256          4
   257          3
   258          4
   259          1
   269         20
   270          4
   271          1
   283          5
   284         19
   285          5
   286          1
   290          2
   317          1
   318          1
   331          1
   332          1
   345          1
   346         11
   347         12
   348          4
   349          1
   359          2
   360          1
   374          2
   375          1
   449          6
   450          2
   451          1