##TITLE=Library Entry 74612
##JCAMP-DX=Revision 4.10 
##DATA TYPE=MASS SPECTRUM
##SAMPLE DESCRIPTION=V.A.KOPTYUG, ATLAS OF MASS SPECTRA OF ORGANIC COMPOUNDS
##NAMES=HP
##CAS NAME=2-Ethylthiacyclohexane
##MOLFORM=C7H14S
##CAS REGISTRY NO=1613-52-1
##MP= -300
##BP= -300
##MW= 130
##$RETENTION INDEX=1019
##$CONDENSED SPECTRUM=NO
##NPOINTS= 41
##XYDATA=(XY..XY) 1 
    39        147
    40         19
    41        235
    42         31
    43         25
    44         15
    45        191
    46         46
    47        118
    51         15
    53         53
    54         38
    55        156
    56         17
    57         10
    58         32
    59        162
    60         54
    61         48
    65         16
    67        184
    68         38
    69         17
    71         21
    73         14
    74         35
    75         19
    81         44
    85         25
    87        375
    88         28
    89         24
    99         20
   100         15
   101        999
   102         72
   103         45
   115         32
   130        280
   131         28
   132         12