##TITLE=Library Entry 45011
##JCAMP-DX=Revision 4.10 
##DATA TYPE=MASS SPECTRUM
##SAMPLE DESCRIPTION=Exported from NIST MS Search
##NAMES=HP
##CAS NAME=Propane, 1-(ethylthio)-2-methyl-
##MOLFORM=C6H14S
##CAS REGISTRY NO=1613-45-2
##MP= -300
##BP= -300
##MW= 118
##$RETENTION INDEX=850
##$CONDENSED SPECTRUM=NO
##NPOINTS= 70
##XYDATA=(XY..XY) 1 
    25          3
    26         52
    27        410
    28         94
    29        403
    30         10
    31          1
    32         21
    33          5
    34          9
    35         57
    36          1
    37          8
    38         18
    39        211
    40         26
    41        441
    42         38
    43        118
    44          4
    45        181
    46        112
    47        431
    48         76
    49         24
    50          8
    51          8
    52          2
    53         20
    54          5
    55        102
    56        417
    57        295
    58         28
    59         49
    60         31
    61        138
    62         78
    63         53
    64          5
    65          2
    67          1
    68          2
    69          5
    70          1
    71         11
    72          3
    73         13
    74          7
    75        999
    76        113
    77         47
    78          5
    79          1
    80          1
    85          2
    87          3
    88          2
    89         75
    90          6
    91          4
   101          1
   103         32
   104          2
   105          2
   117          6
   118        329
   119         26
   120         16
   121          1