##TITLE=Library Entry 26697
##JCAMP-DX=Revision 4.10 
##DATA TYPE=MASS SPECTRUM
##SAMPLE DESCRIPTION=Exported from NIST MS Search
##NAMES=HP
##CAS NAME=Cholest-5-en-3-ol, (3.alpha.)-, TMS derivative
##MOLFORM=C30H54OSi
##CAS REGISTRY NO=16134-40-0
##MP= -300
##BP= -300
##MW= 458
##$RETENTION INDEX=0
##$CONDENSED SPECTRUM=NO
##NPOINTS= 148
##XYDATA=(XY..XY) 1 
    54         37
    55        837
    56        180
    57        999
    58         46
    59         60
    60         23
    61         69
    62          4
    63         18
    64         18
    65         46
    66         18
    67        416
    68         83
    69        648
    70        129
    71        532
    72         55
    73        986
    74         97
    75        666
    76         69
    77        148
    78         55
    79        268
    80         74
    81        722
    82        129
    83        453
    84         74
    85        222
    86         27
    87         27
    88         13
    89         18
    91        277
    92         69
    93        351
    94        101
    95        726
    96        125
    97        356
    98         60
    99         88
   100          9
   101         46
   102          4
   103         37
   104         37
   105        375
   106        101
   107        430
   108        101
   109        370
   110         83
   111        222
   112         37
   113         69
   114          9
   115         69
   116         32
   117        115
   118         46
   119        342
   120        194
   121        384
   122        101
   123        203
   124         46
   125        125
   126         27
   127         64
   128         32
   129        995
   130        166
   131        199
   132         83
   133        231
   134         69
   135        231
   136         55
   137        111
   138         27
   139         60
   140         18
   141         41
   142         32
   143        148
   144         55
   145        268
   146         88
   147        240
   148         78
   149        175
   150         60
   151         78
   152         22
   153         37
   154         32
   155         83
   156         23
   157         83
   158         37
   159        175
   160        120
   161        162
   162         55
   163        120
   164         27
   213         28
   214         23
   215         55
   216         18
   217         60
   218         18
   219         55
   243         13
   244          4
   245         13
   246         13
   247         92
   248         18
   249          9
   255         83
   256         13
   257          4
   326          9
   327         23
   328         69
   329        333
   330         88
   331         18
   353        106
   354         37
   355         46
   356         18
   357         23
   358          9
   368        226
   369         74
   370         37
   371          9
   443         23
   444          9
   458         83
   459         27
   460          9