##TITLE=Library Entry 76048
##JCAMP-DX=Revision 4.10 
##DATA TYPE=MASS SPECTRUM
##SAMPLE DESCRIPTION=Japan AIST/NIMC Database- Spectrum MS-NW-4932
##NAMES=HP
##CAS NAME=2H-Thiopyran, tetrahydro-
##MOLFORM=C5H10S
##CAS REGISTRY NO=1613-51-0
##MP= -300
##BP= -300
##MW= 102
##$RETENTION INDEX=860
##$CONDENSED SPECTRUM=NO
##NPOINTS= 73
##XYDATA=(XY..XY) 1 
    14          2
    15         19
    17          2
    18          9
    25          2
    26         34
    27        227
    28         56
    29        149
    30          3
    31          1
    32          4
    33          5
    34         11
    35         35
    36          5
    37         10
    38         21
    39        246
    40         64
    41        513
    42         56
    43         14
    44         19
    45        284
    46        374
    47        221
    48         26
    49         13
    50         17
    51         12
    52          5
    53        129
    54        126
    55        403
    56        149
    57         12
    58         46
    59        175
    60        423
    61        606
    62         36
    63         27
    64          1
    65         16
    66         14
    67        467
    68        776
    69        173
    70          9
    71         19
    72          9
    73         95
    74        193
    75         12
    76          9
    84          2
    85         16
    86          4
    87        869
    88         47
    89         43
    90          2
    97          4
    98          1
    99          8
   100          1
   101         82
   102        999
   103         68
   104         51
   105          3
   106          1