##TITLE=Library Entry 2201
##JCAMP-DX=Revision 4.10 
##DATA TYPE=MASS SPECTRUM
##SAMPLE DESCRIPTION=Exported from NIST MS Search
##NAMES=HP
##CAS NAME=trans-1-Chloropropene
##MOLFORM=C3H5Cl
##CAS REGISTRY NO=16136-85-9
##MP= -300
##BP= -300
##MW= 76
##$RETENTION INDEX=515
##$CONDENSED SPECTRUM=NO
##NPOINTS= 42
##XYDATA=(XY..XY) 1 
    15         18
    16          1
    24          3
    25         11
    26         47
    27         63
    28         21
    29          2
    31          1
    32          2
    35         11
    36         48
    37        100
    38        112
    39        572
    40        136
    41        999
    42         33
    43          1
    44          3
    45          1
    47         22
    48         21
    49         79
    50         10
    51         24
    52          1
    53          1
    58          1
    60          1
    61         10
    62         20
    64          7
    65          1
    71          2
    72          7
    73         20
    74          7
    75         76
    76        402
    77         36
    78        130