##TITLE=Library Entry 22576
##JCAMP-DX=Revision 4.10 
##DATA TYPE=MASS SPECTRUM
##SAMPLE DESCRIPTION=Chemical Concepts
##NAMES=HP
##CAS NAME=4,4'-(Ethanediylidenediamino)bis(antipyrine)
##MOLFORM=C24H24N6O2
##CAS REGISTRY NO=161405-16-9
##MP= -300
##BP= -300
##MW= 428
##$RETENTION INDEX=0
##$CONDENSED SPECTRUM=NO
##NPOINTS= 188
##XYDATA=(XY..XY) 1 
    33         11
    34          2
    36          4
    37          9
    39         35
    40         33
    42         48
    43         33
    44         26
    45          3
    46          1
    49          1
    51         47
    52         13
    54         32
    56        999
    58          2
    60          3
    61          2
    62          6
    64         32
    65         25
    66          9
    67         14
    68          7
    69          8
    70          3
    71          3
    72          2
    74          2
    77         89
    78          7
    79          6
    80          6
    82         57
    84         34
    85          2
    87          1
    89          2
    90          3
    91         42
    93         23
    94          6
    95         10
    96         15
    97          3
    98          1
    99          1
   101          1
   102          1
   104         46
   105          8
   106         14
   107          4
   108          5
   110          7
   111          7
   112          2
   113          1
   115          4
   116          5
   117          4
   119         27
   121         40
   123         76
   124          4
   125          1
   127          1
   128          1
   129          2
   130          3
   131          4
   132          3
   133          2
   135          9
   136          2
   137          1
   138          1
   139          1
   141          1
   142          1
   143          2
   144          2
   145          3
   146          2
   147          3
   148          4
   149          4
   150          1
   151          1
   152          1
   153          1
   155          1
   156          1
   157          2
   158          2
   159          3
   160          3
   161          3
   162          2
   163          1
   164          1
   169          1
   170          2
   171          4
   172          6
   173          3
   174          1
   175          2
   176          1
   177          1
   179          1
   182          1
   183          1
   184          2
   185          3
   186          4
   187          7
   188         11
   189          8
   190          7
   191          1
   195          1
   196          2
   197          4
   198         61
   199          9
   200          4
   201          5
   202          5
   203          9
   204          2
   209          1
   210          1
   211          1
   212          5
   213          6
   214         43
   215         19
   216          4
   217          4
   218          1
   223          1
   225          3
   226          7
   227          4
   228          1
   229          1
   230          3
   237          1
   239          1
   240          1
   241          2
   242          2
   243          1
   250          1
   251          1
   252          1
   253          2
   254          1
   264          1
   266          3
   267          1
   277          1
   278          2
   279          2
   280          2
   281          2
   282          1
   283          1
   292          1
   293          1
   294          3
   295          1
   306          1
   307          3
   308          3
   309          2
   335          1
   336          4
   337          1
   351          2
   424          1
   426          2
   427          3
   428         21
   429          6
   430          1