##TITLE=Library Entry 47896
##JCAMP-DX=Revision 4.10 
##DATA TYPE=MASS SPECTRUM
##SAMPLE DESCRIPTION=A.A.Kutin, Moscow, Russia
##NAMES=HP
##CAS NAME=Benzamide, N-(5-acetyl-6-methyl-2-phenylpyrimidin-4-yl)-
##MOLFORM=C20H17N3O2
##CAS REGISTRY NO=161465-94-7
##MP= -300
##BP= -300
##MW= 331
##$RETENTION INDEX=0
##$CONDENSED SPECTRUM=NO
##NPOINTS= 228
##XYDATA=(XY..XY) 1 
    33          0
    34          0
    37          7
    38         19
    39         70
    40         22
    41         30
    42         57
    43        198
    44         24
    45          6
    46          0
    48          0
    50         76
    51        212
    52         36
    53         27
    54         31
    55         15
    56         10
    57         18
    58          1
    59          1
    60          1
    61          2
    62          8
    63         18
    64         12
    65         25
    66         33
    67         40
    68         12
    69          6
    70          4
    71          3
    72          1
    73          3
    74         16
    75         26
    77        999
    78         54
    79          9
    80          7
    81         12
    82          5
    83          4
    84          2
    85          1
    86          3
    87          3
    88          5
    89         13
    91         53
    92         16
    93          5
    94         11
    95          6
    96          3
    97          1
    98          1
    99          1
   100          1
   101          3
   102         11
   103         49
   104        204
   105        902
   106         66
   107          5
   108          5
   109          4
   110          2
   111          0
   112          2
   113          2
   114          5
   115         15
   116         12
   117          2
   118          2
   119          1
   120          1
   121          4
   122         17
   123          7
   124          1
   125          0
   126          1
   127          1
   128          4
   129          6
   130         12
   131          2
   132          0
   133          0
   134          0
   135          1
   136          0
   137          0
   138          0
   139          0
   140          4
   141          3
   142          8
   143          8
   144          7
   145          0
   147          0
   149          0
   150          0
   151          2
   152          2
   153          1
   155          5
   156          2
   157          3
   158          3
   159          0
   163          0
   164          0
   165          3
   166          2
   167          1
   168          1
   169          2
   170          2
   171          5
   172          1
   177          0
   178          1
   179          0
   180          3
   181          1
   182          3
   183          3
   184         18
   185         17
   186          2
   187          0
   189          0
   191          0
   193          0
   194          0
   196          0
   197          0
   198          6
   199          6
   200          1
   204          0
   205          0
   206          0
   207          0
   208          1
   209          2
   210          4
   211          6
   212         23
   213         10
   214          1
   218          0
   219          2
   220          0
   222          2
   223          1
   224          2
   226         65
   227         16
   228          2
   229          0
   236          0
   237          0
   238          3
   239          0
   240          0
   243          0
   245          0
   246          0
   247          1
   251          0
   252          0
   254         16
   255          2
   256          1
   257          0
   258          0
   259          1
   260         11
   261          2
   269          1
   271          0
   273          4
   274          3
   275          1
   281          0
   282          1
   283          2
   284          6
   285         10
   286         21
   288        983
   289        199
   290         22
   291          1
   298          0
   299          1
   300          3
   302        137
   303         42
   304          6
   305          0
   310          0
   311          0
   312          2
   313          6
   314          7
   316        397
   317         83
   318         11
   319          1
   324          0
   326          0
   327          1
   328          3
   329          2
   331        209
   332         45
   333          5
   334          0