##TITLE=Library Entry 8344
##JCAMP-DX=Revision 4.10 
##DATA TYPE=MASS SPECTRUM
##SAMPLE DESCRIPTION=Div. of Experiment Therapeutics WRAIR, WRAMC, Washingto
n DC 20307
##NAMES=HP
##CAS NAME=7-Chloro-4-[p-acetamidobenzenesulfonyl]quinoline
##MOLFORM=C17H13ClN2O3S
##CAS REGISTRY NO=161467-74-9
##MP= -300
##BP= -300
##MW= 360
##$RETENTION INDEX=0
##$CONDENSED SPECTRUM=NO
##NPOINTS= 163
##XYDATA=(XY..XY) 1 
    41         13
    42         24
    43        999
    44         25
    45         13
    47          0
    49          2
    50         41
    51         43
    52         33
    53         22
    54          9
    55          2
    57          1
    58          3
    59          0
    60          1
    61          8
    62         28
    63        127
    64         97
    65        305
    66         41
    67          5
    68          3
    69         11
    70          8
    71          3
    72          1
    73         10
    74         91
    75         76
    76         30
    77         14
    78         14
    79          9
    80         41
    81          7
    82          2
    83          1
    84          8
    85         20
    86          5
    87         13
    88          5
    89          5
    90         19
    91         41
    92        197
    93         41
    94          3
    95          2
    96          6
    97          5
    98         17
    99        167
   100         42
   101          7
   102          2
   103          1
   104          5
   105          6
   106          3
   107          1
   108        136
   109         18
   110          3
   111          6
   112          5
   113          2
   114          3
   115          1
   116          1
   117          1
   118          1
   119          1
   120          1
   121          3
   122          1
   123          9
   124          8
   125          3
   126         26
   127         35
   128          9
   129          1
   132          1
   133          7
   134         12
   135         70
   136          7
   137         23
   138          6
   139          5
   140         83
   141          7
   142          4
   146          1
   147          4
   148          0
   149          0
   150          2
   151          2
   152          2
   153          1
   156         50
   157          4
   158          2
   162         41
   163         22
   164         16
   165          8
   166          5
   167          0
   175         33
   176          4
   177          2
   179          5
   180          3
   181          1
   182          5
   184          0
   188          1
   190          5
   191          5
   192          2
   198          0
   201          1
   202          1
   203          1
   210         10
   211          1
   212          4
   216          1
   217          2
   218         29
   219        198
   220         32
   221          2
   225          0
   227          1
   237          2
   238          5
   239          2
   240          1
   253         24
   254         21
   255          7
   256          6
   261          6
   295         10
   296          4
   297          4
   318         73
   319         13
   320         27
   321          4
   322          0
   360         81
   361         21
   362         27
   363          6
   364          2