##TITLE=Library Entry 107380
##JCAMP-DX=Revision 4.10 
##DATA TYPE=MASS SPECTRUM
##SAMPLE DESCRIPTION=A.A.Kutin, Moscow, Russia
##NAMES=HP
##CAS NAME=Succinamilic acid, 3'-methoxy-
##MOLFORM=C11H13NO4
##CAS REGISTRY NO=16141-44-9
##MP= -300
##BP= -300
##MW= 223
##$RETENTION INDEX=0
##$CONDENSED SPECTRUM=NO
##NPOINTS= 161
##XYDATA=(XY..XY) 1 
    33          1
    34          0
    36          1
    37          4
    38         15
    39         37
    40         12
    41         34
    42         10
    43         21
    44         19
    45         80
    47          1
    50         14
    51         30
    52         49
    53         32
    54         14
    55         91
    56         18
    57          4
    58          0
    59          0
    60          2
    61          3
    62          8
    63         30
    64         36
    65         38
    66         28
    67          9
    68          6
    69          2
    70          1
    71          2
    73         51
    74          5
    75          4
    76          8
    77         38
    78         20
    79         30
    80         52
    81          9
    82          2
    83          3
    84          1
    85          0
    86          0
    87          0
    88          3
    90          8
    91         21
    92         45
    93        145
    94        211
    95         53
    96          9
    97          1
    98          1
    99          1
   101         60
   102          4
   103          3
   104          6
   105         10
   106         17
   107         31
   108          7
   109          3
   110          1
   111          5
   112          0
   113          0
   114          0
   115          0
   116          0
   117          1
   118          3
   119          7
   120          6
   123        999
   124         75
   125          5
   126          0
   127          0
   128          1
   129          0
   130          0
   131          0
   132          1
   133          2
   134          6
   135          5
   136          4
   137          0
   138          0
   139          0
   140          0
   141          0
   142          0
   143          0
   144          0
   145          0
   146          2
   147          1
   148          3
   149         14
   150         13
   151          1
   152          0
   153          0
   154          0
   155          0
   157          0
   158          0
   159          0
   160          1
   161          2
   162          7
   163          1
   164          0
   165          0
   166          0
   170          0
   171          1
   172          0
   173          0
   174          0
   175          1
   176          5
   177          4
   178          6
   179          2
   180          1
   183          0
   185          0
   189          1
   190          0
   191          0
   192          0
   193          0
   194          0
   202          1
   203          1
   204          3
   205          9
   206          9
   207          1
   208          0
   209          0
   211          0
   215          0
   216          0
   219          0
   220          1
   221          3
   223        344
   224         40
   225          4
   226          0