##TITLE=Library Entry 57749
##JCAMP-DX=Revision 4.10 
##DATA TYPE=MASS SPECTRUM
##SAMPLE DESCRIPTION=Japan AIST/NIMC Database- Spectrum MS-NW-9507
##NAMES=HP
##CAS NAME=Hydrazine, 1,2-diethyl-
##MOLFORM=C4H12N2
##CAS REGISTRY NO=1615-80-1
##MP= -300
##BP= -300
##MW= 88
##$RETENTION INDEX=710
##$CONDENSED SPECTRUM=NO
##NPOINTS= 41
##XYDATA=(XY..XY) 1 
    14          4
    15         43
    16          2
    17          1
    18          4
    25          1
    26         12
    27         94
    28        148
    29        250
    30        322
    31        823
    32         49
    33          1
    39          6
    40         18
    41         35
    42        110
    43         70
    44        486
    45        217
    46          9
    55          1
    56         10
    57         24
    58         38
    59        852
    60         62
    61          5
    69          1
    70          1
    71         18
    72          2
    73        522
    74         21
    85          1
    86         10
    87         19
    88        999
    89         85
    90          3