##TITLE=Library Entry 79162
##JCAMP-DX=Revision 4.10 
##DATA TYPE=MASS SPECTRUM
##SAMPLE DESCRIPTION=A.A.Kutin, Moscow, Russia
##NAMES=HP
##CAS NAME=Benzhydrazide, N2-[1-trifluoromethyl-3-oxo-3-(2-thienyl)]propyl-
##MOLFORM=C15H11F3N2O2S
##CAS REGISTRY NO=161584-00-5
##MP= -300
##BP= -300
##MW= 340
##$RETENTION INDEX=0
##$CONDENSED SPECTRUM=NO
##NPOINTS= 163
##XYDATA=(XY..XY) 1 
    33          2
    34          0
    36          0
    37          2
    39         67
    40         10
    41          2
    42          1
    43          2
    44          4
    45         17
    46          0
    47          0
    50         32
    51         85
    52          6
    53          7
    54          2
    55          1
    57          9
    58          8
    59          1
    60          0
    61          1
    62          2
    63          4
    64          2
    65          4
    66          2
    67          1
    69         24
    70          3
    71          2
    72          0
    73          2
    74          7
    75         14
    77        434
    78         22
    79          1
    81          5
    82          7
    83         25
    84          8
    85          3
    86          0
    87          0
    88          0
    89          1
    90          1
    91          2
    92          1
    93          1
    95         13
    96          2
    97          5
    98          1
    99          1
   100          0
   101          2
   105        999
   106         67
   107          4
   108          3
   109          9
   111        395
   113         33
   114          1
   115          4
   116          0
   117          0
   119          3
   120          1
   121          4
   122          1
   123          5
   124          0
   126         19
   127          2
   128          1
   129          0
   130          0
   131          0
   133          1
   134          1
   135          0
   136          0
   137          1
   138          1
   139          3
   140          0
   141          0
   143          0
   145          1
   146          0
   147          0
   148          0
   149          0
   150          0
   151          0
   152          0
   153          0
   156          0
   157          0
   158          0
   159          1
   160          0
   161          0
   164          0
   165          0
   166          0
   167          0
   169          0
   170          1
   171          1
   172          0
   173          0
   178          0
   179          0
   180          0
   186          0
   187          0
   188          0
   189          0
   190          4
   191          0
   192          0
   193          0
   199          0
   202          0
   205          0
   206          0
   207          0
   208          0
   212          0
   213          0
   215          1
   216          0
   218         34
   219         10
   220          2
   221          0
   222          0
   235          0
   244          0
   267          0
   268          0
   271         83
   272         13
   273          4
   274          0
   275          0
   301          0
   303          0
   321          3
   322          3
   323          0
   324          0
   338          0
   340         38
   341          6
   342          2
   343          0