##TITLE=Library Entry 55746
##JCAMP-DX=Revision 4.10 
##DATA TYPE=MASS SPECTRUM
##SAMPLE DESCRIPTION=P. Vainiotalo, Dep. Chem., Joensuu Univ., Joensuu, Finl
and
##NAMES=HP
##CAS NAME=Oxazolidine, 2-methyl-2-propyl-
##MOLFORM=C7H15NO
##CAS REGISTRY NO=161500-46-5
##MP= -300
##BP= -300
##MW= 129
##$RETENTION INDEX=0
##$CONDENSED SPECTRUM=NO
##NPOINTS= 46
##XYDATA=(XY..XY) 1 
    15         35
    26         15
    27        131
    28         23
    29         64
    30        133
    31         21
    39         85
    40         23
    41        216
    42        700
    43        291
    44        487
    45        398
    46         10
    53         16
    54         39
    55         88
    56        426
    57        105
    58        198
    59          9
    60          8
    67         12
    68         26
    69         42
    70        345
    71        101
    72         10
    82         14
    83         11
    84        139
    85         34
    86        999
    87         53
    96         13
    98        325
    99         46
   100         14
   101        470
   102         29
   114        221
   115         16
   128         27
   129         24
   130         18