##TITLE=Library Entry 17955
##JCAMP-DX=Revision 4.10 
##DATA TYPE=MASS SPECTRUM
##SAMPLE DESCRIPTION=Exported from NIST MS Search
##NAMES=HP
##CAS NAME=Ethane, 1-chloro-1-fluoro-
##MOLFORM=C2H4ClF
##CAS REGISTRY NO=1615-75-4
##MP= -300
##BP= -300
##MW= 82
##$RETENTION INDEX=0
##$CONDENSED SPECTRUM=NO
##NPOINTS= 51
##XYDATA=(XY..XY) 1 
     2          3
    12         11
    13         15
    14         17
    15         21
    16          1
    19          2
    20          1
    21          1
    24          8
    25         35
    26        106
    27        308
    28         12
    29          1
    30          1
    31         35
    32         11
    33          3
    35         31
    36         13
    37         10
    38          4
    39          1
    40          1
    41          1
    43          2
    44         34
    45        110
    46         65
    47        999
    59          2
    60          7
    61         21
    62         11
    63         13
    64          3
    65          3
    66          3
    67         94
    68          2
    69         30
    70          1
    78          1
    79          2
    80          2
    81          5
    82         52
    83          3
    84         16
    85          1