##TITLE=Library Entry 82712
##JCAMP-DX=Revision 4.10 
##DATA TYPE=MASS SPECTRUM
##SAMPLE DESCRIPTION=Exported from NIST MS Search
##NAMES=HP
##CAS NAME=2,1,3-Benzothiadiazole, 1,3-dihydro-, 2,2-dioxide
##MOLFORM=C6H6N2O2S
##CAS REGISTRY NO=1615-06-1
##MP= -300
##BP= -300
##MW= 170
##$RETENTION INDEX=0
##$CONDENSED SPECTRUM=NO
##NPOINTS= 15
##XYDATA=(XY..XY) 1 
    39         50
    50        100
    51        250
    52        599
    53        150
    78        210
    79        869
    80        100
    85         50
   105        499
   106        999
   107         50
   169         50
   170        849
   171         80