##TITLE=Library Entry 71451
##JCAMP-DX=Revision 4.10 
##DATA TYPE=MASS SPECTRUM
##SAMPLE DESCRIPTION=A.A.Kutin, Moscow, Russia
##NAMES=HP
##CAS NAME=Pyrido[2,3-d]pyrimidin-4(3H)-one, 3-[2-(1-piperidyl)ethyl]-
##MOLFORM=C14H18N4O
##CAS REGISTRY NO=161562-65-8
##MP= -300
##BP= -300
##MW= 258
##$RETENTION INDEX=0
##$CONDENSED SPECTRUM=NO
##NPOINTS= 109
##XYDATA=(XY..XY) 1 
    33          0
    34          0
    36          0
    37          0
    38          1
    39          9
    40         18
    41         68
    42         57
    43          9
    44         39
    45          1
    50          3
    51          6
    52          4
    53          4
    54         11
    55         59
    56         15
    57          7
    58          1
    60          0
    63          0
    64          5
    65          3
    66          1
    67          4
    68          8
    69         25
    70         23
    71          1
    72          0
    73          0
    75          0
    76          2
    77          4
    78         18
    79          5
    80          2
    81          2
    82          8
    83         12
    84         14
    85          1
    86          4
    90          0
    91          4
    92          3
    93          3
    94          2
    95          2
    96         60
    98        999
    99         68
   100          2
   103          3
   104          1
   105          2
   106          6
   107          1
   108          2
   109          5
   110         19
   111        195
   112         19
   113          1
   114          3
   115          0
   117          0
   118          1
   119          6
   120          1
   121          2
   126          0
   127          0
   128          2
   130          3
   131          3
   132          1
   133          1
   135          0
   141          0
   145          0
   146          0
   147          4
   148          2
   151          0
   154          0
   161          0
   165          0
   171          0
   172          0
   173          0
   174         10
   175          1
   179          0
   180          1
   181          0
   184          0
   192          0
   193          0
   194          0
   207          2
   219          1
   220          0
   225          0
   256          1
   258          1
   263          0