##TITLE=Library Entry 73125
##JCAMP-DX=Revision 4.10 
##DATA TYPE=MASS SPECTRUM
##SAMPLE DESCRIPTION=P. Vainiotalo, Dep. Chem., Joensuu Univ., Joensuu, Finl
and
##NAMES=HP
##CAS NAME=Oxazolidine, 2,3-dimethyl-2-propyl-
##MOLFORM=C8H17NO
##CAS REGISTRY NO=161500-41-0
##MP= -300
##BP= -300
##MW= 143
##$RETENTION INDEX=0
##$CONDENSED SPECTRUM=NO
##NPOINTS= 42
##XYDATA=(XY..XY) 1 
    15         21
    27         38
    29         28
    30         37
    39         28
    40          8
    41         57
    42         78
    43        161
    44         55
    45          7
    53          7
    54         12
    55         27
    56         86
    57         36
    58        516
    59         20
    67          5
    68          7
    69          7
    70         11
    71         39
    72          7
    82          5
    84         17
    85         33
    86          5
    94          9
    96          5
    98         47
    99         13
   100        999
   101         65
   112         24
   113          7
   114          4
   124          4
   128        198
   129         17
   142          9
   143          8