##TITLE=Library Entry 91153
##JCAMP-DX=Revision 4.10 
##DATA TYPE=MASS SPECTRUM
##SAMPLE DESCRIPTION=P. Vainiotalo, Dep. Chem., Joensuu Univ., Joensuu, Finl
and
##NAMES=HP
##CAS NAME=Oxazolidine, 2-butyl-2-ethyl-3-methyl-
##MOLFORM=C10H21NO
##CAS REGISTRY NO=161500-45-4
##MP= -300
##BP= -300
##MW= 171
##$RETENTION INDEX=0
##$CONDENSED SPECTRUM=NO
##NPOINTS= 56
##XYDATA=(XY..XY) 1 
    15         28
    26         10
    27         68
    29        179
    30         49
    36          9
    39         27
    40          7
    41         78
    42         86
    43         50
    44        105
    45          7
    49          3
    51          5
    53         13
    54         14
    55         55
    56         59
    57        210
    58        456
    59         19
    67          6
    68         11
    69          8
    70         28
    71          9
    72          5
    75          5
    81          4
    82          5
    84          9
    85         38
    86         10
    96          6
    97          5
    98         23
    99         48
   100         13
   108          6
   110          6
   112         58
   113         17
   114        999
   115         73
   116          5
   122          3
   126          9
   140         28
   141          6
   142        917
   143         91
   144          6
   156          3
   170          6
   171          6