##TITLE=Library Entry 18298
##JCAMP-DX=Revision 4.10 
##DATA TYPE=MASS SPECTRUM
##SAMPLE DESCRIPTION=Exported from NIST MS Search
##NAMES=HP
##CAS NAME=2,4-Pentadienenitrile
##MOLFORM=C5H5N
##CAS REGISTRY NO=1615-70-9
##MP= -300
##BP= -300
##MW= 79
##$RETENTION INDEX=0
##$CONDENSED SPECTRUM=NO
##NPOINTS= 43
##XYDATA=(XY..XY) 1 
    24          3
    25         12
    26        115
    27        126
    28         68
    29          2
    31          2
    32          2
    33          1
    34         11
    36          9
    37         46
    38         65
    39        169
    40          9
    41          3
    42          1
    43          2
    48          9
    49         37
    50        126
    51        189
    52        999
    53        156
    54          8
    55          1
    56          1
    57          1
    58          1
    60          2
    61          5
    62          6
    63         10
    64         28
    65          2
    73          1
    74          8
    75         37
    76         31
    77         16
    78        102
    79        427
    80         25