##TITLE=Library Entry 460
##JCAMP-DX=Revision 4.10 
##DATA TYPE=MASS SPECTRUM
##SAMPLE DESCRIPTION=D.HENNEBERG, MAX-PLANCK INSTITUTE, MULHEIM, WEST GERMAN
Y
##NAMES=HP
##CAS NAME=3-Butenoic acid, ethyl ester
##MOLFORM=C6H10O2
##CAS REGISTRY NO=1617-18-1
##MP= -300
##BP= -300
##MW= 114
##$RETENTION INDEX=769
##$CONDENSED SPECTRUM=NO
##NPOINTS= 46
##XYDATA=(XY..XY) 1 
    24          0
    25          6
    26         28
    27        188
    28        111
    29        999
    30         22
    31         16
    32          0
    33          0
    37         12
    38         20
    39        183
    40         40
    41        475
    42        441
    43         33
    44         14
    45         25
    46          1
    50          0
    51          0
    52          0
    53          2
    54          2
    55        137
    56          6
    57          6
    58          4
    59          0
    60          5
    61          0
    66          0
    67          0
    68         18
    69        210
    70         11
    71          1
    72          2
    73          7
    85          1
    86          8
    87          0
    99          4
   114         22
   115          1