##TITLE=Library Entry 70628
##JCAMP-DX=Revision 4.10 
##DATA TYPE=MASS SPECTRUM
##SAMPLE DESCRIPTION=A.A.Kutin, Moscow, Russia
##NAMES=HP
##CAS NAME=Thiophene-3-thiol, 2-cyclohexyliminomethyl-
##MOLFORM=C11H15NS2
##CAS REGISTRY NO=16176-18-4
##MP= -300
##BP= -300
##MW= 225
##$RETENTION INDEX=0
##$CONDENSED SPECTRUM=NO
##NPOINTS= 174
##XYDATA=(XY..XY) 1 
    33         10
    34         15
    35          1
    36          3
    37         12
    39        328
    41        731
    42         45
    43         71
    45        244
    47         24
    48          2
    50         27
    51         58
    52         32
    53        115
    54         93
    55        576
    56        151
    57         47
    58         38
    59         19
    60          7
    61          5
    62          8
    63         20
    64         29
    65         29
    66         25
    67         61
    69        305
    70         75
    71        162
    72         17
    73         16
    74          3
    75          4
    76         16
    77         39
    78         27
    79         51
    80         21
    81         68
    82        126
    83         98
    84        136
    85         27
    86         10
    87          3
    88         13
    89         10
    90         12
    91         11
    92          7
    93         16
    94         13
    96        314
    97        999
    98         81
    99         35
   100          8
   101         12
   102         12
   103          7
   104          4
   105          2
   106          2
   109        100
   110         65
   111         21
   112         20
   115        150
   116         31
   117         41
   118          6
   119          3
   120          4
   121         11
   122         14
   123         12
   124          6
   125          6
   127        119
   128        237
   129        234
   130         40
   131         21
   132          3
   133          2
   134         11
   135         16
   136         28
   137          7
   138          8
   140         41
   142        764
   143        298
   144        142
   145         32
   146         11
   147          5
   148          5
   149         21
   150         13
   151          6
   153         60
   154         40
   155         21
   156         13
   157         13
   158          5
   159          6
   160          4
   161          3
   162          6
   163          7
   164         12
   165          5
   166         11
   167         13
   168         47
   169         10
   170         22
   171          4
   172          2
   173          1
   174          2
   175          8
   176          2
   177          2
   178          4
   179         21
   180          9
   181          8
   182         39
   183          7
   184         10
   185          1
   186          1
   187          0
   188          2
   190         26
   192        254
   193         36
   194         16
   195          4
   196         13
   197          3
   198          1
   199          0
   200          0
   201          0
   202          0
   203          0
   204          0
   205          2
   207         20
   208         11
   209         14
   210          7
   211          2
   212          0
   213          0
   216          0
   217          0
   218          0
   219          0
   220          2
   225        810
   226        104
   227         66
   228          9
   229          2
   230          0