##TITLE=Library Entry 67441
##JCAMP-DX=Revision 4.10 
##DATA TYPE=MASS SPECTRUM
##SAMPLE DESCRIPTION=NIST Mass Spectrometry Data Center
##NAMES=HP
##CAS NAME=3,6-Ditigloyloxy-7-hydroxytropane
##MOLFORM=C18H27NO5
##CAS REGISTRY NO=1617-45-4
##MP= -300
##BP= -300
##MW= 337
##$RETENTION INDEX=2429
##$CONDENSED SPECTRUM=NO
##NPOINTS= 89
##XYDATA=(XY..XY) 1 
    27          6
    28          3
    29         19
    30          2
    39         19
    40          3
    41         15
    42         65
    43         10
    44         11
    50          2
    51          3
    53         28
    54         19
    55        266
    56         22
    57         22
    58         12
    65          3
    66          3
    67         20
    68         17
    69         13
    70         47
    71          6
    72          7
    77          6
    78          5
    79         13
    80         10
    81         50
    82         32
    83        261
    84         28
    85          5
    86          6
    93         15
    94        999
    95        468
    96         80
    97         24
    98         18
    99          3
   100          6
   101          3
   106          2
   107          9
   108         80
   109         29
   110         34
   111         10
   112         15
   113          2
   114         12
   120         61
   121         10
   122          9
   123          5
   124         29
   125          4
   126         11
   136        104
   137        546
   138        534
   139         45
   140          4
   150          2
   154         57
   155          6
   173          1
   193          4
   194          9
   195          7
   196          2
   208         11
   220          3
   222          5
   236          3
   237         50
   238         27
   239          3
   254         14
   255          3
   262          4
   263          2
   308          1
   322          1
   336          1
   337          5