##TITLE=Library Entry 51324
##JCAMP-DX=Revision 4.10 
##DATA TYPE=MASS SPECTRUM
##SAMPLE DESCRIPTION=R.Herzschuh ET AL. J.Prakt.Chem.,322,450(1980)
##NAMES=HP
##CAS NAME=Bicyclo[5.3.0]decane (cis)
##MOLFORM=C10H18
##CAS REGISTRY NO=16189-46-1
##MP= -300
##BP= -300
##MW= 138
##$RETENTION INDEX=1095
##$CONDENSED SPECTRUM=NO
##NPOINTS= 44
##XYDATA=(XY..XY) 1 
    39        358
    40         62
    41        676
    42         64
    43         71
    51         30
    52         21
    53        152
    54        397
    55        512
    56        110
    57         21
    65         51
    66         89
    67        931
    68        363
    69        163
    70         25
    71         11
    72         16
    77         55
    78         14
    79        110
    80         62
    81        676
    82        999
    83        131
    84         11
    91         23
    92          4
    93         32
    94         32
    95        654
    96        840
    97         96
   109        119
   110        346
   111         30
   123         10
   136          2
   137          4
   138        186
   139         21
   140          2