##TITLE=Library Entry 29555
##JCAMP-DX=Revision 4.10 
##DATA TYPE=MASS SPECTRUM
##SAMPLE DESCRIPTION=NIST Mass Spectrometry Data Center, 1994
##NAMES=HP
##CAS NAME=Ethoxycarbonyl isothiocyanate
##MOLFORM=C4H5NO2S
##CAS REGISTRY NO=16182-04-0
##MP= -300
##BP= -300
##MW= 131
##$RETENTION INDEX=0
##$CONDENSED SPECTRUM=NO
##NPOINTS= 43
##XYDATA=(XY..XY) 1 
    12          3
    13          5
    14         16
    15         53
    16          3
    25          6
    26         79
    27        436
    28        104
    29        839
    30         57
    31          3
    32         91
    33          4
    34          5
    40          1
    41          6
    42         16
    43         46
    44         42
    45         36
    46          8
    47         11
    48          2
    54         73
    55          3
    56          1
    57          1
    58        296
    59        999
    60         71
    61         47
    62          3
    70          3
    72         40
    73          6
    74          2
    86        477
    87         40
    88         24
    89          1
   103          4
   116          1