##TITLE=Library Entry 98128
##JCAMP-DX=Revision 4.10 
##DATA TYPE=MASS SPECTRUM
##SAMPLE DESCRIPTION=A.S.Moskovkin,I.M.Karnaukh, Russian Center on Disaster
 Medicine
##NAMES=HP
##CAS NAME=4-Amino-4-cyano-3-methyl-2-phenylpiperidine
##MOLFORM=C13H17N3
##CAS REGISTRY NO=161894-32-2
##MP= -300
##BP= -300
##MW= 215
##$RETENTION INDEX=0
##$CONDENSED SPECTRUM=NO
##NPOINTS= 141
##XYDATA=(XY..XY) 1 
    37          3
    38         10
    39         98
    40         45
    41        120
    42        170
    43         43
    44         86
    45          4
    49          3
    50         43
    51        130
    52         69
    53         50
    54        250
    55         95
    56        100
    57         32
    58         12
    62          7
    63         36
    64         16
    65        100
    66         27
    67         48
    68         39
    69         42
    70        350
    71         29
    72         29
    73          5
    74         11
    75         17
    76         41
    77        280
    78        190
    79         80
    80         34
    81         31
    82        150
    83         64
    84         73
    85         85
    86          9
    87          3
    88          4
    89         73
    90         74
    91        790
    92         68
    93         13
    94         33
    95         13
    96         20
    97         12
    98          4
   101          5
   102         24
   103        110
   104        920
   105        450
   106        170
   107         16
   108          6
   109         20
   110         12
   111        160
   112         17
   113          4
   114          5
   115        180
   116         70
   117        290
   118        999
   119        570
   120         51
   121          6
   125          2
   126          3
   127         15
   128         32
   129         25
   130         56
   131         43
   132        440
   133        290
   134         32
   135          2
   138          3
   139         22
   140          8
   141         15
   142         18
   143         52
   144         56
   145         24
   146         41
   147         15
   152          4
   153          8
   154         10
   155          9
   156         42
   157         19
   158         88
   159         68
   160         15
   161          2
   166          2
   167          5
   168         13
   169         12
   170        180
   171         61
   172         38
   173        200
   174         29
   175          2
   181          4
   182          4
   183         67
   184         22
   185         14
   186         11
   187         51
   188        170
   189        150
   190         19
   194          3
   195          3
   196          4
   197          9
   198        280
   199        510
   200         77
   201          8
   202          2
   213          2
   214          4
   215         29
   216          4