##TITLE=Library Entry 31336
##JCAMP-DX=Revision 4.10 
##DATA TYPE=MASS SPECTRUM
##SAMPLE DESCRIPTION=Japan AIST/NIMC Database- Spectrum MS-NW-7780
##NAMES=HP
##CAS NAME=2,4-Dithiapentane
##MOLFORM=C3H8S2
##CAS REGISTRY NO=1618-26-4
##MP= -300
##BP= -300
##MW= 108
##$RETENTION INDEX=889
##$CONDENSED SPECTRUM=NO
##NPOINTS= 48
##XYDATA=(XY..XY) 1 
    13          1
    14          6
    15         17
    18          2
    26          1
    27        135
    28         11
    29          1
    31          1
    32          7
    33          3
    34          6
    35        185
    36          3
    37          9
    44         15
    45        268
    46        101
    47         67
    48          9
    49         10
    54          2
    56          1
    57          5
    58         13
    59         37
    60         27
    61        999
    62         33
    63         47
    64          7
    66          1
    76          9
    77          5
    78         10
    79          4
    80          1
    91          3
    92          4
    93         15
    94          1
    95          2
   107          5
   108        669
   109         32
   110         61
   111          3
   112          2