##TITLE=Library Entry 79376
##JCAMP-DX=Revision 4.10 
##DATA TYPE=MASS SPECTRUM
##SAMPLE DESCRIPTION=Insect Chem. Ecol. Lab., USDA, Beltsville, MD 20705
##NAMES=HP
##CAS NAME=1-Butanone, 2-hydroxy-1-phenyl-
##MOLFORM=C10H12O2
##CAS REGISTRY NO=16183-46-3
##MP= -300
##BP= -300
##MW= 164
##$RETENTION INDEX=0
##$CONDENSED SPECTRUM=NO
##NPOINTS= 110
##XYDATA=(XY..XY) 1 
    41         89
    42         11
    43         23
    44          5
    45          3
    47          0
    48          0
    49          1
    50         13
    51         50
    52          9
    53          7
    54          1
    55         18
    56          3
    57          5
    58          4
    59          3
    60          1
    61          1
    62          3
    63         10
    64          3
    65         12
    66          3
    67          4
    68          4
    69         14
    70          3
    71          4
    72          2
    73          1
    74          6
    75          7
    76         15
    77        262
    78         36
    79         30
    80          3
    81          4
    82          2
    83          4
    84          2
    85          3
    86          1
    87          3
    89          7
    90          2
    91         33
    92          3
    93          3
    94          0
    95          4
    96          2
    97          3
    98          2
    99          1
   100          1
   101          2
   102          7
   103         13
   104         14
   105        999
   106         83
   107         33
   108          4
   109          3
   110          1
   111          2
   112          1
   113          1
   114          1
   115         24
   116          6
   117          8
   118          2
   119          2
   120          2
   121          1
   122          3
   123          1
   124          2
   125          2
   126          4
   127         15
   128         20
   129         11
   130          2
   131         11
   132          2
   133          1
   135          1
   136          1
   137          1
   138          1
   139          2
   141          3
   142          2
   143          1
   144          1
   145         12
   146          6
   147        256
   148         31
   149          5
   150          1
   163          1
   164          5
   165          1
   166          0