##TITLE=Library Entry 50793
##JCAMP-DX=Revision 4.10 
##DATA TYPE=MASS SPECTRUM
##SAMPLE DESCRIPTION=Chemical Concepts
##NAMES=HP
##CAS NAME=Naphthalene, 2-ethyldecahydro-
##MOLFORM=C12H22
##CAS REGISTRY NO=1618-23-1
##MP= -300
##BP= -300
##MW= 166
##$RETENTION INDEX=1267
##$CONDENSED SPECTRUM=NO
##NPOINTS= 88
##XYDATA=(XY..XY) 1 
    27         89
    29        134
    39        114
    40          5
    41        412
    42         41
    43         97
    44          0
    45          3
    48          8
    51         13
    52          8
    53         83
    54         83
    55        403
    56         36
    57         64
    58          4
    63          2
    64          2
    65         29
    66         31
    67        413
    68        125
    69        259
    70         36
    71         27
    73          7
    74          3
    77         33
    78          8
    79         63
    80         25
    81        999
    82        147
    83        118
    84         17
    85         18
    91         20
    92          4
    93         25
    94         30
    95        643
    96        109
    97         64
    98          9
    99          4
   103          2
   104          9
   105          4
   106          4
   107         10
   108          7
   109         55
   110         14
   111          7
   112          2
   113          7
   114          2
   115          3
   117          2
   119         21
   120          2
   121          7
   122          2
   123         18
   124         10
   125          4
   131          2
   132          2
   133          6
   135         13
   136         86
   137        907
   138        120
   139          6
   145          2
   147          3
   154          2
   155          3
   160          2
   162          7
   163          2
   164          2
   165          5
   166        324
   167         40
   168         10