##TITLE=Library Entry 30735
##JCAMP-DX=Revision 4.10 
##DATA TYPE=MASS SPECTRUM
##SAMPLE DESCRIPTION=RG-L-24
##NAMES=HP
##CAS NAME=Carbonic acid, methyl ester, diester with 3,4-dihydroxycinnamoyl
 chloride
##MOLFORM=C13H11ClO7
##CAS REGISTRY NO=16180-95-3
##MP= -300
##BP= -300
##MW= 314
##$RETENTION INDEX=0
##$CONDENSED SPECTRUM=NO
##NPOINTS= 108
##XYDATA=(XY..XY) 1 
    15        158
    27         21
    28         58
    29         46
    30         15
    31         15
    35         21
    36         58
    37          6
    38         24
    39         61
    41         24
    43         27
    44         86
    46         26
    50        133
    51        329
    52         26
    53         41
    55         33
    57         21
    59        999
    60         24
    61         20
    62         58
    63        141
    64         20
    65         36
    69         24
    74         27
    75         41
    76         84
    77        295
    78         40
    79         83
    86         27
    87         21
    88         30
    89        300
    90         53
    91        196
    92         33
   101         26
   102         50
   103         53
   104         24
   105        126
   106         20
   111         30
   116         23
   117        192
   118        120
   119        135
   120         69
   121         21
   129         24
   130         38
   131         40
   132         58
   133        115
   134         21
   137         27
   141         18
   142         21
   144         18
   145        153
   146         70
   147        135
   148        138
   149         52
   150         18
   155         87
   156         21
   157         30
   158         23
   159         46
   160         46
   161         30
   162         21
   163        115
   164         21
   175         41
   176        115
   177         26
   183         52
   185         24
   189        118
   190         20
   191        876
   192         81
   203         43
   207         24
   211         26
   235        999
   236        133
   237         24
   239         50
   241         20
   242         33
   244         21
   270         40
   272         12
   279        135
   280         23
   314        135
   315         23
   316         49
   317          7