##TITLE=Library Entry 33041
##JCAMP-DX=Revision 4.10 
##DATA TYPE=MASS SPECTRUM
##SAMPLE DESCRIPTION=Chemical Concepts
##NAMES=HP
##CAS NAME=Bicyclopentylidene
##MOLFORM=C10H16
##CAS REGISTRY NO=16189-35-8
##MP= -300
##BP= -300
##MW= 136
##$RETENTION INDEX=1045
##$CONDENSED SPECTRUM=NO
##NPOINTS= 80
##XYDATA=(XY..XY) 1 
    26          8
    27        131
    28         13
    29         68
    30          2
    37          3
    38         17
    39        297
    40         67
    41        357
    42         25
    43         20
    44          6
    45          5
    50         30
    51         98
    52         66
    53        149
    54         48
    55         88
    56          7
    57          9
    58          8
    59          4
    62         11
    63         42
    64         16
    65        156
    66        366
    67        999
    68        499
    69        116
    70          7
    71          4
    74          7
    75          6
    76          6
    77        252
    78         86
    79        711
    80        193
    81        115
    82         45
    83          6
    89          9
    90          4
    91        261
    92         47
    93        497
    94        388
    95        806
    96         69
    97          4
   102          4
   103         19
   104          9
   105         56
   106         22
   107        362
   108        206
   109         22
   110          2
   111          2
   115         13
   116          4
   117          8
   119         11
   121        229
   122         25
   123          2
   124          2
   127          2
   128          4
   129          2
   133          4
   134         11
   135         29
   136        510
   137         62
   138          4