##TITLE=Library Entry 50489
##JCAMP-DX=Revision 4.10 
##DATA TYPE=MASS SPECTRUM
##SAMPLE DESCRIPTION=G.A.M.S., PARIS, FRANCE.
##NAMES=HP
##CAS NAME=Naphthalene, decahydro-2,6-dimethyl-
##MOLFORM=C12H22
##CAS REGISTRY NO=1618-22-0
##MP= -300
##BP= -300
##MW= 166
##$RETENTION INDEX=1372
##$CONDENSED SPECTRUM=NO
##NPOINTS= 85
##XYDATA=(XY..XY) 1 
    26          5
    27        109
    29        150
    30          3
    32          1
    38          2
    39        147
    40         27
    41        424
    42         40
    43         75
    44         14
    46          1
    50          3
    51         18
    52         12
    53        107
    54         79
    55        533
    56         78
    57         50
    58          3
    59          1
    60          5
    61          1
    62          1
    63          4
    64          1
    65         35
    66         22
    67        533
    68        218
    69        214
    70         62
    71         41
    72          1
    77         49
    78         12
    79         80
    80         64
    81        999
    82        404
    83        283
    84         26
    85          2
    91         33
    92          5
    93         45
    94         40
    95        978
    96        239
    97         64
    98          4
   103          1
   104          1
   105          5
   106          1
   107         18
   108         37
   109        344
   110        333
   111         92
   112          7
   115          1
   117          1
   121          3
   122         13
   123        130
   124         28
   125          2
   135          3
   136          3
   137        141
   138         32
   139          3
   149          5
   150          7
   151        308
   152         77
   153          7
   164          2
   165          1
   166        750
   167        100
   168          5