##TITLE=Library Entry 95976
##JCAMP-DX=Revision 4.10 
##DATA TYPE=MASS SPECTRUM
##SAMPLE DESCRIPTION=Div. of Experiment Therapeutics WRAIR, WRAMC, Washingto
n DC 20307
##NAMES=HP
##CAS NAME=1,3-Bis[4-chlorophenyl]-2-buten-1-one
##MOLFORM=C16H12Cl2O
##CAS REGISTRY NO=16197-82-3
##MP= -300
##BP= -300
##MW= 290
##$RETENTION INDEX=0
##$CONDENSED SPECTRUM=NO
##NPOINTS= 146
##XYDATA=(XY..XY) 1 
    41         16
    43         16
    47          2
    49         22
    50        277
    51        278
    52         25
    53         37
    55          8
    57          7
    58         13
    61         33
    62         62
    63        203
    64         26
    65         84
    66         10
    67         17
    68          5
    69          6
    70          2
    73         55
    74        128
    75        678
    76        146
    77         93
    78          8
    82         57
    83         11
    84         16
    85         62
    86         34
    87         62
    88         45
    89        178
    90         30
    91         29
    94         55
    95        288
    97         15
    98         13
    99         60
   100         35
   101        126
   102         43
   103         11
   104         13
   105         11
   106         11
   109         38
   110         42
   111        648
   112         71
   113        272
   114         99
   115        999
   116        506
   117         47
   118         12
   123         11
   124          6
   125        128
   126         35
   127         57
   128         55
   129         17
   131          9
   132          7
   136         52
   137         28
   138         30
   139        471
   140         37
   141        151
   142         12
   143         68
   144         33
   149         79
   150         27
   151         59
   152         23
   153         14
   154          2
   163         15
   164         13
   165        150
   166         18
   167         41
   176         21
   177         19
   178         28
   179        169
   180         24
   181         55
   182          4
   187          8
   188          5
   189         56
   190         24
   191         68
   192         70
   193         10
   199         10
   200          4
   201         14
   202         72
   203         18
   205          2
   212         25
   213          4
   214          8
   218         28
   219         42
   220        175
   221         29
   225         15
   226         15
   227         18
   228          7
   229          2
   236          8
   237          8
   238         18
   239          8
   240          7
   253         12
   254        143
   255        757
   256        190
   257        255
   258         42
   259          8
   261          9
   262          6
   263          2
   273         10
   275         52
   276          8
   277         27
   289        170
   290        571
   291        265
   292        405
   293        175
   294         57
   295         17