##TITLE=Library Entry 10786
##JCAMP-DX=Revision 4.10 
##DATA TYPE=MASS SPECTRUM
##SAMPLE DESCRIPTION=A.Pleshkova, Nesmeyanov Inst.Org.Elem.Cpds, Moscow
##NAMES=HP
##CAS NAME=Butanoic acid, 2,2-diethyl-3-oxo-, ethyl ester
##MOLFORM=C10H18O3
##CAS REGISTRY NO=1619-57-4
##MP= -300
##BP= -300
##MW= 186
##$RETENTION INDEX=0
##$CONDENSED SPECTRUM=NO
##NPOINTS= 45
##XYDATA=(XY..XY) 1 
    29        356
    30          8
    39        115
    40          6
    41        217
    42         34
    43        999
    44         24
    45        112
    46          9
    53         42
    54          6
    55        174
    56          8
    57         56
    58          5
    59         28
    69        132
    70          7
    73        115
    74          8
    83        219
    84         11
    87        137
    88          9
    97         67
    98        120
    99         11
   101        800
   102         18
   113        148
   114          9
   115        132
   116        216
   117         11
   129        732
   130         55
   131          6
   141        137
   142          9
   144        732
   145         15
   158         22
   159          2
   186          7