##TITLE=Library Entry 51413
##JCAMP-DX=Revision 4.10 
##DATA TYPE=MASS SPECTRUM
##SAMPLE DESCRIPTION=Chemical Concepts
##NAMES=HP
##CAS NAME=2-Cyclopenten-1-one, 3-(1-methylethyl)-
##MOLFORM=C8H12O
##CAS REGISTRY NO=1619-28-9
##MP= -300
##BP= -300
##MW= 124
##$RETENTION INDEX=1070
##$CONDENSED SPECTRUM=NO
##NPOINTS= 65
##XYDATA=(XY..XY) 1 
    26         33
    27        344
    28        180
    29         82
    31          1
    33         10
    37          8
    38         35
    39        297
    40         95
    41        305
    42         51
    43         80
    44         13
    45          4
    46          4
    47          8
    49          7
    50         81
    51        158
    52        112
    53        618
    54        100
    55        115
    56         41
    57         14
    61          5
    62         12
    63         32
    64          8
    65         77
    66         50
    67        525
    68        152
    69         47
    70          4
    71          5
    73         13
    74          3
    75          3
    77         92
    78         20
    79        192
    80         29
    81        882
    82        999
    83         78
    84          2
    85          1
    91         22
    93         14
    94          4
    95        108
    96        168
    97         17
   105          3
   107         10
   108          4
   109        246
   110         20
   111          2
   123         34
   124        445
   125         51
   126          4