##TITLE=Library Entry 48887
##JCAMP-DX=Revision 4.10 
##DATA TYPE=MASS SPECTRUM
##SAMPLE DESCRIPTION=Exported from NIST MS Search
##NAMES=HP
##CAS NAME=2,4-Decadien-1-ol, (E,Z)-
##MOLFORM=C10H18O
##CAS REGISTRY NO=16195-71-4
##MP= -300
##BP= -300
##MW= 154
##$RETENTION INDEX=0
##$CONDENSED SPECTRUM=NO
##NPOINTS= 73
##XYDATA=(XY..XY) 1 
    14         11
    15          7
    17         59
    18        185
    19         10
    26         12
    27        146
    29         78
    32         49
    37         12
    38         18
    39        306
    40         37
    41        445
    42         70
    43        143
    44        136
    47          8
    50         29
    51         81
    52         55
    53        118
    54         93
    55        240
    56         34
    57         78
    62         15
    63         28
    64         20
    65         12
    66         19
    67        264
    68         66
    69         66
    70         71
    71         30
    72         12
    75         19
    76         12
    77        475
    78        264
    79        999
    80        595
    81        502
    82        107
    83        249
    84         68
    87         10
    89         25
    90         10
    91        345
    92         46
    93        294
    94         97
    95         81
    96         40
    97         47
    98         24
   104          9
   106          5
   109         18
   110         21
   111         19
   121         21
   123         17
   125         17
   135          7
   136        311
   137         45
   138         15
   151          6
   153          9
   154         26