##TITLE=Library Entry 33133
##JCAMP-DX=Revision 4.10 
##DATA TYPE=MASS SPECTRUM
##SAMPLE DESCRIPTION=Chemical Concepts
##NAMES=HP
##CAS NAME=Cyclohexene, 1,2,4-trimethyl-4-(1-methylethenyl)-
##MOLFORM=C12H20
##CAS REGISTRY NO=16195-58-7
##MP= -300
##BP= -300
##MW= 164
##$RETENTION INDEX=0
##$CONDENSED SPECTRUM=NO
##NPOINTS= 92
##XYDATA=(XY..XY) 1 
    26          6
    27         93
    28          9
    29         83
    30          2
    38          5
    39        171
    40         37
    41        328
    42         29
    43         74
    44          2
    45          2
    50          7
    51         40
    52         21
    53        122
    54        117
    55        130
    56         12
    57         44
    58         12
    59          9
    63         11
    64          5
    65         74
    66         31
    67        999
    68         56
    69         43
    70          5
    71          3
    77        121
    78         26
    79        166
    80         21
    81        163
    82        682
    83         69
    84          4
    85          2
    89          5
    91        253
    92         41
    93        171
    94         62
    95        120
    96         46
    97         10
    98          6
   102          3
   103         21
   104          7
   105        168
   106        181
   107        637
   108        169
   109        274
   110         30
   111          7
   115         23
   116          7
   117         19
   118          6
   119         78
   120         59
   121        937
   122        269
   123         93
   124         10
   125          4
   127          2
   128          5
   129          3
   131          6
   132          3
   133         29
   134         27
   135        263
   136         74
   137         29
   138          3
   139          2
   147         18
   148          6
   149        163
   150         26
   151          2
   162          6
   164        171
   165         31
   166          5