##TITLE=Library Entry 663
##JCAMP-DX=Revision 4.10 
##DATA TYPE=MASS SPECTRUM
##SAMPLE DESCRIPTION=Chuck Anderson, Aldrich Chemical Co.
##NAMES=HP
##CAS NAME=Propanedioic acid, dimethyl-, diethyl ester
##MOLFORM=C9H16O4
##CAS REGISTRY NO=1619-62-1
##MP= -300
##BP= -300
##MW= 188
##$RETENTION INDEX=0
##$CONDENSED SPECTRUM=NO
##NPOINTS= 93
##XYDATA=(XY..XY) 1 
    13          0
    14          2
    15         26
    16          1
    17          0
    18          0
    24          0
    25          1
    26         31
    27        325
    28         55
    29        999
    30         29
    31         69
    32          1
    35          0
    36          1
    37          2
    38          4
    39         89
    40         30
    41        201
    42        137
    43         95
    44          7
    45         52
    46          1
    47          2
    50          0
    51          0
    53          4
    54          2
    55         13
    56          2
    57          4
    58          4
    59        382
    60         24
    61          1
    63          0
    67          1
    68          8
    69        117
    70        304
    71        122
    72          8
    73        358
    74         12
    75          2
    81          0
    82          0
    83          6
    84          1
    85          6
    86         46
    87        771
    88        807
    89         53
    90          5
    91          0
    95          1
    96          3
    97          1
    98          0
    99         28
   100          6
   101         11
   102          1
   112          0
   113          9
   114         15
   115        424
   116        743
   117         53
   118          4
   119          0
   127          6
   128          0
   129          6
   130          0
   133          0
   142          9
   143        322
   144         27
   145          3
   159          0
   160          0
   161         20
   162          1
   173          1
   188         44
   189          6
   190          0