##TITLE=Library Entry 27755
##JCAMP-DX=Revision 4.10 
##DATA TYPE=MASS SPECTRUM
##SAMPLE DESCRIPTION=Chemical Concepts
##NAMES=HP
##CAS NAME=Propylamine, 3-phosphino-N,N-dimethyl-
##MOLFORM=C5H14NP
##CAS REGISTRY NO=161944-91-8
##MP= -300
##BP= -300
##MW= 119
##$RETENTION INDEX=0
##$CONDENSED SPECTRUM=NO
##NPOINTS= 83
##XYDATA=(XY..XY) 1 
    26          5
    27         29
    28          8
    29         25
    30         97
    31          2
    33          5
    34          1
    35          0
    36          0
    37          0
    38          1
    39         21
    40          4
    41         30
    42        125
    43         32
    44         40
    45         23
    46          3
    47          8
    48          1
    49          0
    50          0
    51          0
    52          0
    53          0
    54          3
    55          3
    56         19
    57         14
    58        999
    59         34
    60          2
    61          1
    62          1
    63          1
    64          0
    65          0
    66          0
    67          0
    68          3
    69          3
    70         20
    71          8
    72          6
    73          5
    74          1
    75          2
    76          6
    77          2
    78          1
    79          0
    80          0
    81          0
    82          1
    83          0
    84         22
    85         11
    86          3
    87          0
    88          0
    89          2
    90          1
    91          1
    93          0
    98          0
    99          0
   100          0
   102          1
   103          0
   104          0
   105          0
   106          0
   107          0
   114          0
   115          0
   116          1
   117          0
   118          5
   119         72
   120          4
   121          0