##TITLE=Library Entry 17150
##JCAMP-DX=Revision 4.10 
##DATA TYPE=MASS SPECTRUM
##SAMPLE DESCRIPTION=Chemical Concepts
##NAMES=HP
##CAS NAME=1-Methoxymethoxy-oct-2-yne
##MOLFORM=C10H18O2
##CAS REGISTRY NO=161979-92-6
##MP= -300
##BP= -300
##MW= 170
##$RETENTION INDEX=0
##$CONDENSED SPECTRUM=NO
##NPOINTS= 91
##XYDATA=(XY..XY) 1 
    26          9
    27        116
    28         13
    29        162
    30         38
    31         47
    33          8
    37          4
    38         17
    39        132
    40         30
    41        236
    42         29
    43         88
    44         20
    45        999
    46         24
    47          4
    50         19
    51         46
    52         94
    53        118
    54        266
    55        237
    56         59
    57         54
    58          8
    59          9
    60          7
    61         69
    62          5
    63         11
    64          4
    65         37
    66         51
    67        290
    68        158
    69         78
    70         24
    71         34
    72         17
    73          7
    74          5
    75         15
    77         41
    78         12
    79         89
    80         30
    81        164
    82         69
    83         40
    84         75
    85         54
    86          6
    87          4
    91         31
    92          6
    93         64
    94         17
    95         93
    96         19
    97         43
    98         17
    99         29
   100          6
   105          9
   106          5
   107         20
   108          8
   109         57
   110         12
   111         59
   112         17
   113         15
   114          6
   115          4
   122         11
   123         89
   124         11
   125         41
   126          7
   127          5
   129          4
   138         28
   139         13
   140          4
   141          9
   142          7
   155          5
   169          4
   170          3