##TITLE=Library Entry 6329
##JCAMP-DX=Revision 4.10 
##DATA TYPE=MASS SPECTRUM
##SAMPLE DESCRIPTION=NIST Mass Spectrometry Data Center
##NAMES=HP
##CAS NAME=(1S,2R,4R,7R)-4-Isopropyl-7-methyl-3,8-dioxatricyclo[5.1.0.02,4]o
ctane
##MOLFORM=C10H16O2
##CAS REGISTRY NO=1619-26-7
##MP= -300
##BP= -300
##MW= 168
##$RETENTION INDEX=1306
##$CONDENSED SPECTRUM=NO
##NPOINTS= 70
##XYDATA=(XY..XY) 1 
    18         20
    27         81
    29         42
    30          5
    39        171
    40         22
    41        483
    42         72
    43        999
    44         46
    45         32
    46          8
    50         11
    51         20
    52          7
    53         83
    54         43
    55        249
    56         32
    57         57
    58          8
    59         42
    60        132
    61         17
    63          6
    64          4
    65         21
    67        133
    68         32
    69        207
    70         51
    71        241
    72         14
    73         10
    77         31
    79        101
    80         21
    81         54
    82        164
    83        102
    84         20
    85        124
    86         24
    87         16
    91         27
    95        114
    96         15
    97        454
    98         58
    99         40
   106          7
   107         54
   109         39
   110         48
   111         14
   117          7
   119         11
   122          5
   124         11
   125         75
   126         10
   127          7
   131         10
   139         24
   140         18
   141          9
   147          3
   151          6
   153          4
   168          2