##TITLE=Library Entry 14932
##JCAMP-DX=Revision 4.10 
##DATA TYPE=MASS SPECTRUM
##SAMPLE DESCRIPTION=LAC, NIDDK, NIH, Bethesda, MD 20892
##NAMES=HP
##CAS NAME=Piperidin[2,3,4-a,b]carbazole, 1,2,3,4-tetrahydro-N-n-pentyl-
##MOLFORM=C26H32N2O
##CAS REGISTRY NO=161960-30-1
##MP= -300
##BP= -300
##MW= 388
##$RETENTION INDEX=0
##$CONDENSED SPECTRUM=NO
##NPOINTS= 227
##XYDATA=(XY..XY) 1 
    41        510
    42        222
    43        999
    44         95
    45         38
    47         29
    48         18
    53         45
    54         49
    55        405
    56        269
    57        610
    58         85
    59         20
    60         13
    65         45
    66         10
    67        101
    68         56
    69        242
    70        605
    71        372
    72         36
    73         16
    74          7
    75         10
    76         46
    77        227
    78         33
    79         53
    80         21
    81        122
    82         98
    83        181
    84          2
    87         11
    88         18
    89          9
    91         56
    92         13
    93         82
    94         28
    95        132
    96         87
    97         71
    98         30
    99         16
   100          8
   101         29
   102         21
   103         20
   104         66
   105        716
   106         63
   107         96
   108         40
   109        114
   110         42
   111         48
   112        117
   113        155
   114         39
   115         41
   116         22
   117         28
   118         12
   119         50
   121        174
   122         58
   123         95
   124         55
   125         70
   126        153
   127         36
   128         36
   129         50
   130        141
   131         84
   132         48
   133         37
   134         22
   135         48
   136         27
   137         71
   138         27
   139         18
   140        233
   141         35
   142         20
   143         37
   144        163
   145         50
   147         49
   149        108
   150        123
   151         36
   152         32
   153         42
   154         31
   155         17
   156         91
   157         37
   159        183
   160          9
   161         27
   162          9
   163         43
   164         58
   165         23
   167        544
   168         87
   169         39
   170         14
   171         14
   172         32
   173         16
   174         71
   175         25
   176         13
   177         25
   178         14
   179         40
   180         26
   181         16
   182         28
   183         21
   184          7
   185          9
   186         13
   187         19
   188          9
   189         27
   190         13
   191         31
   192         11
   193         19
   194         70
   195         20
   196          8
   197         10
   201         14
   202         13
   203         25
   204         39
   205         46
   206         19
   207         47
   209         19
   211          8
   214          7
   215         19
   216         15
   217         37
   218         36
   219         15
   220         20
   221          9
   223          9
   225          8
   227          9
   228         17
   229         24
   230         31
   231         30
   232         42
   233         34
   234         30
   235         20
   236         12
   240          9
   241         27
   242         20
   243         14
   244         28
   245         42
   246         52
   247         36
   248         32
   249         11
   253         26
   254          8
   255         14
   256        230
   257        233
   258        435
   259        141
   260        139
   261        121
   262         47
   263          9
   270          7
   271         10
   272         15
   273         34
   274         46
   275         77
   276         16
   279        188
   280         32
   281         82
   282         17
   286          9
   287         14
   288         20
   289         26
   290          9
   293          7
   295        402
   296         89
   297         10
   301          8
   302         11
   303         23
   304          8
   315          8
   316          8
   317        652
   318        163
   319         21
   331         15
   345         11
   373         41
   374         12
   387         84
   388        785
   389        225
   390         36