##TITLE=Library Entry 88866
##JCAMP-DX=Revision 4.10 
##DATA TYPE=MASS SPECTRUM
##SAMPLE DESCRIPTION=Japan AIST/NIMC Database- Spectrum MS-IW-4921
##NAMES=HP
##CAS NAME=Benzene, 1-chloro-4-[(2-chloroethyl)sulfonyl]-
##MOLFORM=C8H8Cl2O2S
##CAS REGISTRY NO=16191-84-7
##MP= -300
##BP= -300
##MW= 238
##$RETENTION INDEX=0
##$CONDENSED SPECTRUM=NO
##NPOINTS= 159
##XYDATA=(XY..XY) 1 
    15          1
    25          1
    26         14
    27        207
    28         22
    29          2
    31          1
    32          1
    35          5
    36         38
    37          7
    38         17
    39         10
    41          1
    43          8
    44          3
    45         15
    46          1
    47          3
    48          4
    49          9
    50        157
    51         83
    52          5
    53          2
    55          1
    57          3
    58          3
    59          3
    60          3
    61         25
    62         12
    63        384
    64         13
    65        122
    66          3
    67          1
    68          1
    69         12
    70          3
    71          2
    72          3
    73         29
    74         92
    75        442
    76         96
    77         45
    78          4
    79          4
    81          4
    82          4
    83          2
    84         11
    85         51
    86          7
    87         21
    88          1
    89          6
    90          1
    91          3
    92          2
    93          2
    95          8
    96          5
    97          3
    98          1
    99         54
   100          8
   101         20
   102          7
   103         10
   104          1
   105          1
   106          1
   107          3
   108         15
   109          6
   110          9
   111        999
   112        234
   113        374
   114         74
   115          9
   117          2
   119          1
   121          1
   123          2
   124          3
   125         29
   126          3
   127        150
   128         53
   129         48
   130         16
   131         36
   132          2
   133         13
   134          1
   135          2
   137          2
   138         11
   139          3
   140          6
   141          7
   142          5
   143          5
   144          3
   145          3
   146          9
   147          2
   148          5
   149          1
   150          1
   153          2
   154          8
   155          2
   156          3
   157          2
   159        389
   160         31
   161        142
   162         10
   163          6
   172          1
   174          9
   175        929
   176        145
   177        356
   178         52
   179         17
   180          2
   189          1
   190         17
   191          2
   192         13
   193          1
   194          3
   202         99
   203          9
   204         39
   205          4
   206          2
   208          1
   210        318
   211         23
   212        216
   213         15
   214         42
   215          2
   216          2
   220          2
   222          1
   238        372
   239         36
   240        252
   241         23
   242         48
   243          5
   244          2