##TITLE=Library Entry 41389
##JCAMP-DX=Revision 4.10 
##DATA TYPE=MASS SPECTRUM
##SAMPLE DESCRIPTION=Chemical Concepts
##NAMES=HP
##CAS NAME=Silane, bicyclo[2.2.1]hept-2-en-2-yltrimethyl-
##MOLFORM=C10H18Si
##CAS REGISTRY NO=16205-87-1
##MP= -300
##BP= -300
##MW= 166
##$RETENTION INDEX=0
##$CONDENSED SPECTRUM=NO
##NPOINTS= 121
##XYDATA=(XY..XY) 1 
    25          0
    26          3
    27         19
    28          7
    29         21
    30          1
    31         24
    32          1
    33          0
    38          1
    39         25
    40          3
    41         17
    42          7
    43        103
    44         23
    45        115
    46          7
    47         48
    48          2
    49          1
    50          2
    51          6
    52          1
    53         23
    54         15
    55         26
    56          3
    57         12
    58         15
    59         99
    60         10
    61         13
    62         19
    63          3
    64          0
    65         10
    66         15
    67         22
    68          7
    69         29
    70          4
    71          9
    72         12
    73        999
    74         89
    75        416
    76         30
    77         23
    78          5
    79          8
    80          2
    81         14
    82          3
    83        127
    84         11
    85         16
    86          1
    87          0
    89          3
    90          2
    91         14
    92         20
    93         22
    94          5
    95         61
    96         10
    97         15
    98          2
    99          2
   101          2
   102          0
   103          5
   104          0
   105          4
   106          2
   107         10
   108          4
   109         13
   110          2
   111          1
   113          0
   115          1
   116          0
   117          0
   118          0
   119          2
   120          1
   121         11
   122          5
   123        291
   124         37
   125         12
   126          0
   129          1
   131         10
   132          1
   133          3
   134          0
   135          5
   136          1
   137          2
   138        281
   139         39
   140         11
   141          1
   146          0
   148          1
   149          7
   150          1
   151         97
   152         14
   153          4
   154          0
   155          2
   156          0
   165          0
   166         76
   167         13
   168          3
   169          1