##TITLE=Library Entry 47546
##JCAMP-DX=Revision 4.10 
##DATA TYPE=MASS SPECTRUM
##SAMPLE DESCRIPTION=RADIAN CORP
##NAMES=HP
##CAS NAME=1H-Pyrrole-2,5-dione, 1-[4-(phenylazo)phenyl]-
##MOLFORM=C16H11N3O2
##CAS REGISTRY NO=16201-96-0
##MP= -300
##BP= -300
##MW= 277
##$RETENTION INDEX=0
##$CONDENSED SPECTRUM=NO
##NPOINTS= 105
##XYDATA=(XY..XY) 1 
    25          2
    26        100
    27         18
    29          4
    37         13
    38         32
    39         85
    40         11
    41          5
    42          2
    49          3
    50        118
    51        473
    52         63
    53         81
    54        282
    55         15
    61         10
    62         40
    63        182
    64        119
    65         43
    66          5
    67          1
    73          9
    74         40
    75         58
    76         66
    77        999
    78         80
    79          7
    80         12
    81          1
    82        223
    83         11
    87          6
    88         23
    89        185
    90        186
    91         30
    92          4
    93         30
    94          1
   101         13
   102         34
   103         20
   104          7
   105         81
   106          8
   113          2
   114         12
   115         22
   116        313
   117         37
   118         41
   119          4
   126          3
   127          6
   128         11
   129          6
   130          2
   131          8
   139         20
   140         18
   141          9
   142          2
   143          5
   144        196
   145         22
   146          3
   147          1
   150          2
   151         12
   152         31
   153         14
   154          3
   164          3
   165         18
   166         28
   167         21
   168          5
   169          2
   172        909
   173        105
   174          9
   176          1
   177          3
   178         12
   179         24
   180          6
   190          1
   191         10
   192         20
   193          9
   194          2
   195          8
   200        282
   201         35
   202          7
   203          1
   204          3
   249          3
   277        551
   278        106
   279         12