##TITLE=Library Entry 100446
##JCAMP-DX=Revision 4.10 
##DATA TYPE=MASS SPECTRUM
##SAMPLE DESCRIPTION=NIST Mass Spectrometry Data Center, 2010
##NAMES=HP
##CAS NAME=(3S,3aR,6R,8aS)-7,7-Dimethyl-8-methyleneoctahydro-1H-3a,6-methano
azulene-3-carboxylic acid
##MOLFORM=C15H22O2
##CAS REGISTRY NO=16203-25-1
##MP= -300
##BP= -300
##MW= 234
##$RETENTION INDEX=1818
##$CONDENSED SPECTRUM=NO
##NPOINTS= 154
##XYDATA=(XY..XY) 1 
    26          2
    27         39
    29         43
    30          1
    37          1
    38          4
    39        134
    40         28
    41        337
    42         25
    43        104
    44          6
    45         38
    46          2
    47          2
    50         11
    51         62
    52         29
    53        151
    54         22
    55        273
    56         14
    57         32
    58         10
    59          8
    60          6
    62          3
    63         30
    64         24
    65        186
    66         53
    67        284
    68         32
    69        180
    70         36
    71         39
    72         15
    73         65
    74          6
    75          6
    76          7
    77        324
    78         93
    79        386
    80         59
    81        179
    83         59
    84          8
    85          7
    86          6
    87         15
    88        103
    89         23
    90         20
    91        594
    92        164
    93        235
    94         48
    95        194
    96        108
    97         28
    98          6
    99          5
   101          5
   102         16
   103         66
   104         41
   105        333
   106         84
   107        135
   108         82
   109        104
   110         45
   111         19
   112          2
   114          2
   115        132
   116         58
   117        588
   118        139
   119        999
   120        123
   121        127
   122         21
   123         50
   124         33
   125         16
   126          9
   127         25
   128         85
   129        104
   130         57
   131        263
   132         94
   133        206
   134         34
   135         33
   136        101
   137        141
   138         21
   139          8
   141         17
   142          8
   143         28
   144         23
   145        992
   146        151
   147        184
   148         24
   149         32
   150         43
   151         14
   152         15
   153          3
   154          4
   155          4
   156          2
   157          9
   158         10
   159         86
   160         29
   161         39
   162         60
   163        129
   164        869
   165        212
   166         26
   167          4
   168          2
   171          3
   172          3
   173        170
   174         29
   176          8
   177         21
   178         41
   179          8
   183          5
   186          2
   187          6
   188        185
   189        192
   191        310
   192         43
   201         16
   205         10
   206          7
   216         20
   219        630
   220        100
   221          8
   234        124
   235         20
   236          2