##TITLE=Library Entry 79540
##JCAMP-DX=Revision 4.10 
##DATA TYPE=MASS SPECTRUM
##SAMPLE DESCRIPTION=Exported from NIST MS Search
##NAMES=HP
##CAS NAME=1,2,4,5-Tetroxane, 3,3,6,6-tetraphenyl-
##MOLFORM=C26H20O4
##CAS REGISTRY NO=16204-36-7
##MP= -300
##BP= -300
##MW= 396
##$RETENTION INDEX=0
##$CONDENSED SPECTRUM=NO
##NPOINTS= 14
##XYDATA=(XY..XY) 1 
    32         45
    50         87
    51        303
    75         66
    77        834
    78         87
   105        999
   107         90
   150         42
   151         30
   152         24
   181         57
   182        456
   183         66