##TITLE=Library Entry 56026
##JCAMP-DX=Revision 4.10 
##DATA TYPE=MASS SPECTRUM
##SAMPLE DESCRIPTION=Japan AIST/NIMC Database- Spectrum MS-IW-2317
##NAMES=HP
##CAS NAME=Diethylaminoacetone
##MOLFORM=C7H15NO
##CAS REGISTRY NO=1620-14-0
##MP= -300
##BP= -300
##MW= 129
##$RETENTION INDEX=0
##$CONDENSED SPECTRUM=NO
##NPOINTS= 53
##XYDATA=(XY..XY) 1 
    14          1
    15          9
    26          4
    27         32
    28         44
    29         62
    30        203
    31          4
    39          5
    40          3
    41         15
    42         59
    43         42
    44         15
    45          2
    52          1
    53          1
    54          7
    55          5
    56         63
    57         21
    58        291
    59         10
    60          1
    67          1
    68          2
    69          1
    70         10
    71          7
    72          7
    73          1
    80          1
    82          2
    83          1
    84         13
    85          4
    86        999
    87         62
    88          1
    94          2
    98          2
   100          3
   101          3
   108          2
   109          2
   110          1
   112          3
   114         15
   115          1
   126          2
   128          4
   129         14
   130          2