##TITLE=Library Entry 58516
##JCAMP-DX=Revision 4.10 
##DATA TYPE=MASS SPECTRUM
##SAMPLE DESCRIPTION=Chemical Concepts
##NAMES=HP
##CAS NAME=Benzaldehyde, N-ethoxycarbonylhydrazone
##MOLFORM=C10H12N2O2
##CAS REGISTRY NO=16208-36-9
##MP= -300
##BP= -300
##MW= 192
##$RETENTION INDEX=0
##$CONDENSED SPECTRUM=NO
##NPOINTS= 84
##XYDATA=(XY..XY) 1 
    37         18
    38         61
    39        237
    40         44
    41         70
    42         52
    43        126
    44        119
    45        350
    46         78
    49         12
    50        149
    51        330
    52         58
    53          9
    54          9
    55         42
    56         11
    57         32
    58          6
    59          6
    60         12
    61        155
    62        562
    63        240
    64        142
    65        645
    66         93
    67         13
    68          6
    69         18
    70          9
    71         24
    72          4
    73         13
    74         34
    75         48
    76        127
    77        524
    78         90
    79         24
    80         13
    81          9
    82          6
    83          9
    84          7
    85         13
    86          9
    87         13
    88         39
    89        999
    90        376
    91        192
    92        875
    93        292
    94         22
    95          7
   102         64
   103        950
   104        972
   105        110
   106         24
   107          6
   109          4
   111          4
   115          7
   116         57
   117         18
   118         74
   119        602
   120        106
   121          9
   130          7
   131         22
   132         15
   133         70
   134         15
   135          7
   146          7
   147         55
   148          7
   149         15
   192        321
   193         38