##TITLE=Library Entry 46457
##JCAMP-DX=Revision 4.10 
##DATA TYPE=MASS SPECTRUM
##SAMPLE DESCRIPTION=NIST Mass Spectrometry Data Center
##NAMES=HP
##CAS NAME=Allylphenyl sulfone
##MOLFORM=C9H10O2S
##CAS REGISTRY NO=16212-05-8
##MP= -300
##BP= -300
##MW= 182
##$RETENTION INDEX=0
##$CONDENSED SPECTRUM=NO
##NPOINTS= 75
##XYDATA=(XY..XY) 1 
    12          7
    14          7
    15         18
    16          8
    17          4
    18          5
    25          6
    26         25
    27         83
    28         19
    29         14
    36          5
    37         26
    38         57
    39        360
    41        638
    42         23
    43          9
    44          9
    45         27
    48         16
    49         12
    50        165
    51        498
    52         36
    53         22
    55         15
    56         18
    57          9
    58          5
    62         10
    63         21
    64         18
    65         42
    66         11
    69         24
    70          5
    71          5
    73         14
    74         53
    75         37
    77        999
    78        183
    79         12
    81         11
    82          7
    89          9
    91         86
    92         13
    93          4
    94         19
    95          6
    97         59
    98          5
   102          4
   103         19
   104          6
   109         10
   110          6
   115         69
   117        317
   118        295
   119         28
   125        115
   126         41
   127          8
   134         37
   135         15
   138         10
   141        388
   142         28
   143         22
   147          8
   165          6
   182         15