##TITLE=Library Entry 58257
##JCAMP-DX=Revision 4.10 
##DATA TYPE=MASS SPECTRUM
##SAMPLE DESCRIPTION=A.A.Kutin, Moscow, Russia
##NAMES=HP
##CAS NAME=1,3-5H-Dithiolo[4,5-b][1,4]-dithiepin-6-(7H)-one, 5,7-diethyl-2-t
hioxo-
##MOLFORM=C10H12OS5
##CAS REGISTRY NO=162190-33-2
##MP= -300
##BP= -300
##MW= 308
##$RETENTION INDEX=0
##$CONDENSED SPECTRUM=NO
##NPOINTS= 186
##XYDATA=(XY..XY) 1 
    33          7
    34          8
    35          0
    39        362
    41        722
    42        154
    43         60
    45        323
    46         26
    47         33
    48          1
    49          1
    50          4
    51         10
    53         60
    55        651
    56         28
    57         17
    58         26
    59         38
    60          6
    61          7
    64         43
    65         18
    66         27
    67        191
    69        284
    70         75
    71         94
    73        233
    74         93
    76        388
    77         66
    78         33
    79         24
    81        253
    83         68
    85        136
    86         78
    88        999
    90        134
    91          7
    92          4
    93          7
    94          9
    96        254
    97        235
    98         69
    99         23
   100         11
   101         13
   102          5
   103         12
   104          1
   105          3
   106          1
   107          0
   108          7
   109          5
   111         14
   112         14
   113          9
   115         42
   116         15
   117         11
   118         10
   120        200
   122         49
   123          4
   125          4
   127         14
   129        162
   130         33
   131         21
   132          6
   133          8
   135          5
   137          1
   138          2
   139          2
   140          1
   141          3
   142          4
   143         45
   144          4
   145          2
   146          2
   147          2
   148          1
   149          0
   150          0
   152          2
   153          1
   154          2
   155          2
   156         10
   158         22
   159          3
   160          5
   162         71
   163          7
   164         11
   165         21
   166          5
   167          4
   168          1
   169          0
   170          1
   171          6
   172          1
   173          2
   175         27
   176          3
   177          4
   178          0
   185          0
   187          0
   189          6
   190          6
   191          3
   193          5
   194          6
   196         85
   197          8
   198         23
   199          6
   200          8
   201          1
   203         18
   204          8
   205          9
   206         17
   207         20
   209        429
   210         37
   211         86
   212          6
   213          7
   214          0
   215          0
   216          0
   217          3
   218          1
   219          0
   223          2
   224          0
   225          0
   228          1
   229          0
   230          1
   231          3
   232         43
   233          4
   234          7
   235          3
   237          9
   238         78
   239         10
   240         17
   241          0
   242          1
   244          4
   246          0
   247          0
   251          2
   253          0
   264          3
   265          0
   266          1
   275          1
   279          0
   280          0
   292          0
   293          0
   294          5
   295          0
   302          1
   304         16
   305         20
   308        769
   309        101
   310        154
   311         21
   312         15
   313          1
   314          1