##TITLE=Library Entry 32179
##JCAMP-DX=Revision 4.10 
##DATA TYPE=MASS SPECTRUM
##SAMPLE DESCRIPTION=NIST Mass Spectrometry Data Center, 1990.
##NAMES=HP
##CAS NAME=5-Ethylidene-2-norbornene
##MOLFORM=C9H12
##CAS REGISTRY NO=16219-75-3
##MP= -300
##BP= -300
##MW= 120
##$RETENTION INDEX=908
##$CONDENSED SPECTRUM=NO
##NPOINTS= 46
##XYDATA=(XY..XY) 1 
    15         11
    26         20
    27        109
    28         49
    29         11
    37         13
    38         45
    39        330
    40         76
    41         94
    50         82
    51        172
    52         67
    53         87
    54         18
    55         20
    58         20
    59          7
    61         13
    62         40
    63         97
    64         27
    65        240
    66        999
    67         81
    74         18
    75         11
    77        286
    78        419
    79        277
    80         26
    89         30
    91        834
    92        199
    93         35
   102         14
   103        104
   105        722
   106         57
   115         32
   116          7
   117         29
   118          7
   119         52
   120        368
   121         37