##TITLE=Library Entry 84776
##JCAMP-DX=Revision 4.10 
##DATA TYPE=MASS SPECTRUM
##SAMPLE DESCRIPTION=Div. of Experiment Therapeutics WRAIR, WRAMC, Washingto
n DC 20307
##NAMES=HP
##CAS NAME=Semicarbazide, 4,4',4''-phosphinylidynetris(1-phenyl-
##MOLFORM=C21H24N9O4P
##CAS REGISTRY NO=16221-22-0
##MP= -300
##BP= -300
##MW= 497
##$RETENTION INDEX=0
##$CONDENSED SPECTRUM=NO
##NPOINTS= 86
##XYDATA=(XY..XY) 1 
    41         23
    42         30
    43        100
    44         46
    45          9
    46          1
    47         35
    49         14
    50         82
    51        191
    52         71
    53         34
    54         34
    55          3
    56          2
    57          2
    59          1
    60          5
    61         14
    62         25
    63         82
    64        108
    65        428
    66         51
    67          6
    70          8
    73          9
    74         26
    75         13
    76         18
    77        388
    78        195
    79        115
    80         49
    81         20
    82          2
    83          0
    84          6
    86          4
    87          5
    88          3
    89         15
    90         12
    91        212
    92        424
    93        137
    94         11
    98          2
   104          1
   105         35
   106         37
   107         93
   108        999
   109         76
   110          3
   115          3
   118          3
   119          3
   120          0
   131        116
   132          3
   133          9
   134         13
   135          1
   136          0
   147          2
   148          5
   151         86
   152         11
   153          1
   154          1
   166          2
   167          4
   168          4
   169          4
   173         36
   174          6
   175          0
   176          6
   177          9
   182          0
   183          2
   184          5
   227          1
   238          4
   281          0