##TITLE=Library Entry 5133
##JCAMP-DX=Revision 4.10 
##DATA TYPE=MASS SPECTRUM
##SAMPLE DESCRIPTION=Exported from NIST MS Search
##NAMES=HP
##CAS NAME=1-Imidazolidinemethanol, 4,4-dimethyl-2,5-dioxo-
##MOLFORM=C6H10N2O3
##CAS REGISTRY NO=16228-00-5
##MP= -300
##BP= -300
##MW= 158
##$RETENTION INDEX=0
##$CONDENSED SPECTRUM=NO
##NPOINTS= 64
##XYDATA=(XY..XY) 1 
    15         47
    16          3
    18          3
    25          1
    26          9
    27         29
    28        142
    29        401
    30        332
    31          6
    32          5
    37          5
    38         13
    39         76
    40         35
    41        109
    42        999
    43         52
    44         23
    45          2
    51          2
    52          5
    53          3
    54          7
    55         11
    56         18
    57        310
    58         13
    59          1
    60          9
    72          1
    73         12
    74          1
    81          1
    82          1
    83          4
    84          7
    85          7
    87          2
    95          1
    96          1
    97          2
    98          2
    99          3
   100        147
   101          9
   102          1
   105          1
   109          1
   110          1
   111          1
   112          2
   113        713
   114         37
   115          6
   116          1
   122          1
   125          1
   127          1
   128        202
   129         22
   130          2
   143          1
   157          2