##TITLE=Library Entry 74606
##JCAMP-DX=Revision 4.10 
##DATA TYPE=MASS SPECTRUM
##SAMPLE DESCRIPTION=V.A.KOPTYUG, ATLAS OF MASS SPECTRA OF ORGANIC COMPOUNDS
##NAMES=HP
##CAS NAME=2-Cyclohexylthiacyclohexane
##MOLFORM=C11H20S
##CAS REGISTRY NO=1622-08-8
##MP= -300
##BP= -300
##MW= 184
##$RETENTION INDEX=0
##$CONDENSED SPECTRUM=NO
##NPOINTS= 48
##XYDATA=(XY..XY) 1 
    39        126
    40         19
    41        270
    42         18
    43         17
    45         69
    46         15
    47         70
    51         15
    53         71
    54         35
    55        148
    56         12
    58         14
    59        108
    60         24
    61         24
    65         34
    66         15
    67        216
    68         34
    69         20
    71         19
    73         34
    77         35
    79         60
    80         13
    81         63
    82         14
    83         17
    85         39
    86         14
    87        313
    88         36
    89         20
    91         24
    93         22
    95         28
    96         10
    97         11
    99         20
   100        101
   101        999
   102        103
   103         55
   141         48
   184        135
   185         20