##TITLE=Library Entry 8843
##JCAMP-DX=Revision 4.10 
##DATA TYPE=MASS SPECTRUM
##SAMPLE DESCRIPTION=Chemical Concepts
##NAMES=HP
##CAS NAME=7-Oxabicyclo[4.1.0]heptane, 1,5-dimethyl-
##MOLFORM=C8H14O
##CAS REGISTRY NO=162239-52-3
##MP= -300
##BP= -300
##MW= 126
##$RETENTION INDEX=0
##$CONDENSED SPECTRUM=NO
##NPOINTS= 81
##XYDATA=(XY..XY) 1 
    25          1
    26         23
    27        329
    28         83
    29        213
    30         18
    31         14
    32          1
    36          1
    37          6
    38         19
    39        352
    40         66
    41        594
    42         75
    43        999
    44         23
    45         23
    47          2
    48          0
    49         15
    50         19
    51         42
    52         18
    53        124
    54         44
    55        624
    56        301
    57         92
    58        339
    59         24
    61          1
    62          3
    63          9
    64          2
    65         30
    66         22
    67        332
    68        350
    69        231
    70         43
    71        733
    72         40
    73          1
    74          3
    75          1
    76          1
    77         52
    78         10
    79         47
    80         11
    81         67
    82         95
    83        317
    84         92
    85         79
    86          7
    88          1
    89          1
    91         31
    92          5
    93        119
    94         12
    95        306
    96         27
    97        249
    98         47
    99          4
   105          2
   107          3
   108         58
   109         16
   110         70
   111        279
   112         23
   113          1
   114          2
   124          1
   125         10
   126         64
   127          6