##TITLE=Library Entry 78633
##JCAMP-DX=Revision 4.10 
##DATA TYPE=MASS SPECTRUM
##SAMPLE DESCRIPTION=A.A.Kutin, Moscow, Russia
##NAMES=HP
##CAS NAME=Thiophene-2-carboxaldehyde, 3-benzoylthio-
##MOLFORM=C12H8O2S2
##CAS REGISTRY NO=16237-89-1
##MP= -300
##BP= -300
##MW= 248
##$RETENTION INDEX=0
##$CONDENSED SPECTRUM=NO
##NPOINTS= 86
##XYDATA=(XY..XY) 1 
    33          8
    34         11
    36          1
    37         19
    38         34
    39         51
    40         85
    41          8
    42          4
    43         12
    44         38
    45        133
    46          2
    47          4
    48          1
    49         12
    50        115
    51        282
    52         17
    53          9
    55          4
    56          5
    57         20
    58         11
    59          1
    60          1
    61          1
    62          6
    63          9
    64          6
    65          7
    66          2
    69         82
    70         28
    71        136
    72          7
    73          9
    74         28
    75         19
    77        643
    78         40
    79          2
    80          1
    81         12
    82         21
    83          3
    84          4
    88         20
    89         15
    90          1
    91          4
    92          1
    93          2
    94          0
    95          1
    96          1
    97          4
   101          0
   102          4
   105        999
   106         66
   107          5
   108          1
   109          2
   110          6
   111          5
   112          1
   114          7
   115         19
   116          4
   117          2
   121          3
   122          2
   125          3
   126          4
   127         14
   128          3
   140          4
   142          3
   143         35
   144          8
   145          4
   208          1
   222          3
   236          2
   248          6