##TITLE=Library Entry 29407
##JCAMP-DX=Revision 4.10 
##DATA TYPE=MASS SPECTRUM
##SAMPLE DESCRIPTION=J.LOWN ALBERTA UNIV., EDMONTON, ALBERTA, CANADA
##NAMES=HP
##CAS NAME=2H-1,3-Thiazine-6-carboxylic acid, tetrahydro-3-isopropyl-2-(isop
ropylimino)-4-oxo-, methyl ester
##MOLFORM=C12H20N2O3S
##CAS REGISTRY NO=16238-43-0
##MP= -300
##BP= -300
##MW= 272
##$RETENTION INDEX=0
##$CONDENSED SPECTRUM=NO
##NPOINTS= 20
##XYDATA=(XY..XY) 1 
    43        890
    58        999
    59        400
    69        530
    70         25
    85        150
    86        100
    87        170
   101         60
   113         60
   114         70
   115         80
   117         70
   118         50
   119         80
   126        160
   169         20
   213         20
   241        200
   272        980