##TITLE=Library Entry 64375
##JCAMP-DX=Revision 4.10 
##DATA TYPE=MASS SPECTRUM
##SAMPLE DESCRIPTION=Japan AIST/NIMC Database- Spectrum MS-IW-4007
##NAMES=HP
##CAS NAME=Dibenzyl phosphate
##MOLFORM=C14H15O4P
##CAS REGISTRY NO=1623-08-1
##MP= -300
##BP= -300
##MW= 278
##$RETENTION INDEX=0
##$CONDENSED SPECTRUM=NO
##NPOINTS= 83
##XYDATA=(XY..XY) 1 
    27          2
    28          1
    29          1
    38          1
    39         15
    40          1
    41          8
    43          4
    44          1
    45          1
    50          4
    51         12
    52          4
    53          2
    55          3
    56          1
    57          4
    62          3
    63         12
    64          4
    65         80
    66          4
    69          2
    71          2
    75          1
    76          2
    77         31
    78          9
    79         36
    80          3
    81          2
    82          1
    83          2
    85          2
    89         25
    90         24
    91        999
    92        105
    93          4
    94          4
    95          1
    97          2
    99          1
   104          2
   105         28
   106          9
   107        119
   108         16
   109          1
   111          1
   119          1
   121          2
   122          4
   135          1
   141          1
   148          1
   149          2
   152          1
   162          1
   164          1
   165          7
   166          1
   167          4
   168          1
   169          1
   171          2
   175          1
   176          1
   177          1
   178         10
   179         37
   180         85
   181         13
   182          1
   187        146
   188         15
   189          2
   197          8
   198          1
   218          1
   277        201
   278         32
   279          4