##TITLE=Library Entry 60385
##JCAMP-DX=Revision 4.10 
##DATA TYPE=MASS SPECTRUM
##SAMPLE DESCRIPTION=J.LOWN ALBERTA UNIV., EDMONTON, ALBERTA, CANADA
##NAMES=HP
##CAS NAME=2H-1,3-Thiazine-6-carboxylic acid, 3-benzyl-2-(benzylimino)tetrah
ydro-4-oxo-, methyl ester
##MOLFORM=C20H20N2O3S
##CAS REGISTRY NO=16238-44-1
##MP= -300
##BP= -300
##MW= 368
##$RETENTION INDEX=0
##$CONDENSED SPECTRUM=NO
##NPOINTS= 16
##XYDATA=(XY..XY) 1 
    59        125
    85        312
    86         31
    87         93
    91        999
    92         77
   107         81
   114        125
   132        156
   149        156
   221         62
   264         31
   308         31
   309         31
   337          6
   368         62