##TITLE=Library Entry 79811
##JCAMP-DX=Revision 4.10 
##DATA TYPE=MASS SPECTRUM
##SAMPLE DESCRIPTION=A.A.Kutin, Moscow, Russia
##NAMES=HP
##CAS NAME=Benzamide, N-[2-diethylamino-1-(2-furfurylideno)-2-oxo]ethyl-
##MOLFORM=C18H20N2O3
##CAS REGISTRY NO=16237-73-3
##MP= -300
##BP= -300
##MW= 312
##$RETENTION INDEX=0
##$CONDENSED SPECTRUM=NO
##NPOINTS= 178
##XYDATA=(XY..XY) 1 
    37          0
    38          2
    39          4
    40          1
    41          3
    42         13
    44         27
    45          0
    46          0
    50         16
    51         80
    52         42
    53          9
    54          3
    55          3
    56         10
    58         31
    60          0
    61          0
    62          1
    63          4
    64          2
    65          2
    66          1
    68          4
    69          3
    72        112
    73         11
    74          8
    77        503
    78         51
    79         40
    80         17
    81          7
    82          1
    83          0
    84          0
    86          3
    88          0
    89          1
    90          1
    91          1
    92          2
    93          1
    94          2
    95          1
    96          1
    97          0
    99          6
   100         40
   102          8
   105        999
   107        133
   108         22
   109          2
   110          0
   111          0
   112          0
   115          1
   116          0
   117          0
   118          0
   119          1
   120          3
   121          1
   122          0
   123          0
   124          1
   125          0
   127          2
   128          2
   129          0
   130          1
   131          0
   132          0
   134          4
   136         19
   137          1
   138          0
   139          1
   140          0
   141          0
   142          0
   143          0
   144          0
   145          0
   146          0
   147          0
   148          0
   149          0
   150          0
   151          0
   152          4
   153          1
   154          1
   155          1
   156          0
   157          0
   158          0
   160          0
   161          0
   162          2
   163          2
   164          0
   165          0
   166          0
   167          0
   168          0
   169          0
   170          0
   172          0
   173          1
   174          0
   175          1
   176          3
   177          0
   178          0
   179          0
   180          0
   181          0
   182          1
   183          1
   184          0
   185          0
   186          0
   187          0
   188          0
   189          1
   190          2
   191          8
   192          2
   193          0
   194          0
   195          0
   196          0
   197          0
   203          0
   204          0
   205          0
   207         10
   208          1
   209          0
   210          1
   211          4
   212          1
   213          2
   214          0
   217          0
   223          0
   224          0
   226          0
   227          0
   234          0
   235          2
   236          7
   239        176
   240         38
   241          6
   242          0
   254          0
   256          0
   265          0
   266          0
   267          0
   279          0
   280          0
   282          0
   283          0
   284          0
   293          0
   299          0
   307          0
   308          0
   309          1
   310          2
   312         24
   313          3
   314          0