##TITLE=Library Entry 52270
##JCAMP-DX=Revision 4.10 
##DATA TYPE=MASS SPECTRUM
##SAMPLE DESCRIPTION=Chemical Concepts
##NAMES=HP
##CAS NAME=Cycloheptanol, 2-methylene
##MOLFORM=C8H14O
##CAS REGISTRY NO=16240-38-3
##MP= -300
##BP= -300
##MW= 126
##$RETENTION INDEX=0
##$CONDENSED SPECTRUM=NO
##NPOINTS= 87
##XYDATA=(XY..XY) 1 
    26         15
    27        183
    28         65
    29        202
    30          7
    31         41
    33          1
    37          3
    38         15
    39        248
    40         56
    41        423
    42        117
    43        281
    44         38
    45         25
    46          0
    47          3
    48          7
    49          1
    50         18
    51         43
    52         22
    53        102
    54        164
    55        510
    56        112
    57        207
    58         74
    59         11
    60          1
    61          1
    62          3
    63          9
    64          2
    65         40
    66         31
    67        488
    68        135
    69        212
    70        450
    71        185
    72         68
    73          2
    74          2
    75          1
    76          0
    77         65
    78         27
    79        214
    80         72
    81         75
    82        268
    83        999
    84        208
    85         27
    86          2
    87          0
    89          0
    91         46
    92          7
    93        180
    94         18
    95         99
    96         17
    97        289
    98        215
    99         17
   100          0
   103          2
   104          0
   105          5
   106          0
   107         11
   108        106
   109         11
   110          2
   111        282
   112         23
   113          1
   114          0
   120          0
   121          0
   125         17
   126        161
   127         16
   128          1