##TITLE=Library Entry 40046
##JCAMP-DX=Revision 4.10 
##DATA TYPE=MASS SPECTRUM
##SAMPLE DESCRIPTION=Div. of Experiment Therapeutics WRAIR, WRAMC, Washingto
n DC 20307
##NAMES=HP
##CAS NAME=Dimethylthiocarbamic acid, o,4-biphenyl ester
##MOLFORM=C15H15NOS
##CAS REGISTRY NO=16241-08-0
##MP= -300
##BP= -300
##MW= 257
##$RETENTION INDEX=0
##$CONDENSED SPECTRUM=NO
##NPOINTS= 68
##XYDATA=(XY..XY) 1 
    42        144
    43         19
    44         32
    45         21
    47         37
    49          9
    50         15
    51         28
    52          6
    53          2
    54          2
    56         70
    57          2
    58          2
    59          2
    61         20
    63         46
    64          1
    65         13
    69          2
    70          1
    72        999
    73         96
    74         15
    75         17
    76         20
    77         13
    78          0
    84          3
    86          6
    88        923
    89         44
    90         40
    91          5
    92          1
    93          0
    98          1
    99          1
   101          1
   102         11
   113         10
   115        100
   116          7
   126         11
   127          5
   128          5
   129          2
   139         22
   141         36
   142          3
   152         59
   153         12
   154          1
   167          1
   169         10
   170          5
   171          1
   179          0
   180          3
   181          6
   183          2
   184          6
   185          7
   197          1
   256          3
   257        152
   258         26
   259          5