##TITLE=Library Entry 83175
##JCAMP-DX=Revision 4.10 
##DATA TYPE=MASS SPECTRUM
##SAMPLE DESCRIPTION=Chuck Anderson, Aldrich Chemical Co.
##NAMES=HP
##CAS NAME=4-Octylaniline
##MOLFORM=C14H23N
##CAS REGISTRY NO=16245-79-7
##MP= -300
##BP= -300
##MW= 205
##$RETENTION INDEX=0
##$CONDENSED SPECTRUM=NO
##NPOINTS= 55
##XYDATA=(XY..XY) 1 
    26          0
    27         14
    28          8
    29         19
    30          3
    36          3
    38          1
    39         11
    40          1
    41         23
    42          3
    43         11
    51          3
    52          3
    53          5
    54          2
    55          4
    57          3
    63          2
    64          0
    65         11
    66          5
    67          2
    69          1
    77         38
    78         17
    79         17
    80          4
    89          3
    90          1
    91          9
    92          9
    93         11
    94          4
   102          0
   103          3
   104          7
   105          3
   106        999
   107         77
   108          3
   115          2
   116          0
   117          4
   118          9
   119         17
   120          7
   121          0
   130          2
   131          1
   132          8
   133          2
   205         92
   206         14
   207          0