##TITLE=Library Entry 64602
##JCAMP-DX=Revision 4.10 
##DATA TYPE=MASS SPECTRUM
##SAMPLE DESCRIPTION=Japan AIST/NIMC Database- Spectrum MS-IW- 428
##NAMES=HP
##CAS NAME=Methyl 3-(4-benzyloxy-3-methoxyphenyl)-2,3-epoxypropionate
##MOLFORM=C18H18O5
##CAS REGISTRY NO=16249-39-1
##MP= -300
##BP= -300
##MW= 314
##$RETENTION INDEX=0
##$CONDENSED SPECTRUM=NO
##NPOINTS= 129
##XYDATA=(XY..XY) 1 
    15          7
    27          1
    28         10
    29          6
    30          1
    31         10
    32          3
    33          2
    38          1
    39         12
    40          1
    41          5
    43          3
    44          4
    45          3
    50          2
    51          9
    52          3
    53          2
    55          2
    57          2
    59         13
    61          1
    62          1
    63          7
    64          4
    65         54
    66          5
    67          1
    69          1
    71          1
    75          1
    76          2
    77         12
    78          6
    79          8
    80          2
    81          1
    82          1
    83          1
    85          1
    88          1
    89          9
    90          7
    91        999
    92         82
    93          8
    94          2
    95          2
    97          1
   103          1
   104          1
   105          9
   106          5
   107         17
   108          4
   109          1
   111          1
   117          2
   118          1
   119          2
   120          1
   121          3
   122          4
   123          3
   124          1
   125          3
   126          1
   133          2
   134          1
   135         10
   136          8
   137         29
   138          3
   139          1
   147          1
   149          5
   150          1
   151          8
   152          4
   153          4
   154          1
   163         89
   164         20
   165          5
   166          1
   167          2
   177          1
   179          1
   181          1
   183          2
   191         12
   192          1
   195          7
   196          1
   197          1
   207          3
   208          1
   211          3
   212          1
   213          1
   222          1
   223         63
   224         21
   225          5
   226          2
   227         34
   228          6
   237          2
   238          1
   241          3
   242         32
   243         59
   244          9
   245          1
   254          7
   255          4
   256          3
   257          8
   258          1
   271          1
   282          6
   283          2
   286          1
   296          2
   299          4
   314        112
   315         21
   316          4