##TITLE=Library Entry 97437
##JCAMP-DX=Revision 4.10 
##DATA TYPE=MASS SPECTRUM
##SAMPLE DESCRIPTION=D.HENNEBERG, MAX-PLANCK INSTITUTE, MULHEIM, WEST GERMAN
Y
##NAMES=HP
##CAS NAME=Pentacyclo[8.2.1.1(4,7).0(2,9).0(3,8)]exo-trans-endo-tetradeca-5,
11-diene
##MOLFORM=C14H16
##CAS REGISTRY NO=1624-12-0
##MP= -300
##BP= -300
##MW= 184
##$RETENTION INDEX=0
##$CONDENSED SPECTRUM=NO
##NPOINTS= 105
##XYDATA=(XY..XY) 1 
    26          1
    27         33
    28          0
    29          1
    37          1
    38          4
    39        112
    40         19
    41         46
    42          0
    44          3
    49          0
    50         12
    51         54
    52         47
    53         45
    54          1
    55          1
    58          0
    60          0
    61          0
    62          3
    63         30
    64         12
    65         88
    66        140
    67         49
    68          1
    69          0
    70          1
    71          1
    74          2
    75          6
    76          8
    77        103
    78         73
    79        127
    80         55
    81          2
    82          1
    83          1
    86          0
    87          1
    88          1
    89         13
    90         11
    91        279
    92         68
    93         32
    94          1
    98          0
   101          1
   102          7
   103         59
   104         42
   105         96
   106         38
   107          2
   108          0
   109          0
   111          1
   112          4
   114          5
   115        129
   116        101
   117        999
   118        478
   119         56
   120          1
   125          0
   126          1
   127         12
   128         64
   129         44
   130         52
   131          4
   132          0
   134          0
   138          0
   139          1
   140          1
   141         33
   142         23
   143         56
   144          4
   148          0
   150          0
   151          1
   152          4
   153          7
   154          7
   155         40
   156         21
   157          2
   163          0
   165          3
   166          0
   167          1
   168          1
   169         22
   170          1
   182          0
   183          3
   184         66
   185          7