##TITLE=Library Entry 97836
##JCAMP-DX=Revision 4.10 
##DATA TYPE=MASS SPECTRUM
##SAMPLE DESCRIPTION=A.A.Kutin, Moscow, Russia
##NAMES=HP
##CAS NAME=Acetamide, N-(3-oxo-5-phenylpyrazolidin-4-yl)-
##MOLFORM=C11H13N3O2
##CAS REGISTRY NO=16242-08-3
##MP= -300
##BP= -300
##MW= 219
##$RETENTION INDEX=0
##$CONDENSED SPECTRUM=NO
##NPOINTS= 171
##XYDATA=(XY..XY) 1 
    33         22
    34          0
    36          3
    37          9
    38         30
    39         96
    40         33
    41         46
    43        973
    44         35
    45          8
    46          1
    50         57
    51         91
    52         29
    53         14
    54         10
    55         18
    56         87
    57        498
    58         19
    59          8
    60          6
    61         12
    62         45
    63        110
    64         45
    65         72
    66         10
    67          3
    68          2
    69          4
    70          5
    71         11
    72         10
    73          8
    74         24
    75         35
    76         42
    77         98
    78         22
    79         13
    80          4
    81          1
    82          6
    83          9
    84         10
    85         18
    86          7
    87         13
    89        288
    90        214
    91        316
    92         30
    93         12
    94          2
    95          0
    96          1
    97          1
    98          3
    99          6
   100          8
   101         16
   102         49
   103         52
   104         42
   105         38
   106         28
   107          5
   108          1
   109          0
   110          1
   111          9
   112         10
   113         20
   114         10
   115         25
   116        128
   117        386
   118        999
   119        121
   120         32
   121         13
   122          3
   124          3
   125          0
   126          1
   127          4
   128          6
   129         13
   130         16
   131         32
   132         31
   133         20
   134          4
   135          1
   136          1
   137          0
   138          0
   139          1
   140          1
   141          6
   142         12
   143         10
   144         21
   145         17
   146         26
   147          9
   148          3
   149          1
   150          0
   151          0
   152          0
   153          0
   154          0
   155          0
   156          1
   157          1
   158          2
   159          9
   160         37
   161         12
   162         19
   163         99
   164         10
   165          1
   166          0
   167          0
   169          0
   170          1
   171          3
   172         13
   173          5
   174          3
   175          3
   176          7
   177         14
   178          2
   179          0
   180          0
   181          0
   182          0
   183          0
   184          1
   185          4
   186          7
   188        746
   189         83
   190          9
   191          1
   192          1
   193          0
   198          1
   200         89
   201        242
   202         32
   203          5
   205         17
   206          1
   207          0
   209          4
   210          0
   211          0
   212          0
   215          0
   216          1
   217          3
   218          5
   219         41
   220          5
   221          0