##TITLE=Library Entry 37550
##JCAMP-DX=Revision 4.10 
##DATA TYPE=MASS SPECTRUM
##SAMPLE DESCRIPTION=P. Vainiotalo, Dep. Chem., Joensuu Univ., Joensuu, Finl
and
##NAMES=HP
##CAS NAME=Oxazolidine, 2-ethyl-
##MOLFORM=C5H11NO
##CAS REGISTRY NO=16250-71-8
##MP= -300
##BP= -300
##MW= 101
##$RETENTION INDEX=0
##$CONDENSED SPECTRUM=NO
##NPOINTS= 32
##XYDATA=(XY..XY) 1 
    15         40
    19         25
    26         29
    27        137
    29         85
    30        116
    31         35
    38         11
    39         81
    40         26
    41        297
    42        293
    43         86
    44        271
    45        348
    46         11
    52         13
    54         55
    55         34
    56        139
    57         45
    58         21
    68         30
    69         12
    70        999
    71        141
    72        651
    73         21
    83         44
   100         32
   101         29
   102          2