##TITLE=Library Entry 80416
##JCAMP-DX=Revision 4.10 
##DATA TYPE=MASS SPECTRUM
##SAMPLE DESCRIPTION=Chuck Anderson, Aldrich Chemical Co.
##NAMES=HP
##CAS NAME=Benzenepropanal, .beta.-methyl-
##MOLFORM=C10H12O
##CAS REGISTRY NO=16251-77-7
##MP= -300
##BP= -300
##MW= 148
##$RETENTION INDEX=0
##$CONDENSED SPECTRUM=NO
##NPOINTS= 73
##XYDATA=(XY..XY) 1 
    15          9
    26          8
    27         91
    28          8
    29         43
    31          1
    32          0
    37          3
    38         12
    39        123
    40         10
    41        102
    42         28
    43         11
    44          1
    49          1
    50         56
    51        168
    52         43
    53         25
    55         58
    56          0
    57          9
    61          3
    62         19
    63         61
    64         10
    65         74
    66          8
    69          9
    70          4
    71          3
    73          2
    74         25
    75         21
    76         23
    77        363
    78        228
    79        275
    80         17
    86          3
    87          4
    89         25
    90          4
    91        514
    92         43
    93          2
    98          1
   101          3
   102         32
   103        212
   104         81
   105        999
   106        290
   107         31
   115         99
   116         14
   117         22
   118          4
   119         34
   120          5
   127          1
   128          6
   129         28
   130        141
   131         26
   133        352
   134         30
   135          1
   147         71
   148        415
   149         39
   150          1