##TITLE=Library Entry 40768
##JCAMP-DX=Revision 4.10 
##DATA TYPE=MASS SPECTRUM
##SAMPLE DESCRIPTION=LAC, NIDDK, NIH, Bethesda, MD 20892
##NAMES=HP
##CAS NAME=6-Oxa-3-thiaoctanoic acid
##MOLFORM=C6H12O3S
##CAS REGISTRY NO=162514-01-4
##MP= -300
##BP= -300
##MW= 164
##$RETENTION INDEX=0
##$CONDENSED SPECTRUM=NO
##NPOINTS= 61
##XYDATA=(XY..XY) 1 
    41         16
    42         28
    43         86
    44         38
    45        889
    46        116
    47         46
    48          8
    49          5
    55          1
    56          0
    57          5
    58         12
    59         33
    60         23
    61         14
    62          2
    63         10
    64          4
    65          0
    69          1
    70          0
    71          3
    73        999
    74         45
    75         24
    76          4
    77         10
    78          3
    79          6
    81          1
    84          0
    86          0
    89          2
    90          5
    91         11
    92         16
    93          6
    94          0
    95          1
   101         27
   102          1
   103          5
   104          2
   105         22
   106          4
   107          2
   109          2
   117          1
   118          7
   119         64
   120          4
   121          9
   133          0
   134          1
   147          8
   148          2
   163          0
   164         18
   165          5
   166          1