##TITLE=Library Entry 22553
##JCAMP-DX=Revision 4.10 
##DATA TYPE=MASS SPECTRUM
##SAMPLE DESCRIPTION=P. Vainiotalo, Dep. Chem., Joensuu Univ., Joensuu, Finl
and
##NAMES=HP
##CAS NAME=Oxazolidine, 2-methyl-
##MOLFORM=C4H9NO
##CAS REGISTRY NO=16250-70-7
##MP= -300
##BP= -300
##MW= 87
##$RETENTION INDEX=0
##$CONDENSED SPECTRUM=NO
##NPOINTS= 21
##XYDATA=(XY..XY) 1 
    15         51
    26         36
    27        107
    29        109
    30         94
    31         33
    40         27
    41         69
    42        122
    43         81
    44        208
    45        113
    54         35
    55         25
    56        999
    57        161
    58         26
    72        253
    73         14
    86         30
    87         51