##TITLE=Library Entry 86372
##JCAMP-DX=Revision 4.10 
##DATA TYPE=MASS SPECTRUM
##SAMPLE DESCRIPTION=D.Stocke ET AL.J.Am.Soc.Mass.Spectrom.,6,264(1995)
##NAMES=HP
##CAS NAME=3-Heptabutyriloxy-17.beta.-methyl-18-norpregna-3,5,13-trien-20-on
e
##MOLFORM=C25H27F7O3
##CAS REGISTRY NO=162608-89-1
##MP= -300
##BP= -300
##MW= 508
##$RETENTION INDEX=0
##$CONDENSED SPECTRUM=NO
##NPOINTS= 131
##XYDATA=(XY..XY) 1 
    50         13
    51         31
    52         13
    53        136
    55        420
    56         21
    57         23
    59         15
    65        130
    66         29
    67        586
    68         17
    69        614
    70         15
    77        315
    78         88
    79        408
    80         53
    81        323
    82         33
    83         47
    85         47
    89         21
    91        584
    92        104
    93        282
    94         45
    95        418
    96         51
    97         21
    99         21
   100         61
   102         13
   103        118
   104         55
   105        446
   106         69
   107        282
   108         31
   109        999
   110         96
   111         37
   115        258
   116        104
   117        304
   118        116
   119        205
   120         31
   121        384
   122         51
   123         61
   126         25
   127         61
   128        199
   129        234
   130         90
   131        258
   132         96
   133        957
   134        110
   135         78
   141        157
   142         96
   143        167
   144         61
   145        288
   146         84
   147        615
   148        144
   149         17
   152         35
   153         61
   154         43
   155        209
   156         43
   157         78
   158         25
   159        161
   160         49
   161         25
   165         67
   166         23
   167         49
   168         27
   169        353
   170         19
   171         27
   172         35
   173         75
   174         37
   175         13
   178         33
   179         35
   180         11
   181         37
   183         33
   185         31
   187         19
   191         11
   193         19
   195         33
   197         25
   207         19
   209         19
   211         25
   233         43
   251         55
   252         11
   253         11
   268         11
   269         11
   279         37
   293         75
   305         24
   317         30
   319         18
   332         30
   343         22
   345         28
   355         41
   357         28
   359         22
   369        590
   370        182
   371         38
   465        687
   466        293
   467         49
   493          1
   507          1
   508          2