##TITLE=Library Entry 9737
##JCAMP-DX=Revision 4.10 
##DATA TYPE=MASS SPECTRUM
##SAMPLE DESCRIPTION=Exported from NIST MS Search
##NAMES=HP
##CAS NAME=2,7-Octanedione
##MOLFORM=C8H14O2
##CAS REGISTRY NO=1626-09-1
##MP= -300
##BP= -300
##MW= 142
##$RETENTION INDEX=0
##$CONDENSED SPECTRUM=NO
##NPOINTS= 25
##XYDATA=(XY..XY) 1 
    41         50
    42         40
    43        999
    44         40
    53         10
    55         30
    57         20
    58        220
    59         20
    69         50
    71        120
    72         30
    73         20
    81         50
    84        230
    85         60
    86         10
    99         17
   109          9
   114          9
   115          1
   124          2
   127          1
   142         12
   143          1