##TITLE=Library Entry 22930
##JCAMP-DX=Revision 4.10 
##DATA TYPE=MASS SPECTRUM
##SAMPLE DESCRIPTION=Asinex Ltd, Moscow, Russia
##NAMES=HP
##CAS NAME=1-(4-Nitro-phenyl)-4-(toluene-4-sulfonyl)-piperazine
##MOLFORM=C17H19N3O4S
##CAS REGISTRY NO=16264-09-8
##MP= -300
##BP= -300
##MW= 361
##$RETENTION INDEX=0
##$CONDENSED SPECTRUM=NO
##NPOINTS= 135
##XYDATA=(XY..XY) 1 
    33         13
    34          8
    36          0
    37          2
    38         10
    39         67
    40        115
    41         60
    42         97
    43         33
    44        192
    45         17
    46          1
    48         12
    49          0
    50         26
    51         44
    52         13
    53         10
    54         34
    56        999
    57         39
    58         20
    59          1
    60          1
    61          1
    62          7
    63         33
    64         31
    65         99
    66          9
    67          5
    68          3
    69          6
    70          5
    71          5
    73         35
    74          5
    75         12
    76         31
    77         58
    78         36
    79          9
    80          2
    81          3
    82          2
    83          3
    84          2
    85          1
    87          0
    89         29
    91        210
    92         29
    93          5
    94          1
    95          2
    96          0
    97          1
    98          0
   102          6
   103         22
   104         22
   105         30
   106         16
   107          4
   108          2
   109          1
   111          0
   112          1
   115          0
   117         10
   118         12
   119         21
   120         26
   121          5
   122          3
   123          1
   124          1
   129          1
   130          9
   131         16
   132         14
   133         30
   134          7
   135          2
   136         10
   137          1
   139          4
   140          0
   145          1
   146          1
   147          1
   149         22
   150         15
   151          7
   152          0
   155         18
   156          1
   157          3
   158          8
   159          7
   160         54
   161         18
   162          3
   163          1
   165         31
   166          2
   171          1
   174          1
   175          1
   176          9
   177         23
   178          7
   179         12
   180          0
   190         19
   191          1
   192          0
   204         52
   206        927
   207         99
   208          9
   209          0
   229          0
   250          0
   331          0
   345          1
   355          0
   356          2
   357          6
   358          5
   359          9
   361        131
   362         19
   363          7