##TITLE=Library Entry 80876
##JCAMP-DX=Revision 4.10 
##DATA TYPE=MASS SPECTRUM
##SAMPLE DESCRIPTION=NIST Mass Spectrometry Data Center, 1994
##NAMES=HP
##CAS NAME=8-Benzoyloctanoic acid
##MOLFORM=C15H20O3
##CAS REGISTRY NO=16269-05-9
##MP= -300
##BP= -300
##MW= 248
##$RETENTION INDEX=0
##$CONDENSED SPECTRUM=NO
##NPOINTS= 93
##XYDATA=(XY..XY) 1 
     8          1
    17          2
    18          7
    26          3
    27         67
    28         25
    29         37
    36          4
    37          2
    38          6
    39         71
    40          9
    41        108
    42         35
    43         31
    44          2
    45         58
    50         41
    51        158
    52         14
    53         16
    54          6
    55         99
    56         10
    57          5
    60         32
    61          1
    62          3
    63          7
    64          2
    65         12
    66          3
    67          9
    68          5
    69         14
    70          2
    71          2
    73         12
    75          9
    76         30
    77        508
    78         81
    79         11
    81          4
    83          6
    84          2
    86          3
    89          4
    90          1
    91         30
    92          7
    97          3
    98          4
   102          3
   103          6
   105        999
   106         70
   107          6
   115         12
   116          2
   117          5
   118          2
   119          2
   120        567
   121         72
   122          6
   125          1
   128          5
   129          7
   130          2
   131          3
   132          1
   133         48
   134          6
   138          2
   144          2
   145          3
   146          2
   147          1
   157          2
   159          1
   161          1
   173          2
   174          2
   187          1
   188          4
   201          3
   202         13
   216          9
   217          1
   230          4
   234          3
   248          4