##TITLE=Library Entry 78956
##JCAMP-DX=Revision 4.10 
##DATA TYPE=MASS SPECTRUM
##SAMPLE DESCRIPTION=Chuck Anderson, Aldrich Chemical Co.
##NAMES=HP
##CAS NAME=Butyrophenone, 2-phenyl-
##MOLFORM=C16H16O
##CAS REGISTRY NO=16282-16-9
##MP= -300
##BP= -300
##MW= 224
##$RETENTION INDEX=0
##$CONDENSED SPECTRUM=NO
##NPOINTS= 60
##XYDATA=(XY..XY) 1 
    26          1
    27         11
    28          2
    29          2
    38          1
    39         20
    40          1
    41         29
    42          0
    50         11
    51         50
    52          6
    53          2
    62          3
    63         11
    64          3
    65         20
    66          1
    74          4
    75          5
    76         11
    77        268
    78         30
    79          7
    82          1
    83          1
    87          1
    88          0
    89         13
    90          7
    91        191
    92         14
   102          4
   103         12
   104         15
   105        999
   106         76
   107          5
   115         19
   116          3
   117         16
   118         28
   119         18
   120          2
   127          0
   128          1
   131          0
   139          1
   151          1
   152          6
   153          0
   163          1
   164          1
   165         12
   166          2
   167          2
   176          0
   178          1
   224         19
   225          3