##TITLE=Library Entry 37460
##JCAMP-DX=Revision 4.10 
##DATA TYPE=MASS SPECTRUM
##SAMPLE DESCRIPTION=M.Lounasmaa ET AL.Acta.Chem.Scand.,25,3428(1971)
##NAMES=HP
##CAS NAME=Propionylfilicinic acid
##MOLFORM=C11H14O4
##CAS REGISTRY NO=16296-99-4
##MP= -300
##BP= -300
##MW= 210
##$RETENTION INDEX=0
##$CONDENSED SPECTRUM=NO
##NPOINTS= 59
##XYDATA=(XY..XY) 1 
    38         22
    39        260
    40         73
    41        447
    42        424
    43        382
    44         14
    51         45
    52         28
    53        116
    54         36
    55        184
    56         53
    57        917
    58         53
    65         33
    66          8
    67        144
    68        161
    69        376
    70        999
    71        121
    75         56
    77         33
    79         22
    80         22
    81         22
    82         11
    83         39
    84        203
    85         73
    86         53
    97        155
    98         62
    99        124
   111        206
   112        773
   113         53
   125        144
   126         25
   139        124
   140        186
   141         36
   143        206
   149         53
   150         76
   153         96
   154        155
   163         36
   167         50
   168         56
   177         42
   181        178
   182         65
   192         84
   195        371
   196         53
   210        546
   211         76