##TITLE=Library Entry 18872
##JCAMP-DX=Revision 4.10 
##DATA TYPE=MASS SPECTRUM
##SAMPLE DESCRIPTION=Japan AIST/NIMC Database- Spectrum MS-IW-6353
##NAMES=HP
##CAS NAME=1-Penten-3-one
##MOLFORM=C5H8O
##CAS REGISTRY NO=1629-58-9
##MP= -300
##BP= -300
##MW= 84
##$RETENTION INDEX=681
##$CONDENSED SPECTRUM=NO
##NPOINTS= 40
##XYDATA=(XY..XY) 1 
    14          2
    15          3
    25          4
    26         40
    27        279
    28         33
    29        162
    30          4
    31          3
    37          4
    38          5
    39         21
    40          4
    41         18
    42          9
    43         13
    49          1
    50          5
    51          4
    52          1
    53         11
    54          5
    55        999
    56         79
    57         98
    58          3
    61          2
    62          2
    63          2
    65          3
    66          3
    67          4
    69          4
    79          1
    81          2
    82          1
    83         33
    84        210
    85         15
    86          1