##TITLE=Library Entry 12119
##JCAMP-DX=Revision 4.10 
##DATA TYPE=MASS SPECTRUM
##SAMPLE DESCRIPTION=A.A.Kutin, Moscow, Russia
##NAMES=HP
##CAS NAME=Ethanone, 1-(2-benzothiazolyl)-
##MOLFORM=C9H7NOS
##CAS REGISTRY NO=1629-78-3
##MP= -300
##BP= -300
##MW= 177
##$RETENTION INDEX=0
##$CONDENSED SPECTRUM=NO
##NPOINTS= 120
##XYDATA=(XY..XY) 1 
    33          3
    34          3
    36          2
    37         20
    38         35
    39         80
    40         28
    41          9
    43        999
    44         37
    45         69
    46          2
    47          5
    48          1
    49          6
    50         56
    51         27
    52         14
    53          5
    54          4
    55          5
    56          5
    57         23
    58         42
    59          7
    60          5
    61         13
    62         28
    63        111
    64         48
    65          7
    66          1
    67          6
    69        162
    70         19
    71         13
    72          2
    73          8
    74         24
    75         33
    76         22
    77         14
    78          3
    79          1
    80          4
    81         37
    82         72
    83         13
    84         21
    85          2
    86          2
    87          3
    88          7
    89          5
    90         76
    91         58
    92          5
    93         13
    94         10
    95          5
    96          3
    97          1
    98          1
    99          2
   100          2
   101          1
   102          4
   103          3
   104          5
   105          4
   106          9
   107         42
   108        239
   109         26
   110         13
   111          2
   112          2
   113          0
   114          1
   116          2
   117          2
   118          1
   120          2
   121          4
   122          2
   123          0
   125          0
   128          0
   129          1
   130          1
   132          1
   133         25
   134        138
   135        914
   136         88
   137         43
   138          4
   144          0
   145          0
   146          2
   149        318
   150         28
   151         15
   152          2
   158          0
   160          1
   162        105
   163          9
   164          5
   165          0
   170          0
   171          4
   172          0
   173          0
   174          1
   175          3
   177        745
   178         82
   179         35
   180          4