##TITLE=Library Entry 8721
##JCAMP-DX=Revision 4.10 
##DATA TYPE=MASS SPECTRUM
##SAMPLE DESCRIPTION=Asinex Ltd, Moscow, Russia
##NAMES=HP
##CAS NAME=1,2,4-Oxadiazole-3-carboximidamide, N'-hydroxy-5-methyl-
##MOLFORM=C4H6N4O2
##CAS REGISTRY NO=162969-65-5
##MP= -300
##BP= -300
##MW= 142
##$RETENTION INDEX=0
##$CONDENSED SPECTRUM=NO
##NPOINTS= 58
##XYDATA=(XY..XY) 1 
    33         12
    34          1
    38         14
    39         16
    40         62
    41        120
    42        281
    43        999
    44        110
    45          2
    51         15
    52         32
    53        108
    54         79
    55         15
    56          4
    58         51
    59         25
    60          0
    64          0
    65          2
    66          5
    67         11
    68         37
    69         68
    70        343
    71         56
    72          1
    77          1
    78          0
    79          8
    80          6
    81         13
    83         18
    84         39
    85        166
    86          6
    87          5
    91          0
    93          0
    94          3
    95          3
    96          0
    97          2
   100        190
   101          7
   107          0
   110         91
   112         43
   113          1
   125          3
   126          4
   127          1
   128          1
   129          0
   142        302
   143         14
   144          1