##TITLE=Library Entry 56785
##JCAMP-DX=Revision 4.10 
##DATA TYPE=MASS SPECTRUM
##SAMPLE DESCRIPTION=P. Vainiotalo, Dep. Chem., Joensuu Univ., Joensuu, Finl
and
##NAMES=HP
##CAS NAME=Oxazolidine, 3-methyl-2-phenyl-
##MOLFORM=C10H13NO
##CAS REGISTRY NO=163-62-2
##MP= -300
##BP= -300
##MW= 163
##$RETENTION INDEX=0
##$CONDENSED SPECTRUM=NO
##NPOINTS= 38
##XYDATA=(XY..XY) 1 
    15         26
    27         19
    29         17
    30         37
    39         22
    41         13
    42         88
    43         17
    50         17
    51         50
    52         11
    56         53
    57         19
    58        104
    59          9
    63         19
    65         22
    66          8
    76          8
    77        100
    78         22
    79          7
    86        999
    87         50
    89         28
    90         32
    91         99
    92         17
   105        141
   106         16
   117         12
   118         19
   119         23
   132        131
   133         17
   162        314
   163        120
   164         12