##TITLE=Library Entry 81902
##JCAMP-DX=Revision 4.10 
##DATA TYPE=MASS SPECTRUM
##SAMPLE DESCRIPTION=Chemical Concepts
##NAMES=HP
##CAS NAME=Benzamide, N-methyl-N-(2'-t-butylcarbonylphenyl)-
##MOLFORM=C19H21NO2
##CAS REGISTRY NO=163064-62-8
##MP= -300
##BP= -300
##MW= 295
##$RETENTION INDEX=0
##$CONDENSED SPECTRUM=NO
##NPOINTS= 148
##XYDATA=(XY..XY) 1 
    26          0
    27         13
    28          1
    29         64
    30          3
    38          2
    39         22
    40          3
    41         53
    42          4
    43          1
    50          9
    51         69
    52          6
    53          2
    54          0
    55          3
    56          6
    57         39
    58          1
    62          0
    63         10
    64          9
    65          6
    66          2
    68          0
    69          0
    70          0
    74          1
    75          3
    76         16
    77        540
    78         55
    79          7
    80          0
    88          0
    89          2
    90          5
    91          9
    92          5
    93          1
    94          0
   101          0
   102          1
   103          2
   104         35
   105        999
   106         77
   107          5
   108          0
   113          0
   114          0
   115          2
   116          2
   117          2
   118         22
   119          2
   120          0
   126          0
   127          1
   128          1
   129          0
   130          2
   131          2
   132         13
   133          7
   134          9
   135          1
   138          0
   139          1
   140          1
   141          1
   142          0
   143          0
   144          1
   145          1
   146          1
   147          0
   148          0
   150          3
   151          1
   152          4
   153          1
   154          0
   156          0
   157          0
   158          3
   159          1
   160          3
   161          0
   162          0
   164          0
   165          1
   166          2
   167          8
   168          1
   169          0
   172          1
   173          0
   174          1
   175          0
   178          1
   179          0
   180          6
   181          6
   182          2
   183          0
   184          1
   188          0
   189          0
   190          8
   191          1
   192          0
   194          2
   195          4
   196          0
   204          0
   206          0
   207          0
   208          1
   209          3
   210        252
   211         38
   212          3
   220          0
   221          0
   222          0
   223          0
   224          0
   234          0
   236          0
   237          0
   238        898
   239        135
   240         14
   241          1
   248          0
   254          0
   255          0
   262          2
   263          0
   266          0
   267          0
   280          1
   281          0
   294          0
   295          1
   296          0