##TITLE=Library Entry 26756
##JCAMP-DX=Revision 4.10 
##DATA TYPE=MASS SPECTRUM
##SAMPLE DESCRIPTION=Chemical Concepts
##NAMES=HP
##CAS NAME=Pivalamide, N-methyl-N-[2-(t-butylcarbonyl)phenyl]-
##MOLFORM=C17H25NO2
##CAS REGISTRY NO=163064-65-1
##MP= -300
##BP= -300
##MW= 275
##$RETENTION INDEX=0
##$CONDENSED SPECTRUM=NO
##NPOINTS= 150
##XYDATA=(XY..XY) 1 
    25          0
    26          0
    27         26
    28          3
    29        240
    30         11
    31          0
    37          0
    38          1
    39         41
    41        276
    42         29
    43          7
    44          1
    49          0
    50          4
    51         17
    52          3
    53          5
    54          1
    55         24
    56         13
    57        999
    58         38
    59          1
    62          0
    63          9
    64         11
    65         10
    66          2
    67          0
    68          0
    69         21
    70          2
    71          1
    72          0
    73          0
    74          0
    75          1
    76          7
    77         82
    78         39
    79         29
    80          2
    82          0
    83          4
    84          0
    85         28
    86          1
    87          0
    88          0
    89          1
    90          9
    91         25
    92         13
    93          2
    94          0
    95          0
    96          0
    98         12
    99          1
   101          0
   102          2
   103          3
   104         53
   105         51
   106         39
   107         10
   108          1
   109          0
   113          0
   114          0
   115          4
   116         20
   117          9
   118          4
   119          3
   120          2
   121          1
   122          0
   123          0
   127          0
   128          1
   129          1
   130          6
   131          4
   132         20
   133         15
   134        799
   135         72
   136          4
   137          0
   140          0
   141          0
   142          0
   143          2
   144          8
   145          3
   146          5
   147          1
   148          1
   149          0
   151          0
   153          0
   155          0
   156          0
   157          1
   158         11
   159         19
   160         11
   161          4
   162         26
   163         24
   164          2
   165          0
   168          0
   170          0
   172          3
   173          0
   174         30
   175          5
   176         12
   177          1
   178          0
   184          0
   186          0
   187          0
   188          1
   189          0
   190        532
   191         77
   192          8
   193          0
   202          1
   203          0
   204          1
   205          0
   216          0
   217          0
   218        500
   219         70
   220          7
   221          0
   225          0
   232          3
   233          0
   260          5
   261          1
   275          2
   276          0