##TITLE=Library Entry 56058
##JCAMP-DX=Revision 4.10 
##DATA TYPE=MASS SPECTRUM
##SAMPLE DESCRIPTION=P. Vainiotalo, Dep. Chem., Joensuu Univ., Joensuu, Finl
and
##NAMES=HP
##CAS NAME=Oxazolidine, 2-ethyl-3-methyl-
##MOLFORM=C6H13NO
##CAS REGISTRY NO=1630-75-7
##MP= -300
##BP= -300
##MW= 115
##$RETENTION INDEX=0
##$CONDENSED SPECTRUM=NO
##NPOINTS= 22
##XYDATA=(XY..XY) 1 
    15         17
    27         37
    29         54
    30         95
    39         19
    41         41
    42        125
    43         42
    44         28
    55         13
    56         54
    57         42
    58        369
    59         16
    70         62
    71         12
    84         59
    85         34
    86        999
    87         51
   115         46
   116          4