##TITLE=Library Entry 72039
##JCAMP-DX=Revision 4.10 
##DATA TYPE=MASS SPECTRUM
##SAMPLE DESCRIPTION=ORMSBG,9(3)289(1974); HANCOCK
##NAMES=HP
##CAS NAME=Diborane(4)tetramine, octamethyl-
##MOLFORM=C8H24B2N4
##CAS REGISTRY NO=1630-79-1
##MP= -300
##BP= -300
##MW= 198
##$RETENTION INDEX=0
##$CONDENSED SPECTRUM=NO
##NPOINTS= 7
##XYDATA=(XY..XY) 1 
    44        220
    56        270
    99        999
   111         70
   154        220
   183         80
   198        100