##TITLE=Library Entry 76464
##JCAMP-DX=Revision 4.10 
##DATA TYPE=MASS SPECTRUM
##SAMPLE DESCRIPTION=V.G. Zaikin, TIPS RAS, Moscow, Russia
##NAMES=HP
##CAS NAME=2-Triethylsilyloxytetradecane
##MOLFORM=C20H44OSi
##CAS REGISTRY NO=163015-57-4
##MP= -300
##BP= -300
##MW= 328
##$RETENTION INDEX=0
##$CONDENSED SPECTRUM=NO
##NPOINTS= 115
##XYDATA=(XY..XY) 1 
    27        303
    28         45
    29        521
    30          6
    31         18
    39        125
    40         26
    41        543
    42        102
    43        644
    44         22
    45        178
    46         12
    47        244
    48         16
    49          6
    51         22
    52         16
    53         28
    54         20
    55        260
    56         60
    57        230
    58         50
    59        174
    60         20
    61         42
    63          5
    65         11
    66          7
    67         30
    68          7
    69         85
    70         16
    71         49
    72          6
    73         64
    74         40
    75        824
    76         50
    77         19
    78          6
    79         11
    80          5
    81         17
    82          8
    83         31
    84          6
    85         16
    86         19
    87        234
    88         20
    89         20
    90          4
    91         11
    95         16
    96          2
    97         31
    98          6
    99         24
   100          5
   101         19
   103        999
   104         98
   105         51
   109          4
   110          3
   111         10
   113         17
   114          5
   115        198
   116         23
   117         18
   118          6
   119          9
   121          3
   125         16
   126          3
   127         18
   129         20
   131         29
   139          5
   143         19
   145          6
   149          4
   153          9
   157         12
   158          6
   159        138
   160         19
   161          2
   185         10
   186          4
   187          2
   199         19
   200          5
   201          5
   213         20
   214          3
   229         21
   230          3
   243          9
   255          4
   257          2
   269          6
   271          3
   285          3
   297          4
   298          3
   299        445
   300        115
   301         17
   313         16
   314          5
   315          2