##TITLE=Library Entry 68879
##JCAMP-DX=Revision 4.10 
##DATA TYPE=MASS SPECTRUM
##SAMPLE DESCRIPTION=Chemical Concepts
##NAMES=HP
##CAS NAME=Furan-2-carboxamide, N-(2'-benzoylphenyl)-
##MOLFORM=C18H13NO3
##CAS REGISTRY NO=163064-51-5
##MP= -300
##BP= -300
##MW= 291
##$RETENTION INDEX=0
##$CONDENSED SPECTRUM=NO
##NPOINTS= 158
##XYDATA=(XY..XY) 1 
    26          1
    27          4
    28          0
    29          2
    37          1
    38          7
    39        107
    40          3
    41          2
    42          0
    44          1
    50          7
    51         48
    52          6
    53          6
    55          1
    62          2
    63         15
    64         12
    65         17
    66          4
    67         52
    68          4
    69          1
    74          2
    75          5
    76          9
    77        164
    78         12
    79          1
    81          1
    87          0
    88          1
    89          4
    90         23
    91          5
    92         13
    93          8
    94          3
    95        999
    96         56
    97          6
    98          0
   101          2
   102          6
   103          3
   104          2
   105        157
   106         12
   107          4
   113          2
   114          2
   115          9
   116          2
   117          1
   118          4
   119          2
   120          5
   121          2
   125          0
   126          2
   127          1
   128          3
   129          3
   130          7
   131          1
   132          1
   138          0
   139          8
   140          5
   141          2
   146        121
   147         13
   148          0
   150          1
   151          5
   152         12
   153          2
   156          2
   157          2
   158         19
   159          2
   164          1
   165          1
   166         11
   167         39
   168          8
   169          1
   170          9
   171          3
   172          0
   176          0
   177          1
   178          3
   179          5
   180         14
   181          3
   184          1
   185          3
   186        909
   187        112
   188         11
   189          0
   191          1
   193          0
   194          1
   195         23
   196        148
   197         25
   198          3
   199          0
   204          2
   205          0
   206          3
   207          1
   208          1
   209          4
   210          0
   212          3
   214        124
   215         16
   216          2
   217          2
   218          2
   219          1
   220          5
   221          1
   222          1
   223          0
   224          2
   225          0
   230          1
   232          0
   233          1
   234          6
   235          4
   236          1
   237          1
   244          0
   245          0
   246          4
   247          1
   248          5
   249          1
   259          1
   261          0
   262         36
   263         16
   264          3
   265          1
   272          1
   274          4
   275          1
   290         14
   291        401
   292         78
   293         10
   294          1