##TITLE=Library Entry 81831
##JCAMP-DX=Revision 4.10 
##DATA TYPE=MASS SPECTRUM
##SAMPLE DESCRIPTION=Chemical Concepts
##NAMES=HP
##CAS NAME=Benzamide, N-[2'-(acetoxymethylcarbonyl)phenyl]-
##MOLFORM=C17H15NO4
##CAS REGISTRY NO=163064-73-1
##MP= -300
##BP= -300
##MW= 297
##$RETENTION INDEX=0
##$CONDENSED SPECTRUM=NO
##NPOINTS= 167
##XYDATA=(XY..XY) 1 
    25          0
    26          0
    27          3
    29          1
    30          0
    31          1
    35          0
    37          0
    38          1
    39          8
    40          4
    41          2
    42          2
    43        142
    44          3
    45          1
    48          0
    49          1
    50         12
    51         76
    52          7
    53          1
    54          0
    55          0
    58          0
    60          0
    61          0
    62          1
    63          9
    64          9
    65         13
    66          2
    67          0
    69          0
    73          1
    74          2
    75          5
    76         19
    77        559
    78         40
    79          2
    80          0
    81          0
    82          0
    84          0
    86          0
    87          0
    88          0
    89          2
    90          6
    91          4
    92         15
    93          3
    94          1
    97          0
    99          0
   101          0
   102          1
   103          1
   104          8
   105        999
   106         74
   107          4
   108          0
   113          0
   114          0
   115          1
   116          0
   117          1
   118          1
   119          8
   120          7
   121          3
   122          0
   123          0
   125          0
   127          0
   128          0
   129          0
   130          0
   132          5
   133          6
   134          5
   135          0
   136          0
   138          0
   139          2
   140          1
   141          0
   144          0
   145          0
   146         47
   147          5
   148          0
   150          0
   151          1
   152          1
   153          0
   154          0
   159          0
   160          0
   161          0
   162          0
   164          0
   165          0
   166          2
   167          6
   168          1
   169          0
   170          0
   171          0
   172          0
   173          1
   174          0
   175          0
   176          0
   177          0
   178          2
   179          4
   180          2
   181          0
   182          0
   186          0
   191          0
   192          0
   193          0
   194          0
   195          5
   196         32
   197          6
   198          0
   199          0
   200          0
   201          0
   204          0
   205          0
   206          0
   207          0
   208          1
   209          0
   210          0
   213          0
   219          0
   220          0
   222          0
   223          4
   224        873
   225        135
   226         14
   227          0
   228          1
   229          0
   236          0
   237          1
   238          1
   239          1
   240          0
   241          4
   242          0
   243          0
   253          0
   254          0
   255          0
   282          0
   297         75
   298         11
   299          1