##TITLE=Library Entry 48125
##JCAMP-DX=Revision 4.10 
##DATA TYPE=MASS SPECTRUM
##SAMPLE DESCRIPTION=RADIAN CORP
##NAMES=HP
##CAS NAME=Silane, chloromethylphenyl-
##MOLFORM=C7H9ClSi
##CAS REGISTRY NO=1631-82-9
##MP= -300
##BP= -300
##MW= 156
##$RETENTION INDEX=1028
##$CONDENSED SPECTRUM=NO
##NPOINTS= 50
##XYDATA=(XY..XY) 1 
    15          5
    27         18
    38          5
    39         42
    42         15
    43         77
    50        104
    51        188
    52         32
    53        131
    54         14
    55          3
    62          2
    63        868
    64         62
    65        363
    66         23
    67         33
    76         19
    77        152
    78        999
    79        211
    80        334
    81         55
    82          2
    88          5
    89         35
    90          5
    91        112
    92         11
    93         26
   101          2
   103         59
   105        170
   106         25
   115         15
   117          3
   119         31
   120         16
   121         15
   140         42
   141        767
   142        103
   143        278
   144         28
   155        648
   156        644
   157        304
   158        224
   159         32