##TITLE=Library Entry 19997
##JCAMP-DX=Revision 4.10 
##DATA TYPE=MASS SPECTRUM
##SAMPLE DESCRIPTION=CARL DJERASSI DEPT OF CHEM STANFORD UNIV STANFORD CALIF
 94305
##NAMES=HP
##CAS NAME=2H-Pyran, 2-(ethylthio)tetrahydro-
##MOLFORM=C7H14OS
##CAS REGISTRY NO=16315-51-8
##MP= -300
##BP= -300
##MW= 146
##$RETENTION INDEX=0
##$CONDENSED SPECTRUM=NO
##NPOINTS= 33
##XYDATA=(XY..XY) 1 
    41        360
    42         30
    43        200
    44         20
    45        130
    46         50
    47        380
    48         10
    49         20
    50         30
    51         30
    52         10
    53        100
    54        210
    55        999
    56        240
    57        240
    58         40
    59         40
    60         20
    61         70
    62        520
    63         20
    64         20
    67        110
    69         60
    73         10
    75         10
    83        230
    84        490
    85        520
    86         10
   146         20