##TITLE=Library Entry 92442
##JCAMP-DX=Revision 4.10 
##DATA TYPE=MASS SPECTRUM
##SAMPLE DESCRIPTION=Japan AIST/NIMC Database- Spectrum MS-IW-1210
##NAMES=HP
##CAS NAME=4-Methylurazole
##MOLFORM=C3H5N3O2
##CAS REGISTRY NO=16312-79-1
##MP= -300
##BP= -300
##MW= 115
##$RETENTION INDEX=0
##$CONDENSED SPECTRUM=NO
##NPOINTS= 36
##XYDATA=(XY..XY) 1 
    14          1
    15         48
    16          5
    18          2
    26          1
    27         13
    28         99
    29         58
    30        131
    31         27
    32          1
    40          1
    41          2
    42          7
    43         23
    44         22
    45          1
    53          2
    54          1
    55          6
    56         31
    57         11
    58        677
    59         15
    60          1
    70         21
    71          1
    72          1
    73          2
    85          2
    86          5
    87          1
   114          2
   115        999
   116         69
   117          6