##TITLE=Library Entry 70657
##JCAMP-DX=Revision 4.10 
##DATA TYPE=MASS SPECTRUM
##SAMPLE DESCRIPTION=A.A.Kutin, Moscow, Russia
##NAMES=HP
##CAS NAME=2-Propenoic acid, 3-[(cyanomethyl)thio]-2-[(diethoxyphosphinothio
yl)oxy]-, ethyl ester
##MOLFORM=C11H18NO5PS2
##CAS REGISTRY NO=163189-81-9
##MP= -300
##BP= -300
##MW= 339
##$RETENTION INDEX=0
##$CONDENSED SPECTRUM=NO
##NPOINTS= 224
##XYDATA=(XY..XY) 1 
    33          0
    34          0
    37          0
    38          1
    40         24
    41         21
    43         53
    45        246
    47         78
    48          7
    50          1
    51          2
    53         37
    55         22
    57         59
    58         31
    59         55
    60         15
    61         12
    63         45
    65        200
    67          4
    69         34
    70         16
    71         22
    72         15
    73         41
    74         37
    75         12
    76          8
    77         14
    79         28
    80         28
    81         69
    83         26
    84         31
    85         80
    86         73
    87         54
    88         20
    89         22
    90         11
    91         37
    93         90
    97        999
    99         82
   100          8
   101          7
   102         18
   103         17
   104          5
   105         11
   106          4
   107          5
   109         75
   111         39
   113        200
   114         61
   115         65
   117         47
   118         13
   119         12
   121         49
   123         21
   125        428
   127        108
   129         78
   130         16
   131         19
   132          5
   134         27
   135         10
   136          6
   137         13
   138         27
   139          9
   141         32
   142         40
   143         43
   145         19
   146          6
   147         14
   149         25
   151         10
   153        108
   155        115
   157         34
   158          8
   159         10
   160          6
   161          3
   162          3
   163         10
   165         96
   167         23
   170         92
   171         38
   173         13
   175         15
   176          4
   177          5
   178          4
   179          3
   181         16
   183        248
   185         14
   187         13
   188          4
   189          2
   190          2
   191          5
   193         23
   195         15
   197        190
   199         35
   200          3
   201          5
   202          4
   203          9
   204          2
   205          2
   206          3
   208          7
   211        397
   213         43
   215        141
   217         12
   219          6
   220          3
   221          4
   222          7
   223          7
   225        137
   227         28
   228          2
   229          2
   230          0
   231          1
   233          2
   234          2
   235          2
   236          9
   237         21
   238         68
   239        224
   241         35
   243        127
   245         11
   247          3
   248          0
   249          1
   250          1
   251          4
   253        196
   255         41
   256          3
   257          2
   259          1
   260          2
   261          1
   262          3
   264          6
   267        598
   268         61
   269         31
   271         62
   272          6
   273          5
   274          1
   275          1
   277          0
   278          2
   279          5
   280          1
   282          4
   283          3
   284          1
   285          1
   286          0
   287          0
   288          0
   289          0
   291          0
   294         38
   295          5
   296          4
   299        298
   300         32
   301         28
   302          3
   303          1
   304          0
   305          0
   306          0
   307          1
   309          1
   310          2
   311          2
   312          1
   313          0
   314          0
   315          0
   316          0
   317          0
   319          0
   321          0
   322          0
   323          1
   324          1
   325          0
   327          0
   328          0
   329          0
   330          0
   331          1
   332          0
   334          0
   335          0
   337          1
   339         34
   340         11
   341          4
   342          1
   344          0