##TITLE=Library Entry 67132
##JCAMP-DX=Revision 4.10 
##DATA TYPE=MASS SPECTRUM
##SAMPLE DESCRIPTION=Chemical Concepts
##NAMES=HP
##CAS NAME=Bicyclo[2.2.1]heptan-2-ol
##MOLFORM=C7H12O
##CAS REGISTRY NO=1632-68-4
##MP= -300
##BP= -300
##MW= 112
##$RETENTION INDEX=1167
##$CONDENSED SPECTRUM=NO
##NPOINTS= 77
##XYDATA=(XY..XY) 1 
    26         20
    27        258
    28         28
    29         73
    30          5
    31         57
    33          0
    36          0
    37          4
    38         17
    39        264
    40         66
    41        281
    42         51
    43         75
    44         52
    45         40
    46          1
    47          1
    48          0
    49          0
    50         13
    51         33
    52         18
    53        117
    54         47
    55        176
    56         69
    57        175
    58         46
    59          1
    61          1
    62          4
    63         11
    64          2
    65         77
    66        475
    67        682
    68        448
    69         72
    70        113
    71         51
    72          2
    73          0
    74          1
    75          0
    76          0
    77         76
    78         24
    79        911
    80         77
    81        110
    82         17
    83        141
    84         54
    85          3
    86          0
    87          0
    89          1
    90          0
    91         28
    92          3
    93         54
    94        999
    95        114
    96          6
    97         67
    98          4
    99          0
   105          0
   107          0
   108          5
   109          1
   110          1
   111         12
   112         32
   113          3