##TITLE=Library Entry 16717
##JCAMP-DX=Revision 4.10 
##DATA TYPE=MASS SPECTRUM
##SAMPLE DESCRIPTION=Chemical Concepts
##NAMES=HP
##CAS NAME=Acetic acid, (2-ethoxy)ethoxy-, methyl ester
##MOLFORM=C7H14O4
##CAS REGISTRY NO=16326-34-4
##MP= -300
##BP= -300
##MW= 162
##$RETENTION INDEX=0
##$CONDENSED SPECTRUM=NO
##NPOINTS= 44
##XYDATA=(XY..XY) 1 
    31        912
    33         24
    37          1
    38          2
    39          9
    40          5
    41         60
    42         82
    43        279
    44        172
    45        999
    46         24
    47          7
    51          1
    55          3
    56          1
    57         37
    58         29
    59        670
    60         23
    61          6
    62          2
    63          5
    71          1
    72        304
    73        158
    74         95
    75        126
    76          4
    85          1
    87          2
    88         28
    89         24
    90         38
    91         31
   101          1
   102         20
   103         89
   104          5
   116         38
   117         25
   118         42
   119          2
   130         10