##TITLE=Library Entry 14790
##JCAMP-DX=Revision 4.10 
##DATA TYPE=MASS SPECTRUM
##SAMPLE DESCRIPTION=CARL DJERASSI DEPT OF CHEM STANFORD UNIV STANFORD CALIF
 94305
##NAMES=HP
##CAS NAME=Androstan-17-ol, 2,3-epoxy-3-methyl-, acetate, (2.alpha.,3.alpha.
,5.alpha.,17.beta.)-
##MOLFORM=C22H34O3
##CAS REGISTRY NO=16321-36-1
##MP= -300
##BP= -300
##MW= 346
##$RETENTION INDEX=0
##$CONDENSED SPECTRUM=NO
##NPOINTS= 203
##XYDATA=(XY..XY) 1 
    41        330
    42         20
    43        999
    44         30
    45         20
    50         20
    51         10
    52         10
    53        100
    54         20
    55        290
    56         30
    57         30
    58         10
    59         10
    60         30
    61         10
    65         40
    66         20
    67        200
    68         60
    69        100
    70         10
    71         50
    72        150
    73         10
    74         10
    76         10
    77        110
    78         30
    79        230
    80         70
    81        270
    82         50
    83         30
    84         50
    85        150
    86         20
    87         10
    89         10
    91        210
    92         60
    93        290
    94        210
    95        260
    96         30
    97        110
    98        120
    99         20
   101         40
   102         10
   103         20
   104         20
   105        270
   106        110
   107        250
   108        100
   109        120
   110         20
   111        110
   112         20
   116         20
   117         10
   118         40
   119         30
   120        200
   121        230
   122        200
   123         60
   124         80
   125         60
   126         60
   127         10
   128         10
   129         20
   130         10
   131        110
   132         70
   133        170
   134         80
   135        120
   136         40
   137        130
   138         50
   139         10
   141         10
   142         10
   143         30
   144         20
   145        110
   146         90
   147        180
   148        100
   149        190
   150         50
   151         40
   152         10
   153         10
   155         10
   156         10
   157         40
   158         20
   159         80
   160         50
   161        130
   162         30
   163         30
   164         10
   165         20
   169         10
   171         30
   172         20
   173        100
   174         50
   175         60
   176         20
   177         40
   178         10
   179         10
   185         30
   186         10
   187        170
   188         30
   189         30
   190         10
   191         10
   192         10
   193         10
   199         30
   200         30
   201         70
   202        200
   203         50
   204         10
   205         20
   213         30
   214         50
   215         80
   216         30
   217         10
   219         10
   220         10
   221         10
   225         10
   227         20
   228         10
   229         20
   231         10
   233         10
   239         10
   241         20
   242         10
   243         20
   244         10
   245         20
   246         10
   247         10
   248         10
   254         30
   255         10
   256         10
   257         10
   258         20
   259         10
   260         50
   261         20
   262         80
   263         10
   264         10
   268         20
   269         20
   270         20
   271        100
   272         20
   273         10
   274         60
   275         20
   276         20
   284         10
   285         10
   286        110
   287         30
   288         10
   289         40
   290         20
   300         10
   301         20
   302         20
   303         10
   304         10
   314         10
   316         10
   318         10
   319         20
   320         10
   328         80
   329         20
   330         30
   331         90
   332         20
   346        460
   347        110
   348         10