##TITLE=Library Entry 6272
##JCAMP-DX=Revision 4.10 
##DATA TYPE=MASS SPECTRUM
##SAMPLE DESCRIPTION=R.A. Khmel'nitsky
##NAMES=HP
##CAS NAME=Nonane, 4-ethyl-5-methyl-
##MOLFORM=C12H26
##CAS REGISTRY NO=1632-71-9
##MP= -300
##BP= -300
##MW= 170
##$RETENTION INDEX=1110
##$CONDENSED SPECTRUM=NO
##NPOINTS= 48
##XYDATA=(XY..XY) 1 
    15          9
    26         18
    27        220
    29        290
    30          7
    39        127
    40         24
    41        530
    42        153
    43        999
    44         32
    50          3
    51          8
    52          5
    53         44
    54         20
    55        275
    56        212
    57        386
    58         16
    65          8
    66          3
    67         24
    68          8
    69        125
    70         30
    71        132
    72          8
    81          2
    82          2
    83         14
    84        398
    85        252
    86         16
    95          2
    97          3
    98          4
    99          9
   112          6
   113          9
   126          4
   127         13
   128          1
   140          7
   141         26
   142          3
   170          7
   171          1