##TITLE=Library Entry 114977
##JCAMP-DX=Revision 4.10 
##DATA TYPE=MASS SPECTRUM
##SAMPLE DESCRIPTION=Exported from NIST MS Search
##NAMES=HP
##CAS NAME=4-Phosphorinanone, 1-methyl-
##MOLFORM=C6H11OP
##CAS REGISTRY NO=16327-48-3
##MP= -300
##BP= -300
##MW= 130
##$RETENTION INDEX=0
##$CONDENSED SPECTRUM=NO
##NPOINTS= 26
##XYDATA=(XY..XY) 1 
    41        100
    45        110
    46         60
    48         50
    55        100
    57        100
    58         60
    59         50
    60         50
    63         50
    68         20
    71         20
    72         40
    73         50
    74        400
    75         60
    76         40
    77         20
    78         11
    87          2
    90          2
    97          2
   102        110
   115         50
   129        499
   130        999