##TITLE=Library Entry 895
##JCAMP-DX=Revision 4.10 
##DATA TYPE=MASS SPECTRUM
##SAMPLE DESCRIPTION=J. F. SMITH, LA TROBE UNIVERSITY, AUSTRALIA
##NAMES=HP
##CAS NAME=Benzofurazan, 5-methyl-4-nitro-
##MOLFORM=C7H5N3O3
##CAS REGISTRY NO=16322-21-7
##MP= -300
##BP= -300
##MW= 179
##$RETENTION INDEX=0
##$CONDENSED SPECTRUM=NO
##NPOINTS= 59
##XYDATA=(XY..XY) 1 
    17        550
    26        250
    27        650
    28        960
    29        150
    30        999
    32         70
    37        170
    38        230
    39        450
    40        100
    41        120
    42         60
    43        210
    44        290
    45         50
    49         50
    50        460
    51        480
    52        400
    53        170
    54        140
    55         60
    61         90
    62        140
    63        430
    64        360
    65        100
    66        140
    67         50
    74         70
    75        230
    76        880
    77        360
    78        260
    79        130
    80         80
    88         80
    89        670
    90        130
    91        320
    92         70
    93         50
   102         70
   103        340
   104        220
   105        100
   106         90
   107         50
   119        390
   120         80
   135         60
   147         60
   149         70
   162        750
   163         70
   164        100
   179        460
   180         60