##TITLE=Library Entry 19939
##JCAMP-DX=Revision 4.10 
##DATA TYPE=MASS SPECTRUM
##SAMPLE DESCRIPTION=G.A.SINGY UNIVERSITY OF GENEVA, GENEVA, SWITZERLAND
##NAMES=HP
##CAS NAME=1,3-Cyclopentanediol, cis-
##MOLFORM=C5H10O2
##CAS REGISTRY NO=16326-97-9
##MP= -300
##BP= -300
##MW= 102
##$RETENTION INDEX=0
##$CONDENSED SPECTRUM=NO
##NPOINTS= 42
##XYDATA=(XY..XY) 1 
    39        191
    40         90
    41        468
    42        187
    43        563
    44        135
    45        204
    46          9
    47        131
    49          6
    50         17
    51         21
    52         13
    53         73
    54         60
    55        999
    56        672
    57        683
    58        363
    59         37
    60         26
    61         13
    62          9
    63          9
    65         21
    66         60
    67         82
    68         17
    69        174
    70         13
    71         17
    72          9
    73        133
    74         13
    81         15
    82         54
    83        322
    84        561
    85         52
    86          9
   100         17
   101          9