##TITLE=Library Entry 50300
##JCAMP-DX=Revision 4.10 
##DATA TYPE=MASS SPECTRUM
##SAMPLE DESCRIPTION=Japan AIST/NIMC Database- Spectrum MS-NW-8669
##NAMES=HP
##CAS NAME=Fenchol
##MOLFORM=C10H18O
##CAS REGISTRY NO=1632-73-1
##MP= -300
##BP= -300
##MW= 154
##$RETENTION INDEX=1113
##$CONDENSED SPECTRUM=NO
##NPOINTS= 95
##XYDATA=(XY..XY) 1 
    15          5
    18          2
    19          1
    26          3
    27         78
    28         12
    29         68
    30          2
    31         12
    38          3
    39         98
    40         15
    41        246
    42         20
    43        263
    44         11
    45         20
    50          5
    51         17
    52          8
    53         72
    54         19
    55        167
    56         40
    57        119
    58          9
    59         17
    60          1
    61          1
    62          2
    63          5
    64          1
    65         23
    66         10
    67        169
    68         36
    69        242
    70         40
    71        231
    72        210
    73         26
    74          2
    77         42
    78          8
    79         91
    80        528
    81        999
    82        188
    83        135
    84        207
    85         49
    86          9
    89          1
    91         42
    92         33
    93        163
    94         27
    95         57
    96         46
    97         45
    98         39
    99         16
   100          5
   103          2
   105         14
   106          4
   107        119
   108         20
   109         15
   110         15
   111        144
   112         16
   113          2
   115          2
   117          4
   119          9
   120          1
   121        125
   122         12
   123         52
   124          5
   125         23
   126          3
   132          3
   134          2
   135          2
   136         33
   137          8
   138          1
   139         27
   140          3
   152          2
   153          1
   154         15
   155          2