##TITLE=Library Entry 15355
##JCAMP-DX=Revision 4.10 
##DATA TYPE=MASS SPECTRUM
##SAMPLE DESCRIPTION=Japan AIST/NIMC Database- Spectrum MS-IW-3950
##NAMES=HP
##CAS NAME=1-Nitrobiuret
##MOLFORM=C2H4N4O4
##CAS REGISTRY NO=16326-62-8
##MP= -300
##BP= -300
##MW= 148
##$RETENTION INDEX=0
##$CONDENSED SPECTRUM=NO
##NPOINTS= 62
##XYDATA=(XY..XY) 1 
    12          6
    13          4
    14          9
    15         20
    16         61
    17         73
    18         84
    21          2
    26         16
    27         20
    28        139
    29        120
    30        199
    31         20
    32          4
    35          2
    38          1
    40          3
    41         14
    42        254
    43        760
    44        999
    45         32
    46        678
    47          4
    48          2
    53          1
    54          5
    55          2
    56          1
    57          1
    58          2
    59         16
    60        263
    61          9
    62        240
    63          8
    64          1
    68          1
    69          6
    70        280
    71          7
    72          1
    81          1
    83          1
    85          1
    86        573
    87         44
    88          5
    89          1
    97          1
   102        183
   103         28
   104          2
   105         44
   106          1
   129          6
   130         24
   131          1
   146          6
   148         37
   149          3