##TITLE=Library Entry 7877
##JCAMP-DX=Revision 4.10 
##DATA TYPE=MASS SPECTRUM
##SAMPLE DESCRIPTION=Chemical Concepts
##NAMES=HP
##CAS NAME=Undecane, 5-methyl-
##MOLFORM=C12H26
##CAS REGISTRY NO=1632-70-8
##MP= -300
##BP= -300
##MW= 170
##$RETENTION INDEX=1156
##$CONDENSED SPECTRUM=NO
##NPOINTS= 71
##XYDATA=(XY..XY) 1 
    24          1
    25          3
    26          1
    27         77
    29        160
    30          3
    33          0
    35          0
    36          0
    37          0
    38          1
    39         37
    40          5
    41        219
    42         71
    43        999
    44         28
    45          1
    50          0
    51          1
    52          0
    53         11
    54          8
    55        105
    56        138
    57        774
    58         30
    59          0
    60          0
    62          0
    63          0
    65          1
    66          0
    67          5
    68          4
    69         45
    70         44
    71        447
    72         24
    73          0
    77          0
    79          0
    80          0
    81          1
    82          6
    83         26
    84        197
    85        286
    86         18
    87          0
    96          0
    97          4
    98          5
    99         11
   100          0
   111          1
   112         96
   113         55
   114          4
   115          0
   126          7
   127          4
   140          7
   141          7
   142          0
   154          1
   155          7
   156          1
   169          0
   170          8
   171          1