##TITLE=Library Entry 32385
##JCAMP-DX=Revision 4.10 
##DATA TYPE=MASS SPECTRUM
##SAMPLE DESCRIPTION=D.HENNEBERG, MAX-PLANCK INSTITUTE, MULHEIM, WEST GERMAN
Y
##NAMES=HP
##CAS NAME=Cyclobutene, 3,3-dimethyl-
##MOLFORM=C6H10
##CAS REGISTRY NO=16327-38-1
##MP= -300
##BP= -300
##MW= 82
##$RETENTION INDEX=657
##$CONDENSED SPECTRUM=NO
##NPOINTS= 53
##XYDATA=(XY..XY) 1 
    26         26
    27        129
    28         66
    29         47
    30          1
    31         12
    32          9
    36          0
    37         13
    38         37
    39        331
    40         67
    41        519
    42         69
    43         26
    44          9
    45          5
    46          1
    48          0
    49          4
    50         25
    51         42
    52         14
    53         89
    54         98
    55         75
    56        206
    57         12
    58          0
    59          4
    60          0
    61          4
    62         12
    63         17
    64          3
    65        140
    66         25
    67        999
    68         50
    69          8
    70          0
    71          1
    74          4
    75          1
    76          0
    77         23
    78          3
    79         57
    80          5
    81         85
    82        208
    83         13
    84          9