##TITLE=Library Entry 11416
##JCAMP-DX=Revision 4.10 
##DATA TYPE=MASS SPECTRUM
##SAMPLE DESCRIPTION=W.T.RAINEY OAK RIDGE NATIONAL LABORATORY,OAK RIDGE,TN.U
SA
##NAMES=HP
##CAS NAME=2-Propanamine, N-ethyl-N-nitroso-
##MOLFORM=C5H12N2O
##CAS REGISTRY NO=16339-04-1
##MP= -300
##BP= -300
##MW= 116
##$RETENTION INDEX=1480
##$CONDENSED SPECTRUM=NO
##NPOINTS= 45
##XYDATA=(XY..XY) 1 
    30        240
    31         24
    32         36
    37         24
    38         48
    39        265
    40        120
    41        566
    42        843
    43        999
    44        361
    45         84
    46         12
    51         12
    52         24
    53         12
    54         48
    55         60
    56        963
    57        192
    58        337
    59         84
    60         12
    61         12
    67         12
    68         24
    69         12
    70        469
    71        433
    72         84
    73         24
    74         72
    75         12
    83         12
    84         24
    85         60
    86         24
    87         36
    88         48
    99         36
   100         12
   101         36
   102         12
   116        975
   117         60