##TITLE=Library Entry 57323
##JCAMP-DX=Revision 4.10 
##DATA TYPE=MASS SPECTRUM
##SAMPLE DESCRIPTION=Chemical Concepts
##NAMES=HP
##CAS NAME=1-Hexanol, 6-mercapto-
##MOLFORM=C6H14OS
##CAS REGISTRY NO=1633-78-9
##MP= -300
##BP= -300
##MW= 134
##$RETENTION INDEX=1176
##$CONDENSED SPECTRUM=NO
##NPOINTS= 78
##XYDATA=(XY..XY) 1 
    24          0
    26         12
    27        229
    29        206
    30          7
    31        410
    33          2
    34          5
    35         46
    37          3
    38          5
    39        160
    40         40
    41        820
    42        327
    44         71
    45        100
    46         68
    47        299
    48         17
    49         13
    50          4
    51          7
    52          2
    53         55
    54        465
    55        508
    56         67
    57        190
    58         14
    59         56
    60        365
    61        209
    62         23
    63         10
    64          0
    65          1
    66          1
    67        856
    68         65
    69        158
    70         43
    71         36
    72         21
    73         81
    74         58
    75         27
    76          4
    77          0
    79         10
    80          1
    81         79
    82        308
    83         82
    84          4
    85         13
    86         14
    87        999
    88         95
    89         46
    90          4
    98          1
    99          4
   100          2
   101        143
   102         10
   103          7
   104          0
   113          0
   114          5
   115         10
   116        312
   117         17
   118         12
   132          4
   134         29
   135          2
   136          0