##TITLE=Library Entry 6049
##JCAMP-DX=Revision 4.10 
##DATA TYPE=MASS SPECTRUM
##SAMPLE DESCRIPTION=Exported from NIST MS Search
##NAMES=HP
##CAS NAME=1-Pentanethiol, 2-methyl-
##MOLFORM=C6H14S
##CAS REGISTRY NO=1633-89-2
##MP= -300
##BP= -300
##MW= 118
##$RETENTION INDEX=0
##$CONDENSED SPECTRUM=NO
##NPOINTS= 71
##XYDATA=(XY..XY) 1 
    25          1
    26         30
    27        324
    28         38
    29        243
    30          6
    31          1
    32          6
    33         16
    34         10
    35          9
    36          1
    37         10
    38         22
    39        267
    40         36
    41        533
    42        261
    43        999
    44         34
    45        109
    46         40
    47        238
    48         25
    49         20
    50         10
    51         15
    52          5
    53         33
    54         15
    55        278
    56        330
    57         32
    58         14
    59         18
    60          9
    61         24
    62          3
    63          4
    64          1
    65          4
    66          2
    67          9
    68          4
    69        179
    70        125
    71        201
    72         12
    73          8
    74         20
    75         82
    76          9
    77          5
    78          1
    79          1
    81          1
    82          1
    83          7
    84        209
    85         23
    86          1
    87          2
    88          1
    89          4
    97          1
   103          1
   117          2
   118        196
   119         15
   120          9
   121          1