##TITLE=Library Entry 48174
##JCAMP-DX=Revision 4.10 
##DATA TYPE=MASS SPECTRUM
##SAMPLE DESCRIPTION=D. Rasala, Inst. Chem., Pedagogical Univ., Kielce, Pola
nd
##NAMES=HP
##CAS NAME=4-Pyridinamine, N-methyl-3-nitro-
##MOLFORM=C6H7N3O2
##CAS REGISTRY NO=1633-41-6
##MP= -300
##BP= -300
##MW= 153
##$RETENTION INDEX=0
##$CONDENSED SPECTRUM=NO
##NPOINTS= 35
##XYDATA=(XY..XY) 1 
    50        290
    51        420
    52        400
    53        390
    54        100
    55         60
    63         50
    64        180
    65        450
    66        260
    67        140
    68         70
    75         50
    76         50
    77         70
    78        999
    79        470
    80        880
    81         70
    92        160
    93         60
    95         60
   105        140
   106        230
   107        100
   108         60
   120         40
   123         30
   135        170
   136         60
   139         30
   152         20
   153        730
   154         92
   155         10