##TITLE=Library Entry 15611
##JCAMP-DX=Revision 4.10 
##DATA TYPE=MASS SPECTRUM
##SAMPLE DESCRIPTION=Japan AIST/NIMC Database- Spectrum MS-IW-1297
##NAMES=HP
##CAS NAME=1,6-Diaminohexane-N,N,N',N'-tetraacetic acid
##MOLFORM=C14H24N2O8
##CAS REGISTRY NO=1633-00-7
##MP= -300
##BP= -300
##MW= 348
##$RETENTION INDEX=0
##$CONDENSED SPECTRUM=NO
##NPOINTS= 192
##XYDATA=(XY..XY) 1 
    14          4
    15         26
    16         33
    17          5
    18         21
    26          3
    27         20
    28        413
    29         29
    30         47
    31         30
    32         10
    35          6
    36         61
    37          2
    38         20
    39         19
    40          9
    41         66
    42        203
    43         59
    44        999
    45         97
    46         19
    50          2
    51          4
    52          2
    53          9
    54          7
    55         47
    56         25
    57         52
    58        818
    59         36
    60         15
    61          3
    63          1
    65          7
    66          2
    67         12
    68         10
    69         11
    70         31
    71         35
    72         19
    73          4
    74         11
    75          2
    76          1
    77          8
    78          3
    79         12
    80          5
    81         21
    82         29
    83         14
    84         87
    85         14
    86          7
    87          3
    88         43
    89          5
    90          1
    91         12
    92          5
    93          7
    94         11
    95         10
    96         34
    97         21
    98         38
    99          9
   100         15
   101          5
   102         45
   103          4
   104          1
   105          3
   106          3
   107          5
   108          8
   109          8
   110         34
   111         17
   112         78
   113         13
   114         21
   115          6
   116          3
   117          1
   118          3
   119          2
   120          3
   121          3
   122          9
   123          8
   124         34
   125         24
   126         59
   127         14
   128         39
   129          5
   130          2
   131          1
   132          1
   133          2
   134          3
   135          2
   136         10
   137          9
   138         15
   139          7
   140         10
   141          7
   142          6
   143          3
   144          2
   145          2
   146         13
   147          2
   148          2
   149          4
   150          4
   151          3
   152          6
   153          7
   154          6
   155         11
   156          6
   157         12
   158          4
   159          1
   160          1
   162          1
   163          1
   164          2
   165          3
   166          3
   167          6
   168          5
   169         15
   170         11
   171          9
   172          3
   173          1
   176          1
   178          1
   179          1
   180          2
   181          3
   182          2
   183          5
   184          3
   185          2
   186          3
   187          2
   188          1
   193          9
   194          1
   195          2
   196          2
   197          2
   198          9
   199          4
   200          2
   201          8
   202          1
   209          1
   210          7
   211          2
   212          1
   213          6
   214          2
   215          1
   216          1
   227          1
   228          2
   229          1
   237          1
   239          2
   240          2
   241          6
   242          5
   243          2
   252          1
   253          1
   254          1
   255          1
   259          1
   278          2
   284          9
   285          3