##TITLE=Library Entry 6286
##JCAMP-DX=Revision 4.10 
##DATA TYPE=MASS SPECTRUM
##SAMPLE DESCRIPTION=U.S. BUREAU OF MINES, LARAMIE, WYO, USA
##NAMES=HP
##CAS NAME=2-Pentanethiol, 2-methyl-
##MOLFORM=C6H14S
##CAS REGISTRY NO=1633-97-2
##MP= -300
##BP= -300
##MW= 118
##$RETENTION INDEX=930
##$CONDENSED SPECTRUM=NO
##NPOINTS= 75
##XYDATA=(XY..XY) 1 
    13          0
    14          2
    15         22
    16          2
    25          0
    26         10
    27        149
    28         25
    29        109
    30          2
    32          9
    33         10
    34         21
    35          6
    36          1
    37          5
    38         15
    39        198
    40         31
    41        507
    42         40
    43        999
    44         33
    45         36
    46          4
    47         68
    48          2
    49          6
    50          8
    51         13
    52          5
    53         35
    54          6
    55         99
    56         75
    57        111
    58         16
    59         67
    60          5
    61         83
    62          4
    63          6
    64          0
    65          4
    66          1
    67         11
    68          2
    69        197
    70         11
    71          5
    72          0
    73          3
    74         26
    75        284
    76         13
    77         12
    78          1
    79          0
    80          0
    81          0
    82          0
    83          3
    84         45
    85        455
    86         30
    87          2
    88          0
    89          4
   103          6
   104          0
   105          0
   118        143
   119         11
   120          6
   121          0