##TITLE=Library Entry 3598
##JCAMP-DX=Revision 4.10 
##DATA TYPE=MASS SPECTRUM
##SAMPLE DESCRIPTION=Japan AIST/NIMC Database- Spectrum MS-IW-4032
##NAMES=HP
##CAS NAME=1-Propanesulfonyl chloride, 3-chloro-
##MOLFORM=C3H6Cl2O2S
##CAS REGISTRY NO=1633-82-5
##MP= -300
##BP= -300
##MW= 176
##$RETENTION INDEX=0
##$CONDENSED SPECTRUM=NO
##NPOINTS= 86
##XYDATA=(XY..XY) 1 
    14          1
    15         10
    25          1
    26         21
    27        111
    28        118
    29         34
    30          2
    31          3
    32          6
    33          1
    34          1
    35          9
    36         78
    37         11
    38         36
    39        244
    40         56
    41        999
    42         91
    43          7
    44         11
    45         14
    46          7
    47          7
    48         56
    49        226
    50         11
    51         73
    52          2
    53          1
    55          7
    56         15
    57         50
    58          5
    59          4
    60          2
    61         20
    62          8
    63         24
    64        129
    65         18
    66          9
    67          1
    69          2
    70          1
    71          2
    72          1
    73          5
    74          2
    75         84
    76        696
    77        838
    78        258
    79        268
    80          9
    81          2
    83         18
    84          2
    85          7
    89          1
    91          2
    99          5
   101          8
   103          2
   105          6
   106         14
   107          2
   108          1
   109          1
   110          2
   111          8
   112          1
   113          6
   114          9
   115          1
   116          3
   121          1
   127          3
   129          1
   141        115
   142          5
   143         42
   144          2
   145          1
   177          1