##TITLE=Library Entry 77834
##JCAMP-DX=Revision 4.10 
##DATA TYPE=MASS SPECTRUM
##SAMPLE DESCRIPTION=NIST Mass Spectrometry Data Center, 1990.
##NAMES=HP
##CAS NAME=[2.2]Paracyclophane
##MOLFORM=C16H16
##CAS REGISTRY NO=1633-22-3
##MP= -300
##BP= -300
##MW= 208
##$RETENTION INDEX=0
##$CONDENSED SPECTRUM=NO
##NPOINTS= 78
##XYDATA=(XY..XY) 1 
    11          1
    14          1
    18          1
    26          2
    27         11
    28          5
    29          1
    38          5
    39         36
    40          4
    41          4
    50         14
    51         39
    52         20
    53          6
    61          1
    62          8
    63         27
    64          9
    65         25
    66          2
    69          2
    74          4
    75          8
    76         17
    77         59
    78        134
    79         13
    82          3
    86          2
    87          3
    88          3
    89         23
    90          4
    91         11
    94          2
    98          2
    99          1
   100          2
   101          4
   102         24
   103        162
   104        999
   105         94
   106          2
   113          1
   115         20
   116          3
   117          2
   126          2
   127          2
   128          4
   139          2
   141          1
   150          2
   151          3
   152          5
   153          2
   163          1
   164          2
   165          9
   166          1
   176          3
   177          1
   178          6
   179          3
   188          1
   189          7
   190          5
   191          8
   192          3
   202          3
   203          2
   205          2
   206          2
   208        174
   209         31
   210          2