##TITLE=Library Entry 49031
##JCAMP-DX=Revision 4.10 
##DATA TYPE=MASS SPECTRUM
##SAMPLE DESCRIPTION=D.HENNEBERG, MAX-PLANCK INSTITUTE, MULHEIM, WEST GERMAN
Y
##NAMES=HP
##CAS NAME=5-Dodecen-7-yne, (E)-
##MOLFORM=C12H20
##CAS REGISTRY NO=16336-82-6
##MP= -300
##BP= -300
##MW= 164
##$RETENTION INDEX=0
##$CONDENSED SPECTRUM=NO
##NPOINTS= 121
##XYDATA=(XY..XY) 1 
    22          0
    23          2
    24          0
    25          3
    26         13
    27        279
    28         33
    29        208
    30          5
    31          2
    33          2
    34          3
    35          2
    36          1
    37          8
    38         13
    39        256
    40         36
    41        469
    42         46
    43        307
    44         41
    45          6
    46          1
    47          1
    48          1
    49          3
    50         26
    51        100
    52         73
    53        100
    54         34
    55        344
    56         49
    57         93
    58         16
    59          3
    60          1
    61          2
    62          8
    63         42
    64         19
    65        209
    66        149
    67        324
    68         62
    69         67
    70         18
    71         29
    72          4
    73          1
    74          4
    75         31
    76         13
    77        416
    78        133
    79        999
    80        195
    81        146
    82         79
    83         16
    84          4
    85         14
    86          2
    87          2
    88          2
    89         23
    90          7
    91        265
    92         41
    93        777
    94        123
    95         44
    96          6
    97          2
    98          1
    99          1
   101          1
   102          2
   103         14
   104          5
   105         52
   106         18
   107        203
   108         65
   109         15
   110          1
   111          2
   112          0
   113          0
   115          7
   116          2
   117          6
   118          1
   119         12
   120          3
   121         89
   122         18
   123          4
   127          0
   128          2
   129          0
   131          2
   133          3
   134          0
   135         36
   136          6
   137          1
   140          0
   141          0
   149          9
   150          1
   151          0
   152          1
   153          0
   160          0
   162          3
   163          1
   164        136
   165         18
   166          0