##TITLE=Library Entry 35539
##JCAMP-DX=Revision 4.10 
##DATA TYPE=MASS SPECTRUM
##SAMPLE DESCRIPTION=Exported from NIST MS Search
##NAMES=HP
##CAS NAME=1-Pentanethiol, 3-methyl-
##MOLFORM=C6H14S
##CAS REGISTRY NO=1633-88-1
##MP= -300
##BP= -300
##MW= 118
##$RETENTION INDEX=877
##$CONDENSED SPECTRUM=NO
##NPOINTS= 50
##XYDATA=(XY..XY) 1 
    26         65
    27        555
    28        496
    29         12
    30         31
    32         31
    33         32
    34         27
    35         51
    37         11
    38         25
    39        290
    40         42
    41        653
    42        166
    43        399
    44         16
    45        151
    46         64
    47        480
    48         20
    49         25
    50         22
    51         34
    52         12
    53         70
    54         43
    55        657
    56        516
    57        210
    58         40
    59         47
    60         80
    61        319
    62         28
    63         19
    67         19
    68         11
    69        999
    70         61
    71         19
    73         10
    75         11
    83         18
    84        778
    85         66
    89         12
   118        235
   119         17
   120         10