##TITLE=Library Entry 57665
##JCAMP-DX=Revision 4.10 
##DATA TYPE=MASS SPECTRUM
##SAMPLE DESCRIPTION=A.Pleshkova, Nesmeyanov Inst.Org.Elem.Cpds, Moscow
##NAMES=HP
##CAS NAME=N-(2-Methoxyethyl)carbamic acid methyl ester
##MOLFORM=C5H11NO3
##CAS REGISTRY NO=16339-52-9
##MP= -300
##BP= -300
##MW= 133
##$RETENTION INDEX=0
##$CONDENSED SPECTRUM=NO
##NPOINTS= 35
##XYDATA=(XY..XY) 1 
    15         62
    27         83
    28        297
    29        202
    30        118
    31        203
    32         25
    33         43
    41         62
    42        303
    43        182
    44        843
    45        695
    46         71
    55         52
    56        143
    57         25
    58        258
    59        654
    60         54
    70        161
    71         79
    72         37
    73         62
    86         39
    88        999
    89         82
   100         42
   101        699
   102        263
   103         57
   104          6
   118         43
   133         18
   134          5