##TITLE=Library Entry 5989
##JCAMP-DX=Revision 4.10 
##DATA TYPE=MASS SPECTRUM
##SAMPLE DESCRIPTION=Exported from NIST MS Search
##NAMES=HP
##CAS NAME=3-Hexanethiol
##MOLFORM=C6H14S
##CAS REGISTRY NO=1633-90-5
##MP= -300
##BP= -300
##MW= 118
##$RETENTION INDEX=862
##$CONDENSED SPECTRUM=NO
##NPOINTS= 51
##XYDATA=(XY..XY) 1 
    26         52
    27        468
    28        148
    29        295
    32         29
    33         30
    34         22
    35         26
    36         12
    37         11
    38         26
    39        289
    40         39
    41        649
    42        205
    43        999
    44         36
    45        148
    46         20
    47        425
    48         11
    49         22
    50         18
    51         28
    53         58
    54         35
    55        586
    56        215
    57        134
    58         43
    59         65
    60         63
    61        144
    62         12
    63         12
    67         13
    69        133
    71         18
    73         27
    74         95
    75        315
    76         19
    77         17
    84        199
    85        326
    86         22
    88         26
    89        146
   118        401
   119         30
   120         20