##TITLE=Library Entry 9735
##JCAMP-DX=Revision 4.10 
##DATA TYPE=MASS SPECTRUM
##SAMPLE DESCRIPTION=H.ROPER HAMBURG UNIVERSITY, HAMBURG, GERMANY, F.R.G.
##NAMES=HP
##CAS NAME=1-Pentanamine, N-butyl-N-nitroso-
##MOLFORM=C9H20N2O
##CAS REGISTRY NO=16339-05-2
##MP= -300
##BP= -300
##MW= 172
##$RETENTION INDEX=0
##$CONDENSED SPECTRUM=NO
##NPOINTS= 60
##XYDATA=(XY..XY) 1 
    26         11
    27        131
    28         51
    29        250
    30        192
    39         64
    41        391
    42        356
    43        999
    44        398
    45         14
    46         11
    47         10
    53         37
    54         37
    55        192
    56        254
    57        808
    58         66
    59         43
    60         11
    67        111
    68         24
    69        110
    70        240
    71        215
    72         73
    73         24
    74        120
    82         13
    84        930
    85         87
    86        234
    87         15
    98        551
    99        282
   100        119
   101         18
   102         16
   103         61
   112         58
   113        228
   114         29
   115        256
   116        193
   117         48
   126         67
   127         17
   129        160
   130        107
   140         18
   141         31
   142        151
   143         26
   155        444
   156        193
   157         23
   158         10
   172        247
   173         27