##TITLE=Library Entry 40969
##JCAMP-DX=Revision 4.10 
##DATA TYPE=MASS SPECTRUM
##SAMPLE DESCRIPTION=Japan AIST/NIMC Database- Spectrum MS-NW-1333
##NAMES=HP
##CAS NAME=Propane, 2-methoxy-2-methyl-
##MOLFORM=C5H12O
##CAS REGISTRY NO=1634-04-4
##MP= -300
##BP= -300
##MW= 88
##$RETENTION INDEX=560
##$CONDENSED SPECTRUM=NO
##NPOINTS= 37
##XYDATA=(XY..XY) 1 
    14          3
    15         39
    17          1
    18          3
    26          7
    27         61
    28         31
    29        156
    30          3
    31         19
    32          9
    33          9
    37          3
    38          7
    39         67
    40         12
    41        247
    42         25
    43        111
    44          4
    45         52
    46          1
    50          4
    51          4
    52          1
    53          6
    54          1
    55         47
    56         47
    57        257
    58         12
    59          4
    71          1
    72          2
    73        999
    74         46
    75          3