##TITLE=Library Entry 66490
##JCAMP-DX=Revision 4.10 
##DATA TYPE=MASS SPECTRUM
##SAMPLE DESCRIPTION=Japan AIST/NIMC Database- Spectrum MS-NW- 647
##NAMES=HP
##CAS NAME=Benzoic acid, 2-[(4-hydroxyphenyl)azo]-
##MOLFORM=C13H10N2O3
##CAS REGISTRY NO=1634-82-8
##MP= -300
##BP= -300
##MW= 242
##$RETENTION INDEX=0
##$CONDENSED SPECTRUM=NO
##NPOINTS= 137
##XYDATA=(XY..XY) 1 
    15          1
    16          1
    18          2
    26          9
    27         20
    28         10
    29          7
    37         10
    38         29
    39        254
    40         11
    41          5
    42          3
    43          5
    44         15
    45          7
    46          1
    49          2
    50         42
    51         63
    52         58
    53         40
    54          5
    55          9
    56          1
    57          3
    60          1
    61          6
    62         15
    63         58
    64         58
    65        514
    66         33
    67          5
    68          2
    69          2
    70          1
    71          2
    73          2
    74          9
    75         15
    76         35
    77         59
    78         11
    79         10
    80         10
    81          6
    82          1
    83          1
    84          1
    85          1
    87          1
    88          2
    89          5
    90          6
    91         10
    92         34
    93        999
    94         72
    95          5
    97          1
    98          1
   101          1
   102          2
   103          2
   104         15
   105         14
   106          2
   107          8
   108          4
   109         12
   110          2
   111          1
   113          2
   114          3
   115         26
   116          5
   117          2
   118          2
   119         20
   120          8
   121        799
   122         59
   123          4
   126          1
   127          4
   128          8
   129          6
   130          1
   131          3
   133          1
   137         11
   138          2
   139         27
   140         14
   141         40
   142          6
   143          2
   144          2
   145          1
   146          5
   149         10
   150          2
   151          5
   152          6
   153          2
   154          1
   155          1
   156          2
   157          5
   158          1
   167          3
   168         25
   169         20
   170          6
   171          2
   179          1
   180          1
   181         21
   182          4
   184          1
   185          1
   195          3
   196          6
   197         72
   198         46
   199          6
   213          4
   214          7
   215          1
   223          1
   224          9
   225          4
   241          6
   242        302
   243         45
   244          6