##TITLE=Library Entry 7156
##JCAMP-DX=Revision 4.10 
##DATA TYPE=MASS SPECTRUM
##SAMPLE DESCRIPTION=D.HENNEBERG, MAX-PLANCK INSTITUTE, MULHEIM, WEST GERMAN
Y
##NAMES=HP
##CAS NAME=3-Hexen-2-one, 3,4-dimethyl-
##MOLFORM=C8H14O
##CAS REGISTRY NO=1635-02-5
##MP= -300
##BP= -300
##MW= 126
##$RETENTION INDEX=0
##$CONDENSED SPECTRUM=NO
##NPOINTS= 93
##XYDATA=(XY..XY) 1 
    22          0
    23          0
    24          0
    25          1
    26         13
    27        179
    28         76
    29        109
    30          2
    31          2
    32          0
    33          0
    34          0
    35          1
    36          1
    37          8
    38         12
    39        179
    40         28
    41        446
    42         33
    43        999
    44         26
    45         10
    46          0
    47          1
    48          0
    49          2
    50         19
    51         40
    52         18
    53         84
    54         19
    55        996
    56         54
    57         22
    58         12
    59          4
    60          0
    61          2
    62          9
    63         10
    64          2
    65         24
    66         10
    67         79
    68         10
    69         41
    70         10
    71          8
    72         22
    73          2
    74          2
    75          1
    76          0
    77         36
    78          6
    79         25
    80          3
    81         31
    82          9
    83        378
    84         27
    85          2
    89          1
    91         26
    92          2
    93         35
    94          3
    95          8
    96          4
    97         11
    98          9
    99          1
   103          0
   104          0
   105          2
   106          2
   107          5
   108          5
   109         18
   110          6
   111        343
   112         26
   113          1
   120          0
   122          2
   123         10
   124         13
   125          5
   126        392
   127         33
   128          1