##TITLE=Library Entry 19065
##JCAMP-DX=Revision 4.10 
##DATA TYPE=MASS SPECTRUM
##SAMPLE DESCRIPTION=Chemical Concepts
##NAMES=HP
##CAS NAME=Decane, 1,10-diiodo-
##MOLFORM=C10H20I2
##CAS REGISTRY NO=16355-92-3
##MP= -300
##BP= -300
##MW= 394
##$RETENTION INDEX=0
##$CONDENSED SPECTRUM=NO
##NPOINTS= 118
##XYDATA=(XY..XY) 1 
    26         18
    27        297
    28         69
    29        364
    30          9
    34          2
    35          1
    37          4
    38         11
    39        272
    40         54
    41        919
    42        165
    43        658
    44         23
    45          2
    46          1
    47          2
    48          1
    50          8
    51         19
    52         12
    53        110
    54         49
    55        999
    56        128
    57        593
    58         29
    62          2
    63          5
    64          2
    65         19
    66          8
    67         80
    68         21
    69        579
    70         71
    71        366
    72         24
    74          2
    75          2
    76          3
    77         15
    78          4
    79         19
    80          4
    81         36
    82          7
    83        511
    84         44
    85        241
    86         12
    87          1
    91          6
    92          1
    93          5
    94          1
    95         16
    96          4
    97        307
    98         24
    99         27
   100          2
   104          3
   105          2
   107          2
   108          1
   109          5
   110          1
   111         19
   112          3
   113          4
   121          2
   122          2
   123          1
   125          2
   127         79
   128         51
   129          3
   137          2
   139        171
   140         19
   141         47
   142          2
   143          1
   153          5
   154         14
   155        498
   156         13
   165          2
   167          9
   168          2
   169        279
   170         10
   181          9
   183        304
   184         14
   190          3
   195          2
   196          2
   197        247
   199         14
   209          2
   211        252
   212         17
   225        143
   226         11
   239          6
   240          1
   254          6
   255          3
   266          6
   267        365
   268         44
   270          3
   295          2
   394        152
   395         16