##TITLE=Library Entry 33664
##JCAMP-DX=Revision 4.10 
##DATA TYPE=MASS SPECTRUM
##SAMPLE DESCRIPTION=Chemical Concepts
##NAMES=HP
##CAS NAME=1,1'-Bicyclopentyl
##MOLFORM=C10H18
##CAS REGISTRY NO=1636-39-1
##MP= -300
##BP= -300
##MW= 138
##$RETENTION INDEX=1081
##$CONDENSED SPECTRUM=NO
##NPOINTS= 88
##XYDATA=(XY..XY) 1 
    25          2
    26          7
    27        106
    28         18
    29         62
    30          3
    37          3
    38          8
    39        177
    40         39
    41        473
    42         51
    43         31
    44          2
    45          7
    46          2
    47          3
    49          4
    50          9
    51         27
    52         16
    53        103
    54        123
    55        213
    56         22
    57         12
    58          2
    60          2
    62          2
    63          9
    64          3
    65         39
    66        128
    67        645
    68        999
    69        426
    70         49
    71         10
    72          2
    73          6
    74          2
    75          3
    76          2
    77         34
    78         12
    79         64
    80         42
    81        353
    82        676
    83        177
    84         37
    85         15
    86          3
    88          2
    89          2
    91         19
    92          4
    93         28
    94         53
    95        513
    96        666
    97        109
    98          7
    99          1
   101          1
   103          2
   105          2
   106          1
   107          6
   108         15
   109        183
   110        104
   111         13
   112          2
   113          2
   117          2
   119          1
   121          4
   122          1
   123         24
   124          4
   134          2
   135          2
   136          6
   137         13
   138        328
   139         43
   140          3