##TITLE=Library Entry 9734
##JCAMP-DX=Revision 4.10 
##DATA TYPE=MASS SPECTRUM
##SAMPLE DESCRIPTION=Chemical Concepts
##NAMES=HP
##CAS NAME=Decane, 5,6-dimethyl-
##MOLFORM=C12H26
##CAS REGISTRY NO=1636-43-7
##MP= -300
##BP= -300
##MW= 170
##$RETENTION INDEX=1128
##$CONDENSED SPECTRUM=NO
##NPOINTS= 82
##XYDATA=(XY..XY) 1 
    26          1
    27         48
    28         24
    29         79
    30          2
    31          0
    34          0
    36          0
    38          1
    39         37
    40          0
    41        207
    42        111
    43        999
    44         20
    45          0
    47          0
    50          0
    51          2
    52          1
    53         14
    54         13
    55        169
    56        267
    57        434
    58         21
    59          0
    63          0
    65          2
    66          0
    67          9
    68          4
    69        129
    70         47
    71        221
    72         13
    73          0
    75          0
    77          1
    78          0
    79          1
    80          0
    81          3
    82          2
    83         15
    84        556
    85        355
    86         24
    87          0
    91          0
    92          0
    93          0
    95          1
    96          1
    97          5
    98          3
    99          5
   100          0
   107          0
   109          0
   110          0
   111          3
   112         25
   113         61
   114          6
   115          0
   121          0
   122          0
   124          0
   125          1
   126          3
   127          3
   128          0
   135          0
   139          0
   140          0
   141          3
   142          0
   155          1
   168          0
   170          9
   171          0