##TITLE=Library Entry 39611
##JCAMP-DX=Revision 4.10 
##DATA TYPE=MASS SPECTRUM
##SAMPLE DESCRIPTION=Japan AIST/NIMC Database- Spectrum MS-NW-9992
##NAMES=HP
##CAS NAME=2-(Propylamino)ethanol
##MOLFORM=C5H13NO
##CAS REGISTRY NO=16369-21-4
##MP= -300
##BP= -300
##MW= 103
##$RETENTION INDEX=0
##$CONDENSED SPECTRUM=NO
##NPOINTS= 53
##XYDATA=(XY..XY) 1 
    14          2
    15         21
    17          3
    18         10
    19          1
    26          9
    27         98
    28        119
    29         42
    30        805
    31         31
    32          1
    37          1
    38          3
    39         39
    40          8
    41        165
    42         99
    43        245
    44        100
    45         72
    46          2
    51          1
    52          2
    53          1
    54         11
    55          7
    56        322
    57         22
    58         24
    59          3
    60         35
    61          4
    67          1
    68          5
    69          2
    70         23
    71          3
    72        999
    73         51
    74        372
    75         13
    76          1
    82          1
    83          1
    84         12
    85          3
    86          3
    88          1
   100          1
   102         18
   103         69
   104         10