##TITLE=Library Entry 2292
##JCAMP-DX=Revision 4.10 
##DATA TYPE=MASS SPECTRUM
##SAMPLE DESCRIPTION=DN-171-5
##NAMES=HP
##CAS NAME=2-Pentanone, (2,4-dinitrophenyl)hydrazone
##MOLFORM=C11H14N4O4
##CAS REGISTRY NO=1636-82-4
##MP= -300
##BP= -300
##MW= 266
##$RETENTION INDEX=2423
##$CONDENSED SPECTRUM=NO
##NPOINTS= 184
##XYDATA=(XY..XY) 1 
    38         53
    39        237
    41        999
    42        892
    43        576
    45         71
    46          6
    50         53
    51        132
    52         88
    53         68
    54         44
    55        125
    56        107
    57        152
    58         18
    59          6
    60          1
    61         13
    62         73
    63        159
    64         88
    65         55
    66         33
    67         64
    68         85
    69        197
    70         77
    71         34
    72         34
    73         10
    74         32
    75        143
    76        107
    77        161
    78        159
    79        171
    80         41
    81         10
    82         25
    83         18
    84         12
    85         11
    87        235
    88         26
    89         44
    90         70
    91         87
    92         89
    93         36
    94         14
    95         10
    96          1
    97          3
   100          2
   101          4
   102         15
   103         53
   104         81
   105         48
   106         43
   107         30
   108         12
   109          1
   110          0
   111          2
   112          1
   114          2
   115         56
   116         50
   117         82
   118         37
   119         39
   120         24
   121         11
   122        116
   123         13
   124          0
   126          1
   127          7
   128         19
   129         33
   130         48
   131         59
   132         42
   133         43
   134         16
   135         49
   136         20
   137         22
   138         12
   141          3
   142          4
   143         21
   144         41
   145         47
   146         23
   147         17
   148          8
   149         50
   150         30
   151          8
   152        145
   153         47
   154          5
   155          2
   157          8
   158         22
   159         24
   160         14
   161         25
   162         21
   163         37
   164         18
   165         80
   166         19
   167         11
   168          5
   169          1
   170          5
   171          7
   172          9
   173         20
   174         11
   175         11
   176         12
   177         25
   178         65
   179         14
   180         72
   181        177
   182         23
   183         70
   184         21
   185         43
   186         11
   187          6
   188          4
   189         19
   190         26
   191         58
   192         14
   193          8
   194          4
   195          1
   196         53
   197          6
   198          0
   201          2
   202          5
   203         11
   204         11
   205         18
   206         18
   207         42
   208          7
   209          1
   210          8
   211          1
   214          1
   215          3
   216          9
   217         15
   218          5
   219         53
   220         11
   221          8
   222          3
   223          6
   229          9
   230          3
   231         53
   232         16
   233         18
   234          3
   235          1
   236         16
   237         11
   238          7
   249          8
   250         18
   251          8
   266        510
   267         78