##TITLE=Library Entry 39902
##JCAMP-DX=Revision 4.10 
##DATA TYPE=MASS SPECTRUM
##SAMPLE DESCRIPTION=NIST Mass Spectrometry Data Center
##NAMES=HP
##CAS NAME=1-Butanol, 2-amino-3-methyl-, (.+/-.)-
##MOLFORM=C5H13NO
##CAS REGISTRY NO=16369-05-4
##MP= -300
##BP= -300
##MW= 103
##$RETENTION INDEX=0
##$CONDENSED SPECTRUM=NO
##NPOINTS= 48
##XYDATA=(XY..XY) 1 
    15         28
    16          1
    17          2
    18         39
    26          6
    27         73
    28         84
    29        101
    30        223
    31         64
    32          3
    37          3
    38         10
    39         92
    40         13
    41        110
    42        282
    43         94
    44         58
    45          4
    46          5
    50          3
    51          5
    52          6
    53         24
    54         20
    55        517
    56        133
    57        103
    58         38
    59         17
    60        744
    61         19
    62          1
    65          1
    67          3
    68          6
    69          3
    70         19
    71         18
    72        999
    73         53
    74          1
    84          1
    85          1
    86          2
   102          1
   104          1