##TITLE=Library Entry 55830
##JCAMP-DX=Revision 4.10 
##DATA TYPE=MASS SPECTRUM
##SAMPLE DESCRIPTION=James Little,Eastman Chem.Co.,Kingsport,TN
##NAMES=HP
##CAS NAME=1-Pentanol, 2-amino-4-methyl-, (.+/-.)-
##MOLFORM=C6H15NO
##CAS REGISTRY NO=16369-17-8
##MP= -300
##BP= -300
##MW= 117
##$RETENTION INDEX=0
##$CONDENSED SPECTRUM=NO
##NPOINTS= 25
##XYDATA=(XY..XY) 1 
    27         56
    28         77
    29         32
    30        356
    35         35
    39         42
    41         95
    42        107
    43        203
    44        565
    55         12
    56         24
    57         22
    59         10
    60        290
    61          8
    69         16
    70         14
    72          4
    81          3
    84          6
    85          4
    86        999
    87         63
    88          3