##TITLE=Library Entry 34558
##JCAMP-DX=Revision 4.10 
##DATA TYPE=MASS SPECTRUM
##SAMPLE DESCRIPTION=ORMSBG,10(6)485(1975); W. J. STEC
##NAMES=HP
##CAS NAME=2,2'-Bi-1,3,2-dioxaphosphorinane, 5,5,5',5'-tetramethyl-, 2,2'-di
oxide
##MOLFORM=C10H20O6P2
##CAS REGISTRY NO=16368-06-2
##MP= -300
##BP= -300
##MW= 298
##$RETENTION INDEX=0
##$CONDENSED SPECTRUM=NO
##NPOINTS= 33
##XYDATA=(XY..XY) 1 
    40         29
    41        552
    42         45
    43         38
    47         53
    53         45
    55        232
    56        231
    57         29
    65         33
    67         50
    68        240
    69        999
    70         77
    71         22
    83         31
    99        190
   132         46
   133        415
   134         27
   145        290
   149         34
   150         29
   151         29
   163         43
   167        224
   213        290
   214         27
   215         27
   230         38
   231         34
   283         43
   298         52