##TITLE=Library Entry 7938
##JCAMP-DX=Revision 4.10 
##DATA TYPE=MASS SPECTRUM
##SAMPLE DESCRIPTION=R.A. Khmel'nitsky
##NAMES=HP
##CAS NAME=Decane, 4-ethyl-
##MOLFORM=C12H26
##CAS REGISTRY NO=1636-44-8
##MP= -300
##BP= -300
##MW= 170
##$RETENTION INDEX=1141
##$CONDENSED SPECTRUM=NO
##NPOINTS= 51
##XYDATA=(XY..XY) 1 
    15          6
    26          9
    27        174
    29        280
    30          6
    39         95
    40         18
    41        411
    42        109
    43        999
    44         33
    50          1
    51          5
    52          3
    53         29
    54         17
    55        196
    56        127
    57        687
    58         29
    65          5
    66          2
    67         18
    68          8
    69         72
    70         57
    71        490
    72         25
    81          3
    82         10
    83         26
    84        158
    85        500
    86         31
    96          6
    97         29
    98         22
    99         49
   100          3
   111          2
   112         11
   113         12
   114          4
   126         72
   127         40
   128          4
   140        102
   141         88
   142          9
   170          9
   171          1