##TITLE=Library Entry 25377
##JCAMP-DX=Revision 4.10 
##DATA TYPE=MASS SPECTRUM
##SAMPLE DESCRIPTION=Chemical Concepts
##NAMES=HP
##CAS NAME=Threitol, 2-O-octyl-
##MOLFORM=C12H26O4
##CAS REGISTRY NO=163776-14-5
##MP= -300
##BP= -300
##MW= 234
##$RETENTION INDEX=0
##$CONDENSED SPECTRUM=NO
##NPOINTS= 162
##XYDATA=(XY..XY) 1 
    24          0
    25          2
    26          8
    27        111
    28         65
    29        220
    30          7
    31        113
    32         12
    33          2
    36          1
    37          2
    38          2
    39         67
    40        129
    41        390
    42         98
    43        616
    44         70
    45         66
    46          2
    47          3
    48          0
    49          3
    50          3
    51          5
    52          2
    53         20
    54         13
    55        169
    56        100
    57        999
    58         42
    59         13
    60         60
    61        204
    62          8
    63          9
    64          1
    65          7
    66          7
    67         24
    68         24
    69        103
    70         70
    71        888
    72         45
    73         54
    74         71
    75         14
    76          5
    77          5
    78          2
    79          6
    80          2
    81         25
    82         26
    83         49
    84         33
    85         20
    86         13
    87         25
    88          3
    89          2
    90          2
    91        280
    92         10
    93          6
    94          2
    95         13
    96          3
    97         10
    98          2
    99          8
   100          2
   101          2
   102          2
   103          2
   104         15
   105         13
   106          2
   107          2
   108          1
   109          3
   110         45
   111         37
   112         27
   113         88
   114         11
   115          3
   116          1
   117          3
   118          1
   119          0
   120          0
   121          2
   122          1
   123          6
   124          2
   125          2
   126          2
   127          3
   128          2
   129          5
   130          5
   131          3
   132          2
   133          1
   134          0
   135          1
   136          0
   137         14
   138          2
   139          1
   140          1
   141         18
   142          2
   143          4
   144          2
   145          1
   147          1
   148          0
   150          0
   151          0
   152          0
   153          0
   154          0
   155          6
   156         26
   157          4
   158          1
   159          1
   161          0
   162          1
   163          1
   165          0
   169          1
   170          0
   171          0
   172          6
   173         66
   174          7
   175          1
   176          0
   179          0
   182          0
   183          0
   185          7
   186          4
   187          1
   189          1
   191          4
   192          1
   203         20
   204          3
   205          0
   213          0
   215          0
   217          0
   229          0
   235          2
   236          0