##TITLE=Library Entry 38959
##JCAMP-DX=Revision 4.10 
##DATA TYPE=MASS SPECTRUM
##SAMPLE DESCRIPTION=Japan AIST/NIMC Database- Spectrum MS-NW-7240
##NAMES=HP
##CAS NAME=.alpha.-D-Glucofuranose, 1,2-O-(2,2,2-trichloroethylidene)-, (S)-
##MOLFORM=C8H11Cl3O6
##CAS REGISTRY NO=16376-36-6
##MP= -300
##BP= -300
##MW= 308
##$RETENTION INDEX=0
##$CONDENSED SPECTRUM=NO
##NPOINTS= 231
##XYDATA=(XY..XY) 1 
    14          7
    15         88
    16          2
    17          7
    18         41
    19          5
    25          2
    26         16
    27        122
    28         39
    29        244
    30         27
    31        343
    32          9
    33          2
    35          6
    36         37
    37          3
    38         11
    39         59
    40          9
    41        142
    42         55
    43        318
    44         81
    45        210
    46          9
    47         32
    48         18
    49         12
    50          6
    51          6
    52          2
    53         34
    54         44
    55         86
    56         51
    57        238
    58         17
    59         91
    60        323
    61        479
    62         15
    63         12
    64          1
    65         13
    66          1
    67          5
    68         22
    69        161
    70         16
    71        999
    72        248
    73        899
    74         75
    75         16
    76         12
    77         14
    78          6
    79          8
    80          1
    81         31
    82         19
    83         63
    84         28
    85        518
    86         47
    87         19
    88          6
    89         32
    90          4
    91        256
    92         10
    93         11
    94          1
    95         18
    96         10
    97         60
    98         10
    99         40
   100          5
   101        106
   102         39
   103         54
   104          6
   105          5
   106          1
   107          3
   108          1
   109         31
   110          7
   111         38
   112         38
   113        693
   114         50
   115         29
   116          5
   117         21
   118          8
   119         26
   120        102
   121          9
   122          2
   123          3
   124          1
   125         26
   126          5
   127        230
   128         18
   129         12
   130         13
   131         86
   132         13
   133          6
   134          4
   135          3
   136          1
   137          3
   138          1
   139          3
   140          1
   141          3
   143          7
   144          3
   145        124
   146          9
   147          6
   148          1
   149          6
   150          1
   151          2
   152         16
   153         37
   154         15
   155         35
   156          6
   157          9
   158          1
   159          4
   160          1
   161          5
   162          1
   163          2
   165          3
   166          1
   167          5
   168          1
   169          3
   171          2
   173         71
   174          7
   175          4
   177          2
   179          1
   181          2
   182          1
   183          9
   184          1
   185          6
   186          1
   187          2
   188         91
   189         29
   190         90
   191        184
   192         29
   193          9
   194          5
   195         14
   196          2
   197          9
   198          1
   199          2
   201         56
   202          4
   203         53
   204          4
   205         18
   206          2
   207          2
   209          1
   211          2
   213          4
   215          3
   216          2
   217         29
   218          5
   219         29
   220          4
   221         10
   222          2
   223          2
   229          9
   230         52
   231         19
   232         54
   233         11
   234         16
   235          4
   236          2
   237          1
   239          1
   243          2
   245          2
   246          1
   247         61
   248          6
   249         61
   250          5
   251         19
   252          2
   253          3
   255          1
   257          1
   259         10
   260          3
   261          9
   262          3
   263          4
   264          1
   265          1
   273          2
   275          2
   277         10
   278          1
   279          9
   281          3
   285          1
   290          4
   292          4
   294          1