##TITLE=Library Entry 35147
##JCAMP-DX=Revision 4.10 
##DATA TYPE=MASS SPECTRUM
##SAMPLE DESCRIPTION=DR. C. C. VAN DE SANDE, STATE UNIVERSITY OF GENT, BELGI
UM
##NAMES=HP
##CAS NAME=Carbamic acid, diethyl-, cyclopentyl ester
##MOLFORM=C10H19NO2
##CAS REGISTRY NO=16379-15-0
##MP= -300
##BP= -300
##MW= 185
##$RETENTION INDEX=0
##$CONDENSED SPECTRUM=NO
##NPOINTS= 75
##XYDATA=(XY..XY) 1 
    36          5
    37         15
    38         30
    39        350
    40         80
    41        660
    42        220
    43         45
    44        380
    45         16
    46          4
    47          1
    48          1
    49          3
    50         13
    51         20
    52         14
    53         85
    54         18
    55         30
    56        125
    57         60
    58        740
    59         30
    60          2
    61          6
    62         11
    63         11
    64          3
    65         25
    66         25
    67        290
    68        115
    69        999
    70         85
    71         20
    72        390
    73         55
    74         19
    75          3
    83          2
    84          3
    85         13
    86          8
    87         17
    88          2
    89          8
    90          5
    91         22
    92          2
    98         11
    99          2
   100        490
   101         35
   102        710
   103         37
   104          6
   112         20
   113          3
   114          1
   115          4
   116        180
   117         55
   118        630
   119         40
   120          5
   126         25
   127          3
   128          2
   170         65
   171          8
   172          1
   185        105
   186         15
   187          2