##TITLE=Library Entry 32595
##JCAMP-DX=Revision 4.10 
##DATA TYPE=MASS SPECTRUM
##SAMPLE DESCRIPTION=CALIFORNIA RESEARCH CORP., RICHMOND, CAL, USA
##NAMES=HP
##CAS NAME=Cyclopentanethiol, 2-methyl-, trans-
##MOLFORM=C6H12S
##CAS REGISTRY NO=1638-93-3
##MP= -300
##BP= -300
##MW= 116
##$RETENTION INDEX=0
##$CONDENSED SPECTRUM=NO
##NPOINTS= 94
##XYDATA=(XY..XY) 1 
    25          9
    26        119
    27        612
    28        138
    29        235
    30          5
    31          1
    32         37
    33        137
    34         64
    35         29
    36          6
    37         41
    38         85
    39        650
    40         83
    41        870
    42         68
    43         56
    44         10
    45        432
    46         44
    47        159
    48          8
    49         19
    50         66
    51         95
    52         37
    53        199
    54        128
    55        954
    56         82
    57         35
    58         90
    59        174
    60        763
    61        125
    62         48
    63         27
    64          4
    65         51
    66         37
    67        999
    68         63
    69         56
    70         12
    71         59
    72         26
    73        196
    74        149
    75         25
    76         12
    77         33
    78         11
    79         48
    80         12
    81        142
    82        417
    83        833
    84         56
    85         21
    86          5
    87        123
    88         29
    89          7
    90          1
    91          0
    92          0
    93          1
    94          0
    95          1
    96          0
    97          7
    98          1
    99         10
   100          4
   101         28
   102          2
   103          1
   104          1
   105          0
   107          0
   108          0
   109          0
   110          0
   111          0
   112          0
   113          1
   114          1
   115          6
   116        571
   117         41
   118         26
   119          1