##TITLE=Library Entry 60204
##JCAMP-DX=Revision 4.10 
##DATA TYPE=MASS SPECTRUM
##SAMPLE DESCRIPTION=NIST Mass Spectrometry Data Center, 1990.
##NAMES=HP
##CAS NAME=4,6-Decadiyne
##MOLFORM=C10H14
##CAS REGISTRY NO=16387-71-6
##MP= -300
##BP= -300
##MW= 134
##$RETENTION INDEX=0
##$CONDENSED SPECTRUM=NO
##NPOINTS= 53
##XYDATA=(XY..XY) 1 
    15          7
    26         20
    27        133
    28         33
    29         75
    38         19
    39        135
    40         18
    41        150
    42         17
    50        146
    51        199
    52         40
    53         67
    54         10
    55         52
    61         20
    62         79
    63        273
    64         55
    65        155
    66         37
    67         37
    73         12
    74        116
    75        122
    76        128
    77        589
    78        174
    79        408
    80         43
    85          8
    86         27
    87         29
    88          9
    89         69
    90          8
    91        999
    92         99
    93         59
    98         14
   102         29
   103        191
   104         81
   105        235
   106         35
   115         49
   116         15
   117         97
   118         16
   119         54
   134        553
   135         61