##TITLE=Library Entry 52162
##JCAMP-DX=Revision 4.10 
##DATA TYPE=MASS SPECTRUM
##SAMPLE DESCRIPTION=Exported from NIST MS Search
##NAMES=HP
##CAS NAME=Cyclopentanethiol, 1-methyl-
##MOLFORM=C6H12S
##CAS REGISTRY NO=1638-95-5
##MP= -300
##BP= -300
##MW= 116
##$RETENTION INDEX=0
##$CONDENSED SPECTRUM=NO
##NPOINTS= 77
##XYDATA=(XY..XY) 1 
    26         31
    27        279
    28         59
    29        124
    30          3
    31          1
    32         23
    33         43
    34         47
    35         10
    36          3
    37         10
    38         27
    39        352
    40         54
    41        517
    42         34
    43         39
    44          4
    45         96
    46          9
    47         66
    48          3
    49          7
    50         27
    51         52
    52         27
    53        143
    54         56
    55        751
    56         38
    57          8
    58         37
    59        246
    60         19
    61         34
    62          5
    63         11
    64          3
    65         35
    66         17
    67        450
    68         26
    69         11
    70          2
    71         23
    72          3
    73         24
    74        171
    75         12
    76         11
    77         26
    78          8
    79         41
    80          7
    81         77
    82         70
    83        999
    84         66
    85          8
    86          4
    87         87
    88         14
    89          5
    90          1
    97          3
    98          1
   101         13
   102          1
   103          1
   105          1
   113          1
   115          4
   116        264
   117         20
   118         13
   119          1