##TITLE=Library Entry 82727
##JCAMP-DX=Revision 4.10 
##DATA TYPE=MASS SPECTRUM
##SAMPLE DESCRIPTION=Japan AIST/NIMC Database- Spectrum MS-NW-3378
##NAMES=HP
##CAS NAME=3,5-Octadiyne
##MOLFORM=C8H10
##CAS REGISTRY NO=16387-70-5
##MP= -300
##BP= -300
##MW= 106
##$RETENTION INDEX=972
##$CONDENSED SPECTRUM=NO
##NPOINTS= 72
##XYDATA=(XY..XY) 1 
    14          3
    15         13
    25          1
    26          9
    27         69
    28          1
    29         11
    36          2
    37         15
    38         23
    39        183
    40         34
    41         86
    42          4
    43         15
    44          3
    45          1
    46          1
    48          1
    49         12
    50         87
    51        184
    52         83
    53         58
    54         16
    55          8
    56          3
    57          4
    60          5
    61         30
    62         72
    63        187
    64         52
    65        430
    66        105
    67         17
    68          3
    69          2
    70          1
    72          1
    73         13
    74         71
    75         57
    76         37
    77        295
    78        215
    79        291
    80         24
    81          2
    82         12
    83          1
    84          4
    85         14
    86         28
    87         26
    88          6
    89         85
    90         32
    91        714
    92         53
    93          3
    97          6
    98          9
    99          3
   101          3
   102         11
   103        124
   104         22
   105        205
   106        999
   107         86
   108          4