##TITLE=Library Entry 91114
##JCAMP-DX=Revision 4.10 
##DATA TYPE=MASS SPECTRUM
##SAMPLE DESCRIPTION=Darrick Lee, Cayman Chemical, Ann Arbor, MI
##NAMES=HP
##CAS NAME=Indole, 3-(2-(di-n-propylamino)ethyl)-, monohydrochloride
##MOLFORM=C16H24N2
##CAS REGISTRY NO=16382-06-2
##MP= -300
##BP= -300
##MW= 244
##$RETENTION INDEX=0
##$CONDENSED SPECTRUM=NO
##NPOINTS= 93
##XYDATA=(XY..XY) 1 
    41         96
    42         61
    43        105
    44         25
    45          1
    49          1
    50          8
    51         13
    52          5
    53          2
    54          4
    55          3
    56          9
    57         15
    58          6
    61          2
    62          4
    63         12
    64          3
    65          5
    66          1
    67          1
    68          3
    70         16
    72         85
    73          6
    74          8
    75         12
    76         17
    77         50
    78          7
    79          1
    80          1
    82          2
    84         39
    86        113
    87          9
    88          3
    89         13
    90          8
    91          8
    92          1
    93          2
    96          1
    98          3
    99          1
   100          5
   101          8
   102         38
   103         40
   104          5
   108          8
   112          8
   114        999
   115        116
   116         15
   117         22
   118          4
   119          1
   127          6
   128         23
   129         46
   130        202
   131         24
   132          3
   140          2
   141          2
   142         11
   143         38
   144         66
   145          8
   146          1
   154          1
   155          2
   156          3
   157          1
   158          1
   167          1
   168          1
   169          2
   170          1
   171          1
   172          2
   183          1
   185          1
   200          1
   213          5
   214          1
   215          1
   242          1
   243          1
   244          3
   245          1