##TITLE=Library Entry 30376
##JCAMP-DX=Revision 4.10 
##DATA TYPE=MASS SPECTRUM
##SAMPLE DESCRIPTION=Exported from NIST MS Search
##NAMES=HP
##CAS NAME=2-Propanol, 1,1'-[(1-methyl-1,2-ethanediyl)bis(oxy)]bis-
##MOLFORM=C9H20O4
##CAS REGISTRY NO=1638-16-0
##MP= -300
##BP= -300
##MW= 192
##$RETENTION INDEX=0
##$CONDENSED SPECTRUM=NO
##NPOINTS= 48
##XYDATA=(XY..XY) 1 
    15          8
    17          5
    18         25
    19          5
    27         16
    28         18
    29         29
    30          3
    31        171
    32          5
    39         13
    40          4
    41        106
    42         62
    43         54
    44          9
    45        144
    46          3
    55          5
    56          4
    57         42
    58         35
    59        999
    60         35
    61          7
    71          5
    72         17
    73         18
    75          7
    77          5
    83          3
    85          6
    87          6
    89          7
    99          5
   101         11
   102          3
   103        217
   104         27
   105          3
   115          3
   116          5
   117         81
   118          8
   130          6
   131          5
   133          3
   161         24