##TITLE=Library Entry 16160
##JCAMP-DX=Revision 4.10 
##DATA TYPE=MASS SPECTRUM
##SAMPLE DESCRIPTION=Japan AIST/NIMC Database- Spectrum MS-NW-1975
##NAMES=HP
##CAS NAME=dl-Alanyl-l-leucine
##MOLFORM=C9H18N2O3
##CAS REGISTRY NO=1638-60-4
##MP= -300
##BP= -300
##MW= 202
##$RETENTION INDEX=0
##$CONDENSED SPECTRUM=NO
##NPOINTS= 115
##XYDATA=(XY..XY) 1 
    14          3
    15         31
    16          1
    17          3
    18         10
    26         11
    27         93
    28        137
    29         45
    30         92
    31          1
    32          1
    36          1
    37          2
    38          6
    39         47
    40         17
    41        119
    42        101
    43        191
    44        999
    45         29
    46          1
    50          3
    51          5
    52          6
    53         17
    54         19
    55         89
    56         48
    57         26
    58          7
    59          1
    63          2
    64          1
    65          2
    66          3
    67          9
    68         13
    69         22
    70        155
    71         39
    72         10
    73          7
    74          2
    77          1
    78          2
    79          3
    80          6
    81          6
    82          9
    83          9
    84         14
    85         17
    86        233
    87         14
    91          1
    93          2
    94          3
    95          9
    96         11
    97         10
    98         70
    99        120
   100         11
   101          1
   105          2
   106          2
   107          2
   108          3
   109          1
   110          5
   111          6
   112          6
   113         79
   114          9
   115          1
   116          1
   118          2
   119          1
   120          1
   121          2
   122          2
   123          6
   124         18
   125          4
   126          5
   127         23
   128        784
   129         50
   130          4
   131          1
   133          1
   137          1
   138          1
   139          3
   140          4
   141         88
   142          9
   146          3
   147          1
   148          2
   149          1
   151          4
   155          1
   164          1
   165          1
   166          8
   167          2
   169         11
   170          1
   180          1
   182          2
   183          1
   184          2