##TITLE=Library Entry 47263
##JCAMP-DX=Revision 4.10 
##DATA TYPE=MASS SPECTRUM
##SAMPLE DESCRIPTION=Japan AIST/NIMC Database- Spectrum MS-IW-4076
##NAMES=HP
##CAS NAME=Phosphine oxide, (chloromethyl)dimethyl-
##MOLFORM=C3H8ClOP
##CAS REGISTRY NO=1638-75-1
##MP= -300
##BP= -300
##MW= 126
##$RETENTION INDEX=0
##$CONDENSED SPECTRUM=NO
##NPOINTS= 60
##XYDATA=(XY..XY) 1 
    14          1
    15          4
    26          2
    27         15
    28          2
    29          1
    31          9
    32          2
    33          5
    36          4
    38          1
    39          1
    41          2
    43          1
    44          7
    45         36
    46         20
    47        132
    48          9
    49        116
    51          6
    54          1
    55          1
    56          2
    57         12
    58          5
    59         18
    60          2
    61         20
    62          9
    63         11
    66          1
    67          8
    68          1
    69          3
    75          1
    76          7
    77        999
    78         31
    79          4
    80          2
    81         97
    82          2
    83         45
    85          4
    91          7
    92          3
    95          1
    96          3
    97          2
    98          1
   105          1
   109          1
   111         21
   112          1
   113          7
   126        195
   127          9
   128         62
   129          6