##TITLE=Library Entry 22339
##JCAMP-DX=Revision 4.10 
##DATA TYPE=MASS SPECTRUM
##SAMPLE DESCRIPTION=Exported from NIST MS Search
##NAMES=HP
##CAS NAME=Cyclopentane, 1,1-dimethyl-
##MOLFORM=C7H14
##CAS REGISTRY NO=1638-26-2
##MP= -300
##BP= -300
##MW= 98
##$RETENTION INDEX=675
##$CONDENSED SPECTRUM=NO
##NPOINTS= 68
##XYDATA=(XY..XY) 1 
     1          4
     2          1
    12          1
    13          1
    14          3
    15         72
    16          4
    25          1
    26         21
    27        311
    28         86
    29        205
    30          6
    31          1
    33          1
    37          4
    38         15
    39        321
    40         60
    41        684
    42        160
    43         98
    44          3
    45          1
    46          2
    47          1
    49          1
    50         12
    51         27
    52         13
    53         82
    54         38
    55        756
    56        999
    57        172
    58          6
    61          1
    62          1
    63          4
    64          1
    65         12
    66          7
    67         42
    68         48
    69        686
    70        278
    71         14
    72          1
    74          1
    75          1
    76          1
    77         10
    78          2
    79         10
    80          2
    81         12
    82         15
    83        545
    84         35
    85          1
    91          1
    93          1
    95          1
    96          1
    97          2
    98         82
    99          6
   100          1