##TITLE=Library Entry 24511
##JCAMP-DX=Revision 4.10 
##DATA TYPE=MASS SPECTRUM
##SAMPLE DESCRIPTION=A.A.Kutin, Moscow, Russia
##NAMES=HP
##CAS NAME=Propane, 1,2-epoxy-2-methyl-3,3,3-trichloro-
##MOLFORM=C4H5Cl3O
##CAS REGISTRY NO=16387-26-1
##MP= -300
##BP= -300
##MW= 174
##$RETENTION INDEX=0
##$CONDENSED SPECTRUM=NO
##NPOINTS= 68
##XYDATA=(XY..XY) 1 
    35         22
    36         50
    37         79
    38        101
    39        235
    40         11
    41         35
    42         51
    43        778
    44         17
    45          6
    47         64
    48         16
    49        172
    50         26
    51         70
    52          3
    53          7
    55          2
    57        999
    58         39
    59          3
    60         16
    61         52
    62         11
    63         63
    65         17
    71          7
    72         48
    73        273
    74         40
    75        179
    76         17
    77         42
    82         51
    83        307
    84         41
    85        200
    86          7
    87         39
    95          3
    96         14
    97        150
    98         10
    99         95
   101         14
   107         18
   108          3
   109        383
   110         23
   111        237
   112          9
   113         40
   117         60
   119         52
   121         17
   125        348
   126         10
   127        213
   128          7
   129         39
   139         51
   141         33
   143         10
   144         76
   145          9
   146         73
   148         25