##TITLE=Library Entry 57909
##JCAMP-DX=Revision 4.10 
##DATA TYPE=MASS SPECTRUM
##SAMPLE DESCRIPTION=Chemical Concepts
##NAMES=HP
##CAS NAME=Octanedioic acid, 2,2,7,7-tetramethyl-
##MOLFORM=C12H22O4
##CAS REGISTRY NO=16386-99-5
##MP= -300
##BP= -300
##MW= 230
##$RETENTION INDEX=0
##$CONDENSED SPECTRUM=NO
##NPOINTS= 136
##XYDATA=(XY..XY) 1 
    26          0
    27         85
    28          9
    29        137
    30          3
    31         27
    38          1
    39         69
    40         19
    41        303
    42         39
    43        152
    44          6
    45         61
    46          1
    47          1
    50          0
    51          3
    52          1
    53         25
    54          7
    55        349
    56        105
    57        315
    58         14
    59        141
    60         12
    61          2
    62          0
    64          0
    65          4
    66          1
    67         27
    68          6
    69        318
    70        145
    71         38
    72          9
    73        131
    74          7
    75          1
    77          3
    78          0
    79          6
    81         33
    82         63
    83        422
    84         34
    85         23
    86          2
    87         47
    88        999
    89         48
    90          5
    91          0
    93          3
    94          2
    95         43
    96         14
    97        385
    98         29
    99          7
   100          2
   101         75
   102         14
   103          1
   105          1
   106          0
   107          3
   109          7
   110          3
   111         13
   112         14
   113         12
   114          2
   115         39
   116          4
   117          0
   121          1
   123         12
   124          1
   125        307
   126         39
   127          1
   128         36
   129         16
   130          3
   131          0
   133          0
   135          3
   139        100
   140         13
   141          3
   142          0
   143        115
   144          9
   145          1
   147          0
   149          4
   150          5
   151         10
   152          0
   153          2
   154          0
   156         11
   157          3
   158          0
   165          1
   166         18
   167         95
   168         36
   169         13
   170          1
   171          3
   172          0
   178          0
   179          6
   180          0
   183          1
   184         18
   185        183
   186         31
   187          2
   193          0
   194         28
   195          3
   196          0
   197          1
   198          0
   199          1
   202          0
   212          6
   213          3
   226          0
   230          1
   231          1