##TITLE=Library Entry 98947
##JCAMP-DX=Revision 4.10 
##DATA TYPE=MASS SPECTRUM
##SAMPLE DESCRIPTION=V.Zaikin,Inst.Petrochem.Synth.,RAS,Moscow
##NAMES=HP
##CAS NAME=p-Toluic acid, 2-ethylhexyl ester
##MOLFORM=C16H24O2
##CAS REGISTRY NO=16397-65-2
##MP= -300
##BP= -300
##MW= 248
##$RETENTION INDEX=0
##$CONDENSED SPECTRUM=NO
##NPOINTS= 90
##XYDATA=(XY..XY) 1 
    26         14
    27        101
    28         23
    29        147
    30          8
    38          6
    39        116
    40         24
    41        236
    42         60
    43        121
    44          3
    50         24
    51         38
    52         17
    53         23
    54         18
    55        185
    56        141
    57        105
    58          4
    59          5
    60          3
    61          5
    62         10
    63         54
    64         17
    65        152
    66         13
    67         17
    68         19
    69         76
    70        825
    71        118
    72          9
    73          3
    74          5
    75          7
    76          4
    77         22
    78          6
    79         14
    80          2
    81          8
    82         26
    83        206
    84        106
    85         10
    86          2
    87          4
    88          3
    89         43
    90         46
    91        450
    92         49
    93         27
    94          3
    95          4
    96          3
    97         12
   104          4
   105         17
   106          5
   107          9
   108          4
   110          4
   111          6
   112        438
   113         41
   114          3
   115          2
   116          2
   117          5
   118         13
   119        999
   120        120
   121          9
   122          3
   123          2
   131          2
   133          2
   134          2
   135         24
   136        173
   137        315
   138         31
   139          5
   145          3
   149         11
   150          4