##TITLE=Library Entry 8496
##JCAMP-DX=Revision 4.10 
##DATA TYPE=MASS SPECTRUM
##SAMPLE DESCRIPTION=Exported from NIST MS Search
##NAMES=HP
##CAS NAME=2-Pentanethiol, 4-methyl-
##MOLFORM=C6H14S
##CAS REGISTRY NO=1639-05-0
##MP= -300
##BP= -300
##MW= 118
##$RETENTION INDEX=0
##$CONDENSED SPECTRUM=NO
##NPOINTS= 90
##XYDATA=(XY..XY) 1 
    15        136
    16          5
    24          1
    25          2
    26         31
    27        434
    28         43
    29        189
    30          5
    31          1
    32         12
    33         35
    34         28
    35         65
    36          2
    37         17
    38         35
    39        383
    40         53
    41        826
    42        191
    43        999
    44         34
    45         97
    46         14
    47        132
    48          4
    49         10
    50         14
    51         22
    52          7
    53         43
    54          9
    55        114
    56         86
    57        141
    58         42
    59         91
    60        110
    61        607
    62         29
    63         33
    64          2
    65          8
    66          3
    67          3
    68          9
    69        899
    70         50
    71         10
    72          1
    73          6
    74         27
    75        113
    76         13
    77          7
    78          1
    79          1
    80          1
    81          1
    82          2
    83          8
    84        617
    85        194
    86         12
    87          4
    88          1
    89          1
    90          1
    91          1
    92          1
    93          1
    94          1
    95          1
    96          1
    97          1
    98          1
    99          1
   100          1
   101          3
   102          1
   103          4
   104          1
   105          1
   116          1
   117          1
   118         92
   119          7
   120          5
   121          1