##TITLE=Library Entry 98948
##JCAMP-DX=Revision 4.10 
##DATA TYPE=MASS SPECTRUM
##SAMPLE DESCRIPTION=V.Zaikin,Inst.Petrochem.Synth.,RAS,Moscow
##NAMES=HP
##CAS NAME=m-Toluic acid, 2-ethylhexyl ester
##MOLFORM=C16H24O2
##CAS REGISTRY NO=16397-66-3
##MP= -300
##BP= -300
##MW= 248
##$RETENTION INDEX=1774
##$CONDENSED SPECTRUM=NO
##NPOINTS= 90
##XYDATA=(XY..XY) 1 
    25          3
    26          9
    27         80
    28         21
    29        122
    30          3
    39        101
    40         19
    41        207
    42         57
    43        108
    44          9
    50         20
    51         38
    52         15
    53         19
    54         16
    55        151
    56        122
    57         95
    58          4
    59          8
    61          4
    62         15
    63         51
    64         15
    65        144
    66         10
    67         13
    68         14
    69         81
    70        727
    71        121
    72         11
    73          3
    74          2
    75          6
    76          7
    77         24
    78          6
    79         13
    80          2
    81          6
    82         18
    83        158
    84         88
    85         10
    87          3
    88          5
    89         38
    90         36
    91        445
    92         57
    93         26
    94          4
    95          4
    96          4
    97         12
    98          2
   100          3
   102          8
   103          4
   104          4
   105         26
   106          6
   107          4
   111          4
   112        373
   113         37
   115          3
   116          2
   117          4
   118         25
   119        999
   120         94
   121          5
   130         13
   131          2
   132          2
   134          4
   135         19
   136        142
   137        188
   138         15
   148          2
   149          8
   150          4
   151          3
   152          4
   154          3