##TITLE=Library Entry 2506
##JCAMP-DX=Revision 4.10 
##DATA TYPE=MASS SPECTRUM
##SAMPLE DESCRIPTION=Exported from NIST MS Search
##NAMES=HP
##CAS NAME=3-Pentanethiol, 2-methyl-
##MOLFORM=C6H14S
##CAS REGISTRY NO=1639-04-9
##MP= -300
##BP= -300
##MW= 118
##$RETENTION INDEX=881
##$CONDENSED SPECTRUM=NO
##NPOINTS= 80
##XYDATA=(XY..XY) 1 
    15        130
    16          5
    25          2
    26         37
    27        438
    28         48
    29        215
    30          5
    31          1
    32         11
    33         30
    34         21
    35         20
    36          2
    37         15
    38         34
    39        382
    40         44
    41        999
    42        141
    43        990
    44         37
    45        184
    46         33
    47        421
    48         12
    49         23
    50         17
    51         27
    52          9
    53         62
    54         16
    55        394
    56         82
    57        108
    58         35
    59         55
    60         29
    61        125
    62          9
    63         13
    64          1
    65          8
    66          3
    67         16
    68          4
    69        155
    70         16
    71         27
    72          5
    73         34
    74        431
    75        780
    76         69
    77         40
    78          3
    79          1
    80          1
    81          1
    82          2
    83          7
    84         93
    85        309
    86         21
    87          7
    88         15
    89         89
    90          5
    91          4
    92          1
    93          1
   102          1
   103          2
   104          1
   116          1
   117          1
   118        318
   119         23
   120         15
   121          1