##TITLE=Library Entry 2993
##JCAMP-DX=Revision 4.10 
##DATA TYPE=MASS SPECTRUM
##SAMPLE DESCRIPTION=Exported from NIST MS Search
##NAMES=HP
##CAS NAME=1-Heptanethiol
##MOLFORM=C7H16S
##CAS REGISTRY NO=1639-09-4
##MP= -300
##BP= -300
##MW= 132
##$RETENTION INDEX=1031
##$CONDENSED SPECTRUM=NO
##NPOINTS= 85
##XYDATA=(XY..XY) 1 
     1         13
     2          3
    12          1
    13          1
    14          4
    15         44
    16          1
    25          2
    26         48
    27        724
    28        150
    29        677
    30         15
    32         10
    33         23
    34         32
    35         72
    36          2
    37          6
    38         13
    39        390
    40         67
    41        999
    42        606
    43        547
    44         18
    45        167
    46         69
    47        448
    48         24
    49         23
    50          7
    51         17
    52          8
    53         70
    54         73
    55        689
    56        789
    57        291
    58         26
    59         49
    60         50
    61        193
    62         15
    63         11
    64          1
    65          8
    66          3
    67         30
    68        141
    69        422
    70        764
    71         50
    72          2
    73         11
    74          5
    75          7
    76          2
    77          3
    78          1
    79          3
    80          1
    81          5
    82          3
    83         70
    84          5
    85          4
    87          7
    88          2
    89         64
    90          3
    91          3
    95          1
    97          5
    98        134
    99         10
   100          2
   101          2
   103          4
   104          1
   131          7
   132        265
   133         23
   134         13
   135          1