##TITLE=Library Entry 9306
##JCAMP-DX=Revision 4.10 
##DATA TYPE=MASS SPECTRUM
##SAMPLE DESCRIPTION=AP-2085
##NAMES=HP
##CAS NAME=2-Butanethiol, 2,3-dimethyl-
##MOLFORM=C6H14S
##CAS REGISTRY NO=1639-01-6
##MP= -300
##BP= -300
##MW= 118
##$RETENTION INDEX=801
##$CONDENSED SPECTRUM=NO
##NPOINTS= 77
##XYDATA=(XY..XY) 1 
    12          1
    13          1
    14          3
    15         38
    25          1
    26         10
    27        178
    28         28
    29         77
    30          2
    32         14
    33         15
    34         33
    35          6
    36          2
    37          8
    38         24
    39        294
    40         41
    41        887
    42         70
    43        999
    44         34
    45         48
    46          5
    47        111
    48          3
    49          8
    50         12
    51         22
    52          7
    53         60
    54          8
    55         93
    56         17
    57        113
    58         26
    59        176
    60         11
    61         40
    62          4
    63          6
    64          1
    65          8
    66          3
    67         25
    68          4
    69        304
    70         26
    71          9
    72          1
    73          4
    74        309
    75        926
    76         56
    77         44
    78          2
    79          1
    81          1
    82          0
    83          8
    84         47
    85        434
    86         29
    87          4
    88          2
    89          0
   101          0
   102          0
   103         15
   104          1
   105          0
   117          1
   118        198
   119         15
   120          9
   121          0