##TITLE=Library Entry 57006
##JCAMP-DX=Revision 4.10 
##DATA TYPE=MASS SPECTRUM
##SAMPLE DESCRIPTION=Chemical Concepts
##NAMES=HP
##CAS NAME=1,3-Dioxolane, 2-(chloromethyl)-4-methyl-
##MOLFORM=C5H9ClO2
##CAS REGISTRY NO=16390-83-3
##MP= -300
##BP= -300
##MW= 136
##$RETENTION INDEX=0
##$CONDENSED SPECTRUM=NO
##NPOINTS= 91
##XYDATA=(XY..XY) 1 
    24          2
    25         10
    26         88
    27        303
    28        122
    29        291
    30         17
    31        922
    32         11
    33          2
    35         10
    36         37
    37          5
    38         14
    39         90
    40         21
    41        568
    42         95
    43        361
    44         57
    45         88
    46          1
    47         17
    48         10
    49        134
    50         28
    51         42
    52          8
    53          2
    54          0
    55          8
    56          4
    57        369
    58         65
    59        609
    60         21
    61         19
    62         33
    63         59
    64         12
    65         17
    66          0
    67          0
    69          0
    70          2
    71         41
    72          2
    73          2
    74          3
    75          4
    76          4
    77         69
    78          7
    79         45
    80          2
    81          7
    82          0
    83          0
    84          0
    85          2
    86          2
    87        999
    88         58
    89          6
    90          0
    91          2
    92        175
    93         28
    94         60
    95         10
    96          0
    97          0
    99          1
   100          3
   101          2
   105          0
   106         15
   107          1
   108          7
   109          0
   110          0
   121         10
   122          0
   123          4
   124          0
   125          0
   134          0
   135         24
   136          1
   137          9
   138          0