##TITLE=Library Entry 7388
##JCAMP-DX=Revision 4.10 
##DATA TYPE=MASS SPECTRUM
##SAMPLE DESCRIPTION=Exported from NIST MS Search
##NAMES=HP
##CAS NAME=3-Pentanethiol, 3-methyl-
##MOLFORM=C6H14S
##CAS REGISTRY NO=1639-03-8
##MP= -300
##BP= -300
##MW= 118
##$RETENTION INDEX=821
##$CONDENSED SPECTRUM=NO
##NPOINTS= 49
##XYDATA=(XY..XY) 1 
    26         59
    27        432
    28         68
    29        322
    31         23
    32         12
    33         40
    34         18
    35         16
    37         10
    38         23
    39        241
    40         31
    41        415
    42         48
    43        999
    44         35
    45        120
    47         93
    50         26
    51         37
    52         13
    53         78
    54         21
    55        609
    56         68
    57        142
    58         33
    59        101
    60         10
    61         81
    63         11
    67         17
    69        147
    70         13
    71         15
    73        210
    74         15
    84         38
    85        537
    86         40
    87         26
    88         21
    89        227
    90         19
    91         15
   101         12
   118        156
   119         12