##TITLE=Library Entry 1814
##JCAMP-DX=Revision 4.10 
##DATA TYPE=MASS SPECTRUM
##SAMPLE DESCRIPTION=NIST Mass Spectrometry Data Center, 1994
##NAMES=HP
##CAS NAME=2-Bromo-3-chloropropene-1
##MOLFORM=C3H4BrCl
##CAS REGISTRY NO=16400-63-8
##MP= -300
##BP= -300
##MW= 154
##$RETENTION INDEX=0
##$CONDENSED SPECTRUM=NO
##NPOINTS= 66
##XYDATA=(XY..XY) 1 
    12         16
    13         19
    14         26
    15          3
    18          3
    19          2
    20          1
    24          9
    25         34
    26         73
    27          4
    28          6
    32          0
    35         53
    36         53
    37        226
    38        313
    39        999
    40        121
    41          4
    47         17
    48         12
    49        160
    50          6
    51         50
    60          5
    61          3
    62          1
    63          1
    71          4
    72          7
    73         34
    74          1
    75        924
    76         37
    77        290
    78         10
    79         82
    80         16
    81         77
    82         16
    83          1
    91          4
    93         33
    94          4
    95         25
   103          1
   104          5
   105         29
   106          6
   107         25
   114          1
   116          3
   117         10
   119         56
   121         48
   122          2
   127          5
   129          6
   131          1
   154        161
   155          5
   156        210
   157          7
   158         51
   159          1