##TITLE=Library Entry 70018
##JCAMP-DX=Revision 4.10 
##DATA TYPE=MASS SPECTRUM
##SAMPLE DESCRIPTION=NIST Mass Spectrometry Data Center
##NAMES=HP
##CAS NAME=2H-Pyran-2-one, 6-heptyl-5,6-dihydro-
##MOLFORM=C12H20O2
##CAS REGISTRY NO=16400-72-9
##MP= -300
##BP= -300
##MW= 196
##$RETENTION INDEX=1704
##$CONDENSED SPECTRUM=NO
##NPOINTS= 115
##XYDATA=(XY..XY) 1 
    26          1
    27         21
    28          4
    29         34
    30          1
    31          1
    37          1
    38          4
    39         95
    40         53
    41        183
    42         44
    43         64
    44          8
    45          2
    50          2
    51          5
    52          3
    53         22
    54         14
    55         92
    56         26
    57         45
    58          4
    59          1
    61          1
    62          1
    63          2
    65          8
    66         13
    67         69
    68        620
    69        235
    70         28
    71         18
    72          1
    73          4
    77          7
    78          4
    79         25
    80         24
    81         50
    82         33
    83         18
    84         27
    85          7
    86         35
    87          3
    91          4
    92          4
    93         14
    94         39
    95         49
    96         55
    97        999
    98         70
    99         37
   100          4
   101          1
   103          1
   104          1
   105          2
   106          2
   107         19
   108         18
   109         24
   110         12
   111         38
   112         28
   113         14
   114          5
   115          1
   116          1
   117          2
   118          1
   120          1
   121         21
   122         21
   123          7
   124         11
   125         19
   126         12
   127         12
   128          7
   129          1
   131          3
   132          3
   134          4
   135         12
   136         69
   137         12
   138          1
   139         18
   140         25
   141          3
   142          6
   143          1
   145          1
   149          8
   150         22
   151          6
   153          9
   154          4
   155          2
   160          1
   163          2
   167          4
   168         10
   169          1
   178          5
   179          1
   181          1
   195          1
   196          4
   197          1