##TITLE=Library Entry 228
##JCAMP-DX=Revision 4.10 
##DATA TYPE=MASS SPECTRUM
##SAMPLE DESCRIPTION=D.HENNEBERG, MAX-PLANCK INSTITUTE, MULHEIM, WEST GERMAN
Y
##NAMES=HP
##CAS NAME=Nickel, tricarbonyl(trimethylphosphine)-, (T-4)-
##MOLFORM=C6H9NiO3P
##CAS REGISTRY NO=16406-99-8
##MP= -300
##BP= -300
##MW= 218
##$RETENTION INDEX=0
##$CONDENSED SPECTRUM=NO
##NPOINTS= 106
##XYDATA=(XY..XY) 1 
    26         10
    27         21
    28        999
    29         12
    30          2
    31          0
    32          0
    33          2
    34          1
    35          1
    37          0
    38          0
    39          2
    40          1
    41         24
    42          1
    44         56
    45         81
    46         14
    47         27
    48          3
    49          1
    53          0
    54          1
    55          0
    56          4
    57         57
    58         26
    59        159
    60         14
    61        263
    62          6
    63          0
    69          0
    71          2
    72          0
    73         11
    74          1
    75         50
    76        192
    77          7
    78          0
    84          1
    86          6
    88          2
    89          0
    90          2
    91          2
    92          2
    93          1
    94          1
   102         10
   103         17
   104         12
   105         11
   106         52
   107          3
   108         18
   109          1
   110          3
   112          0
   114          2
   115          1
   116          3
   117          2
   118         12
   119         12
   120          5
   121          5
   122          1
   123          0
   124          0
   132          0
   133          5
   134        129
   135          6
   136         49
   137          3
   138          7
   140          1
   142          0
   147          2
   149          0
   161          2
   162         33
   163          2
   164         13
   165          1
   166          2
   168          0
   175          1
   177          0
   190         36
   191          2
   192         13
   193          2
   194          2
   196          0
   202          0
   204          0
   210          0
   218         15
   219          1
   220          6
   221          1
   222          1