##TITLE=Library Entry 35221
##JCAMP-DX=Revision 4.10 
##DATA TYPE=MASS SPECTRUM
##SAMPLE DESCRIPTION=Japan AIST/NIMC Database- Spectrum MS-NW-4000
##NAMES=HP
##CAS NAME=Cyclopentane, ethyl-
##MOLFORM=C7H14
##CAS REGISTRY NO=1640-89-7
##MP= -300
##BP= -300
##MW= 98
##$RETENTION INDEX=737
##$CONDENSED SPECTRUM=NO
##NPOINTS= 52
##XYDATA=(XY..XY) 1 
    14          1
    15          9
    26         13
    27        136
    28         25
    29        124
    30          3
    37          4
    38         11
    39        185
    40         34
    41        636
    42        412
    43         69
    44          2
    45          1
    49          1
    50          9
    51         16
    52          7
    53         50
    54         52
    55        478
    56        446
    57         73
    58          3
    61          1
    62          3
    63          5
    64          1
    65         11
    66          7
    67         99
    68        663
    69        999
    70        560
    71         31
    72          1
    77          5
    78          1
    79          5
    80          1
    81          4
    82          7
    83         81
    84          5
    85          1
    95          1
    96          1
    97          9
    98        122
    99          9