##TITLE=Library Entry 67801
##JCAMP-DX=Revision 4.10 
##DATA TYPE=MASS SPECTRUM
##SAMPLE DESCRIPTION=Japan AIST/NIMC Database- Spectrum MS-NW-8948
##NAMES=HP
##CAS NAME=Cyclohexanol, 5-methyl-2-(1-methylethyl)-, acetate
##MOLFORM=C12H22O2
##CAS REGISTRY NO=16409-45-3
##MP= -300
##BP= -300
##MW= 198
##$RETENTION INDEX=1294
##$CONDENSED SPECTRUM=NO
##NPOINTS= 81
##XYDATA=(XY..XY) 1 
    15          9
    18          1
    27         30
    28         10
    29         45
    30          1
    31          3
    39         27
    40          5
    41        159
    42         19
    43        658
    44         18
    45          7
    51          2
    52          1
    53         26
    54         24
    55        205
    56         44
    57         94
    58         10
    59          8
    60          1
    61         15
    65          7
    66          4
    67        173
    68         87
    69        168
    70         35
    71        176
    72         11
    73          4
    77         11
    78          3
    79         36
    80         57
    81        566
    82        267
    83        113
    84         13
    85         41
    86         11
    87          2
    91          7
    92          1
    93         19
    94        100
    95        999
    96        252
    97         38
    98          6
    99         13
   100          8
   101          1
   105          1
   107          4
   108          2
   109         81
   110         48
   111         15
   112         11
   113         47
   114          5
   115          1
   121          4
   122          1
   123        324
   124         32
   125          3
   136          1
   137         12
   138        446
   139         71
   140          5
   141         11
   142          1
   154          2
   155          5
   156          4