##TITLE=Library Entry 33719
##JCAMP-DX=Revision 4.10 
##DATA TYPE=MASS SPECTRUM
##SAMPLE DESCRIPTION=NIST Mass Spectrometry Data Center
##NAMES=HP
##CAS NAME=2H-Pyran-2-one, 5,6-dihydro-6-propyl-
##MOLFORM=C8H12O2
##CAS REGISTRY NO=16400-69-4
##MP= -300
##BP= -300
##MW= 140
##$RETENTION INDEX=1264
##$CONDENSED SPECTRUM=NO
##NPOINTS= 42
##XYDATA=(XY..XY) 1 
    26          3
    27         30
    29         19
    37          3
    38         13
    39        156
    40         92
    41        162
    42         60
    43         35
    44          9
    50          8
    51         11
    52          5
    53         21
    54          6
    55         30
    57          8
    62          3
    63          5
    65          8
    66          6
    67         13
    68        999
    69        249
    70         17
    71         22
    78         11
    79          7
    80         21
    84          7
    86          5
    94          5
    95         10
    96         44
    97        934
    98         53
    99          7
   112         20
   113          2
   122         17
   140          5