##TITLE=Library Entry 70355
##JCAMP-DX=Revision 4.10 
##DATA TYPE=MASS SPECTRUM
##SAMPLE DESCRIPTION=DC-25-4
##NAMES=HP
##CAS NAME=Oxazole, 2-hexyl-5-methyl-
##MOLFORM=C10H17NO
##CAS REGISTRY NO=16400-62-7
##MP= -300
##BP= -300
##MW= 167
##$RETENTION INDEX=0
##$CONDENSED SPECTRUM=NO
##NPOINTS= 39
##XYDATA=(XY..XY) 1 
    38         20
    39         50
    40         20
    41        130
    42         30
    43         70
    44         30
    52         10
    53         30
    54        150
    55        130
    56         30
    57         10
    66         10
    67         40
    68         30
    69         20
    73         20
    81         20
    82         30
    83         20
    84         30
    94         10
    95         20
    96        170
    97        999
    98         70
   109         10
   110        560
   111        150
   112         10
   124        150
   125         10
   138        100
   139         40
   152        220
   166         40
   167        220
   168         40