##TITLE=Library Entry 73121
##JCAMP-DX=Revision 4.10 
##DATA TYPE=MASS SPECTRUM
##SAMPLE DESCRIPTION=Patti Price, Georgia Bureau of Investigation, Decatur,
 Georgia
##NAMES=HP
##CAS NAME=Acetamide, N-(.beta.-hydroxy-.alpha.-methylphenethyl)-N-methyl-
##MOLFORM=C12H17NO2
##CAS REGISTRY NO=16413-75-5
##MP= -300
##BP= -300
##MW= 207
##$RETENTION INDEX=0
##$CONDENSED SPECTRUM=NO
##NPOINTS= 106
##XYDATA=(XY..XY) 1 
    42         38
    43         80
    44         22
    49          1
    50          5
    51         27
    52          7
    53          6
    54          5
    55          8
    56         47
    57         17
    58        761
    59         31
    60          1
    61          1
    62          2
    63          8
    64          2
    65          7
    67          1
    68          2
    69          1
    70          2
    71          3
    72          2
    73          9
    74         13
    75          3
    76          4
    77        145
    78         31
    79         82
    80          5
    81          1
    82          9
    83          1
    86         66
    87          7
    88          2
    89          9
    90          3
    91         31
    92          2
    93          1
    94          1
    95          1
    97          1
    99          2
   100        999
   101        346
   102         23
   103         10
   104          3
   105         47
   106          9
   107         35
   108          3
   109          1
   110          1
   111          1
   112          1
   114          1
   115         20
   116          9
   117         37
   118         26
   119          3
   120          1
   127          1
   128          1
   129          1
   130          9
   131         17
   132         14
   133         26
   134          8
   135          1
   138          1
   139          1
   143          1
   144          3
   145          1
   146         24
   147          7
   148          9
   149          1
   150          2
   151          1
   152          1
   159          1
   162          1
   163          1
   164          1
   165          1
   172          1
   173          1
   174          1
   186          1
   188          1
   189         22
   190          4
   191          1
   192          1
   207          1
   208          2