##TITLE=Library Entry 18665
##JCAMP-DX=Revision 4.10 
##DATA TYPE=MASS SPECTRUM
##SAMPLE DESCRIPTION=A.E.WILLIAMS ICI DYESTUFFS DIVISION. BLACKLEY
##NAMES=HP
##CAS NAME=Butanedinitrile, 2,3-dimethyl-
##MOLFORM=C6H8N2
##CAS REGISTRY NO=16411-13-5
##MP= -300
##BP= -300
##MW= 108
##$RETENTION INDEX=0
##$CONDENSED SPECTRUM=NO
##NPOINTS= 50
##XYDATA=(XY..XY) 1 
    14          4
    15          2
    25          2
    26         47
    27        207
    28        246
    29         25
    37         13
    38         25
    39         78
    40         40
    41         90
    42         16
    43         11
    44         11
    45          3
    49          1
    50         10
    51         61
    52        119
    53         52
    54        999
    55        846
    56         65
    57         45
    58         19
    59          6
    60          1
    62          2
    63          7
    64         19
    65          6
    66         30
    67          6
    68         35
    69          2
    76          3
    77          5
    78          6
    79          3
    80          6
    81          6
    82          6
    83          1
    84          2
    91          2
    93          7
   107          6
   108          2
   109          5