##TITLE=Library Entry 85672
##JCAMP-DX=Revision 4.10 
##DATA TYPE=MASS SPECTRUM
##SAMPLE DESCRIPTION=NIST Mass Spectrometry Data Center
##NAMES=HP
##CAS NAME=3-Thiophenecarbonitrile
##MOLFORM=C5H3NS
##CAS REGISTRY NO=1641-09-4
##MP= -300
##BP= -300
##MW= 109
##$RETENTION INDEX=0
##$CONDENSED SPECTRUM=NO
##NPOINTS= 64
##XYDATA=(XY..XY) 1 
    12         11
    13          4
    14          2
    24          6
    25         18
    26         35
    27          7
    28          1
    29          3
    32         39
    33          6
    34          4
    36         29
    37        124
    38         95
    39         51
    40          6
    42          1
    43          2
    45        562
    46         16
    47         27
    48         10
    49         34
    50         39
    51         33
    52         10
    53          1
    54          1
    55         13
    56         36
    57        104
    58        270
    59         21
    60         19
    61          4
    62         16
    63         28
    64         98
    65         81
    66          4
    68         15
    69         45
    70         24
    71          2
    74          2
    75         18
    76         12
    80         12
    81         40
    82        113
    83         58
    84          8
    85          3
    92          1
    93          2
    94          9
    97          1
   106          6
   107          6
   109        999
   110         68
   111         54
   112         10