##TITLE=Library Entry 41067
##JCAMP-DX=Revision 4.10 
##DATA TYPE=MASS SPECTRUM
##SAMPLE DESCRIPTION=Chemical Concepts
##NAMES=HP
##CAS NAME=Trimethyl(n-pentyl)silane
##MOLFORM=C8H20Si
##CAS REGISTRY NO=1641-49-2
##MP= -300
##BP= -300
##MW= 144
##$RETENTION INDEX=814
##$CONDENSED SPECTRUM=NO
##NPOINTS= 44
##XYDATA=(XY..XY) 1 
    26          5
    27         35
    29         18
    30          2
    31         30
    33          1
    39         13
    41         18
    42         10
    43         77
    44         30
    45        112
    46          5
    47          3
    53          6
    54          1
    55         13
    56          3
    57         14
    58         28
    59        423
    60         32
    61         14
    66          1
    67          2
    69          6
    70          2
    71          6
    72         26
    73        999
    74         85
    75         38
    85          9
    86          2
    87         25
    88          3
    99          5
   100          2
   101         11
   127          2
   129        162
   130         20
   131          7
   144          3