##TITLE=Library Entry 14198
##JCAMP-DX=Revision 4.10 
##DATA TYPE=MASS SPECTRUM
##SAMPLE DESCRIPTION=Humboldt-Universitat zu Berlin, Department of Chemistry
, Analytical Group
##NAMES=HP
##CAS NAME=N-Acetyl-4-(4-chlorphenyl)-3-morpholinopyrrol-2-carboxylic acid,
 methyl ester
##MOLFORM=C18H19ClN2O4
##CAS REGISTRY NO=164221-35-6
##MP= -300
##BP= -300
##MW= 362
##$RETENTION INDEX=0
##$CONDENSED SPECTRUM=NO
##NPOINTS= 276
##XYDATA=(XY..XY) 1 
    12          5
    13          3
    14         22
    15        285
    16         16
    17         54
    18        181
    19          5
    26         13
    27         73
    28        161
    29        106
    30         24
    31         39
    32          5
    35          3
    36         12
    37          3
    38          9
    39         29
    40         18
    41         51
    42        107
    43        999
    44         63
    45        285
    46          8
    50         17
    51         34
    52         17
    53         13
    54         34
    55         23
    56         26
    57         29
    58          7
    59         41
    60          4
    61          5
    62         14
    63         39
    64         12
    65         15
    66         12
    67         11
    68          9
    69          9
    70         17
    71         13
    72          7
    73         14
    74         23
    75         69
    76         25
    77         26
    78          9
    79          6
    80          7
    81          3
    82          6
    83         11
    84         25
    85         10
    86         17
    87         20
    88         24
    89         20
    90         11
    91          8
    92          4
    93          4
    94          8
    96          3
    97         17
    98          9
    99         35
   100         37
   101         56
   102         29
   103          8
   104          4
   105          3
   108          4
   109          4
   110          6
   111         28
   112         22
   113         71
   114         55
   115         52
   116         14
   117          8
   118          4
   119          6
   121          3
   122          4
   123         11
   124          7
   125         21
   126        102
   127        122
   128         49
   129         13
   130          5
   135          7
   136         80
   137         24
   138         56
   139         64
   140        275
   141         88
   142         19
   143         11
   147         17
   148         17
   149         72
   150         20
   151         27
   152         23
   153         41
   154         39
   155         22
   156          7
   157          3
   161         18
   162         41
   163         20
   164         22
   165         36
   166         61
   167        163
   168        132
   169         36
   170          7
   171          4
   173          4
   174         66
   175         25
   176         44
   177         16
   178         12
   179         15
   180         14
   181         27
   182         20
   183          7
   184          3
   187          5
   188         15
   189         17
   190         23
   191          8
   192         12
   193         17
   194         52
   195        180
   196         39
   197         13
   198          5
   199          2
   200          4
   201         55
   202         61
   203         89
   204         38
   205         30
   206         13
   207          8
   208          9
   209          8
   210          5
   211          3
   213          2
   214          5
   215         20
   216         20
   217         51
   218         18
   219         20
   220          6
   221         11
   222         27
   223         37
   224         31
   225         13
   226          8
   227          5
   228         15
   229        313
   230        192
   231        220
   232         73
   233         44
   234         12
   235          3
   236          2
   237          2
   238          2
   240          2
   241          7
   242          5
   243         37
   244         43
   245         30
   246         17
   247          9
   248          4
   249         22
   250          5
   251         10
   252         12
   253          7
   254         11
   255          4
   257         89
   258         24
   259        125
   260         30
   261        368
   262         65
   263        122
   264         20
   265          5
   269          8
   270          8
   271          7
   272          3
   273         14
   274          3
   275         50
   276        225
   277         70
   278         74
   279         20
   280          2
   285          9
   286          3
   287         36
   288         55
   289        169
   290         46
   291         56
   292         11
   293          2
   299          1
   301         22
   302         19
   303        115
   304         27
   305         74
   306         14
   307         14
   308          2
   318         10
   319         23
   320        122
   321         27
   322         40
   323          7
   324          0
   329          3
   331         32
   332          6
   333         12
   334          2
   335          1
   344          3
   345          1
   346          1
   347          1
   360          0
   362        242
   363         51
   364         82
   365         17
   366          2