##TITLE=Library Entry 58888
##JCAMP-DX=Revision 4.10 
##DATA TYPE=MASS SPECTRUM
##SAMPLE DESCRIPTION=Humboldt-Universitat zu Berlin, Department of Chemistry
, Analytical Group
##NAMES=HP
##CAS NAME=3-(4-Benzyl-piprazin-1-yl)-4-(4-chlorphenyl)-1H-pyrrol-2-carboxyl
ic acid, methyl ester
##MOLFORM=C23H24ClN3O2
##CAS REGISTRY NO=164221-23-2
##MP= -300
##BP= -300
##MW= 409
##$RETENTION INDEX=0
##$CONDENSED SPECTRUM=NO
##NPOINTS= 307
##XYDATA=(XY..XY) 1 
    12          3
    14          5
    15         58
    16         23
    17        164
    18        608
    20          5
    26         10
    27         54
    28        192
    29        108
    30         49
    31         15
    32         11
    36          8
    38          8
    39         47
    40         17
    41        110
    42        192
    43         90
    44         64
    45        115
    46          7
    50          8
    51         25
    52          9
    53          9
    54         32
    55         61
    56        271
    57         67
    58         96
    59         16
    60         19
    61          7
    62          5
    63         20
    64          7
    65        100
    66          9
    67         11
    68         12
    69         22
    70         21
    71         27
    72          3
    73         16
    74          7
    75         13
    76          7
    77         19
    78          8
    79          8
    80          4
    81         11
    82         10
    83         23
    84         13
    85         16
    86          6
    87          9
    88          9
    89         24
    91        999
    92         94
    93          8
    94          4
    95          7
    96          8
    97         18
    98         11
    99         13
   100          7
   101         19
   102         12
   103         10
   104         47
   105         29
   106          6
   107          5
   109          5
   110          5
   111         15
   112         15
   113         31
   114         27
   115         27
   116         11
   117         26
   118         46
   119         34
   120         37
   121         12
   122          3
   123          8
   124          7
   125         14
   126         32
   127         46
   128         21
   129         17
   130          8
   131         10
   132         47
   133         23
   134         42
   135          7
   136         28
   137         11
   138         20
   139         26
   140        137
   141         43
   142         10
   143          7
   144         12
   145         10
   146        310
   147         91
   148         18
   149         31
   150          8
   151         14
   152         21
   153         31
   154         30
   155         15
   156          7
   157          5
   158          9
   159          6
   160          7
   161         26
   162         18
   163         10
   164         10
   165         17
   166         29
   167         77
   168         72
   169         25
   170          5
   171         16
   173          4
   174         33
   175         12
   176         18
   177          7
   178          6
   179         10
   180         10
   181         23
   182         18
   183          6
   184          2
   185          5
   187          3
   188         15
   189         13
   190         13
   191          6
   192          8
   193         12
   194         23
   195         86
   196         22
   197          6
   199          2
   200          2
   201         26
   202         26
   203         50
   204         20
   205         16
   206          6
   207          5
   208          9
   209         15
   210          8
   211          3
   213          3
   214          3
   215         21
   216         20
   217         40
   218         14
   219         14
   220          6
   221         10
   222         14
   223          7
   224          4
   226          2
   227          7
   228         40
   229        203
   230         76
   231        266
   232         53
   233         72
   234         11
   235          2
   239          2
   240          2
   241          5
   242          6
   243         50
   244         28
   245         33
   246         16
   247         10
   248         10
   249         25
   250         20
   251         11
   252          6
   254          3
   255          4
   256         10
   257         44
   258         26
   259         27
   260         12
   261         60
   263        370
   264         60
   265        126
   266         18
   267          2
   268          2
   269          2
   270          3
   271          2
   272          5
   273          3
   274          3
   275         32
   276         88
   277         89
   278         42
   279         27
   280          7
   281          1
   282          2
   283          3
   284          6
   285         34
   286         27
   287         29
   288         12
   289         36
   290         37
   291         93
   292         26
   293         30
   294          5
   300          2
   301          1
   302          2
   303         26
   304          7
   305         11
   306          3
   307          1
   316          2
   317         29
   318         16
   319         13
   320          6
   321          2
   322          1
   332          3
   333          1
   334          1
   335          2
   348          1
   350          6
   351          1
   352          2
   353          1
   362          3
   363          1
   364          1
   366         40
   367          8
   368         14
   369          3
   374          1
   376          5
   377          4
   378          7
   379          3
   380          3
   381          5
   382          1
   383          1
   394        104
   395         26
   396         36
   397          9
   398          1
   409        173
   410         50
   411         59
   412         14
   413          2