##TITLE=Library Entry 80146
##JCAMP-DX=Revision 4.10 
##DATA TYPE=MASS SPECTRUM
##SAMPLE DESCRIPTION=Humboldt-Universitat zu Berlin, Department of Chemistry
, Analytical Group
##NAMES=HP
##CAS NAME=1-Benzoyl-3-morpholino-4-(4-chlorphenyl)-pyrrol-2--carboxylic aci
d, methyl ester
##MOLFORM=C23H21ClN2O4
##CAS REGISTRY NO=164221-41-4
##MP= -300
##BP= -300
##MW= 424
##$RETENTION INDEX=0
##$CONDENSED SPECTRUM=NO
##NPOINTS= 312
##XYDATA=(XY..XY) 1 
    12          0
    14          1
    15         18
    16          2
    17          7
    18         24
    19          0
    26          2
    27         17
    28         28
    29         22
    30          4
    31          5
    32          1
    36          2
    38          2
    39          7
    40          2
    41         15
    42         10
    43         21
    44          7
    45         53
    46          1
    50         18
    51         94
    52          7
    53          2
    54          7
    55         13
    56          6
    57         15
    58          1
    59         10
    60          1
    62          2
    63          6
    64          1
    65          2
    66          2
    67          3
    68          2
    69          8
    70          4
    71          8
    72          1
    73          2
    74          5
    75         13
    76         19
    77        458
    78         32
    79          2
    80          1
    81          4
    82          1
    83          5
    84          7
    85          5
    86          2
    87          2
    88          3
    89          2
    90          1
    91          3
    92          1
    93          1
    94          1
    95          3
    96          1
    97          5
    98          1
    99          6
   100          5
   101         10
   102          4
   103          1
   105        999
   106         73
   107          5
   108          0
   109          2
   110          1
   111          7
   112          3
   113          9
   114          6
   115          5
   116          1
   117          0
   121          1
   122          1
   123          2
   124          1
   125          4
   126         13
   127         17
   128          6
   129          1
   130          0
   135          1
   136         13
   137          3
   138          7
   139          8
   140         24
   141          9
   142          2
   143          1
   147          2
   148          2
   149         11
   150          2
   151          4
   152          3
   153          6
   154          5
   155          2
   156          1
   161          2
   162          6
   163          3
   164          3
   165          6
   166          7
   167         11
   168         14
   169          3
   170          0
   171          0
   173          0
   174          8
   175          2
   176          6
   177          2
   178          1
   179          2
   180          2
   181          3
   182          2
   183          1
   187          0
   188          2
   189          3
   190          2
   191          1
   192          1
   193          2
   194          5
   195          7
   196          2
   197          1
   198          0
   200          0
   201          6
   202          6
   203          9
   204          3
   205          3
   206          1
   207          0
   208          1
   209          1
   210          0
   214          1
   215          2
   216          2
   217          4
   218          1
   219          1
   220          0
   221          1
   222          4
   223          7
   224          4
   225          1
   226          0
   227          0
   228          2
   229          9
   230          5
   231         12
   232          3
   233          3
   234          2
   235          0
   236          0
   237          0
   238          0
   241          1
   242          1
   243          2
   244          6
   245          2
   246          2
   247          0
   250          0
   251          0
   252          2
   253          1
   254          0
   255          0
   256          0
   257          4
   258          1
   259         11
   260          3
   261          5
   262          4
   263          1
   264          1
   265          0
   269          1
   270          1
   271          2
   272          1
   273          2
   274          0
   275          1
   276          1
   277          0
   278          0
   279          0
   280          0
   281          0
   284          0
   285          4
   286          1
   287          6
   288          8
   289          3
   290          4
   291          1
   292          0
   293          0
   294          0
   299          0
   300          0
   301          0
   303          8
   304          2
   305          4
   306          1
   307          1
   308          0
   309          0
   318          0
   319          2
   320          1
   321          6
   322          1
   323          2
   324          0
   329          0
   330          0
   331          0
   333         23
   334          5
   335         11
   336          2
   337          1
   338          0
   347         16
   348          4
   349          8
   350          2
   351          1
   352          0
   353          0
   354          0
   355          0
   357          0
   358          0
   361          5
   362          1
   363          4
   365        104
   366         28
   367         40
   368          8
   369          1
   373          0
   374          0
   375          0
   377          0
   379          4
   380         17
   381          9
   382          7
   383          2
   384          0
   389          0
   391          8
   392          2
   393         22
   394          5
   395          7
   396          1
   397          0
   405          3
   406          3
   407          2
   408          1
   409          1
   410          0
   411          0
   422          0
   424         81
   425         22
   426         30
   427          7
   428          1