##TITLE=Library Entry 54874
##JCAMP-DX=Revision 4.10 
##DATA TYPE=MASS SPECTRUM
##SAMPLE DESCRIPTION=Philip Morris R&D
##NAMES=HP
##CAS NAME=2-Oxepanone, 7-hexyl-
##MOLFORM=C12H22O2
##CAS REGISTRY NO=16429-21-3
##MP= -300
##BP= -300
##MW= 198
##$RETENTION INDEX=2264
##$CONDENSED SPECTRUM=NO
##NPOINTS= 85
##XYDATA=(XY..XY) 1 
    39         56
    40         13
    41        279
    42        109
    43        221
    44         20
    45          9
    53         18
    54         29
    55        809
    56        517
    57        108
    58         13
    59          5
    60         11
    65          3
    66          4
    67        263
    68         92
    69        153
    70         95
    71         29
    72          3
    73         18
    77          2
    79          7
    80          3
    81         32
    82         37
    83        100
    84        720
    85        999
    86         60
    87         11
    88          0
    91          1
    93          2
    94          6
    95         64
    96         52
    97         54
    98         36
    99          6
   100          8
   101          7
   102          2
   105          1
   107          2
   108          2
   109         10
   110         38
   111         28
   112          9
   113        302
   114         45
   115          8
   116          1
   119          4
   120          1
   121          0
   123         10
   124          5
   125          5
   126          3
   127          6
   128         30
   129          6
   130          1
   133          6
   134          2
   136         20
   137         12
   138         15
   139          3
   141          2
   151          7
   152          2
   154          1
   155          4
   162         24
   163          2
   180         16
   181          2
   198          1
   199          1