##TITLE=Library Entry 64449
##JCAMP-DX=Revision 4.10 
##DATA TYPE=MASS SPECTRUM
##SAMPLE DESCRIPTION=Humboldt-Universitat zu Berlin, Department of Chemistry
, Analytical Group
##NAMES=HP
##CAS NAME=2-(Benzyliminomethyl)4-(4-chlorophenyl)-3-morpholino-pyrrole
##MOLFORM=C22H22ClN3O
##CAS REGISTRY NO=164221-36-7
##MP= -300
##BP= -300
##MW= 379
##$RETENTION INDEX=0
##$CONDENSED SPECTRUM=NO
##NPOINTS= 325
##XYDATA=(XY..XY) 1 
    15         14
    16          4
    17         17
    18         53
    19          5
    26          8
    27         47
    28        171
    29         47
    30         29
    31         21
    32          2
    35          3
    36          9
    37          3
    38         10
    39         88
    40         17
    41         63
    42         40
    43         24
    44         24
    45         26
    50         20
    51         59
    52         26
    53         17
    54         27
    55         18
    56         27
    57         14
    58          8
    59          4
    60          2
    61          3
    62          8
    63         46
    64         16
    65        223
    66         20
    67          9
    68         12
    69          9
    70          8
    71          6
    72          6
    73          5
    74         12
    75         32
    76         18
    77         52
    78         25
    79         21
    80         12
    81          6
    82          5
    83          7
    84         18
    85          6
    86          9
    87         10
    88         13
    89         56
    90         45
    91        999
    92         86
    93         11
    94        100
    95         12
    96          8
    97         12
    98          8
    99         15
   100         17
   101         43
   102         24
   103         20
   104         30
   105         12
   106         36
   107         14
   108          7
   109          4
   110          5
   111         15
   112          8
   113         39
   114         43
   115         67
   116         25
   117         31
   118         13
   119          9
   120          5
   121          9
   122          4
   123          9
   124          5
   125         27
   126         50
   127         78
   128         46
   129         19
   130          9
   131          9
   132          9
   133          5
   134          6
   135          6
   136         51
   137         18
   138         63
   139         34
   140        111
   141         53
   142         22
   143         21
   144         11
   145          4
   146          4
   147          6
   148          9
   149         52
   150         14
   151         29
   152         31
   153         36
   154         67
   155         33
   156         12
   157          5
   158          3
   159          1
   160          6
   161         13
   162         24
   163         10
   164         20
   165         18
   166         32
   167         59
   168        106
   169         50
   170         14
   171          4
   173          3
   174         20
   175         11
   176         27
   177         26
   178         26
   179         34
   180         39
   181         80
   182        118
   183         24
   184          4
   185          1
   186          2
   187          4
   188         25
   189         14
   190         45
   191         19
   192         31
   193         50
   194         92
   195         79
   196         54
   197         16
   198          3
   199          2
   200          8
   201         20
   202         46
   203         89
   204         66
   205        106
   206         44
   207         78
   208        193
   209         42
   210         14
   211          3
   212          1
   213          5
   214         72
   215         90
   216        133
   217        143
   218         67
   219         44
   220         20
   221         10
   222          9
   223          6
   224          4
   225          2
   226          5
   227         11
   228         65
   229        181
   230        225
   231        341
   232        112
   233        106
   234         19
   235          8
   236          5
   237          5
   238         10
   239          4
   240          4
   241         29
   242         43
   243        136
   244         74
   245         99
   246         28
   247         20
   248          4
   249          1
   250          1
   251          1
   252          1
   253          8
   254          4
   255          8
   256         22
   257         20
   258         82
   259         40
   260         35
   261         17
   262          5
   263          2
   264          3
   265          1
   266          6
   267          2
   268          5
   270         83
   271         56
   272         62
   273        140
   274         44
   275         51
   276         15
   277          6
   278          4
   279          2
   280          1
   281          2
   282          1
   283          1
   284          2
   285          1
   286          6
   288        857
   289        156
   290        287
   291         54
   292          8
   293         14
   294          4
   295          5
   296          1
   297          0
   300          0
   301          0
   302          1
   303          2
   304          2
   305          4
   306          8
   307          4
   308         13
   309          4
   310          4
   311          1
   312          0
   316          0
   317          1
   318          2
   319         12
   320         37
   321         14
   322         17
   323          4
   324          2
   325          0
   331          0
   332          1
   333          2
   334         10
   335          8
   336         26
   337          8
   338          7
   339          1
   344          1
   345          0
   346          2
   348         27
   349          9
   350         11
   351          4
   352          1
   353          0
   360          3
   361          5
   362          2
   363          2
   364          6
   365          1
   366          1
   367          0
   376          0
   377          4
   378          6
   379        113
   380         32
   381         39
   382          9
   383          1