##TITLE=Library Entry 22432
##JCAMP-DX=Revision 4.10 
##DATA TYPE=MASS SPECTRUM
##SAMPLE DESCRIPTION=J. Klune, Insect Chem. Ecol. Lab., USDA, Beltsville, MD
 20705
##NAMES=HP
##CAS NAME=2-Methyl-1-dodecene
##MOLFORM=C13H26
##CAS REGISTRY NO=16435-49-7
##MP= -300
##BP= -300
##MW= 182
##$RETENTION INDEX=1285
##$CONDENSED SPECTRUM=NO
##NPOINTS= 111
##XYDATA=(XY..XY) 1 
    41        315
    42         67
    43        222
    44         22
    45          0
    47          1
    48          0
    49          4
    50          1
    51          8
    52          3
    53         37
    54         33
    55        293
    56        999
    57        442
    58         20
    59          2
    60          1
    61          0
    63          0
    64          0
    65          7
    66          4
    67         54
    68         46
    69        320
    70        152
    71         53
    72          3
    73          1
    74          0
    75          1
    77          7
    78          2
    79          9
    80          2
    81         31
    82         38
    83        126
    84         88
    85         34
    86          4
    88          1
    91          4
    92          1
    93          3
    94          2
    95         21
    96         18
    97         90
    98         35
    99          5
   100          0
   105          2
   107          2
   108          0
   109          7
   110          8
   111         47
   112         15
   113          3
   115          2
   116          0
   117          0
   119          2
   120          1
   121          2
   122          0
   123          3
   124          8
   125         11
   126         44
   127          6
   128          0
   129          1
   131          1
   133          1
   134          0
   135          2
   137          2
   138          4
   139         10
   140          6
   141          3
   143          0
   145          1
   148          1
   149          2
   151          1
   152          1
   153          0
   154         31
   155          5
   157          1
   159          1
   161          0
   163          1
   165          1
   166          1
   167         19
   168          4
   169          1
   175          0
   177          1
   179          0
   180          1
   182         92
   183         16
   184          1
   185          0