##TITLE=Library Entry 109846
##JCAMP-DX=Revision 4.10 
##DATA TYPE=MASS SPECTRUM
##SAMPLE DESCRIPTION=NIST Mass Spectrometry Data Center, 1994
##NAMES=HP
##CAS NAME=3-(2-Chlorophenyl)propionic acid
##MOLFORM=C9H9ClO2
##CAS REGISTRY NO=1643-28-3
##MP= -300
##BP= -300
##MW= 184
##$RETENTION INDEX=0
##$CONDENSED SPECTRUM=NO
##NPOINTS= 104
##XYDATA=(XY..XY) 1 
    14         14
    15         12
    17          4
    18          5
    26         29
    27        119
    28         21
    29         28
    31         25
    32          0
    35          7
    36          9
    37         23
    38         52
    39        144
    40         15
    41          9
    42         35
    43         32
    44          0
    45        194
    46          8
    47          6
    49         22
    50        177
    51        357
    52         51
    53         22
    55         24
    59          2
    60         14
    61         30
    62         71
    63        190
    64         27
    65         40
    66          4
    68          4
    69          8
    70          2
    72          7
    73         53
    74        103
    75        176
    76         87
    77        494
    78         89
    79         97
    80          5
    84          8
    85         20
    86         19
    87         23
    88          5
    89        221
    90         51
    91         39
    92          7
    97          8
    98         12
    99         66
   100          8
   101         77
   102        121
   103        399
   104         70
   105         40
   106          7
   107        532
   108         45
   109          5
   111         10
   112         68
   113         14
   114         27
   115          4
   119          3
   120          9
   121         25
   122          3
   123          4
   124          3
   125        999
   126         82
   127        319
   128         27
   131         16
   136          4
   138        169
   139         49
   140         59
   141         29
   143          2
   147         12
   149        962
   150         88
   151          7
   165          5
   167          9
   169          3
   184        149
   185         13
   186         55
   187          5