##TITLE=Library Entry 13594
##JCAMP-DX=Revision 4.10 
##DATA TYPE=MASS SPECTRUM
##SAMPLE DESCRIPTION=Chemical Concepts
##NAMES=HP
##CAS NAME=5-(5-Morpholinofurfurylidene)-2,2-dimethyl-1,3-dioxane-4,6-dione
##MOLFORM=C15H17NO6
##CAS REGISTRY NO=164399-40-0
##MP= -300
##BP= -300
##MW= 307
##$RETENTION INDEX=0
##$CONDENSED SPECTRUM=NO
##NPOINTS= 110
##XYDATA=(XY..XY) 1 
    34         12
    36         12
    39        286
    40        173
    41        222
    43        999
    44        155
    45         86
    51        117
    53        267
    54         49
    55         65
    56         98
    57        140
    58         38
    59         28
    62        118
    63        169
    64        162
    65        121
    67        136
    68         13
    69         21
    70         22
    71         13
    72          9
    73          6
    75         19
    77         65
    78         53
    79         88
    80         67
    81         20
    82         22
    83          7
    84          6
    86         46
    87         18
    88          8
    91        293
    92        105
    93         38
    94         14
    95          9
    96          8
    97          5
   102          5
   104         34
   105         60
   106         29
   107         25
   108         11
   109          6
   110          5
   112          4
   114          6
   118        120
   119        189
   120        102
   121         18
   122          9
   123          5
   124         15
   126          4
   132         18
   133          9
   134         12
   135          9
   136          6
   146         22
   147         18
   148         19
   149         11
   150          5
   153          3
   161          5
   163         52
   164         10
   165          4
   166          5
   168         54
   169          5
   171          4
   174         10
   177        320
   178         27
   179          4
   181         10
   190          3
   191          5
   192          3
   193          5
   201          6
   205        929
   206         91
   207         10
   219          4
   221         46
   222          9
   248         16
   249         63
   250         78
   251          9
   262          4
   266          8
   292          6
   305         18
   307        264
   308         36
   309          6