##TITLE=Library Entry 66231
##JCAMP-DX=Revision 4.10 
##DATA TYPE=MASS SPECTRUM
##SAMPLE DESCRIPTION=Chemical Concepts
##NAMES=HP
##CAS NAME=N-Phenyl-N'-(2-hydroxy-3,5-dibromobenzylidene) hydrazine
##MOLFORM=C13H10Br2N2O
##CAS REGISTRY NO=16434-84-7
##MP= -300
##BP= -300
##MW= 368
##$RETENTION INDEX=0
##$CONDENSED SPECTRUM=NO
##NPOINTS= 96
##XYDATA=(XY..XY) 1 
    27         16
    28         71
    29          9
    36         13
    37         19
    38         41
    39        129
    40         23
    41         32
    43         18
    44         10
    46          7
    49          6
    50         45
    51         77
    52         34
    53         32
    54         11
    55         16
    57         23
    61         36
    62         84
    63        119
    64         69
    65        377
    66        119
    67         12
    69          9
    70          9
    71         13
    73          8
    74         30
    75         43
    76         31
    77        124
    78         23
    79         10
    80         12
    81          8
    82         11
    83         12
    84          8
    85          9
    87          7
    88         16
    89         13
    90         30
    91         97
    92        389
    93        999
    94         78
   105         14
   117          9
   118         13
   119        108
   120          6
   141         33
   142          7
   143         43
   144          9
   145         21
   152          6
   153          6
   154         11
   155          6
   168          9
   169         10
   170         23
   171         32
   172         12
   181          9
   182          8
   183         12
   184          6
   185         14
   196          8
   197         16
   198         11
   199         15
   221          6
   223         11
   249          7
   251          8
   275         10
   277         46
   278         12
   279         52
   280          8
   281         19
   367         17
   368        114
   369         53
   370        196
   371         44
   372         98
   373          9