##TITLE=Library Entry 36503
##JCAMP-DX=Revision 4.10 
##DATA TYPE=MASS SPECTRUM
##SAMPLE DESCRIPTION=Japan AIST/NIMC Database- Spectrum MS-IW-7537
##NAMES=HP
##CAS NAME=Propane, 1-[1-[difluoro[(trifluoroethenyl)oxy]methyl]-1,2,2,2-tet
rafluoroethoxy]-1,1,2,2,3,3,3-heptafluoro-
##MOLFORM=C8F16O2
##CAS REGISTRY NO=1644-11-7
##MP= -300
##BP= -300
##MW= 432
##$RETENTION INDEX=0
##$CONDENSED SPECTRUM=NO
##NPOINTS= 41
##XYDATA=(XY..XY) 1 
    31         45
    47         31
    50         21
    51          3
    62          5
    66          1
    69        999
    70         12
    78         21
    81         64
    82          1
    85          1
    93          3
    97        469
    98          9
    99          1
   100         89
   101          9
   109          1
   112          1
   119        167
   120          3
   128          1
   131         79
   132          2
   147         65
   148          2
   150         29
   151          1
   167          1
   169        768
   170         23
   181          3
   197          3
   275          2
   297          1
   313          1
   335         98
   336          6
   432         16
   433          1