##TITLE=Library Entry 54260
##JCAMP-DX=Revision 4.10 
##DATA TYPE=MASS SPECTRUM
##SAMPLE DESCRIPTION=Japan AIST/NIMC Database- Spectrum MS-NW-3901
##NAMES=HP
##CAS NAME=L-Glutamic acid, diethyl ester
##MOLFORM=C9H17NO4
##CAS REGISTRY NO=16450-41-2
##MP= -300
##BP= -300
##MW= 203
##$RETENTION INDEX=0
##$CONDENSED SPECTRUM=NO
##NPOINTS= 75
##XYDATA=(XY..XY) 1 
    14          3
    15         13
    17          6
    18          8
    26         12
    27         74
    28        127
    29        130
    30         39
    31         35
    32          1
    39          9
    40          2
    41        125
    42         28
    43         39
    44          9
    45         22
    46         16
    47          3
    52          2
    53          1
    54         15
    55         18
    56        353
    57         44
    58          7
    59          1
    60          5
    61          2
    66          3
    67          1
    68          2
    69          2
    70          3
    71          3
    72          5
    73          8
    74         49
    75          3
    82          8
    83          7
    84        999
    85         69
    86          6
    87          1
    88          3
   100         47
   101          6
   102         57
   103          8
   104          1
   110          1
   112         55
   113          7
   114          2
   115          8
   116          6
   128         27
   129         11
   130        746
   131         55
   132          5
   137          1
   141          1
   157         39
   158        127
   159         10
   160          1
   166          1
   174         15
   175          1
   185          5
   203          4
   204          1