##TITLE=Library Entry 68695
##JCAMP-DX=Revision 4.10 
##DATA TYPE=MASS SPECTRUM
##SAMPLE DESCRIPTION=Humboldt-Universitat zu Berlin, Department of Chemistry
, Analytical Group
##NAMES=HP
##CAS NAME=Piperazine, N-(2-furoyl)-N'-[2-(4-chlorophenyl)-3-[[(methoxycarbo
nyl)methyl]amino]propenothioyl]-
##MOLFORM=C21H22ClN3O4S
##CAS REGISTRY NO=164595-38-4
##MP= -300
##BP= -300
##MW= 447
##$RETENTION INDEX=0
##$CONDENSED SPECTRUM=NO
##NPOINTS= 341
##XYDATA=(XY..XY) 1 
    14          5
    15         70
    16          5
    17         20
    18         56
    26          6
    27         32
    28        130
    29         54
    30         46
    31         10
    32          9
    33          5
    36          7
    37          7
    38         28
    39        175
    40         15
    41         55
    42        130
    43         44
    44         31
    45        111
    46          4
    47          7
    50          5
    51         19
    52          6
    53         16
    54         23
    55         31
    56         84
    57         17
    58         10
    59         19
    60          7
    61          7
    62          3
    63          7
    64          4
    65          7
    66         10
    67         50
    68         20
    69         44
    70         25
    71         11
    72         66
    73         21
    74         19
    75         16
    76          5
    77         10
    78          7
    79          5
    80          6
    81         20
    82          9
    83         24
    84         30
    85         19
    86         10
    87          5
    88          6
    89         23
    90          7
    91          6
    93         10
    95        999
    96         66
    97         14
    98         11
    99         10
   100         21
   101         39
   102         56
   103         10
   104          3
   107          8
   108          8
   109          6
   110          6
   111         17
   112         14
   113         14
   114         15
   115         30
   116         11
   117          8
   120          6
   121          7
   122          7
   123         21
   124         16
   125         32
   126         13
   127         22
   128         25
   129         15
   130         16
   131          8
   132          7
   133         18
   134         22
   135          9
   136         49
   137         53
   138        417
   139         60
   140         19
   141         12
   142          7
   143         10
   144          5
   145         22
   146         27
   147         23
   148         10
   149         46
   150         26
   151         25
   152         34
   153         10
   154          8
   155         33
   156         13
   157          9
   158          7
   159          6
   160          7
   161          5
   162         10
   164        306
   165         32
   166         27
   167         11
   168         37
   169         13
   170         11
   171          6
   172         33
   173         82
   174         29
   175         11
   176         30
   177         19
   178         18
   179         35
   180         15
   181        168
   182         26
   183         54
   184         11
   185          6
   186          9
   187         13
   188          7
   189          6
   190         12
   191         31
   192         13
   193         45
   194         17
   195         11
   196         27
   197         10
   198         10
   199          6
   200          5
   201          9
   202          8
   203         13
   204         10
   205          8
   206         10
   207         14
   208         70
   209         20
   210         29
   211          9
   212          7
   213         10
   214          7
   215          5
   216          5
   217         11
   218          4
   219         21
   220         13
   221         14
   222         44
   223         22
   224         28
   225         11
   226          6
   227          3
   228          3
   229          6
   230          9
   231         28
   232         11
   233         13
   234          6
   235         15
   236         21
   237         42
   238         11
   239         15
   240          3
   241          2
   243          2
   245          4
   246          7
   247         23
   248         43
   249         21
   250         20
   251         58
   252         17
   253         15
   254          5
   256          2
   257          3
   258          2
   259          3
   260          2
   261          3
   262          3
   263         20
   264          6
   265         11
   266         11
   268         54
   269          8
   270         20
   271          3
   272          2
   275          2
   276          4
   277         17
   278          6
   279          7
   280          1
   283          1
   284          3
   285          3
   286          2
   287          5
   288          1
   289          6
   290          2
   291          4
   292          2
   293          1
   294          1
   295          9
   296         33
   297         13
   298         14
   299          3
   300          1
   303          1
   306          2
   308          1
   309         18
   310         20
   311         11
   312          7
   313          2
   318          1
   319          2
   320          1
   321          2
   322          4
   323          3
   324         12
   325          9
   326          6
   327          4
   328          1
   330          0
   335          2
   336          5
   337          2
   338          2
   339          1
   340          1
   341          1
   342          1
   347          0
   348          1
   350          1
   351          1
   352          3
   353          1
   354          5
   355          2
   356          1
   357          2
   358         20
   359         22
   360         12
   361          9
   362          2
   363          0
   371          2
   372          0
   373          2
   374         38
   375          8
   376         13
   377          3
   378          1
   382          1
   386          3
   387          1
   388         13
   389          3
   390          5
   391          2
   392          0
   401          5
   402          1
   403          1
   404          1
   412          0
   413          3
   414         37
   415         10
   416         10
   417          3
   418          0
   431          2
   432          0
   433          0
   445          0
   447         95
   448         19
   449         38
   450          9
   451          2