##TITLE=Library Entry 489
##JCAMP-DX=Revision 4.10 
##DATA TYPE=MASS SPECTRUM
##SAMPLE DESCRIPTION=Humboldt-Universitat zu Berlin, Department of Chemistry
, Analytical Group
##NAMES=HP
##CAS NAME=3-Isobutoxycarbonylmethylamino-2-(4-chlorophenyl)thioacrylomorpho
lide
##MOLFORM=C19H25ClN2O3S
##CAS REGISTRY NO=164595-35-1
##MP= -300
##BP= -300
##MW= 396
##$RETENTION INDEX=0
##$CONDENSED SPECTRUM=NO
##NPOINTS= 324
##XYDATA=(XY..XY) 1 
    12          6
    13          3
    14         12
    15         95
    16         11
    17         34
    18        120
    19         13
    25          3
    26         31
    27        308
    28        362
    29        999
    30        205
    31         78
    32         13
    33          7
    34          5
    35         10
    36         17
    37          6
    38         14
    39        140
    41        890
    42        253
    43        389
    44         99
    45        300
    46         17
    47         30
    48          4
    49          4
    50         16
    51         35
    52         14
    53         17
    54         43
    55         95
    56        125
    57        484
    58        145
    59         76
    60        114
    61         27
    62         12
    63         30
    64          7
    65         12
    66          8
    67         11
    68         19
    69         68
    70         53
    71         97
    72         64
    73         34
    74         31
    75         67
    76         26
    77         34
    78         10
    79          8
    80          9
    81         12
    82         15
    83         12
    84         25
    85         29
    86        423
    87         45
    88         99
    89         77
    90         18
    91         10
    92          6
    93         15
    94         10
    95         10
    96          7
    97         13
    98         27
    99         29
   100        281
   101        151
   102        125
   103         33
   104          9
   105          6
   106          5
   107          9
   108         13
   109          5
   110          7
   111         26
   112         21
   113         33
   114         59
   115        109
   116         46
   117         21
   118          9
   119         11
   120         13
   121         13
   122         12
   123         44
   124         16
   125         80
   126         31
   127         58
   128         98
   129         39
   130        228
   131         35
   132         35
   133         52
   134         59
   135         19
   136        112
   137        114
   138         56
   139         52
   140         40
   141         33
   142         31
   143         37
   144         42
   145         59
   146         72
   147         66
   148         22
   149        108
   150         42
   151         54
   152         25
   153         19
   154         23
   155         97
   156         39
   157         30
   158         22
   159         34
   160         25
   161         21
   162         29
   163         30
   164         78
   165         25
   166         37
   167         29
   168         92
   169         54
   170         37
   171         18
   172         74
   173        199
   174         84
   175         33
   176         74
   177         63
   178         58
   179         43
   180         26
   181        321
   182         51
   183        123
   184         25
   185         15
   186         23
   187         41
   188         19
   189         19
   190         39
   191         61
   192         31
   193         51
   194         35
   195         35
   196         60
   197         22
   198         27
   199         14
   200         24
   201         28
   202         19
   203         45
   204         31
   205         31
   206         27
   207         33
   208         99
   209         50
   210         64
   211         22
   212         16
   213          7
   214          4
   215          7
   216          5
   217          8
   218         10
   219         14
   220         19
   221         27
   222         58
   223         22
   224         30
   225         12
   226         10
   227          6
   228          5
   229          6
   230         21
   231         10
   232         51
   233        242
   234         66
   235        158
   236         57
   237         58
   238         25
   239         13
   240          5
   241          1
   243          2
   244          1
   245         10
   246          3
   247          8
   248          6
   249          9
   250         10
   251          9
   252         26
   253         13
   254         53
   255         11
   256         18
   257          4
   258          2
   259          2
   260          2
   261          8
   262          9
   263         43
   264         25
   265        250
   266        496
   267        161
   268        187
   269         35
   270         10
   271          2
   277          1
   278          5
   279          5
   280         10
   281         19
   282         10
   283          8
   284          3
   285          2
   289          5
   290          1
   291          1
   292          3
   293          9
   294          6
   295         27
   296          8
   297         10
   298          2
   299          1
   305          1
   306          1
   307          8
   308          5
   309          4
   310         37
   311          8
   312         14
   313          2
   314          1
   319          1
   321          3
   322          0
   323          1
   324          0
   325          1
   335          2
   336          1
   337          1
   339         13
   340          3
   341          4
   342          0
   349          1
   350          0
   351          4
   352          1
   353          2
   354          6
   355          1
   356          1
   361          1
   363         63
   364         13
   365         21
   366          4
   367          4
   368          6
   369          2
   370          2
   381          0
   382          2
   383          1
   384          1
   395          5
   396        120
   397         30
   398         47
   399          9
   400          3
   401          0