##TITLE=Library Entry 647
##JCAMP-DX=Revision 4.10 
##DATA TYPE=MASS SPECTRUM
##SAMPLE DESCRIPTION=Humboldt-Universitat zu Berlin, Department of Chemistry
, Analytical Group
##NAMES=HP
##CAS NAME=3-Methoxycarbonylmethylamino-2-(4-chlorophenyl)thioacrylopiperidi
de-4'-carboxylic acid, ethyl ester
##MOLFORM=C20H25ClN2O4S
##CAS REGISTRY NO=164595-37-3
##MP= -300
##BP= -300
##MW= 424
##$RETENTION INDEX=0
##$CONDENSED SPECTRUM=NO
##NPOINTS= 310
##XYDATA=(XY..XY) 1 
    12          7
    13          4
    14         13
    15        198
    16          9
    17         25
    18         87
    19          6
    26         22
    27        192
    28        176
    29        999
    30        110
    31         33
    32          7
    33         17
    34          4
    35          6
    36         10
    38          7
    39         93
    40         19
    41        281
    42        230
    43        126
    44         44
    45        224
    46         10
    47         19
    50         10
    51         20
    52          9
    53         43
    54         47
    55        201
    56         63
    57         62
    58         15
    59         62
    60         14
    61          9
    62          7
    63         19
    64          6
    65         29
    66         14
    67        129
    68         40
    69        119
    70         27
    71         29
    72        220
    73         87
    74         81
    75         48
    76         12
    77         27
    78         12
    79          9
    80         37
    81         21
    82        491
    83         59
    84         54
    85         24
    86         25
    87         25
    88         13
    89         54
    90         13
    91          9
    92          9
    93         20
    94         16
    95         33
    96         18
    97         18
    98         29
    99         38
   100         52
   101         98
   102        181
   103         28
   104         12
   105          7
   106          7
   107          6
   108          8
   109          5
   110          8
   111         20
   112         29
   113         39
   114         38
   115         62
   116         28
   117         14
   118         11
   119          9
   120         11
   121          9
   122          8
   123         28
   124         23
   125         64
   126         84
   127         57
   128         87
   129         27
   130         30
   131         15
   132         14
   133         41
   134         48
   135         12
   136         72
   137         85
   138         41
   139         33
   140         29
   141         31
   142         29
   143         14
   144         10
   145         66
   146         62
   147         47
   148         17
   149         80
   150         33
   151         39
   152         26
   153         13
   154         27
   155         68
   156        120
   157         29
   158         24
   159         11
   160         12
   161          9
   162         14
   163         11
   164         54
   165         14
   166         30
   167         19
   168         63
   169         24
   170         82
   171         20
   172         63
   173        132
   174         51
   175         28
   176         50
   177         36
   178         25
   179         25
   180         14
   181        227
   182         45
   183         86
   184         17
   185          8
   186          8
   187          9
   188          9
   189         10
   190         13
   191         31
   192         14
   193         19
   194         16
   195         12
   196         33
   197         10
   198         16
   199          6
   200         21
   201          9
   202          8
   203         19
   204         12
   205         12
   206         13
   207         18
   208         88
   209         27
   210         46
   211         13
   212          9
   213          5
   214          5
   215          3
   216          6
   217          4
   218          9
   219          4
   220          6
   221          8
   222          6
   223          9
   224          5
   225          8
   226         17
   227          8
   228         20
   229         45
   230         37
   231         21
   232         14
   233          5
   234          5
   235          9
   236         19
   237          9
   238          7
   239          3
   240          3
   245          3
   246          4
   247          2
   248          3
   249          3
   250          5
   251          5
   252          9
   253          3
   254          5
   255         10
   256          5
   257          5
   258          3
   259          2
   260          9
   261         11
   262         71
   263         18
   264         30
   265          6
   266         16
   268         75
   269         11
   270         26
   271          5
   272          5
   274          8
   275         10
   276          5
   277          5
   278          3
   280          2
   283          3
   285          5
   287          2
   289          1
   290          8
   291          3
   292          5
   295          2
   300          2
   301          3
   303        104
   304         28
   305         35
   306         11
   307          3
   308          6
   309          3
   310          1
   313          1
   317          1
   318          3
   319          1
   320          3
   321          1
   322          2
   331          2
   332          2
   333          1
   335         48
   336        260
   337         73
   338        102
   339         21
   340          6
   345          1
   350          3
   351          4
   352          1
   353          1
   359          1
   363          1
   365          9
   366          1
   367          3
   379          5
   380          1
   381          2
   392         21
   393          5
   394          1
   395          2
   397          0
   408          0
   424         48
   426         33
   427          5
   428          1