##TITLE=Library Entry 87923
##JCAMP-DX=Revision 4.10 
##DATA TYPE=MASS SPECTRUM
##SAMPLE DESCRIPTION=MPI,45489-G1411,17-OCT-67 (ID=2, PURITY=2)
##NAMES=HP
##CAS NAME=4-Hepten-3-one, 2,5,6-trimethyl-
##MOLFORM=C10H18O
##CAS REGISTRY NO=16466-21-0
##MP= -300
##BP= -300
##MW= 154
##$RETENTION INDEX=0
##$CONDENSED SPECTRUM=NO
##NPOINTS= 108
##XYDATA=(XY..XY) 1 
    26         10
    27        102
    28         78
    29        184
    30          4
    31         29
    32          1
    37          1
    38          1
    39         86
    40         21
    41        558
    42         47
    43        873
    44         28
    45         32
    46          2
    47          0
    48          0
    49          0
    50          1
    51          4
    52          2
    53         37
    54         10
    55        535
    56         59
    57        547
    58         23
    59         37
    60          2
    61          0
    62          0
    63          0
    65         13
    66          5
    67         71
    68         11
    69         76
    70         15
    71        313
    72         12
    73          3
    74          0
    75          0
    76          0
    77         22
    78          4
    79         16
    80          2
    81         21
    82         14
    83        225
    84         39
    85          6
    86         12
    87         25
    88          0
    89          1
    91         19
    92          3
    93         69
    94          5
    95         19
    96          9
    97         11
    98          1
    99          1
   101          0
   102         11
   103          2
   104          2
   105          5
   106         30
   107          5
   108          1
   109          8
   110         10
   111        999
   112         70
   113          5
   114          0
   115          0
   116          0
   117          0
   118          0
   119          2
   120          1
   121          4
   122          1
   123          3
   124          0
   125          1
   126          2
   129          4
   130          0
   132          0
   133          0
   134          0
   135          0
   136          1
   137          2
   139          9
   140          1
   152          0
   153          0
   154        159
   155         17