##TITLE=Library Entry 55710
##JCAMP-DX=Revision 4.10 
##DATA TYPE=MASS SPECTRUM
##SAMPLE DESCRIPTION=MASS SPECTROMETRY CENTER, UNIV. OF UTAH EPA-PTSEL 6520
##NAMES=HP
##CAS NAME=Aldicarb sulfoxide
##MOLFORM=C7H14N2O3S
##CAS REGISTRY NO=1646-87-3
##MP= -300
##BP= -300
##MW= 206
##$RETENTION INDEX=1089
##$CONDENSED SPECTRUM=NO
##NPOINTS= 71
##XYDATA=(XY..XY) 1 
    11          1
    12         10
    13          4
    14         43
    15        180
    16         15
    25          3
    26         55
    27        270
    28        381
    29        203
    30        211
    31        155
    32          1
    33         14
    34         19
    35          2
    36          3
    37         40
    38         36
    39        276
    40         85
    41        719
    42        193
    43        110
    44        262
    45         98
    46         67
    47        101
    48         55
    49         24
    50          3
    51         20
    52         35
    53         36
    54         34
    55         87
    56         89
    57         93
    58        268
    59         58
    61         12
    62         28
    63        103
    64        210
    65         33
    66         50
    67         34
    68        167
    69        113
    70         30
    71          3
    73          1
    74          3
    75          7
    76         24
    82          1
    83          6
    84        133
    85         65
    86        999
    87         59
    88         14
    89          7
   131         12
   140         13
   141          1
   142          1
   143        144
   144         21
   169          1