##TITLE=Library Entry 23314
##JCAMP-DX=Revision 4.10 
##DATA TYPE=MASS SPECTRUM
##SAMPLE DESCRIPTION=NIST Mass Spectrometry Data Center
##NAMES=HP
##CAS NAME=di-t-Butylhydrazodicarboxylate
##MOLFORM=C10H20N2O4
##CAS REGISTRY NO=16466-61-8
##MP= -300
##BP= -300
##MW= 232
##$RETENTION INDEX=0
##$CONDENSED SPECTRUM=NO
##NPOINTS= 47
##XYDATA=(XY..XY) 1 
    12          3
    13          3
    14          7
    15         31
    16          8
    17          1
    18          2
    25          1
    26         12
    27         72
    28         57
    29        273
    30         23
    31         60
    32        184
    36          1
    37          7
    39        129
    41        437
    42         28
    43         80
    44         54
    45          5
    49          2
    50          6
    51          7
    52          2
    53          8
    55         36
    57        999
    58         60
    59        179
    60          6
    72          2
    73         12
    76         72
    77          6
    85          1
    87          1
    88          1
   103          5
   115          4
   117          4
   121          1
   132         12
   161          7
   176          4