##TITLE=Library Entry 56746
##JCAMP-DX=Revision 4.10 
##DATA TYPE=MASS SPECTRUM
##SAMPLE DESCRIPTION=Exported from NIST MS Search
##NAMES=HP
##CAS NAME=Aldicarb sulfone
##MOLFORM=C7H14N2O4S
##CAS REGISTRY NO=1646-88-4
##MP= -300
##BP= -300
##MW= 222
##$RETENTION INDEX=1116
##$CONDENSED SPECTRUM=NO
##NPOINTS= 22
##XYDATA=(XY..XY) 1 
    39         50
    41        280
    42        100
    43         90
    44         50
    45         30
    55        130
    57         60
    58        230
    59         50
    63         40
    64         40
    68        150
    69         80
    70         30
    71         20
    85        360
    86        999
    87         90
    88         20
   143        380
   144         50