##TITLE=Library Entry 29948
##JCAMP-DX=Revision 4.10 
##DATA TYPE=MASS SPECTRUM
##SAMPLE DESCRIPTION=Chemical Concepts
##NAMES=HP
##CAS NAME=2(3H)-Furanone, dihydro-4,4,5,5-tetramethyl-
##MOLFORM=C8H14O2
##CAS REGISTRY NO=16466-24-3
##MP= -300
##BP= -300
##MW= 142
##$RETENTION INDEX=0
##$CONDENSED SPECTRUM=NO
##NPOINTS= 48
##XYDATA=(XY..XY) 1 
    26         18
    27        170
    28         73
    29        146
    31         30
    37          9
    38         30
    39        294
    40         79
    41        586
    43        830
    44         17
    45          6
    50         15
    51         25
    52          9
    53         53
    54         27
    55        372
    56        996
    57         92
    59        999
    60         28
    61          3
    63          4
    65         11
    67         33
    68          6
    69         34
    70          5
    77          3
    79          9
    81         67
    83        542
    84         35
    85          5
    98         48
    99         38
   109         80
   110          6
   111          4
   112          3
   114        169
   115         10
   127        576
   128         33
   142         28
   143         13