##TITLE=Library Entry 18628
##JCAMP-DX=Revision 4.10 
##DATA TYPE=MASS SPECTRUM
##SAMPLE DESCRIPTION=B. F. SMITH
##NAMES=HP
##CAS NAME=Butanenitrile, 2-methylene-
##MOLFORM=C5H7N
##CAS REGISTRY NO=1647-11-6
##MP= -300
##BP= -300
##MW= 81
##$RETENTION INDEX=0
##$CONDENSED SPECTRUM=NO
##NPOINTS= 47
##XYDATA=(XY..XY) 1 
    13         14
    14         37
    15         98
    16          2
    17          2
    18          7
    19          7
    20          3
    24          6
    25         27
    26        210
    27        478
    28        392
    29        151
    30          4
    31          2
    36         11
    37         93
    38        121
    39        451
    40         77
    41        640
    42         39
    48          6
    49         33
    50         93
    51        148
    52        248
    53        291
    54        999
    55         65
    61          3
    62          7
    63         18
    64         59
    65         20
    66        280
    67         13
    74          2
    75         13
    76         11
    77          2
    78          7
    79         10
    80        151
    81        413
    82         26