##TITLE=Library Entry 8855
##JCAMP-DX=Revision 4.10 
##DATA TYPE=MASS SPECTRUM
##SAMPLE DESCRIPTION=Japan AIST/NIMC Database- Spectrum MS-NW-4663
##NAMES=HP
##CAS NAME=4,4-Dimethyl-1-hexene
##MOLFORM=C8H16
##CAS REGISTRY NO=1647-08-1
##MP= -300
##BP= -300
##MW= 112
##$RETENTION INDEX=725
##$CONDENSED SPECTRUM=NO
##NPOINTS= 52
##XYDATA=(XY..XY) 1 
    15          7
    26          6
    27         97
    28          5
    29        134
    30          3
    37          2
    38          8
    39        126
    40         17
    41        288
    42         32
    43        999
    44         33
    45          1
    50          6
    51         11
    52          4
    53         39
    54          9
    55        591
    56         36
    57          6
    61          1
    62          2
    63          3
    65          8
    66          4
    67         39
    68          8
    69         42
    70        146
    71        946
    72         52
    73          2
    75          1
    77          6
    78          1
    79          6
    80          1
    81         12
    82         12
    83        117
    84         11
    85          1
    91          1
    94          1
    95          3
    96          2
    97         73
    98          6
   111          1