##TITLE=Library Entry 27112
##JCAMP-DX=Revision 4.10 
##DATA TYPE=MASS SPECTRUM
##SAMPLE DESCRIPTION=A.A.Kutin, Moscow, Russia
##NAMES=HP
##CAS NAME=Thiophene, 2-tert-butylthio-5-thiocyanato-
##MOLFORM=C9H11NS3
##CAS REGISTRY NO=16470-81-8
##MP= -300
##BP= -300
##MW= 229
##$RETENTION INDEX=0
##$CONDENSED SPECTRUM=NO
##NPOINTS= 100
##XYDATA=(XY..XY) 1 
    33          6
    34          3
    36          1
    39        107
    41        353
    45         45
    47          3
    48          0
    49          1
    50          2
    51          4
    52          2
    53          6
    55         23
    57        999
    59          7
    60          0
    61          0
    64         18
    66          2
    69        121
    70         75
    71         24
    72          4
    73          3
    74          0
    76          7
    77          2
    78          0
    79          1
    81          8
    82          9
    83          1
    84          2
    86          2
    88         16
    89          3
    90          2
    91          0
    92          0
    94          0
    96         11
    97          8
    99          1
   100          1
   101          4
   102          5
   103         12
   105          1
   107          1
   109         26
   111          3
   114        150
   115         27
   116         13
   117          2
   118          0
   121          0
   122          0
   123          0
   128          2
   129          0
   130          0
   140         16
   141          2
   142          1
   143          0
   146         22
   147         17
   148          9
   149          2
   150          1
   151          0
   153          0
   154          1
   155          0
   156          0
   167          0
   168          0
   173        389
   174         28
   175         44
   177          4
   180          0
   181          0
   182          0
   187          1
   197          0
   203          0
   204          0
   205          0
   214          3
   215          0
   216          0
   226          0
   229         57
   230          7
   231          7
   232          0
   233          0