##TITLE=Library Entry 61237
##JCAMP-DX=Revision 4.10 
##DATA TYPE=MASS SPECTRUM
##SAMPLE DESCRIPTION=NIST Mass Spectrometry Data Center
##NAMES=HP
##CAS NAME=4-(Chloromethyl)benzyl alcohol
##MOLFORM=C8H9ClO
##CAS REGISTRY NO=16473-35-1
##MP= -300
##BP= -300
##MW= 156
##$RETENTION INDEX=0
##$CONDENSED SPECTRUM=NO
##NPOINTS= 108
##XYDATA=(XY..XY) 1 
    15          1
    17          1
    18          1
    19          1
    25          1
    26          9
    27         33
    29         41
    30          4
    31         35
    32          1
    35          8
    36         12
    37         15
    38         36
    39        148
    40         21
    41         30
    42          4
    43         11
    44          5
    45         22
    46          8
    47          4
    48          2
    49         21
    50         86
    51        163
    52         38
    53         33
    54          2
    55         14
    59         16
    60         86
    61         27
    62         64
    63        165
    64         40
    65        173
    66         20
    67          5
    68          3
    69          2
    70          1
    72          1
    73         16
    74         29
    75         32
    76         23
    77        467
    78         92
    79        375
    80         26
    81          4
    82          1
    84          3
    85          9
    86         18
    87         19
    89        193
    90         82
    91        999
    92        242
    93        140
    94         13
    95          1
    96          1
    97          4
    98          4
    99         24
   100          2
   101         13
   102         27
   103        125
   104         88
   105         23
   107        910
   108         71
   109          5
   111          1
   112          3
   113          1
   114          1
   117          1
   118          6
   119         70
   120        102
   121        718
   122         68
   123          6
   125        100
   126         13
   127         49
   128          5
   129          5
   138         70
   139         25
   140         26
   141          9
   142          1
   153         31
   154         33
   155         52
   156        480
   157         53
   158        153
   159         14
   160          1