##TITLE=Library Entry 21579
##JCAMP-DX=Revision 4.10 
##DATA TYPE=MASS SPECTRUM
##SAMPLE DESCRIPTION=Japan AIST/NIMC Database- Spectrum MS-IW-3174
##NAMES=HP
##CAS NAME=Bicyclo(3.3.1)nonane-2,6-dione
##MOLFORM=C9H12O2
##CAS REGISTRY NO=16473-11-3
##MP= -300
##BP= -300
##MW= 152
##$RETENTION INDEX=0
##$CONDENSED SPECTRUM=NO
##NPOINTS= 101
##XYDATA=(XY..XY) 1 
    14          2
    15          8
    26         17
    27        205
    28         50
    29         62
    30          1
    31          3
    32          1
    33          1
    34          2
    37          5
    38         21
    39        257
    40         66
    41        239
    42         73
    43         80
    44          3
    45          4
    46          5
    47          5
    48          5
    49          1
    50         19
    51         40
    52         24
    53        113
    54        160
    55        999
    56         59
    57         13
    58          2
    59          1
    60          2
    61          3
    62          8
    63         13
    64          3
    65         41
    66         55
    67        328
    68        268
    69        167
    70         80
    71         10
    73          1
    74          4
    75          1
    76          1
    77         45
    78         21
    79        103
    80        144
    81        172
    82        409
    83        316
    84         47
    85          4
    86          1
    89          2
    91         33
    92         39
    93         41
    94         26
    95        297
    96        187
    97        104
    98         31
    99          2
   103          1
   105          8
   106         22
   107         68
   108         88
   109        207
   110        123
   111         37
   112          5
   113          1
   116          1
   117          1
   119          8
   120          1
   121          2
   122          3
   123         66
   124        284
   125         25
   126          2
   133          8
   134         15
   135          7
   136          4
   137         43
   138          4
   150          2
   151          9
   152        862
   153         87
   154          7