##TITLE=Library Entry 67171
##JCAMP-DX=Revision 4.10 
##DATA TYPE=MASS SPECTRUM
##SAMPLE DESCRIPTION=Chemical Concepts
##NAMES=HP
##CAS NAME=Bicyclo[3.3.1]nonane-2,6-diol
##MOLFORM=C9H16O2
##CAS REGISTRY NO=16473-12-4
##MP= -300
##BP= -300
##MW= 156
##$RETENTION INDEX=0
##$CONDENSED SPECTRUM=NO
##NPOINTS= 58
##XYDATA=(XY..XY) 1 
    27        122
    28        101
    29        170
    31         70
    39        161
    40         46
    41        258
    42         54
    43        136
    44         68
    45         25
    51         33
    52         15
    53        113
    54        119
    55        251
    56         44
    57        243
    58         29
    65         48
    66         76
    67        453
    68        137
    69        169
    70        146
    71        207
    72         19
    77        105
    78         96
    79        767
    80        164
    81        453
    83        175
    84        124
    85        114
    91        214
    92        146
    93        107
    94        999
    95        265
    96        157
    97        191
    98         20
   105         79
   107         59
   108         17
   109        177
   110        125
   111         27
   112         28
   119         19
   120        195
   121         28
   123         36
   137         34
   138        725
   139         85
   156         19