##TITLE=Library Entry 16411
##JCAMP-DX=Revision 4.10 
##DATA TYPE=MASS SPECTRUM
##SAMPLE DESCRIPTION=CARL DJERASSI DEPT OF CHEM STANFORD UNIV STANFORD CALIF
 94305
##NAMES=HP
##CAS NAME=Ethanedithioamide, N,N'-diethyl-
##MOLFORM=C6H12N2S2
##CAS REGISTRY NO=16475-50-6
##MP= -300
##BP= -300
##MW= 176
##$RETENTION INDEX=0
##$CONDENSED SPECTRUM=NO
##NPOINTS= 57
##XYDATA=(XY..XY) 1 
    41         50
    42         90
    43         30
    44        999
    45        120
    46         20
    47         10
    53         10
    54         20
    55         20
    56        140
    57         30
    58         10
    59         70
    60        510
    61         50
    62         30
    67         10
    69         10
    70         30
    71         30
    72         30
    73         10
    74         10
    76         10
    77         20
    83         20
    84         10
    86         40
    87         10
    88        320
    89        100
    90         40
    92         10
    98         10
    99         10
   100         20
   101         10
   104         10
   112         10
   113         10
   114         10
   115         10
   118         70
   120         10
   131         10
   132         10
   133         70
   134         10
   135         10
   147         30
   161         60
   162         10
   163         10
   176        640
   177         80
   178         70