##TITLE=Library Entry 49804
##JCAMP-DX=Revision 4.10 
##DATA TYPE=MASS SPECTRUM
##SAMPLE DESCRIPTION=CARL DJERASSI DEPT OF CHEM STANFORD UNIV STANFORD CALIF
 94305
##NAMES=HP
##CAS NAME=2H-Inden-2-one, octahydro-, trans-
##MOLFORM=C9H14O
##CAS REGISTRY NO=16484-17-6
##MP= -300
##BP= -300
##MW= 138
##$RETENTION INDEX=0
##$CONDENSED SPECTRUM=NO
##NPOINTS= 49
##XYDATA=(XY..XY) 1 
    37         20
    38         70
    39        880
    40        150
    41        930
    42        220
    43         70
    44         10
    45         10
    50         60
    51        120
    52         70
    53        330
    54        590
    55        430
    56         80
    57         60
    62         10
    63         20
    65         70
    66         70
    67        850
    68        490
    69        120
    70         50
    77         70
    78         10
    79        190
    80         70
    81        999
    82        290
    83         40
    84         10
    91         40
    92         50
    93         60
    94        930
    95        450
    96        550
    97         50
   105         10
   107         10
   109        460
   110         70
   120         40
   122         10
   123         30
   138        670
   139         60