##TITLE=Library Entry 59560
##JCAMP-DX=Revision 4.10 
##DATA TYPE=MASS SPECTRUM
##SAMPLE DESCRIPTION=R.A.MOSS THE STATE UNIV, NEW BRUNSWICK, NEW JERSEY, USA
##NAMES=HP
##CAS NAME=Benzene, 3-pentenyl-, (Z)-
##MOLFORM=C11H14
##CAS REGISTRY NO=16487-65-3
##MP= -300
##BP= -300
##MW= 146
##$RETENTION INDEX=1148
##$CONDENSED SPECTRUM=NO
##NPOINTS= 71
##XYDATA=(XY..XY) 1 
    39        201
    40         31
    41         59
    42          5
    43          2
    44          4
    49          2
    50         35
    51        103
    52         29
    53         34
    54         11
    55         98
    56          5
    57          2
    58          2
    61          3
    62         17
    63         71
    64         16
    65        237
    66         19
    67         11
    68          9
    69          2
    73          2
    74         11
    75         11
    76         12
    77         57
    78         33
    79         13
    80          2
    85          2
    86          4
    87          5
    88          3
    89         36
    90         13
    91        999
    92        116
    93          7
    94          2
    98          1
    99          1
   101          3
   102         11
   103         19
   104         47
   105         11
   106          1
   113          2
   114          2
   115         39
   116         10
   117         29
   118         13
   119          2
   126          2
   127          7
   128         15
   129         13
   130          4
   131         27
   132          3
   139          2
   141          2
   143          2
   145          2
   146         81
   147         11