##TITLE=Library Entry 70766
##JCAMP-DX=Revision 4.10 
##DATA TYPE=MASS SPECTRUM
##SAMPLE DESCRIPTION=A.Pleshkova, Nesmeyanov Inst.Org.Elem.Cpds, Moscow
##NAMES=HP
##CAS NAME=N-Tert.-butyl-N-(2-propenyl)amine
##MOLFORM=C7H15N
##CAS REGISTRY NO=16486-68-3
##MP= -300
##BP= -300
##MW= 113
##$RETENTION INDEX=0
##$CONDENSED SPECTRUM=NO
##NPOINTS= 23
##XYDATA=(XY..XY) 1 
    28         51
    29         62
    30        113
    31          7
    39         53
    40          7
    41        483
    42        113
    43         33
    55         38
    56        174
    57        123
    58        305
    59         21
    70         33
    81         15
    82         22
    83         16
    98        999
    99         93
   100         17
   113         73
   114         13