##TITLE=Library Entry 30462
##JCAMP-DX=Revision 4.10 
##DATA TYPE=MASS SPECTRUM
##SAMPLE DESCRIPTION=Exported from NIST MS Search
##NAMES=HP
##CAS NAME=Butanoic acid, 4-nitro-
##MOLFORM=C4H7NO4
##CAS REGISTRY NO=16488-43-0
##MP= -300
##BP= -300
##MW= 133
##$RETENTION INDEX=0
##$CONDENSED SPECTRUM=NO
##NPOINTS= 61
##XYDATA=(XY..XY) 1 
    25          3
    26         31
    27        116
    28        100
    29        213
    30        142
    31         44
    32         10
    33         27
    37          5
    38         12
    39        211
    40         36
    41        431
    42        347
    43         79
    44         29
    45         44
    46         22
    50          0
    51          3
    52          6
    53          6
    54         36
    55        143
    56          8
    57         48
    58         16
    59        999
    60        136
    61         14
    68         39
    69        135
    70         19
    71         13
    72          8
    73         46
    74         16
    75          1
    82         52
    83          6
    84          2
    85         60
    86          7
    87         28
    88        106
    89         23
    90          1
    98          4
    99         44
   100         92
   101         63
   102          7
   103          1
   115         36
   116        465
   117         45
   118          4
   132          1
   133         12
   134          0