##TITLE=Library Entry 4056
##JCAMP-DX=Revision 4.10 
##DATA TYPE=MASS SPECTRUM
##SAMPLE DESCRIPTION=Chemical Concepts
##NAMES=HP
##CAS NAME=m-Dithiane, 1-oxide
##MOLFORM=C4H8OS2
##CAS REGISTRY NO=16487-10-8
##MP= -300
##BP= -300
##MW= 136
##$RETENTION INDEX=0
##$CONDENSED SPECTRUM=NO
##NPOINTS= 78
##XYDATA=(XY..XY) 1 
    26         25
    27        111
    29         24
    30          3
    31          8
    33         14
    34         20
    35         15
    36          2
    37         13
    38         28
    39        253
    40         42
    41        999
    42        199
    43        143
    44         49
    45        542
    46        534
    47        192
    48         57
    49         15
    50          8
    51          2
    53         16
    54         21
    55         48
    56          5
    57         33
    58         37
    59        123
    60        293
    61        314
    62         43
    63        101
    64         19
    65          6
    66         15
    68          4
    69         15
    70          2
    71         29
    72         57
    73        375
    74        111
    75         27
    76         11
    77         16
    78         18
    79          6
    80          6
    85         24
    86         10
    87        386
    88         27
    89         53
    90        567
    91         35
    92         30
    94         40
    95          5
    96          5
    97          3
   102          3
   103          9
   105          6
   106        155
   107         12
   108         19
   119        102
   120         33
   121         12
   122          4
   136        901
   137         65
   138         85
   139          6
   140          3