##TITLE=Library Entry 68537
##JCAMP-DX=Revision 4.10 
##DATA TYPE=MASS SPECTRUM
##SAMPLE DESCRIPTION=Chemical Concepts
##NAMES=HP
##CAS NAME=2,6a-Methano-6aH-indeno[4,5-b]oxirene, octahydro-, (1a.alpha.,2.b
eta.,3a.alpha.,6a.beta.,6b.alpha.)-
##MOLFORM=C10H14O
##CAS REGISTRY NO=16489-32-0
##MP= -300
##BP= -300
##MW= 150
##$RETENTION INDEX=0
##$CONDENSED SPECTRUM=NO
##NPOINTS= 93
##XYDATA=(XY..XY) 1 
    26          8
    27        136
    28          4
    29         79
    30          2
    31         26
    38         24
    39        344
    40         59
    41        277
    42         28
    43        105
    44         14
    45          6
    50         47
    51        159
    52         74
    53        166
    54         34
    55        200
    56         17
    57         54
    58          7
    60         20
    61         11
    62         17
    63         69
    64         25
    65        178
    66        107
    67        251
    68         69
    69         55
    70         26
    71         18
    73          7
    74         12
    75         15
    76         11
    77        431
    78        170
    79        526
    80        183
    81        257
    82        133
    83         53
    84         19
    85          6
    86          7
    87          7
    89         24
    90         11
    91        596
    92        124
    93        299
    94        214
    95        999
    96        426
    97         41
    98          7
   102         14
   103        112
   104        108
   105        103
   106        209
   107        336
   108        363
   109        116
   110         17
   115         55
   116         21
   117        180
   118         29
   119        433
   120         76
   121        858
   122        268
   123         47
   124          5
   127          5
   128         12
   129         10
   130          8
   131         50
   132         91
   133         32
   134          7
   135        275
   136         36
   137          9
   150        712
   151         81
   152          7