##TITLE=Library Entry 82004
##JCAMP-DX=Revision 4.10 
##DATA TYPE=MASS SPECTRUM
##SAMPLE DESCRIPTION=Chemical Concepts
##NAMES=HP
##CAS NAME=Benzamide, 4-benzoyl-N-(2'-benzoylphenyl)-2-chloro-5-amino-
##MOLFORM=C27H19ClN2O3
##CAS REGISTRY NO=164936-95-2
##MP= -300
##BP= -300
##MW= 454
##$RETENTION INDEX=0
##$CONDENSED SPECTRUM=NO
##NPOINTS= 293
##XYDATA=(XY..XY) 1 
    26          0
    27          1
    28          0
    29          0
    30          0
    36          1
    38          0
    39          6
    40          9
    41          1
    43          0
    44          1
    50          2
    51         25
    52          9
    53          3
    54          0
    55          0
    57          0
    61          0
    62          2
    63         12
    64          5
    65         12
    66          1
    67          0
    68          1
    69          0
    70          0
    72          0
    73          1
    74          1
    75          3
    76          7
    77        340
    78         24
    79          1
    80          0
    81          0
    82          0
    83          0
    84          0
    86          0
    87          0
    88          2
    89          8
    90         28
    91          7
    92          9
    93          2
    94          0
    95          0
    97          4
    98          2
    99          3
   100          1
   101          1
   102          3
   103          1
   104          4
   105        999
   106         69
   107          4
   108          0
   109          0
   110          0
   111          0
   112          0
   113          1
   114          1
   115          8
   116          1
   117          1
   118          4
   119          2
   120         12
   121          2
   122          0
   123          0
   124         13
   125         15
   126          7
   127          6
   128          4
   129          0
   130          1
   131          0
   132          0
   133          0
   134          0
   135          0
   136          0
   137          1
   138          2
   139         32
   140         15
   141          4
   142          1
   143          0
   144          0
   146         13
   147          1
   148          0
   149          4
   150          4
   151          6
   152         44
   153         16
   154         13
   155          6
   156          2
   157          0
   158          0
   160          0
   161          0
   162          0
   163          0
   164          4
   165          4
   166         35
   167        107
   168         20
   169          2
   170          3
   171          0
   173          2
   174          2
   175         10
   176          3
   177         14
   178          4
   179          2
   180          5
   181          4
   182          1
   183          0
   185          1
   186          1
   187          3
   188         22
   189          7
   190          0
   191          0
   192          0
   193          2
   194         22
   195        128
   196         53
   197         13
   198          2
   199          1
   200          5
   201          8
   202         11
   203         10
   204          3
   205          3
   206          0
   207          1
   208          1
   209          3
   210          1
   211          0
   212          3
   213          3
   214          1
   215          1
   216          0
   217          0
   218          0
   219          0
   220          0
   221          0
   222          0
   224          1
   225          0
   226          0
   227          2
   228          9
   229         26
   230         86
   231         22
   232         27
   233          4
   234          0
   235          0
   236          0
   237          0
   238          0
   239          0
   240          0
   241          1
   242          0
   243          1
   244          0
   245          0
   249          0
   252          0
   253          0
   254          2
   255          3
   256         19
   257          6
   258        786
   259        128
   260        268
   261         36
   262          3
   263          0
   266          0
   267          0
   268          0
   269          1
   270          0
   271          1
   272          0
   273          0
   274          0
   275          0
   283          0
   284          1
   285          5
   286          2
   287          0
   288          0
   294          0
   295          0
   297          0
   298          0
   299          0
   303          0
   305          0
   312          1
   313          5
   314         14
   315          3
   316          0
   319          1
   320          0
   321          0
   332          0
   341          1
   342          0
   346          0
   347          0
   348          0
   349        157
   350         29
   351         45
   352         11
   353          1
   354          0
   359          0
   361          0
   362          0
   363          0
   373          0
   375          0
   376          0
   377         11
   378          2
   379          3
   380          0
   385          0
   389          1
   390          0
   391          1
   392          0
   401          0
   402          1
   410          0
   411          0
   412          0
   417          1
   418         14
   419         75
   420         22
   421          3
   422          0
   423          0
   425          0
   426          0
   437          1
   438          0
   439          0
   450          1
   453          4
   454        397
   455        121
   456        150
   457         37
   458          6
   459          0