##TITLE=Library Entry 83840
##JCAMP-DX=Revision 4.10 
##DATA TYPE=MASS SPECTRUM
##SAMPLE DESCRIPTION=Patti Price, Georgia Bureau of Investigation, Decatur,
 Georgia
##NAMES=HP
##CAS NAME=Azaperone
##MOLFORM=C19H22FN3O
##CAS REGISTRY NO=1649-18-9
##MP= -300
##BP= -300
##MW= 327
##$RETENTION INDEX=2705
##$CONDENSED SPECTRUM=NO
##NPOINTS= 89
##XYDATA=(XY..XY) 1 
    41         16
    42         28
    50          3
    51         22
    52         24
    53          9
    54         14
    55         26
    56         76
    57         15
    58          4
    65          8
    66          6
    67          9
    68         19
    69         29
    70         65
    71         45
    74          3
    75         43
    77          6
    78        164
    79        199
    80         29
    81          5
    82         38
    83        169
    84         19
    92         12
    93         21
    94         37
    95        337
    96         45
    97          6
    98         76
    99          4
   105         16
   106         11
   107        999
   108         72
   109         17
   110         22
   111          4
   115          2
   118          7
   119        115
   120         78
   121        140
   122         14
   123        297
   124         20
   131         11
   132         10
   133         80
   135         10
   138         17
   145         15
   146         11
   147         72
   148         17
   160          4
   161          8
   162          9
   164          7
   165        180
   166         18
   174          9
   176         25
   189         18
   190         45
   191          8
   204         14
   206         25
   207         12
   208         95
   209         12
   216          4
   218          3
   220         14
   221         22
   222          3
   232          2
   233        131
   234         33
   309         49
   310         12
   312          7
   327         22
   328          4