##TITLE=Library Entry 71949
##JCAMP-DX=Revision 4.10 
##DATA TYPE=MASS SPECTRUM
##SAMPLE DESCRIPTION=Exported from NIST MS Search
##NAMES=HP
##CAS NAME=Ethane, 1,2-dichloro-1,1-difluoro-
##MOLFORM=C2H2Cl2F2
##CAS REGISTRY NO=1649-08-7
##MP= -300
##BP= -300
##MW= 134
##$RETENTION INDEX=0
##$CONDENSED SPECTRUM=NO
##NPOINTS= 57
##XYDATA=(XY..XY) 1 
    24          3
    25          9
    26         16
    31         68
    32          4
    33         24
    35         38
    36         40
    37         13
    38         13
    43          6
    44         49
    45         45
    47         31
    48         34
    49        321
    50         27
    51        110
    57          2
    59          3
    60         29
    61          3
    62          4
    63         32
    64         65
    65          9
    66          5
    67         18
    68          1
    69          6
    77          3
    78          5
    79        149
    80         18
    81         54
    82          9
    83         11
    84          2
    85        200
    86          2
    87         69
    95         27
    97         19
    98         30
    99        999
   100         32
   101        288
   102          7
   114          6
   115         17
   116          4
   117         10
   119          1
   132          2
   134         26
   136         15
   138          2