##TITLE=Library Entry 51279
##JCAMP-DX=Revision 4.10 
##DATA TYPE=MASS SPECTRUM
##SAMPLE DESCRIPTION=Japan AIST/NIMC Database- Spectrum MS-NW-3867
##NAMES=HP
##CAS NAME=Butanoic acid, 3-hexenyl ester, (Z)-
##MOLFORM=C10H18O2
##CAS REGISTRY NO=16491-36-4
##MP= -300
##BP= -300
##MW= 170
##$RETENTION INDEX=1187
##$CONDENSED SPECTRUM=NO
##NPOINTS= 62
##XYDATA=(XY..XY) 1 
    14          2
    15         11
    17          2
    18          7
    26          9
    27        163
    28         17
    29         60
    30          2
    31          9
    32          1
    37          2
    38          7
    39        120
    40         20
    41        301
    42         47
    43        694
    44         23
    45          6
    50          5
    51          8
    52          6
    53         40
    54         78
    55        136
    56         15
    57          6
    58          1
    60         13
    61          1
    62          1
    63          2
    65         10
    66          9
    67        869
    68         57
    69         15
    70          9
    71        799
    72         36
    73          9
    74          1
    77          3
    78          1
    79         11
    80          7
    81         63
    82        999
    83         87
    84          6
    85          1
    87          2
    88          4
    89         20
    90          1
    96          2
    97          1
    98          1
    99          1
   101          6
   115          2