##TITLE=Library Entry 25647
##JCAMP-DX=Revision 4.10 
##DATA TYPE=MASS SPECTRUM
##SAMPLE DESCRIPTION=A.A.Kutin, Moscow, Russia
##NAMES=HP
##CAS NAME=2-(tert-Butylsulfonyl)-N'-hydroxyethanimidamide
##MOLFORM=C6H14N2O3S
##CAS REGISTRY NO=164982-43-8
##MP= -300
##BP= -300
##MW= 194
##$RETENTION INDEX=0
##$CONDENSED SPECTRUM=NO
##NPOINTS= 81
##XYDATA=(XY..XY) 1 
    33          3
    34          3
    36          0
    37          0
    38          2
    39         52
    40         16
    41        333
    42        289
    43         40
    44          4
    45          2
    46          1
    47          1
    48          3
    49          0
    50          1
    51          1
    52          0
    53          5
    54          1
    55         34
    56         75
    57        999
    58         71
    59          7
    60          0
    62          0
    63          1
    64          3
    65          2
    66          0
    67          0
    68          0
    69          0
    70          0
    71          0
    72          1
    73         28
    74        434
    75         13
    76          1
    77          0
    80          0
    81          0
    82          0
    83          0
    84          0
    85          0
    88          1
    89          0
    90          0
    91          0
    95          0
    96          0
    97          0
    98          0
    99          0
   103          0
   105          2
   106          0
   107          0
   110          0
   113          0
   115          0
   119          0
   121          1
   122          2
   123          0
   124          0
   138          0
   139          0
   149          0
   159          0
   160          0
   173          0
   192          0
   194        111
   195         10
   196          5
   197          0