##TITLE=Library Entry 90271
##JCAMP-DX=Revision 4.10 
##DATA TYPE=MASS SPECTRUM
##SAMPLE DESCRIPTION=Chemical Concepts
##NAMES=HP
##CAS NAME=2,5-Pyrrolidinedione, 3-methyl-4-propyl-, cis-
##MOLFORM=C8H13NO2
##CAS REGISTRY NO=16493-22-4
##MP= -300
##BP= -300
##MW= 155
##$RETENTION INDEX=0
##$CONDENSED SPECTRUM=NO
##NPOINTS= 74
##XYDATA=(XY..XY) 1 
    26          6
    27         58
    29         62
    30          2
    36          3
    38          2
    39         73
    40         11
    41        105
    42        105
    43         34
    44         21
    45          3
    50          5
    51          7
    52          6
    53         22
    54         18
    55        192
    56         71
    57         19
    59          1
    60          2
    61          2
    63          2
    65          4
    66          4
    67         13
    68         13
    69         91
    70         15
    71          8
    72          5
    73          3
    75          2
    77          3
    78          1
    79          5
    80          7
    81         10
    82          5
    83         15
    84         28
    85         96
    86          7
    91          9
    92          4
    93          5
    94          4
    95          5
    96          4
    97          7
    98        252
    99         15
   100          5
   105          3
   107          2
   108          3
   109          2
   110          3
   111          3
   112         18
   113        999
   114         62
   115          6
   125          1
   126         31
   127          3
   137          3
   138          0
   140          2
   141          0
   155         16
   156          3