##TITLE=Library Entry 18654
##JCAMP-DX=Revision 4.10 
##DATA TYPE=MASS SPECTRUM
##SAMPLE DESCRIPTION=FOOD RESEARCH REPORT 120, K.E. MURRAY & COLLEAGUES, DIV
. OF FOOD RESEARCH, CSIRO, AUSTRALIA
##NAMES=HP
##CAS NAME=Butanoic acid, 1-ethenylhexyl ester
##MOLFORM=C12H22O2
##CAS REGISTRY NO=16491-54-6
##MP= -300
##BP= -300
##MW= 198
##$RETENTION INDEX=0
##$CONDENSED SPECTRUM=NO
##NPOINTS= 37
##XYDATA=(XY..XY) 1 
    26         10
    27        350
    29        170
    31         20
    38         10
    39        210
    40         70
    41        620
    42        110
    43        920
    45         10
    51         10
    52         10
    53        100
    54        999
    55        390
    56         70
    57         20
    65         20
    66         30
    67        500
    68        710
    69        220
    70         20
    71        920
    72         60
    77         20
    79         40
    80         30
    81        680
    82        230
    83         20
    88         10
    95        140
    96         10
   110        380
   111         40