##TITLE=Library Entry 49709
##JCAMP-DX=Revision 4.10 
##DATA TYPE=MASS SPECTRUM
##SAMPLE DESCRIPTION=J.VOTH UNIV. OF CALIFORNIA, DAVIS, CALIFORNIA, 95616, U
SA
##NAMES=HP
##CAS NAME=Cyclopentene, 1,5-dimethyl-
##MOLFORM=C7H12
##CAS REGISTRY NO=16491-15-9
##MP= -300
##BP= -300
##MW= 96
##$RETENTION INDEX=702
##$CONDENSED SPECTRUM=NO
##NPOINTS= 66
##XYDATA=(XY..XY) 1 
    12          1
    13          2
    14          7
    15         70
    16          2
    18          1
    25          1
    26         26
    27        202
    28         34
    29         52
    30          1
    31          2
    33          1
    36          0
    37         10
    38         27
    39        217
    40         30
    41        169
    42         16
    43         12
    44          1
    45          4
    46          4
    47          1
    49          3
    50         31
    51         57
    52         27
    53        151
    54         38
    55         81
    56          9
    57          0
    61          4
    62          7
    63         15
    64          3
    65         32
    66         21
    67         80
    68         23
    69          3
    70          0
    73          1
    74          3
    75          3
    77         52
    78         21
    79        124
    80         21
    81        999
    82         67
    83          2
    86          0
    89          1
    90          0
    91         11
    92          2
    93          6
    94          1
    95         59
    96        202
    97         15
    98          0