##TITLE=Library Entry 70624
##JCAMP-DX=Revision 4.10 
##DATA TYPE=MASS SPECTRUM
##SAMPLE DESCRIPTION=NIST Mass Spectrometry Data Center, 1994
##NAMES=HP
##CAS NAME=2-Iodo-5-methylthiophene
##MOLFORM=C5H5IS
##CAS REGISTRY NO=16494-36-3
##MP= -300
##BP= -300
##MW= 224
##$RETENTION INDEX=0
##$CONDENSED SPECTRUM=NO
##NPOINTS= 63
##XYDATA=(XY..XY) 1 
    12          3
    14          0
    15         11
    18          3
    25          9
    26         41
    27        162
    32         23
    33          7
    34          4
    36         14
    37         93
    38        139
    39        173
    40          9
    45        424
    46         16
    47         37
    48          8
    49         32
    50        109
    51        121
    52          8
    53        687
    54         28
    57        243
    58         72
    59         75
    60         19
    61         49
    62         54
    63         58
    64          9
    68         31
    69        267
    70         98
    71         86
    72          7
    80          6
    81         40
    82         50
    83          3
    92         10
    93         48
    94          7
    95         61
    96        174
    97        999
    98         70
    99         45
   112          7
   127        216
   128         13
   139          5
   152          5
   159          9
   165          4
   171          9
   184          7
   223        116
   224        924
   225         60
   226         42