##TITLE=Library Entry 55904
##JCAMP-DX=Revision 4.10 
##DATA TYPE=MASS SPECTRUM
##SAMPLE DESCRIPTION=Finnigan MAT: Toxicological Library (LIBR-TX)
##NAMES=HP
##CAS NAME=Ethomoxane
##MOLFORM=C15H23NO3
##CAS REGISTRY NO=16509-23-2
##MP= -300
##BP= -300
##MW= 265
##$RETENTION INDEX=1975
##$CONDENSED SPECTRUM=NO
##NPOINTS= 18
##XYDATA=(XY..XY) 1 
    41         87
    43         27
    44        192
    56         30
    57         30
    68          9
    70         41
    84          9
    86        999
    87         51
    97         30
   112         19
   137         21
   180         59
   192          9
   222         10
   265         89
   266         19