##TITLE=Library Entry 52662
##JCAMP-DX=Revision 4.10 
##DATA TYPE=MASS SPECTRUM
##SAMPLE DESCRIPTION=Japan AIST/NIMC Database- Spectrum MS-IW-4363
##NAMES=HP
##CAS NAME=cis-1-Chloro-9-octadecene
##MOLFORM=C18H35Cl
##CAS REGISTRY NO=16507-61-2
##MP= -300
##BP= -300
##MW= 286
##$RETENTION INDEX=2241
##$CONDENSED SPECTRUM=NO
##NPOINTS= 228
##XYDATA=(XY..XY) 1 
    15          1
    26          2
    27         62
    28          8
    29        156
    30          3
    35          3
    36         26
    37          1
    38          9
    39         66
    40         12
    41        503
    42        108
    43        526
    44         20
    45          2
    49          4
    50          1
    51          6
    52          4
    53         66
    54        252
    55        940
    56        591
    57        894
    58         49
    59          3
    60          3
    61          1
    62          1
    63         15
    64          1
    65         26
    66         42
    67        498
    68        353
    69        983
    70        631
    71        555
    72         31
    73          2
    74          2
    75          8
    76          4
    77         34
    78          8
    79         76
    80         39
    81        464
    82        549
    83        999
    84        398
    85        315
    86         20
    87          2
    88          1
    89         10
    90         10
    91        218
    92         15
    93         79
    94         20
    95        313
    96        380
    97        872
    98        233
    99         80
   100          7
   101          1
   102          1
   103         13
   104        139
   105        117
   106         52
   107         41
   108         10
   109        195
   110        172
   111        417
   112        143
   113         45
   114          4
   115          3
   116          4
   117         36
   118         62
   119         74
   120         25
   121         28
   122          9
   123        139
   124        105
   125        182
   126         81
   127         27
   128          3
   129          4
   130         10
   131         56
   132         45
   133         64
   134         18
   135         20
   136          6
   137         86
   138         59
   139         65
   140         48
   141         17
   142          2
   143          4
   144         16
   145         54
   146         40
   147         50
   148         14
   149         15
   150          3
   151         31
   152         31
   153         38
   154         29
   155         10
   156          2
   157          4
   158         16
   159         45
   160         40
   161         40
   162         13
   163          9
   164          1
   165         11
   166         18
   167         20
   168         18
   169          7
   170          1
   171          3
   172         12
   173         33
   174         29
   175         27
   176         10
   177          7
   178          1
   179          8
   180         13
   181         12
   182          9
   183          4
   184          1
   185          3
   186          9
   187         24
   188         22
   189         20
   190          9
   191          5
   192          1
   193          6
   194         12
   195          9
   196          6
   197          2
   199          1
   200          7
   201         14
   202         18
   203         14
   204          7
   205          4
   206          1
   207          5
   208         15
   209          7
   210          2
   213          2
   214          5
   215         10
   216         13
   217          9
   218          5
   219          3
   220          1
   221          4
   222          9
   223          2
   224          7
   225          1
   227          1
   228          3
   229          8
   230         11
   231          8
   232          5
   233          2
   234          1
   235          1
   236          2
   237          1
   238          1
   240          1
   242          2
   243          5
   244          8
   245          6
   246          4
   247          2
   248          3
   250         37
   251          7
   252          3
   256          1
   257          2
   258         31
   259          7
   260         13
   261          2
   262          1
   284          4
   285          1
   286        116
   287         23
   288         40
   289          8
   290          1