##TITLE=Library Entry 77728
##JCAMP-DX=Revision 4.10 
##DATA TYPE=MASS SPECTRUM
##SAMPLE DESCRIPTION=Exported from NIST MS Search
##NAMES=HP
##CAS NAME=Benzenepropanoic acid, .beta.-bromo-, methyl ester
##MOLFORM=C10H11BrO2
##CAS REGISTRY NO=16503-45-0
##MP= -300
##BP= -300
##MW= 242
##$RETENTION INDEX=0
##$CONDENSED SPECTRUM=NO
##NPOINTS= 59
##XYDATA=(XY..XY) 1 
    28         47
    29         76
    30        117
    31         58
    36         29
    37         29
    38         47
    39        147
    41         58
    44         58
    49        147
    50        352
    51        117
    52         58
    59        323
    62         58
    63        117
    64         58
    65         58
    66         58
    74         58
    75         58
    76        117
    77        529
    78        323
    79         88
    80         29
    82         47
    88         58
    90         35
    91        352
    92         47
    93         47
   101         58
   102        176
   103        647
   104        999
   105        147
   107         29
   117         58
   118         58
   119         58
   121        217
   122         18
   131        411
   132         58
   133         29
   161         47
   162        176
   163        882
   164        129
   169         88
   171         88
   183         52
   185         58
   211         47
   213         58
   242         35
   244         58