##TITLE=Library Entry 55751
##JCAMP-DX=Revision 4.10 
##DATA TYPE=MASS SPECTRUM
##SAMPLE DESCRIPTION=A.A.Kutin, Moscow, Russia
##NAMES=HP
##CAS NAME=1,3,4-Oxadiazol-2-amine, 5-[5-(4-morpholylmethyl)-1,2,4-oxadiazol
-3-yl]-
##MOLFORM=C9H12N6O3
##CAS REGISTRY NO=165066-59-1
##MP= -300
##BP= -300
##MW= 252
##$RETENTION INDEX=0
##$CONDENSED SPECTRUM=NO
##NPOINTS= 118
##XYDATA=(XY..XY) 1 
    33          6
    34          1
    35          0
    36          5
    38         20
    39         20
    40         49
    41        224
    42        587
    43        171
    44        259
    45         24
    46          0
    47          0
    49          2
    50         12
    51         19
    52         50
    53         22
    54         60
    56        474
    57         86
    59         40
    60          1
    64          5
    65          4
    66         11
    67         18
    68         28
    69         88
    70         68
    71         52
    72         17
    73          0
    74          1
    76          0
    77          3
    78          5
    79         25
    80          5
    81          6
    82         16
    83         57
    84        120
    86        999
    87         42
    88          1
    90          0
    91          0
    93         14
    94          4
    95          6
    96         13
    97         16
    98         90
    99         65
   100        243
   101         11
   102          1
   104          0
   105          0
   106          0
   107          4
   109         24
   110          8
   111         52
   112         35
   113          5
   114          2
   120          5
   122          1
   123          7
   124         27
   125         62
   126         11
   127         13
   128          2
   135          1
   136         13
   137          8
   138         16
   139          4
   140          2
   141          1
   142         12
   150          2
   151          2
   152          4
   154          4
   155          0
   158          3
   159          0
   160          1
   161          0
   163          0
   164          0
   165         11
   167        267
   168         22
   169          2
   170          0
   171          2
   172          0
   177          0
   179          6
   180         14
   181          0
   193          1
   194          4
   195          7
   196          1
   201          1
   208          2
   209          8
   221          5
   222          2
   252          4
   253          0