##TITLE=Library Entry 70937
##JCAMP-DX=Revision 4.10 
##DATA TYPE=MASS SPECTRUM
##SAMPLE DESCRIPTION=Exported from NIST MS Search
##NAMES=HP
##CAS NAME=1-Cyclobutene-1,2-dicarboxylic acid
##MOLFORM=C6H6O4
##CAS REGISTRY NO=16508-05-7
##MP= -300
##BP= -300
##MW= 142
##$RETENTION INDEX=0
##$CONDENSED SPECTRUM=NO
##NPOINTS= 23
##XYDATA=(XY..XY) 1 
    41        175
    42        102
    43        113
    44        234
    45        159
    50        126
    51        218
    52        229
    53        288
    55        109
    57         59
    68         50
    69        192
    70         50
    79         83
    80        120
    84         39
    97        120
    98        999
    99         83
   124         21
   125         21
   142         17