##TITLE=Library Entry 10711
##JCAMP-DX=Revision 4.10 
##DATA TYPE=MASS SPECTRUM
##SAMPLE DESCRIPTION=Japan AIST/NIMC Database- Spectrum MS-IW-7655
##NAMES=HP
##CAS NAME=(+-)-4-Amino-4,5-dihydro-2(3H)-furanone
##MOLFORM=C4H7NO2
##CAS REGISTRY NO=16504-58-8
##MP= -300
##BP= -300
##MW= 101
##$RETENTION INDEX=0
##$CONDENSED SPECTRUM=NO
##NPOINTS= 61
##XYDATA=(XY..XY) 1 
    12          2
    13          3
    14         19
    15         37
    16         25
    17          3
    18         10
    24          2
    25          8
    26         52
    27         93
    28        224
    29         93
    30        136
    31          9
    32          2
    39         49
    40         42
    41         82
    42        325
    43        999
    44         53
    45          3
    50          2
    51          5
    52          9
    53         11
    54         40
    55        193
    56         83
    57         15
    58         53
    59        222
    60         26
    61          1
    64          2
    65          2
    66          3
    67         13
    68         11
    69          6
    70        118
    71          9
    72          2
    73         51
    74          3
    78          1
    80          1
    81          2
    82          4
    83         36
    84        115
    85         13
    86          1
    95          1
    97          2
    99          2
   100          2
   101        378
   102         25
   103          2