##TITLE=Library Entry 82861
##JCAMP-DX=Revision 4.10 
##DATA TYPE=MASS SPECTRUM
##SAMPLE DESCRIPTION=V.I. COHEN, 38 MODABER AVE., TEHRAN, IRA+
##NAMES=HP
##CAS NAME=Selenourea, N,N'-bis(4-methylphenyl)-
##MOLFORM=C15H16N2Se
##CAS REGISTRY NO=16519-45-2
##MP= -300
##BP= -300
##MW= 304
##$RETENTION INDEX=0
##$CONDENSED SPECTRUM=NO
##NPOINTS= 39
##XYDATA=(XY..XY) 1 
    39         80
    51         60
    63         70
    65        270
    77        190
    78         70
    79        170
    89        120
    90         80
    91        710
    92         80
   104         70
   105         40
   106        999
   107        770
   108         60
   116         90
   117         70
   118         60
   131         60
   133         80
   193         30
   194         40
   195         80
   196         40
   197        160
   198         30
   199         30
   221        140
   222        480
   223        630
   224        190
   300         50
   301         50
   302        110
   303         30
   304        220
   305         40
   306         40