##TITLE=Library Entry 34117
##JCAMP-DX=Revision 4.10 
##DATA TYPE=MASS SPECTRUM
##SAMPLE DESCRIPTION=CARL DJERASSI DEPT OF CHEM STANFORD UNIV STANFORD CALIF
 94305
##NAMES=HP
##CAS NAME=Valeraldehyde, 2,2-dimethyl-, oxime
##MOLFORM=C7H15NO
##CAS REGISTRY NO=16519-70-3
##MP= -300
##BP= -300
##MW= 129
##$RETENTION INDEX=0
##$CONDENSED SPECTRUM=NO
##NPOINTS= 69
##XYDATA=(XY..XY) 1 
    14         10
    15         50
    16         10
    17         60
    18        280
    19         10
    20         10
    26         30
    27        340
    28        200
    29        190
    30         60
    31         30
    32         20
    37         10
    38         20
    39        260
    40         50
    41        760
    42        330
    43        760
    44         50
    46         20
    50         10
    51         10
    52         30
    53         60
    54        180
    55        250
    56        130
    57         60
    58         50
    59         30
    60         30
    64         10
    65         10
    66         10
    67         20
    68        160
    69        999
    70        290
    71         50
    72         90
    73        190
    74         10
    79         10
    80         10
    81         30
    82         50
    83         50
    84         40
    85         50
    86        260
    87        380
    88         20
    93         10
    94         10
    95         10
    96         50
    97         30
    98         10
   100         80
   101        120
   102         10
   112        260
   113         20
   114         80
   115         10
   129         10