##TITLE=Library Entry 39646
##JCAMP-DX=Revision 4.10 
##DATA TYPE=MASS SPECTRUM
##SAMPLE DESCRIPTION=D.HENNEBERG, MAX-PLANCK INSTITUTE, MULHEIM, WEST GERMAN
Y
##NAMES=HP
##CAS NAME=Ether, 1-butylvinyl methyl
##MOLFORM=C7H14O
##CAS REGISTRY NO=16519-66-7
##MP= -300
##BP= -300
##MW= 114
##$RETENTION INDEX=0
##$CONDENSED SPECTRUM=NO
##NPOINTS= 22
##XYDATA=(XY..XY) 1 
    39        120
    40         50
    41        240
    42        555
    43        171
    45         30
    53         30
    54         10
    55        150
    56         20
    57         30
    67         20
    69          5
    70          8
    71         20
    72        999
    73         50
    81         10
    85        110
    86         10
    99         10
   114         51