##TITLE=Library Entry 66736
##JCAMP-DX=Revision 4.10 
##DATA TYPE=MASS SPECTRUM
##SAMPLE DESCRIPTION=V.I. COHEN, 38 MODABER AVE., TEHRAN, IRAN
##NAMES=HP
##CAS NAME=Selenourea, N,N'-diphenyl-
##MOLFORM=C13H12N2Se
##CAS REGISTRY NO=16519-43-0
##MP= -300
##BP= -300
##MW= 276
##$RETENTION INDEX=0
##$CONDENSED SPECTRUM=NO
##NPOINTS= 39
##XYDATA=(XY..XY) 1 
    39         90
    50         90
    51        350
    52         40
    63         60
    64         70
    65        220
    66        280
    76         80
    77        770
    78        100
    80         40
    91        160
    92        420
    93        999
    94         70
   103        130
   104        110
   118         50
   119        140
   155         30
   157         50
   179         30
   180         30
   181         80
   183        140
   184         50
   185         30
   193         50
   194        460
   195        880
   196        200
   272         70
   273         80
   274        160
   275         70
   276        330
   277         60
   278         70