##TITLE=Library Entry 54580
##JCAMP-DX=Revision 4.10 
##DATA TYPE=MASS SPECTRUM
##SAMPLE DESCRIPTION=Chemical Concepts
##NAMES=HP
##CAS NAME=Triallylphosphine
##MOLFORM=C9H15P
##CAS REGISTRY NO=16523-89-0
##MP= -300
##BP= -300
##MW= 154
##$RETENTION INDEX=0
##$CONDENSED SPECTRUM=NO
##NPOINTS= 109
##XYDATA=(XY..XY) 1 
    25          8
    26         57
    27        211
    28         49
    29        117
    30          4
    31         25
    32          9
    33          2
    34          2
    36          4
    37         40
    38         78
    39        833
    40        116
    41        935
    42         60
    43         49
    44         35
    45        534
    46         34
    47         43
    48          8
    49          3
    50         18
    51         26
    52         10
    53         69
    54         21
    55        182
    56         30
    57        397
    58         31
    59        132
    60          9
    61         30
    62         24
    63         12
    64          9
    65         46
    66         50
    67        304
    68         42
    69        183
    70         51
    71        712
    72        166
    73        443
    74         39
    75         12
    76         48
    77         87
    78         30
    79        356
    80        173
    81         49
    82         10
    83        330
    84        175
    85        999
    86         84
    87         68
    88         45
    89          7
    90          6
    91         63
    92         48
    93         20
    94          3
    95         64
    96         11
    97        183
    98        153
    99         62
   100        282
   101         16
   102          9
   103          6
   104          3
   105          4
   107          3
   108          5
   109         37
   110          5
   111        261
   112        145
   113        425
   114         60
   115          4
   121          3
   124          2
   125         30
   126        593
   127         70
   128         19
   129          2
   130          1
   132          1
   133          3
   139         72
   140          5
   141          2
   142          2
   145          2
   152          4
   153        274
   154        221
   155         20
   156          2