##TITLE=Library Entry 11548
##JCAMP-DX=Revision 4.10 
##DATA TYPE=MASS SPECTRUM
##SAMPLE DESCRIPTION=LAC, NIDDK, NIH, Bethesda, MD 20892
##NAMES=HP
##CAS NAME=Pregna-5,16-dien-3.beta,9.alpha.-diol-20-one
##MOLFORM=C21H30O3
##CAS REGISTRY NO=165281-31-2
##MP= -300
##BP= -300
##MW= 330
##$RETENTION INDEX=0
##$CONDENSED SPECTRUM=NO
##NPOINTS= 196
##XYDATA=(XY..XY) 1 
    41        153
    43        999
    45         22
    47          6
    49         10
    51         20
    53         80
    55        166
    57        130
    58          2
    59          2
    60          1
    61          0
    63          4
    65         52
    67         76
    69         21
    71          9
    72          0
    73          1
    74          0
    75          2
    76          6
    77        114
    79        133
    81         39
    82          3
    83         16
    84         11
    85          4
    86          4
    87          0
    89          3
    91        137
    92         49
    93         85
    95         63
    96          9
    97          6
    98          2
    99          0
   101          1
   102          1
   103         18
   105        206
   107         61
   108         43
   109         15
   110          5
   111          4
   112          0
   113          1
   115         33
   116         11
   117         31
   118         82
   119         16
   120        256
   121         66
   122         56
   123         20
   124          6
   125          2
   126          0
   127          8
   128         20
   129         17
   130          3
   131         29
   132         10
   133         29
   134         15
   135         43
   136         15
   137         17
   138         17
   139          3
   141         13
   142          7
   143         20
   144         11
   145         20
   147         23
   148          4
   149         44
   150          6
   151          5
   152          6
   153          6
   154          5
   155         15
   156          5
   157         15
   158          7
   159         12
   160          1
   161         11
   162          3
   163          6
   164          6
   165         11
   166          4
   167          7
   168          1
   169          7
   171          7
   172          2
   173          5
   174          6
   175         13
   176          7
   177         24
   178          5
   179          4
   180          2
   181          5
   182          1
   183          6
   184          1
   185          4
   186          1
   187          3
   188          1
   189          6
   190          2
   191          8
   192         14
   193         13
   194          3
   195          5
   196          1
   197          7
   198          1
   199          1
   201          1
   202          1
   203          4
   204          0
   205         13
   206          3
   207          6
   208          1
   209          3
   211          3
   212          1
   213          1
   215          1
   217          1
   218          0
   219          4
   221          2
   222          0
   223          2
   225          4
   226          1
   227          1
   229          1
   233          1
   235          3
   236          1
   237          2
   239          2
   240          0
   241          0
   243          0
   247          0
   249          1
   251          7
   253          5
   254          0
   255          4
   256          1
   261          1
   263          6
   265          1
   267          1
   269          3
   271          0
   277          1
   279         22
   280          3
   281          0
   285          0
   293          0
   294         15
   295          7
   297          5
   310          0
   311          1
   312         27
   313          7
   314          1
   328          4
   329          1
   330          5
   331          1