##TITLE=Library Entry 98972
##JCAMP-DX=Revision 4.10 
##DATA TYPE=MASS SPECTRUM
##SAMPLE DESCRIPTION=A.A.Kutin, Moscow, Russia
##NAMES=HP
##CAS NAME=Benzoic acid, 2-((3,5-dinitrobenzoyl)amino)-
##MOLFORM=C14H9N3O7
##CAS REGISTRY NO=16524-10-0
##MP= -300
##BP= -300
##MW= 331
##$RETENTION INDEX=0
##$CONDENSED SPECTRUM=NO
##NPOINTS= 75
##XYDATA=(XY..XY) 1 
    37          8
    38         36
    39        131
    40         51
    41         34
    42          9
    43         29
    44         43
    45         27
    46         29
    50         63
    51         45
    52         34
    53         43
    55         15
    56          1
    57          5
    60          2
    61          5
    62         48
    63        180
    64         84
    65        165
    66         14
    69          4
    71          0
    74        218
    75        742
    76         80
    77         73
    78          4
    79          8
    80          6
    81          1
    87          2
    88          3
    89         11
    90        175
    91         73
    92        189
    93         12
    94          4
   101          0
   103        148
   104         17
   105         53
   107          0
   119        999
   120        185
   121         15
   136          0
   137          7
   138          3
   139          6
   140          3
   146        141
   147          7
   149        310
   150         22
   151          0
   153          1
   164          8
   165         12
   166          2
   179          2
   193          2
   195        154
   196          7
   223          5
   269         13
   286          4
   287          3
   313          9
   331         83
   332          8