##TITLE=Library Entry 71199
##JCAMP-DX=Revision 4.10 
##DATA TYPE=MASS SPECTRUM
##SAMPLE DESCRIPTION=A.A.Kutin, Moscow, Russia
##NAMES=HP
##CAS NAME=Methylphosphonofluoridic acid anhydride
##MOLFORM=C2H6F2O3P2
##CAS REGISTRY NO=1652-35-3
##MP= -300
##BP= -300
##MW= 178
##$RETENTION INDEX=0
##$CONDENSED SPECTRUM=NO
##NPOINTS= 22
##XYDATA=(XY..XY) 1 
    31         70
    47         80
    48         20
    50         20
    52         40
    63         29
    67         81
    78        170
    79         40
    80        378
    81         99
    82         41
    83        536
    97         40
    98        999
    99        139
   100         51
   112         70
   159         20
   163         40
   177         41
   178         70