##TITLE=Library Entry 34461
##JCAMP-DX=Revision 4.10 
##DATA TYPE=MASS SPECTRUM
##SAMPLE DESCRIPTION=KONINKLIJKE SHELL LABORATORIUM AMSTERDAM
##NAMES=HP
##CAS NAME=Cyclopentanecarboxylic acid, ethenyl ester
##MOLFORM=C8H12O2
##CAS REGISTRY NO=16523-06-1
##MP= -300
##BP= -300
##MW= 140
##$RETENTION INDEX=0
##$CONDENSED SPECTRUM=NO
##NPOINTS= 99
##XYDATA=(XY..XY) 1 
    28        101
    29         49
    30          1
    31          4
    32          9
    33          0
    34          0
    35          0
    36          0
    37          9
    38         25
    39        231
    40         49
    41        537
    42         65
    43         40
    44         17
    45         11
    46          0
    47          0
    48          0
    49          1
    50          5
    51         10
    52          4
    53         35
    54          8
    55         93
    56          4
    57          3
    58          0
    59          0
    60          2
    61          1
    62          2
    63          5
    64          1
    65         13
    66         12
    67        102
    68         79
    69        999
    70         57
    71          4
    72          0
    73          6
    74          0
    75          0
    76          0
    77          1
    78          0
    79          2
    80          1
    81          4
    82          0
    83          1
    84          0
    85          1
    86          2
    87          1
    88          0
    89          0
    90          0
    91          0
    92          0
    93          0
    94          2
    95         12
    96          4
    97        278
    98         19
    99          9
   100          0
   101          4
   102          0
   103          0
   104          0
   105          0
   106          0
   107          0
   108          0
   109          0
   110          0
   111          0
   112          0
   113          0
   114          1
   115          0
   120          0
   121          0
   122          0
   123          0
   124          0
   125          0
   126          0
   139          0
   140          3
   141          0
   142          0