##TITLE=Library Entry 73361
##JCAMP-DX=Revision 4.10 
##DATA TYPE=MASS SPECTRUM
##SAMPLE DESCRIPTION=Chemical Concepts
##NAMES=HP
##CAS NAME=Morpholine, 4-octadecyl-
##MOLFORM=C22H45NO
##CAS REGISTRY NO=16528-77-1
##MP= -300
##BP= -300
##MW= 339
##$RETENTION INDEX=0
##$CONDENSED SPECTRUM=NO
##NPOINTS= 119
##XYDATA=(XY..XY) 1 
    26          0
    27          4
    28          4
    29         15
    30          5
    31          0
    39          2
    40          0
    41         32
    42         21
    43         51
    44         13
    45          1
    51          0
    53          1
    54          2
    55         33
    56         26
    57         27
    58          6
    59          0
    60          0
    65          0
    66          0
    67          3
    68          3
    69         15
    70         15
    71          9
    72          4
    73          0
    77          1
    78          0
    79          0
    80          0
    81          2
    82          2
    83          7
    84          5
    85          4
    86          8
    87         20
    89          0
    91          0
    93          0
    94          0
    95          1
    96          2
    97          3
    98          7
    99          1
   100        999
   101         59
   102          4
   103          0
   105          7
   106          0
   107          0
   109          0
   110          1
   111          1
   112          2
   113          0
   114          1
   115          0
   123          0
   124          0
   125          0
   126          4
   127          0
   128          0
   129          0
   137          0
   138          0
   140          1
   141          0
   142          2
   143          0
   152          0
   154          0
   156          2
   157          0
   168          0
   170          2
   171          0
   180          0
   184          1
   196          0
   198          0
   205          0
   210          0
   212          0
   224          0
   226          0
   232          0
   238          0
   240          0
   252          0
   254          0
   266          0
   268          0
   270          0
   280          0
   282          1
   283          0
   294          2
   295          0
   296          0
   308          0
   310          1
   311          0
   319          0
   324          1
   325          0
   337          0
   338         13
   339         12
   340          2
   341          0