##TITLE=Library Entry 8105
##JCAMP-DX=Revision 4.10 
##DATA TYPE=MASS SPECTRUM
##SAMPLE DESCRIPTION=Chemical Concepts
##NAMES=HP
##CAS NAME=2,9-Decanedione
##MOLFORM=C10H18O2
##CAS REGISTRY NO=16538-91-3
##MP= -300
##BP= -300
##MW= 170
##$RETENTION INDEX=0
##$CONDENSED SPECTRUM=NO
##NPOINTS= 86
##XYDATA=(XY..XY) 1 
    26          3
    27         46
    28         11
    29         28
    30          0
    31          3
    37          0
    38          1
    39         32
    40          1
    41         73
    42         16
    43        999
    44         23
    45         11
    50          0
    51          2
    52          1
    53          9
    54          4
    55         30
    56          5
    57         10
    58        169
    59         17
    63          0
    65          1
    66          1
    67         12
    68          7
    69         29
    70          3
    71        112
    72         10
    73          0
    77          1
    78          0
    79          3
    80          0
    81          3
    82          2
    83          5
    84          3
    85         11
    86          1
    91          0
    92          0
    93          1
    94         29
    95         40
    96          3
    97          7
    98          1
    99          3
   100          4
   101          0
   106          0
   107          0
   108          0
   109         23
   110          3
   111          1
   112          8
   113         99
   114          6
   115          0
   116          1
   119          0
   123          0
   124          0
   125          0
   126          0
   127          3
   128         25
   129          2
   134          1
   137          3
   138          0
   141          0
   142          0
   152         30
   153          3
   155          3
   156          0
   170          3
   171          0