##TITLE=Library Entry 16837
##JCAMP-DX=Revision 4.10 
##DATA TYPE=MASS SPECTRUM
##SAMPLE DESCRIPTION=Japan AIST/NIMC Database- Spectrum MS-NW-2011
##NAMES=HP
##CAS NAME=2-Undecanol
##MOLFORM=C11H24O
##CAS REGISTRY NO=1653-30-1
##MP= -300
##BP= -300
##MW= 172
##$RETENTION INDEX=1308
##$CONDENSED SPECTRUM=NO
##NPOINTS= 58
##XYDATA=(XY..XY) 1 
    15          4
    18          2
    26          1
    27         43
    28         11
    29         69
    30          2
    31          8
    32          4
    39         22
    40          4
    41        122
    42         43
    43        162
    44         53
    45        999
    46         20
    47          3
    51          1
    53          6
    54         10
    55        141
    56         94
    57        130
    58         20
    59          7
    67         10
    68          9
    69        114
    70         92
    71         52
    72          3
    81          6
    82         19
    83        121
    84         62
    85         36
    86          2
    95          2
    96          9
    97         76
    98         31
    99          9
   110          5
   111         26
   112         20
   113          2
   124          2
   125         14
   126         41
   127          4
   128          8
   139          1
   154         28
   155          4
   157         19
   158          2
   171          2