##TITLE=Library Entry 62485
##JCAMP-DX=Revision 4.10 
##DATA TYPE=MASS SPECTRUM
##SAMPLE DESCRIPTION=A.A.Kutin, Moscow, Russia
##NAMES=HP
##CAS NAME=1H-1,2,3-Triazole, 5-benzyliminomethyl-4-tert-butyl-
##MOLFORM=C14H18N4
##CAS REGISTRY NO=165397-55-7
##MP= -300
##BP= -300
##MW= 242
##$RETENTION INDEX=0
##$CONDENSED SPECTRUM=NO
##NPOINTS= 139
##XYDATA=(XY..XY) 1 
    37          3
    39        126
    41        151
    42         27
    43         14
    44          2
    46          2
    50         24
    51         57
    52         45
    53         46
    54         20
    55         22
    56         10
    57         45
    58          3
    62         12
    63         38
    65        219
    66         44
    67         28
    68         15
    69         21
    70          3
    71          1
    72          0
    74          5
    75          6
    76         10
    77         50
    78         27
    79         38
    80         27
    81         20
    82         16
    83          3
    84          1
    85          0
    86          2
    87          2
    89         60
    91        999
    92         92
    93         17
    94         29
    95         13
    96         47
    97         17
    98          1
    99          0
   100          0
   101          2
   102         10
   103         14
   104         26
   106        206
   107         26
   108         22
   109          7
   110         10
   111          0
   113          0
   114          1
   115          5
   116          9
   117         11
   118         13
   119          7
   120          9
   121         22
   122         17
   123         33
   124          4
   127          2
   128          6
   129          7
   130         21
   131          6
   132          4
   134         71
   135         45
   136         11
   137         16
   138          4
   139          1
   140          1
   141          2
   142          3
   143          7
   144          4
   145          2
   146          8
   147          0
   151        476
   152         37
   154         10
   155         10
   156         10
   157         23
   158          6
   160          6
   161          1
   165          3
   167          6
   168          2
   169          2
   170          5
   171         11
   172          8
   173          1
   177          2
   179          0
   180          2
   181          6
   182         26
   183          5
   184          3
   185          4
   186          1
   187          0
   194          0
   196         40
   197          8
   199         25
   200         22
   201          2
   210          2
   211          0
   213         14
   214          2
   224          0
   225          1
   227         97
   228         12
   229          0
   241         38
   242         94
   243         12
   244          0