##TITLE=Library Entry 48991
##JCAMP-DX=Revision 4.10 
##DATA TYPE=MASS SPECTRUM
##SAMPLE DESCRIPTION=Chemical Concepts
##NAMES=HP
##CAS NAME=1,5-Cyclooctadiene, 3-(1-methyl-2-propenyl)-
##MOLFORM=C12H18
##CAS REGISTRY NO=16538-88-8
##MP= -300
##BP= -300
##MW= 162
##$RETENTION INDEX=0
##$CONDENSED SPECTRUM=NO
##NPOINTS= 91
##XYDATA=(XY..XY) 1 
    26         10
    27        132
    28         17
    29        115
    30          2
    31          3
    37          1
    38          5
    39        174
    40         24
    41        158
    42         10
    43          5
    44          0
    45          0
    49          0
    50         11
    51         44
    52         27
    53         87
    54         28
    55         77
    56          5
    57          0
    58          0
    59          2
    62          2
    63         12
    64          3
    65         76
    66         51
    67        111
    68         14
    69          6
    70          1
    71          2
    74          1
    75          1
    76          1
    77        206
    78         79
    79        999
    80        165
    81         55
    82          6
    83          2
    84          2
    87          0
    89          3
    90          1
    91        393
    92         98
    93        377
    94         60
    95         18
    96          6
    97          0
   101          0
   102          3
   103         12
   104          4
   105        115
   106         76
   107        247
   108         44
   109          3
   115          6
   116          2
   117          4
   118          1
   119         30
   120         28
   121         11
   122          0
   127          1
   128          2
   129          1
   130          0
   131          1
   132          0
   133         51
   134         46
   135          6
   136          0
   145          0
   147         29
   148          3
   149          0
   161          0
   162          7
   163          1