##TITLE=Library Entry 68030
##JCAMP-DX=Revision 4.10 
##DATA TYPE=MASS SPECTRUM
##SAMPLE DESCRIPTION=D.HENNEBERG, MAX-PLANCK INSTITUTE, MULHEIM, WEST GERMAN
Y
##NAMES=HP
##CAS NAME=1,4-Methanonaphthalene, 6,7-diethyldecahydro-, cis-
##MOLFORM=C15H26
##CAS REGISTRY NO=16539-02-9
##MP= -300
##BP= -300
##MW= 206
##$RETENTION INDEX=0
##$CONDENSED SPECTRUM=NO
##NPOINTS= 138
##XYDATA=(XY..XY) 1 
    25          1
    26         12
    27        138
    28         48
    29        198
    30          4
    34          0
    35          1
    36          1
    37          6
    39        155
    40         20
    41        597
    42         53
    43        205
    44          9
    45          1
    47          0
    48          2
    49          1
    50          5
    51         25
    52         12
    53        133
    54         61
    55        553
    56         52
    57         96
    58         11
    60          2
    62          3
    63          6
    64          8
    65         74
    66        162
    67        723
    68         85
    69        344
    70         37
    71         41
    72          4
    73          3
    74          1
    75          4
    76          4
    77        139
    78         31
    79        341
    80        103
    81        525
    82         69
    83        337
    84         30
    85          7
    86          2
    88          0
    89          3
    91        130
    92         33
    93        208
    94         69
    95        999
    96        132
    97        153
    98         17
    99          2
   100          0
   101          0
   103         10
   104          5
   105         27
   106         21
   107        125
   108        157
   109        660
   110         83
   111         27
   112          1
   113          1
   114          2
   115          5
   116          0
   117         10
   119          7
   120          8
   121        237
   122         45
   123        223
   124         33
   125          2
   126          0
   128          2
   129          1
   131          1
   132          1
   133          3
   134          3
   135        150
   136         84
   137        537
   138        137
   139         24
   140          2
   143          0
   145          4
   146          0
   147          6
   148          3
   149         37
   150         35
   151          8
   153          4
   156          1
   161          0
   162          1
   163         24
   164         14
   165        121
   166         16
   171          1
   175          4
   176          9
   177        557
   178         87
   179          5
   180          0
   191          5
   192          0
   194          2
   196          2
   197          0
   198          0
   200          1
   201          0
   203          0
   206        180
   207         22
   208          5