##TITLE=Library Entry 16848
##JCAMP-DX=Revision 4.10 
##DATA TYPE=MASS SPECTRUM
##SAMPLE DESCRIPTION=Japan AIST/NIMC Database- Spectrum MS-NW-5155
##NAMES=HP
##CAS NAME=2-Tridecanol
##MOLFORM=C13H28O
##CAS REGISTRY NO=1653-31-2
##MP= -300
##BP= -300
##MW= 200
##$RETENTION INDEX=1510
##$CONDENSED SPECTRUM=NO
##NPOINTS= 84
##XYDATA=(XY..XY) 1 
    15          5
    17          2
    18          7
    26          2
    27         54
    28          8
    29         95
    30          3
    31          9
    32          1
    39         31
    40          7
    41        186
    42         52
    43        218
    44         49
    45        999
    46         23
    47          3
    51          1
    52          1
    53         11
    54         15
    55        180
    56        107
    57        188
    58         19
    59          9
    65          2
    66          2
    67         20
    68         16
    69        139
    70         95
    71         80
    72          5
    77          2
    79          2
    80          1
    81         11
    82         25
    83        114
    84         62
    85         48
    86          3
    87          1
    91          1
    93          1
    95          6
    96         15
    97        104
    98         42
    99         11
   100          1
   105          4
   106          2
   109          3
   110          9
   111         61
   112         28
   113          8
   114          1
   119          1
   121          1
   123          1
   124          4
   125         25
   126         14
   127          5
   138          3
   139          7
   140         11
   141          2
   152          1
   153          4
   154         25
   155          4
   156          8
   157          1
   182         17
   183          3
   185         15
   186          2
   199          2