##TITLE=Library Entry 16819
##JCAMP-DX=Revision 4.10 
##DATA TYPE=MASS SPECTRUM
##SAMPLE DESCRIPTION=NIST Mass Spectrometry Data Center, 1994
##NAMES=HP
##CAS NAME=2-Pentadecanol
##MOLFORM=C15H32O
##CAS REGISTRY NO=1653-34-5
##MP= -300
##BP= -300
##MW= 228
##$RETENTION INDEX=1710
##$CONDENSED SPECTRUM=NO
##NPOINTS= 75
##XYDATA=(XY..XY) 1 
    15          9
    18          3
    27         87
    28         21
    29        184
    30          2
    39         58
    40         14
    41        339
    42         79
    43        395
    44         60
    45        999
    46         22
    47          2
    51          1
    52          1
    53         17
    54         24
    55        214
    56         90
    57        207
    58         72
    59         22
    65          3
    66          2
    67         33
    68         21
    69        131
    70         72
    71        112
    72          6
    77          1
    79          4
    80          1
    81         17
    82         33
    83        104
    84         39
    85         49
    86          3
    87          1
    95          8
    96         23
    97         99
    98         29
    99         11
   109          2
   110         12
   111         51
   112         20
   113          6
   123          1
   124          6
   125         25
   126         12
   127          4
   138          3
   139          9
   140          7
   141          1
   152          1
   153          3
   154          3
   155          1
   166          1
   167          2
   168          4
   181          1
   182          8
   183          1
   184          2
   210          5
   211          1
   213          5