##TITLE=Library Entry 32742
##JCAMP-DX=Revision 4.10 
##DATA TYPE=MASS SPECTRUM
##SAMPLE DESCRIPTION=Chemical Concepts
##NAMES=HP
##CAS NAME=2,6-Cyclooctadiene-1-carboxylic acid, 4-methyl-, ethyl ester
##MOLFORM=C12H18O2
##CAS REGISTRY NO=16539-13-2
##MP= -300
##BP= -300
##MW= 194
##$RETENTION INDEX=0
##$CONDENSED SPECTRUM=NO
##NPOINTS= 139
##XYDATA=(XY..XY) 1 
    25          1
    26         28
    27        429
    28         18
    29        812
    30         21
    31         16
    32          9
    34          1
    35          0
    36          0
    37          3
    38         20
    39        404
    40         67
    41        540
    42         37
    43        294
    44          6
    45         33
    46          4
    47         11
    48          2
    49          1
    50         29
    51        115
    52         70
    53        214
    54        117
    55        467
    56         34
    57         37
    58         12
    59          5
    60          6
    61          6
    62          9
    63         36
    64         13
    65        169
    66        247
    67        999
    68        124
    69         42
    70         17
    71         32
    72          7
    73         84
    74         18
    75         26
    76          8
    77        361
    78        189
    79        850
    80        120
    81        325
    82         37
    83         47
    84         53
    85         19
    86         33
    87          8
    88         15
    89         19
    90          7
    91        352
    92        153
    93        631
    94        386
    95        355
    96         54
    97        826
    98         55
    99         24
   100          6
   101         67
   102         20
   103         36
   104         18
   105        295
   106        148
   107         77
   108         10
   109         12
   110         13
   111        223
   112        237
   113         21
   114         50
   115         17
   116          9
   117         15
   118          9
   119        122
   120        629
   121        772
   122         76
   123         41
   124         13
   125        684
   126         51
   127         12
   128          4
   129          3
   130          2
   131          6
   132          4
   133         40
   134          4
   136          2
   137         24
   138         78
   139        243
   140        647
   141         58
   142          3
   145          2
   146          1
   147         26
   148        240
   149         52
   150         11
   151         23
   152         36
   153         14
   161          1
   165         55
   166         18
   167          1
   172          0
   178          0
   179         20
   180          2
   190          1
   191          0
   193          4
   194        114
   195         12
   197          1