##TITLE=Library Entry 88341
##JCAMP-DX=Revision 4.10 
##DATA TYPE=MASS SPECTRUM
##SAMPLE DESCRIPTION=A.A.Kutin, Moscow, Russia
##NAMES=HP
##CAS NAME=1,2,3-Triazole, 4-tert-butyl-5-(4-fluorophenyliminomethyl)-
##MOLFORM=C13H15FN4
##CAS REGISTRY NO=165397-57-9
##MP= -300
##BP= -300
##MW= 246
##$RETENTION INDEX=0
##$CONDENSED SPECTRUM=NO
##NPOINTS= 165
##XYDATA=(XY..XY) 1 
    37          3
    38         10
    39         50
    41        105
    42         24
    43         14
    44          1
    45          2
    49          3
    50         35
    51         41
    52         62
    53         56
    54         33
    55         41
    56         35
    57        117
    58          8
    59          0
    61         11
    62         18
    63         39
    64         38
    65         57
    66         63
    67         53
    68         67
    69         82
    70         18
    71          3
    72          1
    73          6
    75        365
    76         42
    77         47
    78         77
    79         62
    80         79
    81        105
    82        123
    83        143
    84        106
    85          9
    86          3
    87          7
    88          6
    89         13
    90         13
    91         50
    92        127
    93        104
    94        125
    95        764
    96        188
    97         19
    98          3
    99          3
   100          8
   101         26
   103          3
   104          6
   106        122
   107        183
   108        245
   109        111
   110        178
   111        999
   112         76
   113          5
   114          5
   115         23
   116         19
   117          3
   120        157
   122        457
   123         58
   124         23
   125          3
   126          1
   127          3
   128          3
   129          3
   130          2
   132         15
   133         45
   134        111
   135        201
   136        260
   137         42
   138         14
   139         13
   140          6
   141          4
   142          1
   143          1
   145         14
   146         18
   147         25
   148         56
   149         25
   150         14
   151          9
   152          3
   153          0
   154          2
   155          2
   156          2
   157          1
   158          6
   159         12
   160         39
   161        161
   162         58
   163         17
   164         13
   165          2
   166          1
   167          2
   168          1
   169          1
   170          0
   171          1
   172          3
   173          6
   174         13
   175         30
   176         26
   177          6
   178          2
   179          1
   180          3
   181          3
   182          4
   183          6
   185         17
   186         28
   187         49
   188         13
   189          8
   190          5
   191          3
   197          0
   198          0
   199          5
   200         10
   201         29
   202         34
   203        161
   204         66
   205          8
   209          1
   210          1
   215          8
   217         77
   218         14
   219          1
   221          0
   227          1
   228          3
   231        491
   232         55
   233          3
   246        410
   247         51
   248          3