##TITLE=Library Entry 66074
##JCAMP-DX=Revision 4.10 
##DATA TYPE=MASS SPECTRUM
##SAMPLE DESCRIPTION=A.A.Kutin, Moscow, Russia
##NAMES=HP
##CAS NAME=1H-1,2,3-Triazole, 4-tert-butyl-5-phenyliminomethyl-
##MOLFORM=C13H16N4
##CAS REGISTRY NO=165397-56-8
##MP= -300
##BP= -300
##MW= 228
##$RETENTION INDEX=0
##$CONDENSED SPECTRUM=NO
##NPOINTS= 173
##XYDATA=(XY..XY) 1 
    33          1
    34          2
    37         32
    38         79
    39        338
    40         83
    41        434
    42        118
    43         93
    44          9
    45          5
    46          8
    47          5
    50        144
    51        444
    52        144
    53        114
    54         66
    55         76
    56         31
    57         95
    58         10
    59          3
    60          2
    61          9
    62         23
    63         61
    64         48
    65        156
    66        182
    67         71
    68         63
    69         49
    70          7
    71          7
    72          3
    73          5
    74         25
    75         29
    77        961
    78        163
    79         76
    80         73
    81         67
    82         84
    83         21
    84          9
    85         10
    86          3
    87          4
    88          9
    89         45
    90         43
    91         87
    92        217
    93        999
    94        104
    95         24
    96         76
    97         13
    99         54
   101          3
   102         10
   104        272
   105         58
   106        124
   107         90
   108         81
   109         13
   110          7
   111          2
   112          0
   113          1
   114          9
   115         31
   116         53
   117         74
   118         45
   119         31
   120         88
   121         19
   122          6
   123         28
   124          4
   125          1
   127          7
   128         13
   129         18
   130         45
   131         24
   132         17
   133          9
   134         38
   135         80
   136         95
   137         10
   138          1
   139          3
   140         13
   141         86
   142         40
   143        160
   144         54
   145         18
   146          5
   147          3
   148          1
   149          2
   150          1
   151         10
   152          2
   153          4
   154          5
   155          8
   156         14
   157         39
   158         34
   159         10
   160          2
   161          1
   162          1
   163          1
   164          0
   165          1
   166          3
   167         15
   168         32
   169         60
   170         15
   171         14
   172          7
   173          7
   174          1
   175          3
   176          1
   177          0
   179          0
   180          2
   181          5
   182         16
   183         35
   184         33
   185        220
   186        105
   187         12
   188          1
   189          0
   193          0
   194          0
   196          7
   197          9
   199        111
   200         29
   201          3
   202          0
   203          0
   204          0
   205          0
   207          0
   208          1
   210          8
   211         17
   213        571
   214         79
   215          6
   216          0
   223          0
   224          1
   228        600
   229         83
   230         16
   231          2
   232          0