##TITLE=Library Entry 32743
##JCAMP-DX=Revision 4.10 
##DATA TYPE=MASS SPECTRUM
##SAMPLE DESCRIPTION=Chemical Concepts
##NAMES=HP
##CAS NAME=1,5-Cyclooctadiene, 1-ethyl-
##MOLFORM=C10H16
##CAS REGISTRY NO=16539-10-9
##MP= -300
##BP= -300
##MW= 136
##$RETENTION INDEX=0
##$CONDENSED SPECTRUM=NO
##NPOINTS= 74
##XYDATA=(XY..XY) 1 
    26          7
    27        143
    29         63
    30          1
    37          2
    38          9
    39        215
    40         35
    41        263
    42         26
    43         14
    44          0
    45          0
    49          0
    50         17
    51         52
    52         31
    53        126
    54        167
    55         72
    56          7
    57          1
    58          3
    59          1
    60          0
    61          1
    62          5
    63         18
    64          5
    65         65
    66         55
    67        999
    68         67
    69         15
    70          1
    74          3
    75          4
    76          2
    77        103
    78         41
    79        437
    80        153
    81        132
    82        347
    83         21
    84          1
    86          1
    87          0
    89          3
    90          1
    91         99
    92         17
    93        151
    94         47
    95        213
    96         16
   102          1
   103          8
   104          2
   105         24
   106         11
   107        381
   108        123
   109          9
   115          3
   116          1
   117          3
   119          2
   120          0
   121         82
   122          9
   135          3
   136         87
   137         10