##TITLE=Library Entry 2632
##JCAMP-DX=Revision 4.10 
##DATA TYPE=MASS SPECTRUM
##SAMPLE DESCRIPTION=T. REICHENBACH
##NAMES=HP
##CAS NAME=1-Hexene, 1-iodo-, (Z)-
##MOLFORM=C6H11I
##CAS REGISTRY NO=16538-47-9
##MP= -300
##BP= -300
##MW= 210
##$RETENTION INDEX=0
##$CONDENSED SPECTRUM=NO
##NPOINTS= 67
##XYDATA=(XY..XY) 1 
    14          7
    15         40
    17          4
    18         15
    25          3
    26         65
    27        529
    28        100
    29        210
    30          4
    36          1
    37         21
    38         58
    39        517
    40        104
    41        999
    42         67
    43        369
    44         12
    49          5
    50         35
    51         63
    52         32
    53        142
    54         90
    55        556
    57         11
    61          4
    62          6
    63          9
    64          2
    65         13
    66          9
    67         37
    68         10
    69          1
    73          4
    74          3
    75          1
    77          6
    78          2
    79          6
    81         13
    82          4
    83        108
    84          7
    85          9
   127        152
   128         36
   129          2
   139          2
   140          4
   141         20
   152          6
   153         15
   154        470
   155         16
   165          3
   166          1
   167        217
   168        102
   169         11
   180          2
   181          9
   210        523
   211         35
   212          1