##TITLE=Library Entry 96548
##JCAMP-DX=Revision 4.10 
##DATA TYPE=MASS SPECTRUM
##SAMPLE DESCRIPTION=NIST Mass Spectrometry Data Center, 1994
##NAMES=HP
##CAS NAME=Benzeneacetonitrile, 4-bromo-
##MOLFORM=C8H6BrN
##CAS REGISTRY NO=16532-79-9
##MP= -300
##BP= -300
##MW= 195
##$RETENTION INDEX=0
##$CONDENSED SPECTRUM=NO
##NPOINTS= 87
##XYDATA=(XY..XY) 1 
    12          1
    13          2
    14          5
    15          0
    24          1
    25          3
    26         24
    27         17
    28         20
    36          5
    37         52
    38         76
    39        101
    40         18
    41          7
    43         12
    44         13
    48          2
    49         28
    50        172
    51         72
    52         18
    53          2
    58         37
    60          6
    61         51
    62         96
    63        158
    64         44
    65         25
    66          4
    73         15
    74         58
    75         57
    76         40
    77          9
    79         18
    80          6
    81         17
    82          7
    83          1
    84          5
    85         15
    86         24
    87         42
    88         64
    89        313
    90         65
    91          4
    93          4
    95          1
    97          8
    98          8
   100          1
   102          1
   104          2
   105          1
   106          2
   107          1
   110          1
   111          3
   112          2
   114         35
   116        999
   117        100
   118          6
   119          7
   128          2
   129          1
   130          2
   131          2
   141          1
   142          1
   143          3
   145          2
   155          3
   157          2
   167          4
   168          2
   169         11
   170          1
   171          5
   195        201
   196         18
   197        198
   198         18
   199          0