##TITLE=Library Entry 26059
##JCAMP-DX=Revision 4.10 
##DATA TYPE=MASS SPECTRUM
##SAMPLE DESCRIPTION=Chemical Concepts
##NAMES=HP
##CAS NAME=Benzeneacetic acid, 1,1-dimethylethyl ester
##MOLFORM=C12H16O2
##CAS REGISTRY NO=16537-09-0
##MP= -300
##BP= -300
##MW= 192
##$RETENTION INDEX=0
##$CONDENSED SPECTRUM=NO
##NPOINTS= 68
##XYDATA=(XY..XY) 1 
    25          0
    26          2
    27         30
    28          2
    29        164
    30          3
    31          5
    37          1
    38          6
    39         79
    40          7
    41        223
    42         10
    43         28
    44          0
    45          1
    50          6
    51         22
    52          7
    53          4
    54          0
    55          9
    56         13
    57        999
    58         53
    59          8
    60          0
    61          0
    62          5
    63         22
    64          8
    65         91
    66          5
    73          0
    74          0
    75          0
    76          1
    77          3
    78          0
    79          3
    86          0
    87          0
    88          0
    89         23
    90         20
    91        468
    92        179
    93         12
    94          0
   101          1
   105          0
   107          1
   118          3
   119         81
   120          7
   121          0
   135          0
   136          5
   137          0
   149          0
   164          6
   165          0
   167          0
   177         26
   178          2
   192        115
   193         15
   194          1