##TITLE=Library Entry 36027
##JCAMP-DX=Revision 4.10 
##DATA TYPE=MASS SPECTRUM
##SAMPLE DESCRIPTION=D.HENNEBERG, MAX-PLANCK INSTITUTE, MULHEIM, WEST GERMAN
Y
##NAMES=HP
##CAS NAME=Cyclooctane, butyl-
##MOLFORM=C12H24
##CAS REGISTRY NO=16538-93-5
##MP= -300
##BP= -300
##MW= 168
##$RETENTION INDEX=0
##$CONDENSED SPECTRUM=NO
##NPOINTS= 30
##XYDATA=(XY..XY) 1 
    27         65
    28        124
    29        137
    32         14
    39         66
    40          4
    41        362
    42         82
    43        190
    53         25
    54         48
    55        566
    56        182
    57        133
    67         73
    68         51
    69        999
    70        160
    71         17
    81         29
    82         81
    83        131
    84         44
    95          6
    96          6
    97         57
    98         17
   110         28
   111        721
   112         58