##TITLE=Library Entry 2710
##JCAMP-DX=Revision 4.10 
##DATA TYPE=MASS SPECTRUM
##SAMPLE DESCRIPTION=M.C. HAMMING CONTINENTAL OIL CO., PONCA CITY, OKLA, USA
##NAMES=HP
##CAS NAME=1-Heptanol, 6-methyl-
##MOLFORM=C8H18O
##CAS REGISTRY NO=1653-40-3
##MP= -300
##BP= -300
##MW= 130
##$RETENTION INDEX=1524
##$CONDENSED SPECTRUM=NO
##NPOINTS= 81
##XYDATA=(XY..XY) 1 
    13          2
    14         10
    15         80
    16          6
    17         12
    18         39
    19         15
    24          2
    25          2
    26         31
    27        464
    28         91
    29        500
    30         20
    31        425
    32          4
    33          3
    37          8
    38         19
    39        320
    40         63
    41        999
    42        275
    43        928
    44         60
    45         85
    46          6
    47          1
    49          2
    50         11
    51         23
    52         11
    53         74
    54         35
    55        939
    56        734
    57        805
    58         42
    59         22
    60          4
    61          2
    62          2
    63          5
    64          2
    65         10
    66          8
    67         47
    68         74
    69        840
    70        466
    71        129
    72         15
    73         31
    74          4
    75          2
    77          6
    78          2
    79          6
    80          2
    81         14
    82         27
    83        359
    84        476
    85         79
    86          6
    87         57
    88          4
    91          1
    95          4
    96          3
    97         98
    98         23
    99         21
   100          2
   101          5
   110          1
   111          8
   112         23
   113          3
   115          4
   130          2