##TITLE=Library Entry 13091
##JCAMP-DX=Revision 4.10 
##DATA TYPE=MASS SPECTRUM
##SAMPLE DESCRIPTION=Exported from NIST MS Search
##NAMES=HP
##CAS NAME=Decanoic acid, decyl ester
##MOLFORM=C20H40O2
##CAS REGISTRY NO=1654-86-0
##MP= -300
##BP= -300
##MW= 312
##$RETENTION INDEX=2129
##$CONDENSED SPECTRUM=NO
##NPOINTS= 109
##XYDATA=(XY..XY) 1 
    15         26
    17          8
    18         23
    19          3
    26         23
    27        142
    28         77
    29        311
    30         11
    31         26
    36         11
    39         74
    40         20
    41        617
    42        222
    43        999
    44         29
    45         40
    51          4
    52          4
    53         25
    54         65
    55        616
    56        400
    57        681
    58         35
    59         29
    60         88
    61        262
    62         59
    65          8
    66         10
    67         74
    68        133
    69        400
    70        388
    71        385
    72         19
    73        148
    74         17
    77         10
    79         14
    80          5
    81         63
    82        186
    83        361
    84        303
    85        266
    86         17
    87         50
    88         10
    89         25
    93         10
    94          5
    95         44
    96         81
    97        317
    98        202
    99         29
   100          7
   101         29
   102          8
   103         25
   109         11
   110         44
   111        202
   112        237
   113         29
   114          7
   115         38
   116         37
   117         10
   125         14
   126          8
   127          7
   128          3
   129        103
   130         10
   131          3
   135         10
   136          4
   137         10
   138         10
   139         10
   140        696
   141         74
   142          7
   143         19
   152          8
   153         11
   154          8
   155        285
   156         26
   157          8
   171         11
   172        152
   173        992
   174        114
   175         10
   185         37
   186          7
   200         11
   201         11
   213         14
   227          3
   228         11
   269          3
   312         59
   313         11