##TITLE=Library Entry 82754
##JCAMP-DX=Revision 4.10 
##DATA TYPE=MASS SPECTRUM
##SAMPLE DESCRIPTION=Chemical Concepts
##NAMES=HP
##CAS NAME=7-Isopropylidenebicyclo[2.2.1]hept-5-en-2-one p-toluenesulfonylhy
drazone
##MOLFORM=C17H20N2O2S
##CAS REGISTRY NO=165401-76-3
##MP= -300
##BP= -300
##MW= 316
##$RETENTION INDEX=0
##$CONDENSED SPECTRUM=NO
##NPOINTS= 133
##XYDATA=(XY..XY) 1 
    38          2
    39         78
    40          9
    41         91
    42         10
    43          8
    44          1
    45          2
    48          1
    50          6
    51         31
    52         14
    53         30
    54          5
    55         38
    56          4
    57          3
    58          1
    59          0
    61          0
    62          3
    63         22
    64         11
    65        125
    66         20
    67         13
    68          2
    69          3
    70          2
    71          1
    73          0
    74          1
    75          4
    76          4
    77         86
    78         52
    79         65
    80         10
    81          5
    82          2
    83          2
    84          0
    85          1
    86          0
    87          1
    88          2
    89         28
    90         18
    91        542
    92         65
    93         25
    94          5
    95          4
    96          1
    97          4
    98          1
    99          0
   100          0
   101          2
   102          9
   103         35
   104         30
   105         95
   106        999
   107        119
   108         10
   109          2
   110          1
   111          2
   112          1
   113          3
   114          3
   115         79
   116         41
   117        173
   118         28
   119        189
   120         37
   121         12
   122          2
   123          2
   124          1
   125          0
   126          1
   127         10
   128         11
   129         15
   130         16
   131         57
   132         98
   133         22
   134         22
   135         11
   136          1
   137          0
   138          0
   139         40
   140         15
   141          3
   142          3
   143          8
   144         23
   145         16
   146        254
   147         33
   148          3
   149          2
   152          0
   155         23
   156          3
   157          3
   158          0
   159          5
   160         18
   161        135
   162         19
   163         27
   164          3
   165          1
   171          1
   177         13
   178          1
   210          1
   237          1
   250          0
   251          2
   252          2
   301          2
   302          0
   316         30
   317          7
   318          4
   319          0