##TITLE=Library Entry 19930
##JCAMP-DX=Revision 4.10 
##DATA TYPE=MASS SPECTRUM
##SAMPLE DESCRIPTION=Japan AIST/NIMC Database- Spectrum MS-NW-8267
##NAMES=HP
##CAS NAME=Propanoic acid, 3,3'-thiobis-, ditetradecyl ester
##MOLFORM=C34H66O4S
##CAS REGISTRY NO=16545-54-3
##MP= -300
##BP= -300
##MW= 570
##$RETENTION INDEX=0
##$CONDENSED SPECTRUM=NO
##NPOINTS= 279
##XYDATA=(XY..XY) 1 
    15          1
    17          2
    18          7
    25          1
    26         11
    27         92
    28         53
    29        129
    30          3
    31          6
    32          6
    33          5
    34         12
    35          5
    36         17
    38          6
    39         28
    40          7
    41        314
    42         96
    43        722
    44         29
    45         10
    46          4
    47          7
    51          1
    52          1
    53         15
    54         64
    55        999
    56        352
    57        858
    58         39
    59          7
    60         29
    61         51
    62          3
    63          4
    65          2
    66          9
    67         97
    68        145
    69        567
    70        341
    71        467
    72         35
    73        360
    74         56
    75         26
    76          2
    77          5
    78          1
    79          8
    80          7
    81         72
    82        203
    83        554
    84        230
    85        269
    86         20
    87         31
    88         89
    89        232
    90         13
    91         13
    92          1
    93          5
    94          6
    95         54
    96        116
    97        418
    98        142
    99         76
   100         15
   101         13
   102          8
   103         10
   104          7
   105         93
   106        182
   107        107
   108         15
   109         38
   110         70
   111        220
   112         91
   113        121
   114         77
   115         42
   116         15
   117         21
   118          2
   119         48
   120          6
   121          9
   122          6
   123         26
   124         47
   125        113
   126         60
   127        121
   128         29
   129         14
   130          7
   131          3
   132        197
   133         52
   134         36
   135         17
   136          5
   137         18
   138         26
   139         52
   140         35
   141         37
   142        110
   143        433
   144         43
   145         24
   146          3
   147          4
   148          1
   149          3
   150          3
   151         10
   152         15
   153         24
   154         18
   155         15
   156          7
   157          9
   158          5
   159         33
   160         57
   161        307
   162         26
   163         16
   164          3
   165          8
   166         11
   167         13
   168         48
   169         12
   170          4
   171          7
   172          3
   173          1
   174          1
   175          3
   176          1
   177          9
   178        482
   179        132
   180         34
   181          9
   182          5
   183          5
   184          3
   185          6
   186          2
   187          1
   189          3
   191          2
   192          2
   193          7
   194         42
   195         11
   196         70
   197         41
   198          6
   199          4
   200          2
   201          2
   202          2
   203          2
   206          3
   207          3
   208          4
   209          4
   210          1
   211          4
   212          1
   213          4
   214          1
   215          3
   216          2
   217          2
   221          4
   222          6
   223          4
   224          2
   225          3
   226          3
   227          4
   228          7
   229         55
   230         10
   231          6
   232          3
   233          1
   238          1
   239          9
   240          3
   241         26
   242          5
   243          6
   244          2
   245          3
   246          1
   249          2
   250         15
   251         33
   252          6
   253          1
   254          5
   255          4
   256          2
   257          5
   258          2
   259          2
   265          1
   266          1
   267          4
   268         11
   269         93
   270         17
   271          6
   272          2
   273          3
   283          4
   284         10
   285          6
   286          2
   287          1
   296          1
   297          3
   298          1
   299         13
   300          4
   301         56
   302         49
   303         15
   304          4
   313          1
   315          2
   316          1
   327          2
   328         24
   329          9
   330          3
   338          3
   340          3
   341          2
   346          1
   354          1
   355         20
   356         55
   357        176
   358         41
   359         13
   360          3
   373          2
   374        244
   375         93
   376         26
   377          6
   429          1
   497         16
   498          8
   499          3
   542          2
   552          9
   553          3
   554          1
   555          1
   570        191
   571         76
   572         24
   573          4