##TITLE=Library Entry 30858
##JCAMP-DX=Revision 4.10 
##DATA TYPE=MASS SPECTRUM
##SAMPLE DESCRIPTION=A.A.Kutin, Moscow, Russia
##NAMES=HP
##CAS NAME=Ethanone, 2-(4-bromophenyl)-, thiosemicarbazone
##MOLFORM=C9H10BrN3S
##CAS REGISTRY NO=16546-06-8
##MP= -300
##BP= -300
##MW= 271
##$RETENTION INDEX=0
##$CONDENSED SPECTRUM=NO
##NPOINTS= 115
##XYDATA=(XY..XY) 1 
    33        164
    34         33
    35          5
    37         10
    38         22
    39         36
    40         14
    41         53
    42        165
    43        395
    45         55
    46         40
    47         47
    48         39
    49         10
    50         89
    51         65
    52         12
    53          6
    54          2
    55          1
    56          3
    57          7
    58         39
    59        215
    60        999
    62        107
    63         31
    64          7
    65          7
    66          1
    69          1
    70          1
    71          0
    72          3
    74         61
    75         63
    76         50
    77         51
    78         10
    79         10
    80          1
    81         10
    82          0
    85          1
    86          4
    87          6
    88          2
    89          5
    90          7
    91         47
    92          5
    93          2
    97          0
    98          6
    99          2
   100          1
   101          7
   102         37
   103         30
   104          8
   105          1
   106          2
   107          1
   108          0
   109          0
   115          0
   116          7
   117          4
   118          1
   119          2
   125          0
   128          1
   130          1
   131         18
   132         19
   133          4
   143          0
   145          0
   150          0
   154          0
   155         38
   156          1
   157         39
   158          0
   169          0
   171          0
   172          1
   181          2
   182          4
   183          3
   184          4
   195          2
   196          2
   197          5
   198          3
   199          2
   200          1
   209          0
   211          3
   212          1
   213          2
   214          1
   229          0
   238          0
   240          0
   254          1
   256          9
   257          1
   258          7
   259          0
   271          4
   272          1
   273          3
   274          0