##TITLE=Library Entry 107914
##JCAMP-DX=Revision 4.10 
##DATA TYPE=MASS SPECTRUM
##SAMPLE DESCRIPTION=Chemical Concepts
##NAMES=HP
##CAS NAME=Cyclohexanecarboxylic acid, 2-oxo-, ethyl ester
##MOLFORM=C9H14O3
##CAS REGISTRY NO=1655-07-8
##MP= -300
##BP= -300
##MW= 170
##$RETENTION INDEX=0
##$CONDENSED SPECTRUM=NO
##NPOINTS= 73
##XYDATA=(XY..XY) 1 
    26         45
    27        300
    28         77
    29        280
    30         10
    31        156
    37          8
    38         23
    39        225
    40        127
    41        382
    42        133
    43        101
    44         25
    45        101
    46         28
    50         10
    51         28
    52         14
    53         76
    54         57
    55        505
    56         30
    57         28
    60         21
    61         14
    63          7
    65         30
    66         26
    67        177
    68        784
    69        186
    70         61
    71         26
    73        145
    77         30
    78         10
    79         76
    80         13
    81         48
    82         21
    83         98
    84         11
    85         10
    86        147
    87         13
    88         54
    91         10
    94          8
    95         96
    96        262
    97        128
    98         37
    99         45
   101        148
   102          9
   105         13
   111          6
   113         20
   114        269
   115         29
   123        166
   124        999
   125        396
   126         33
   127         15
   141        119
   142        247
   143         23
   148         15
   155          5
   170        426
   171         45