##TITLE=Library Entry 31366
##JCAMP-DX=Revision 4.10 
##DATA TYPE=MASS SPECTRUM
##SAMPLE DESCRIPTION=Japan AIST/NIMC Database- Spectrum MS-NW-9107
##NAMES=HP
##CAS NAME=DL-Methionine, N-(2,4-dinitrophenyl)-
##MOLFORM=C11H13N3O6S
##CAS REGISTRY NO=1655-53-4
##MP= -300
##BP= -300
##MW= 315
##$RETENTION INDEX=0
##$CONDENSED SPECTRUM=NO
##NPOINTS= 256
##XYDATA=(XY..XY) 1 
    12          2
    14          2
    15          8
    16          8
    17          4
    18         16
    26          7
    27         59
    28         67
    29         30
    30         40
    31          2
    32          3
    33          2
    34          2
    35         47
    36          3
    37          6
    38         13
    39         50
    40         11
    41        110
    42         15
    43         24
    44        277
    45         71
    46         25
    47        125
    48        114
    49         19
    50         23
    51         31
    52         41
    53         22
    54         24
    55        126
    56        219
    57         31
    58          6
    59         18
    60          9
    61        999
    62         55
    63        106
    64         46
    65         22
    66         23
    67         15
    68         10
    69          8
    70         14
    71          6
    72          5
    73         13
    74        308
    75        299
    76         75
    77         61
    78         58
    79         28
    80         22
    81         16
    82         30
    83         21
    84          4
    85          9
    86          9
    87         61
    88         13
    89         33
    90         48
    91         56
    92         18
    93         20
    94         14
    95          7
    96          9
    97          4
    98         22
    99          5
   100         40
   101         29
   102         29
   103         71
   104         56
   105         43
   106         17
   107         18
   108          6
   109          2
   110         14
   111          4
   112          5
   113          1
   114         42
   115          9
   116         25
   117         25
   118         49
   119         42
   120         22
   121         21
   122          8
   123          5
   124          8
   125          9
   126          1
   127          1
   128         12
   129         35
   130         56
   131         35
   132         26
   133         47
   134         25
   135          8
   136          6
   137         33
   138        611
   139         67
   140          4
   141          3
   142         12
   143         38
   144         99
   145         35
   146         18
   147         18
   148         24
   149         50
   150         11
   151         10
   152         37
   153         34
   154          4
   155          2
   156          4
   157          3
   158          6
   159         26
   160         30
   161         12
   162          9
   163         14
   164         68
   165         17
   166         31
   167        230
   168         36
   169         15
   170          3
   171          2
   172          4
   173         10
   174         24
   175         56
   176        116
   177         42
   178         30
   179         68
   180         32
   181         95
   182         16
   183         21
   184          3
   185          1
   186          2
   187          6
   188         14
   189         77
   190        225
   191        135
   192         41
   193         10
   194         13
   195         21
   196         63
   197          7
   198          2
   199          1
   200          1
   201          2
   202          7
   203          6
   204         16
   205         43
   206         75
   207         59
   208         25
   209         83
   210         11
   211          5
   212          1
   213          1
   215          1
   216          3
   217          6
   218          9
   219         10
   220         23
   221         16
   222        266
   223         51
   224         25
   225         49
   226          7
   227          7
   228          1
   230          2
   231          3
   232          3
   233         14
   234         10
   235         27
   236         28
   237         41
   238         53
   239          9
   240         13
   241        110
   242         11
   243          2
   246          1
   247          1
   248          2
   249          2
   250         20
   251          6
   252         72
   253         31
   254         17
   255          6
   256          1
   263          1
   264          2
   265          2
   266          3
   267          7
   268         11
   269          6
   270         22
   271          3
   272          1
   278          1
   279          2
   280          2
   281          1
   282          4
   283          1
   285          1
   298          7
   299          3
   300          1
   315          5
   316          4
   317          1