##TITLE=Library Entry 79216
##JCAMP-DX=Revision 4.10 
##DATA TYPE=MASS SPECTRUM
##SAMPLE DESCRIPTION=Japan AIST/NIMC Database- Spectrum MS-NW-7248
##NAMES=HP
##CAS NAME=Acetic acid, (benzoylamino)hydroxy-
##MOLFORM=C9H9NO4
##CAS REGISTRY NO=16555-77-4
##MP= -300
##BP= -300
##MW= 195
##$RETENTION INDEX=0
##$CONDENSED SPECTRUM=NO
##NPOINTS= 73
##XYDATA=(XY..XY) 1 
    12          2
    13          2
    16          3
    17         12
    18         55
    19          1
    25          1
    26          5
    27         17
    28         45
    29        197
    30        123
    31          2
    32          1
    36          1
    37         15
    38         23
    39         28
    40          3
    41          5
    42          1
    43          3
    44         65
    45        112
    46         47
    47          3
    48          1
    49          9
    50        116
    51        260
    52         38
    53          7
    54          1
    56         13
    57          1
    60          2
    61          7
    62          7
    63          9
    64          4
    65         12
    66          4
    67          1
    72          1
    73         10
    74         49
    75         29
    76         45
    77        781
    78         98
    79          7
    90          1
    91          2
    92          4
    93          2
   102          2
   103          9
   104         21
   105        999
   106        137
   107          9
   120          1
   121        578
   122         49
   123          4
   133          2
   134          1
   135          2
   148          5
   149         73
   150         36
   151          4
   179          1