##TITLE=Library Entry 85870
##JCAMP-DX=Revision 4.10 
##DATA TYPE=MASS SPECTRUM
##SAMPLE DESCRIPTION=Exported from NIST MS Search
##NAMES=HP
##CAS NAME=1-Propanone, 1-(1-cyclohexen-1-yl)-
##MOLFORM=C9H14O
##CAS REGISTRY NO=1655-03-4
##MP= -300
##BP= -300
##MW= 138
##$RETENTION INDEX=1620
##$CONDENSED SPECTRUM=NO
##NPOINTS= 11
##XYDATA=(XY..XY) 1 
    39         70
    41        100
    53        160
    57         90
    77         90
    79        300
    81        929
    82         60
   109        999
   110         70
   138        140