##TITLE=Library Entry 65039
##JCAMP-DX=Revision 4.10 
##DATA TYPE=MASS SPECTRUM
##SAMPLE DESCRIPTION=Japan AIST/NIMC Database- Spectrum MS-NW-5367
##NAMES=HP
##CAS NAME=3,3'-Dipicolylamine
##MOLFORM=C12H13N3
##CAS REGISTRY NO=1656-94-6
##MP= -300
##BP= -300
##MW= 199
##$RETENTION INDEX=0
##$CONDENSED SPECTRUM=NO
##NPOINTS= 136
##XYDATA=(XY..XY) 1 
    14          2
    15          2
    26          9
    27         18
    28         24
    29          3
    30         13
    31          1
    37          5
    38         22
    39        188
    40         14
    41         15
    42          7
    43          8
    44          8
    45          4
    46          2
    49          3
    50         23
    51         59
    52         36
    53         24
    54          6
    55          4
    56          3
    57          7
    58          2
    59          1
    60          1
    61          2
    62          8
    63         39
    64         30
    65        308
    66         37
    67         10
    68          3
    69          2
    70          3
    71          4
    72          1
    73          2
    74          2
    75          5
    76          8
    77         14
    78         32
    79         68
    80        235
    81         16
    82          2
    83          2
    84          2
    85          2
    86          4
    87          1
    88          2
    89          4
    90          4
    91         19
    92        999
    93        301
    94         27
    95          2
    96          1
    97          2
    98          1
    99          1
   101          1
   102          2
   103          2
   104         13
   105         16
   106         14
   107        179
   108         16
   109          1
   111          1
   113          1
   114          2
   115          4
   116          2
   117          4
   118          8
   119        108
   120         17
   121        252
   122         24
   123          2
   127          2
   128          5
   129          2
   130          2
   131          1
   132          2
   133          1
   135          1
   140          2
   141          2
   142          6
   143          2
   144          2
   145          1
   150          1
   153          1
   154          6
   155          3
   156          6
   157          2
   166          1
   167          2
   168          7
   169         27
   170         43
   171          9
   172          3
   177          6
   178          1
   179          1
   180          1
   181         18
   182         28
   183         22
   184        109
   185         15
   186          1
   193          1
   194          1
   195          2
   196         44
   197         12
   198        138
   199        128
   200         19
   201          1