##TITLE=Library Entry 53044
##JCAMP-DX=Revision 4.10 
##DATA TYPE=MASS SPECTRUM
##SAMPLE DESCRIPTION=Chemical Concepts
##NAMES=HP
##CAS NAME=Phosphonic acid, ethyl hexyl ester
##MOLFORM=C8H19O3P
##CAS REGISTRY NO=1656-73-1
##MP= -300
##BP= -300
##MW= 194
##$RETENTION INDEX=0
##$CONDENSED SPECTRUM=NO
##NPOINTS= 95
##XYDATA=(XY..XY) 1 
    26          2
    27         88
    28         13
    29        140
    30          2
    31         30
    38          0
    39         39
    40          2
    41        139
    42         54
    43        100
    44          1
    45         33
    46          1
    47         16
    48          1
    49          2
    51          0
    52          0
    53         10
    54         10
    55         99
    56         92
    57         11
    58          1
    59          1
    60          1
    61          0
    62          0
    63          0
    64          0
    65         99
    66         23
    67         10
    68          3
    69         26
    70          2
    71          2
    72          0
    73          1
    75          1
    77          3
    78          1
    79          2
    80          2
    81          9
    82         23
    83        999
    84          8
    89          0
    91          2
    92         13
    93         14
    94          3
    95          8
    96          8
    97         31
    99          0
   101          0
   102          0
   105          0
   106          0
   107          1
   108          0
   109         33
   110         35
   111        760
   112         15
   113          3
   115          0
   116          0
   119          0
   120          0
   121          1
   123          9
   124          1
   125          0
   129          0
   135          0
   137          6
   138          3
   148          0
   149          1
   151          5
   152          1
   153          0
   165          7
   166          0
   167          2
   179          0
   193          0
   194          0
   195          1
   196          0