##TITLE=Library Entry 78103
##JCAMP-DX=Revision 4.10 
##DATA TYPE=MASS SPECTRUM
##SAMPLE DESCRIPTION=Exported from NIST MS Search
##NAMES=HP
##CAS NAME=1-Isoquinolinecarbonitrile, 2-benzoyl-1,2-dihydro-1-methyl-
##MOLFORM=C18H14N2O
##CAS REGISTRY NO=16576-32-2
##MP= -300
##BP= -300
##MW= 274
##$RETENTION INDEX=0
##$CONDENSED SPECTRUM=NO
##NPOINTS= 21
##XYDATA=(XY..XY) 1 
    39         20
    43         20
    50         80
    51        100
    63         20
    75         20
    76         30
    77         40
    78         30
   101         20
   105        999
   106         80
   115         40
   128         20
   129         20
   143        100
   154         20
   169         20
   259         30
   274         70
   275         10