##TITLE=Library Entry 32197
##JCAMP-DX=Revision 4.10 
##DATA TYPE=MASS SPECTRUM
##SAMPLE DESCRIPTION=Chemical Concepts
##NAMES=HP
##CAS NAME=4a,8a-Epoxynaphthalene, 1,4,5,8-tetrahydro-
##MOLFORM=C10H12O
##CAS REGISTRY NO=16573-72-1
##MP= -300
##BP= -300
##MW= 148
##$RETENTION INDEX=0
##$CONDENSED SPECTRUM=NO
##NPOINTS= 111
##XYDATA=(XY..XY) 1 
    26         12
    27        158
    28         12
    29         25
    30          1
    31          3
    37          7
    38         35
    39        398
    40        100
    41        197
    42         24
    43         25
    44          5
    45          7
    46          4
    49          4
    50         63
    51        180
    52         80
    53        163
    54        132
    55        119
    56          8
    57         50
    58         17
    59          6
    60          4
    61          8
    62         27
    63         87
    64         60
    65        235
    66        999
    67        110
    68         65
    69         25
    70         14
    71          4
    72          5
    73          9
    74         20
    75         24
    76         18
    77        393
    78        203
    79        510
    80        130
    81         64
    82         29
    83         15
    84          2
    85          3
    86          6
    87          8
    88          3
    89         28
    90         14
    91        648
    92        242
    93        528
    94        769
    95         75
    96          7
    97          3
    98          6
   100          2
   101         10
   102         24
   103         88
   104         79
   105        314
   106        103
   107        155
   108         39
   109          6
   110          6
   111          3
   112          1
   113          3
   114          5
   115        162
   116         44
   117        107
   118         23
   120        485
   121         62
   122          6
   123          3
   124          1
   125          3
   126         12
   127         49
   128        107
   129        181
   130        186
   131         75
   132         26
   133        391
   134         41
   135         13
   136          3
   137          2
   143          2
   144          3
   145          9
   146          8
   147         88
   148        465
   149         62
   150          8