##TITLE=Library Entry 1331
##JCAMP-DX=Revision 4.10 
##DATA TYPE=MASS SPECTRUM
##SAMPLE DESCRIPTION=R.A. CORRAL, FAC. CIENC. EXACT., UNIV. NAC. LA PLATA, A
RGENT.
##NAMES=HP
##CAS NAME=5-Allyldihydro-1,3,5-dioxazine
##MOLFORM=C6H11NO2
##CAS REGISTRY NO=16574-19-9
##MP= -300
##BP= -300
##MW= 129
##$RETENTION INDEX=0
##$CONDENSED SPECTRUM=NO
##NPOINTS= 29
##XYDATA=(XY..XY) 1 
    30        999
    31        230
    33         20
    38         20
    39        150
    40         20
    41        550
    42        470
    43         50
    44         50
    45         60
    58         30
    68        210
    69        110
    70        170
    71         40
    72         30
    82         40
    83         40
    84         50
    85         20
    89         30
    91         20
    98        130
    99         60
   100         20
   102         30
   128        560
   129        150