##TITLE=Library Entry 54298
##JCAMP-DX=Revision 4.10 
##DATA TYPE=MASS SPECTRUM
##SAMPLE DESCRIPTION=Chemical Concepts
##NAMES=HP
##CAS NAME=Piperidine, 1-(2-naphthylmethyl)-
##MOLFORM=C16H19N
##CAS REGISTRY NO=16574-34-8
##MP= -300
##BP= -300
##MW= 225
##$RETENTION INDEX=0
##$CONDENSED SPECTRUM=NO
##NPOINTS= 98
##XYDATA=(XY..XY) 1 
    26          3
    27         22
    28         21
    29         23
    30         20
    38          2
    39         27
    40          3
    41         68
    42         78
    43         16
    44         14
    45          2
    50          6
    51         14
    52          6
    53          6
    54         10
    55         58
    56         24
    57         19
    58          3
    62          5
    63         24
    64          4
    65         11
    67          5
    68         16
    69         28
    70         16
    71         11
    74          6
    75         10
    76          7
    77         11
    78          3
    79          5
    80          2
    81          3
    82         10
    83         11
    84        999
    85         64
    86          3
    87          8
    88          4
    89         19
    90          3
    91         16
    92         16
    95          3
    96          8
    98        318
    99         22
   100          2
   101          5
   103          2
   105          3
   111          2
   112         34
   113         14
   114          9
   115        238
   116         23
   126         11
   127         24
   128         20
   129         16
   130          3
   138          4
   139         82
   140         38
   141        906
   142        716
   143         77
   144          4
   152          4
   154         14
   155         18
   156          8
   157          2
   158          8
   165          3
   166          4
   168         18
   169          5
   170          2
   180          3
   181          3
   182         16
   196         10
   197          2
   222          3
   223          7
   224        192
   225        326
   226         52
   227          4