##TITLE=Library Entry 72879
##JCAMP-DX=Revision 4.10 
##DATA TYPE=MASS SPECTRUM
##SAMPLE DESCRIPTION=O A MAMER, MCGILL UNIVERSITY, MONTREAL, y
##NAMES=HP
##CAS NAME=Nonadecane-2,4-dione
##MOLFORM=C19H36O2
##CAS REGISTRY NO=16577-69-8
##MP= -300
##BP= -300
##MW= 296
##$RETENTION INDEX=0
##$CONDENSED SPECTRUM=NO
##NPOINTS= 76
##XYDATA=(XY..XY) 1 
    26          7
    27         59
    28         12
    29        151
    31         12
    39         44
    40         12
    41        285
    42         54
    43        708
    44         20
    45          6
    53         19
    54         21
    55        205
    56         44
    57        164
    58         92
    59         22
    66          5
    67         39
    68         20
    69         91
    70         25
    71         87
    72        120
    73          7
    79         11
    80         19
    81         36
    82         20
    83         53
    84         51
    85        619
    86         32
    87         12
    93          7
    94         16
    95         37
    96         18
    97         46
    98         57
    99         14
   100        999
   101        148
   102         12
   107          5
   108          5
   109         21
   110          8
   111         18
   112         16
   113        178
   114         18
   121          7
   123         12
   124         26
   125          9
   126          4
   127         10
   135          5
   137         16
   138         26
   139          6
   142         21
   151          6
   154          6
   156          7
   169          5
   220         20
   238          8
   239         14
   278         16
   281          8
   296         13
   297          6