##TITLE=Library Entry 67058
##JCAMP-DX=Revision 4.10 
##DATA TYPE=MASS SPECTRUM
##SAMPLE DESCRIPTION=Japan AIST/NIMC Database- Spectrum MS-IW-3081
##NAMES=HP
##CAS NAME=Butanamide, 3-oxo-N-2-pyridinyl-
##MOLFORM=C9H10N2O2
##CAS REGISTRY NO=1657-28-9
##MP= -300
##BP= -300
##MW= 178
##$RETENTION INDEX=0
##$CONDENSED SPECTRUM=NO
##NPOINTS= 75
##XYDATA=(XY..XY) 1 
    14          4
    15         26
    25          1
    26          9
    27         31
    28         17
    29          6
    37         10
    38         33
    39        106
    40         37
    41         38
    42         28
    43        354
    44          9
    45          1
    49          2
    50         14
    51         67
    52         31
    53         10
    54          4
    55          7
    57          2
    58          7
    62          1
    63          3
    64         11
    65         18
    66         45
    67        420
    68         22
    69         21
    75          2
    76          3
    77          2
    78        157
    79         17
    80          6
    81          1
    84          7
    85         32
    86          1
    91          1
    92         10
    93         18
    94        999
    95         93
    96          4
   105          1
   107         14
   108          3
   118          1
   119          1
   120          4
   121        106
   122          8
   131          1
   132          2
   133          3
   134          1
   135        122
   136         24
   137          2
   145          6
   149          2
   150          1
   160          1
   161          2
   163        158
   164         14
   165          1
   178        198
   179         24
   180          2