##TITLE=Library Entry 81561
##JCAMP-DX=Revision 4.10 
##DATA TYPE=MASS SPECTRUM
##SAMPLE DESCRIPTION=NIST Mass Spectrometry Data Center, 1994
##NAMES=HP
##CAS NAME=t-Butyldiphenylmethanol
##MOLFORM=C17H20O
##CAS REGISTRY NO=1657-60-9
##MP= -300
##BP= -300
##MW= 240
##$RETENTION INDEX=0
##$CONDENSED SPECTRUM=NO
##NPOINTS= 111
##XYDATA=(XY..XY) 1 
    15         16
    16          1
    17          2
    18          5
    27         60
    28         19
    29        127
    30          3
    31          4
    37          2
    39         85
    41        164
    42         10
    43         46
    44          2
    49          2
    50         32
    51        149
    52         23
    53         15
    54          1
    55         15
    56         11
    57         72
    58          4
    59          2
    62          3
    63         16
    64          4
    65         11
    66          1
    67          1
    69          2
    70          1
    71          1
    74          7
    75         13
    77        592
    78         63
    79         11
    80          1
    81          1
    82          4
    83          4
    85          4
    86          2
    87          3
    88          5
    89         12
    90          1
    91         37
    92          3
    94          1
    95          1
    98          1
    99          1
   100          1
   101          4
   102          6
   103         13
   104          1
   105        999
   106         70
   107          5
   113          3
   115         21
   116          5
   117          2
   119         14
   120          2
   125          0
   126          5
   127          9
   128         11
   129          9
   130          1
   131          4
   132          1
   133          1
   137          1
   138          1
   139          7
   140          1
   141          1
   143          0
   145          1
   147         28
   148          3
   150          3
   151          9
   152         33
   153         21
   154          6
   155          4
   162          1
   163          8
   165         39
   166          9
   167          5
   168          2
   176          1
   178          5
   179          1
   181         37
   183        660
   184         92
   185          7
   189          3
   190          1
   191          2
   207          1