##TITLE=Library Entry 49349
##JCAMP-DX=Revision 4.10 
##DATA TYPE=MASS SPECTRUM
##SAMPLE DESCRIPTION=Chemical Concepts
##NAMES=HP
##CAS NAME=2-Pyridinemethanimine, .alpha.-phenyl-
##MOLFORM=C12H10N2
##CAS REGISTRY NO=16585-31-2
##MP= -300
##BP= -300
##MW= 182
##$RETENTION INDEX=0
##$CONDENSED SPECTRUM=NO
##NPOINTS= 102
##XYDATA=(XY..XY) 1 
    26         16
    27         37
    28         22
    29          5
    30          3
    37          5
    38         12
    39         33
    40          3
    41          8
    42          3
    43         10
    44          3
    45          3
    46          3
    49          6
    50         88
    51        252
    52        166
    53         23
    54          2
    55          7
    56          3
    57          9
    60          2
    61          3
    62          7
    63         14
    64          7
    65          4
    67          3
    69          6
    70          2
    71          5
    73          3
    74         21
    75         30
    76         72
    77        306
    78        163
    79        999
    80         97
    81          7
    83          5
    84          2
    85          4
    86          3
    87          4
    88          4
    89          4
    90          4
    91         18
    95          4
    96          2
    97          5
    98          2
    99          3
   100          3
   101          6
   102         12
   103         51
   104        264
   105        118
   106         10
   107          2
   109          2
   111          4
   113          2
   115          3
   119          2
   121          1
   123          2
   125          3
   126          8
   127         30
   128         15
   129          6
   130          2
   139          4
   140          3
   141          3
   142          2
   149         14
   150          2
   151          2
   152          6
   153         13
   154         77
   155         62
   156          9
   165          2
   166          3
   167          4
   168          4
   169          2
   179         11
   180         12
   181        391
   182        504
   183        101
   184         11
   185          2