##TITLE=Library Entry 70831
##JCAMP-DX=Revision 4.10 
##DATA TYPE=MASS SPECTRUM
##SAMPLE DESCRIPTION=Div. of Experiment Therapeutics WRAIR, WRAMC, Washingto
n DC 20307
##NAMES=HP
##CAS NAME=6-[3-Piperidino-1-hydroxypropyl]-2-trifluoromethylbenzothiazole
##MOLFORM=C16H19F3N2OS
##CAS REGISTRY NO=16581-56-9
##MP= -300
##BP= -300
##MW= 344
##$RETENTION INDEX=0
##$CONDENSED SPECTRUM=NO
##NPOINTS= 109
##XYDATA=(XY..XY) 1 
    41        207
    42        219
    43         88
    44        122
    45         12
    47          2
    48          0
    49          7
    50          2
    51          8
    52          2
    53          9
    54         25
    55        168
    56         81
    57         63
    58         16
    59          1
    61          0
    62          2
    63         25
    64          3
    65         20
    66          1
    67          8
    68         12
    69         64
    70         89
    71          9
    72          1
    74          1
    75          2
    76          1
    77          7
    78          1
    79          1
    80          3
    81          3
    82         15
    83         18
    84         93
    85        125
    86         14
    87          0
    88          1
    89          4
    90          3
    91          3
    93          1
    94          2
    95          2
    96         26
    97          8
    98        999
    99        125
   100          5
   102         16
   103          3
   106          1
   107          7
   108          8
   109          9
   110         10
   111         20
   112         17
   113         15
   114          3
   115          1
   116          1
   121          3
   124          1
   133         10
   134          5
   135          4
   136          0
   140          1
   141          1
   142          1
   146          0
   148          1
   152          1
   153          1
   163          0
   164          1
   166          1
   184         28
   185          2
   186          1
   190          1
   197          0
   198          1
   202          5
   203          2
   204          4
   208          1
   216          3
   217          1
   222          0
   228          1
   229          3
   230          4
   231          0
   232          1
   246          0
   325          2
   343          2
   344         29
   345          9
   346          2