##TITLE=Library Entry 54492
##JCAMP-DX=Revision 4.10 
##DATA TYPE=MASS SPECTRUM
##SAMPLE DESCRIPTION=Div. of Experiment Therapeutics WRAIR, WRAMC, Washingto
n DC 20307
##NAMES=HP
##CAS NAME=.alpha.-[2-Piperidyl]-2-[p-methylphenyl]-8-methyl-4-quinoline met
hanol
##MOLFORM=C23H26N2O
##CAS REGISTRY NO=16581-68-3
##MP= -300
##BP= -300
##MW= 346
##$RETENTION INDEX=0
##$CONDENSED SPECTRUM=NO
##NPOINTS= 129
##XYDATA=(XY..XY) 1 
    41         52
    42         57
    43         16
    44          7
    49          3
    50          1
    51          8
    52          3
    53          8
    54         15
    55         73
    56        258
    57         20
    58          0
    62          1
    63         10
    64          2
    65         22
    66          2
    67         22
    68         15
    69          7
    70          4
    72          0
    75          3
    76          2
    77          8
    78          3
    79          2
    80          5
    82         22
    84        999
    85         55
    86          2
    87          0
    88          3
    89         19
    90          4
    91         31
    92          3
    94          1
    96          3
    97          8
    98          0
   101          3
   102          5
   103          3
   105          2
   108          4
   109          3
   110          0
   113          4
   114          9
   115         47
   116         13
   117          3
   118          2
   120          2
   121          0
   122          2
   126          2
   127          6
   128          7
   129          3
   130          1
   135          3
   136          0
   137          0
   139          3
   140          6
   141          6
   142         29
   143          5
   144          2
   151          1
   152          3
   153          2
   154          2
   163          0
   165          2
   166          1
   167          1
   172          7
   178          2
   180          0
   189          3
   190          2
   191          2
   192          1
   202          2
   203          3
   204          3
   205          1
   214          0
   215          2
   216          6
   217         12
   218         14
   219          4
   220          1
   228          2
   229          1
   230          5
   231          5
   232         12
   233          9
   234         48
   235          8
   236          1
   244          1
   246          1
   247          1
   248          8
   249          1
   258          1
   260          0
   261          1
   262         69
   263        396
   264         89
   265         10
   266          2
   267          9
   268          2
   284          0
   328          2
   345          1
   346          4
   347          1