##TITLE=Library Entry 28101
##JCAMP-DX=Revision 4.10 
##DATA TYPE=MASS SPECTRUM
##SAMPLE DESCRIPTION=Div. of Experiment Therapeutics WRAIR, WRAMC, Washingto
n DC 20307
##NAMES=HP
##CAS NAME=6-[3-Dimethylamino-1-hydroxypropyl]-2-phenyl benzothiazol
##MOLFORM=C18H20N2OS
##CAS REGISTRY NO=16581-52-5
##MP= -300
##BP= -300
##MW= 312
##$RETENTION INDEX=0
##$CONDENSED SPECTRUM=NO
##NPOINTS= 90
##XYDATA=(XY..XY) 1 
    41          4
    42         41
    43         23
    44         45
    45         73
    46         19
    47          1
    49          3
    50          2
    51          8
    52          0
    53          0
    55          5
    56         13
    57         17
    58        999
    59         53
    60          1
    62          2
    63         26
    64          2
    65         17
    66          1
    69         13
    70          9
    71          9
    72         40
    73         24
    74          5
    75          2
    76          2
    77         13
    78          2
    79          3
    81          2
    82          4
    83          1
    84          5
    86          2
    89          4
    90          2
    91          2
    98          6
   100          1
   101          3
   102          2
   103          1
   104          5
   105          0
   106          2
   107          6
   108          9
   109         29
   110          3
   111          1
   121          7
   122          1
   123          1
   131          1
   133          1
   134          2
   135          1
   138          3
   139          1
   147          2
   164          7
   166          0
   184          0
   206          0
   209          2
   210          3
   211          4
   212         11
   213          1
   224          2
   225          1
   237          3
   238          7
   239          2
   240          4
   241          5
   250          0
   253          1
   254          6
   255          0
   266          6
   267          3
   312         32
   313          7
   314          2