##TITLE=Library Entry 49800
##JCAMP-DX=Revision 4.10 
##DATA TYPE=MASS SPECTRUM
##SAMPLE DESCRIPTION=Exported from NIST MS Search
##NAMES=HP
##CAS NAME=Cyclohexane, 1-chloro-2-nitroso-
##MOLFORM=C6H10ClNO
##CAS REGISTRY NO=16580-31-7
##MP= -300
##BP= -300
##MW= 147
##$RETENTION INDEX=0
##$CONDENSED SPECTRUM=NO
##NPOINTS= 85
##XYDATA=(XY..XY) 1 
    18         20
    26         20
    27         90
    28         30
    29         40
    30         50
    31         10
    32         10
    35         10
    36         20
    37         10
    38         20
    39        120
    40         20
    41        160
    42         20
    43         10
    44         10
    45         10
    46         10
    49         20
    50         20
    51         30
    52         20
    53        130
    54         60
    55         60
    56         10
    57         10
    58         10
    59         10
    61         10
    62         10
    63         20
    64         10
    65         30
    66         20
    67         80
    68         20
    69         10
    70         10
    71         10
    72         10
    73         10
    74         10
    75         70
    76         10
    77         50
    78         10
    79        150
    80         20
    81        999
    82         10
    83         10
    86         75
    87          1
    88          4
    89         10
    90          3
    91          3
    92          2
    93          2
    94         21
    95          3
    96          2
   104          2
   105          2
   111          5
   112         22
   113          2
   115          3
   116          7
   117         35
   118          5
   119         13
   120          1
   130          4
   131          1
   132          2
   145          3
   146          6
   147         90
   148          8
   149         30
   150          3