##TITLE=Library Entry 71154
##JCAMP-DX=Revision 4.10 
##DATA TYPE=MASS SPECTRUM
##SAMPLE DESCRIPTION=NIST Mass Spectrometry Data Center, 1998.
##NAMES=HP
##CAS NAME=Cyclohexanone, 4-(1,1-dimethylpropyl)-
##MOLFORM=C11H20O
##CAS REGISTRY NO=16587-71-6
##MP= -300
##BP= -300
##MW= 168
##$RETENTION INDEX=1800
##$CONDENSED SPECTRUM=NO
##NPOINTS= 88
##XYDATA=(XY..XY) 1 
    15          3
    26          5
    27         82
    28         29
    29        106
    30          3
    31          1
    37          1
    38          4
    39        145
    40         29
    41        406
    42         69
    43        790
    44         26
    45          2
    46          1
    47          2
    48          1
    50          6
    51         22
    52         13
    53        107
    54         48
    55        593
    56         72
    57         82
    58          7
    59          2
    62          3
    63          6
    64          2
    65         27
    66         11
    67        116
    68         49
    69        260
    70        177
    71        898
    72         51
    73          2
    77         25
    78          5
    79         71
    80         18
    81         61
    82         19
    83        360
    84         25
    85          3
    91         12
    92          2
    93         47
    94          6
    95         59
    96         22
    97        205
    98        999
    99        104
   100          6
   103          1
   105          4
   106          1
   107         18
   108          2
   109         12
   110          7
   111         18
   112          2
   119          1
   120          2
   121         36
   122          4
   123          4
   124          1
   125          5
   126          1
   135         20
   136          2
   137          1
   138          5
   139         46
   140          5
   153         15
   154          2
   168        133
   169         20
   170          2