##TITLE=Library Entry 45943
##JCAMP-DX=Revision 4.10 
##DATA TYPE=MASS SPECTRUM
##SAMPLE DESCRIPTION=NIST Mass Spectrometry Data Center, 1992
##NAMES=HP
##CAS NAME=4-Chloro-3-nitrobenzaldehyde
##MOLFORM=C7H4ClNO3
##CAS REGISTRY NO=16588-34-4
##MP= -300
##BP= -300
##MW= 185
##$RETENTION INDEX=0
##$CONDENSED SPECTRUM=NO
##NPOINTS= 92
##XYDATA=(XY..XY) 1 
    12          1
    14          1
    15          1
    16          4
    17          4
    18          6
    25          4
    26          6
    28         56
    29         94
    30        213
    32          6
    35          5
    36         11
    37         52
    38         43
    39         24
    43          1
    44          3
    46         16
    47          6
    48          7
    49         45
    50        180
    51         84
    52          7
    53         19
    54          2
    55          2
    60         16
    61         51
    62         41
    63         67
    64         14
    65          1
    66          1
    71          3
    72         18
    73        123
    74        309
    75        999
    76         92
    77          7
    84         58
    85         74
    86         34
    87         36
    88          5
    89          3
    90          6
    91          4
    92          4
    96          2
    97          5
    99        164
   100         15
   101         55
   102          5
   103         25
   104          2
   108         10
   109         32
   110        143
   111        260
   112         68
   113         85
   114          5
   119          1
   124          1
   126         24
   127         12
   128          8
   129          2
   138        201
   139        146
   140         78
   141         45
   142          4
   154         11
   155         76
   156         12
   157         26
   158          3
   169         13
   170          2
   171          5
   184        747
   185        873
   186        319
   187        271
   188         25
   189          2