##TITLE=Library Entry 1233
##JCAMP-DX=Revision 4.10 
##DATA TYPE=MASS SPECTRUM
##SAMPLE DESCRIPTION=Humboldt-Universitat zu Berlin, Department of Chemistry
, Analytical Group
##NAMES=HP
##CAS NAME=Benzenecarbohydrazonoyl chloride, 4-chloro-N-(4-nitrophenyl)-
##MOLFORM=C13H9Cl2N3O2
##CAS REGISTRY NO=165946-86-1
##MP= -300
##BP= -300
##MW= 309
##$RETENTION INDEX=0
##$CONDENSED SPECTRUM=NO
##NPOINTS= 168
##XYDATA=(XY..XY) 1 
    12          7
    15          7
    16          9
    26         21
    27         38
    28         27
    29         42
    30        999
    31         10
    35         22
    36         85
    37         38
    38        123
    39        176
    40         28
    41         53
    42         26
    43         37
    44         42
    45         16
    46         13
    49         12
    50        122
    51        121
    52        149
    53         53
    54          8
    55         21
    56         10
    57         20
    60         14
    61         22
    62         83
    63        436
    64        314
    65         76
    66          7
    67          7
    68          7
    69         18
    70          7
    71         12
    72          5
    73         41
    74         36
    75        159
    76         79
    77         35
    78         38
    79         49
    80        185
    81         28
    82          7
    83         11
    84         11
    85         16
    86         12
    87         19
    88         20
    89        100
    90        521
    91        150
    92         35
    93          9
    94          7
    95          8
    96         15
    97         22
    98          7
    99         24
   100         21
   101         19
   102        159
   103         24
   104          7
   105         14
   106         97
   107         28
   108         16
   109         15
   110         15
   111        118
   112         20
   113         41
   114         10
   115          6
   120         31
   121         10
   122         17
   123         86
   124         14
   125         33
   126         10
   127          7
   135          7
   136        321
   137        230
   138        118
   139        377
   140         60
   141        112
   142          9
   149         17
   150          6
   151         24
   152         12
   153         12
   154         12
   155         12
   157          5
   158          6
   159          5
   160          6
   161          5
   162          7
   163         12
   164         18
   165         16
   166         12
   167          7
   172          6
   173          4
   174          5
   176          8
   179        183
   180         27
   181         63
   182          8
   191         14
   192         45
   193         10
   197         12
   198         10
   199         16
   200         10
   201          9
   208          6
   210          7
   215          7
   217          5
   226         14
   227        100
   228         79
   229         41
   230         23
   231          5
   238          5
   243         36
   244          7
   245         13
   256          7
   257         18
   258          7
   259          8
   262          5
   264          4
   273        215
   274         41
   275         74
   276         16
   293          3
   302          6
   309        385
   310         64
   311        257
   312         43
   313         43
   314          8