##TITLE=Library Entry 83939
##JCAMP-DX=Revision 4.10 
##DATA TYPE=MASS SPECTRUM
##SAMPLE DESCRIPTION=A. SAEED, DEP. CHEM., COLL. SCI., BASRAH UNIV., BASRAH,
 IRAQ
##NAMES=HP
##CAS NAME=N,N'-Di-o-tolyl-formamidine
##MOLFORM=C15H16N2
##CAS REGISTRY NO=16596-01-3
##MP= -300
##BP= -300
##MW= 224
##$RETENTION INDEX=0
##$CONDENSED SPECTRUM=NO
##NPOINTS= 14
##XYDATA=(XY..XY) 1 
    39         50
    65        110
    77         80
    79         50
    91        270
   106        320
   107        999
   108        100
   111         90
   117         50
   118        220
   223         50
   224        240
   225         50