##TITLE=Library Entry 64819
##JCAMP-DX=Revision 4.10 
##DATA TYPE=MASS SPECTRUM
##SAMPLE DESCRIPTION=Humboldt-Universitat zu Berlin, Department of Chemistry
, Analytical Group
##NAMES=HP
##CAS NAME=10-(4-Methoxyphenyl)-1,3,7-triphenyl-4-thia-1,2,6,10-tetraaza-spi
ro[4.5]deca-2,6,8-trienne
##MOLFORM=C30H24N4OS
##CAS REGISTRY NO=165947-06-8
##MP= -300
##BP= -300
##MW= 488
##$RETENTION INDEX=0
##$CONDENSED SPECTRUM=NO
##NPOINTS= 264
##XYDATA=(XY..XY) 1 
    14          2
    15         22
    16          3
    17         15
    18         42
    26          5
    27         19
    28         15
    29          8
    31          2
    32          3
    36          4
    37          5
    38         16
    39         56
    40          8
    41         47
    42          4
    43          8
    44          9
    45         13
    46          2
    49          2
    50         34
    51        113
    52         37
    53         17
    54          4
    55          7
    56          2
    57          7
    58          3
    59          3
    60          3
    61          3
    62          8
    63         78
    64        274
    65         78
    66          9
    67          3
    68          2
    69         13
    70          7
    71          5
    73          3
    74          9
    75         21
    76         65
    77        352
    78         41
    79         11
    80          9
    81          5
    82          3
    83          5
    84          3
    85          3
    86         11
    87          4
    88          6
    89         29
    90         41
    91        999
    92        198
    93         16
    94          3
    95          8
    96          6
    97          5
    98          3
    99          3
   101         14
   102         64
   103        144
   104        140
   105         24
   106          4
   107         29
   108         21
   109         25
   110          5
   111          4
   112          3
   113          6
   114          9
   115         27
   116         30
   117         14
   118         18
   119         13
   120          6
   121         53
   122         19
   123         13
   124          7
   125          3
   126          4
   127          7
   128         54
   129         27
   130          7
   131          8
   132         56
   133         41
   134         74
   135         75
   136         16
   137          5
   139         12
   140         22
   141          8
   142          6
   143          4
   144          3
   145         10
   146         14
   147         30
   148         16
   149         26
   150         24
   151          9
   152          7
   153          5
   154          5
   155         31
   156          6
   157          3
   158          2
   159          3
   160          5
   161         10
   162          3
   163          4
   164          5
   165         20
   166         11
   167         21
   168          5
   169          2
   171          9
   172         17
   173          9
   174          5
   175          4
   176          6
   177          7
   178          8
   179          5
   180          7
   181          4
   185          3
   187          4
   188          3
   189          2
   190          8
   191         16
   192         15
   193         30
   194        130
   195         24
   196          3
   198          2
   199          3
   203          2
   204          4
   205          6
   206          6
   207          5
   208          3
   210          8
   211          3
   216          2
   217          5
   218          9
   219          7
   220          9
   221          3
   222          2
   223          4
   224          4
   225          2
   231          2
   232          4
   233          6
   234          9
   235         15
   236          9
   237          8
   238          2
   239          4
   244         43
   246         13
   247          6
   248          3
   249         12
   250         28
   251         64
   252         56
   253         17
   254          5
   260          2
   261         10
   262          4
   263         40
   264         10
   265          4
   266          3
   267          2
   274          6
   275          3
   276          5
   277         14
   278         26
   279         56
   280         22
   281          8
   282          4
   283          2
   293        166
   294         74
   295         20
   296          4
   307          1
   308          4
   309          5
   310          2
   335          2
   336          2
   337          5
   338          7
   339          2
   340          2
   341          1
   349          4
   350          2
   352         63
   353         37
   354          8
   355          2
   357          2
   358          2
   359          1
   363          2
   364          2
   366          8
   367          6
   368          3
   369          2
   370          2
   379        972
   380        277
   381         40
   383         51
   384         28
   385         10
   386          2
   428          2
   455          2
   487         79
   488         58
   489         18
   490          5
   491          1