##TITLE=Library Entry 83972
##JCAMP-DX=Revision 4.10 
##DATA TYPE=MASS SPECTRUM
##SAMPLE DESCRIPTION=A. SAEED, DEP. CHEM., COLL. SCI., BASRAH UNIV., BASRAH,
 IRAQ
##NAMES=HP
##CAS NAME=N,N'-Di-p-tolyl-formamidine
##MOLFORM=C15H16N2
##CAS REGISTRY NO=16596-03-5
##MP= -300
##BP= -300
##MW= 224
##$RETENTION INDEX=2199
##$CONDENSED SPECTRUM=NO
##NPOINTS= 17
##XYDATA=(XY..XY) 1 
    39         60
    51         50
    65        110
    77        100
    79         60
    91        220
    93         60
   104         50
   106        480
   107        999
   108        100
   111        100
   118        110
   135        150
   223         80
   224        340
   225         50