##TITLE=Library Entry 73860
##JCAMP-DX=Revision 4.10 
##DATA TYPE=MASS SPECTRUM
##SAMPLE DESCRIPTION=ATLAS OF MASS SPECTRA OF ORGANIC COMPOUNDS, V. A. KOPTY
UG, ED.
##NAMES=HP
##CAS NAME=Hydrazine, 1,1-bis(2-methylpropyl)-
##MOLFORM=C8H20N2
##CAS REGISTRY NO=16596-38-6
##MP= -300
##BP= -300
##MW= 144
##$RETENTION INDEX=0
##$CONDENSED SPECTRUM=NO
##NPOINTS= 28
##XYDATA=(XY..XY) 1 
    27         62
    28         19
    29        154
    30         29
    31         18
    39         49
    41        179
    42         58
    43         58
    44         44
    45        986
    46         23
    55         29
    56         19
    57        371
    58         32
    59         15
    69         10
    73         13
    84         18
    85         12
    86         12
    87         13
   101        999
   102         72
   129          7
   144        141
   145         20