##TITLE=Library Entry 55152
##JCAMP-DX=Revision 4.10 
##DATA TYPE=MASS SPECTRUM
##SAMPLE DESCRIPTION=Chemical Concepts
##NAMES=HP
##CAS NAME=2,6,10-Trimethyl-3-oxo-12-(tetrahydropyran-2-yloxy)-dodeca-6,10-d
ienoic acid, methyl ester
##MOLFORM=C21H34O5
##CAS REGISTRY NO=165966-74-5
##MP= -300
##BP= -300
##MW= 366
##$RETENTION INDEX=0
##$CONDENSED SPECTRUM=NO
##NPOINTS= 175
##XYDATA=(XY..XY) 1 
    26          1
    27         23
    28         11
    29         53
    30          1
    31          7
    38          0
    39         18
    40          3
    41        109
    42          7
    43         59
    44          3
    45          7
    50          0
    51          2
    52          1
    53         35
    54          2
    55         71
    56         14
    57         77
    58          4
    59         46
    60          2
    61          2
    65          6
    66          5
    67        119
    68         59
    69         22
    70          3
    71          6
    72          0
    73          3
    74          0
    75          4
    76          0
    77         10
    78          2
    79         20
    80         15
    81        260
    82         17
    83          8
    84          9
    85        999
    86         37
    87          9
    88          7
    89          3
    91         12
    92          3
    93         24
    94          3
    95         20
    96          4
    97          6
    98          2
    99          3
   100          0
   101          6
   102          0
   103          0
   104          1
   105          8
   106          2
   107         11
   108         12
   109        144
   110         10
   111          2
   112          1
   113          0
   115         57
   116          2
   117          4
   118          1
   119         86
   120          4
   121         27
   122          1
   123         14
   125          2
   130         13
   131          4
   132          6
   133          7
   134         51
   135         32
   136          6
   137         19
   138          3
   139         13
   140          1
   141          3
   142          0
   143         13
   144          1
   145          2
   146          0
   147          3
   148          0
   149         12
   150          1
   151          2
   152          1
   153          1
   155          3
   156          0
   157          1
   158          1
   159         15
   160          1
   161          1
   162          0
   163          1
   164          1
   165         19
   166          2
   167          1
   168          1
   169          6
   170          1
   171         69
   172          5
   173          0
   175          2
   176          3
   177         10
   178          4
   179         12
   180          1
   181          1
   183          1
   185          1
   186          0
   187          8
   188          0
   189          0
   194          1
   195          1
   196          4
   197         35
   198          3
   199          0
   204          0
   205          1
   206          0
   215          0
   219          0
   221          0
   223          0
   231          0
   232          0
   233          3
   234          1
   235          0
   236          0
   237          0
   246          3
   247          3
   248          0
   249          5
   250          1
   251          1
   252          0
   263          1
   264          4
   265          2
   281          8
   282          6
   283          1
   348          0
   366          0