##TITLE=Library Entry 59249
##JCAMP-DX=Revision 4.10 
##DATA TYPE=MASS SPECTRUM
##SAMPLE DESCRIPTION=ASES Database, Dalian Institute, P.R. China
##NAMES=HP
##CAS NAME=S-Benzyl phenylmethanethiosulfonate
##MOLFORM=C14H14O2S2
##CAS REGISTRY NO=16601-40-4
##MP= -300
##BP= -300
##MW= 278
##$RETENTION INDEX=0
##$CONDENSED SPECTRUM=NO
##NPOINTS= 7
##XYDATA=(XY..XY) 1 
    45        179
    65        141
    91        999
    92        120
   122        170
   123        150
   278          2