##TITLE=Library Entry 77116
##JCAMP-DX=Revision 4.10 
##DATA TYPE=MASS SPECTRUM
##SAMPLE DESCRIPTION=Exported from NIST MS Search
##NAMES=HP
##CAS NAME=1,3,7-Octatrien-5-yne
##MOLFORM=C8H8
##CAS REGISTRY NO=16607-77-5
##MP= -300
##BP= -300
##MW= 104
##$RETENTION INDEX=825
##$CONDENSED SPECTRUM=NO
##NPOINTS= 58
##XYDATA=(XY..XY) 1 
    25          8
    26         30
    27        130
    29          5
    31          3
    37         26
    38         75
    39        320
    40         21
    41         19
    42          6
    43         11
    44          2
    45          4
    49         24
    50        293
    51        510
    52        731
    53         45
    54         10
    55          6
    56          5
    57          5
    58         10
    59          7
    60          7
    61         29
    62         86
    63        247
    64         41
    65         91
    66          7
    73         23
    74        132
    75        100
    76        112
    77        615
    78        735
    79         29
    80          6
    81          4
    84          4
    85         13
    86         18
    87         20
    88          4
    89         52
    90          6
    91          8
    92          3
    98         28
    99         16
   100         14
   101         38
   102        168
   103        897
   104        999
   105         84