##TITLE=Library Entry 46383
##JCAMP-DX=Revision 4.10 
##DATA TYPE=MASS SPECTRUM
##SAMPLE DESCRIPTION=Div. of Experiment Therapeutics WRAIR, WRAMC, Washingto
n DC 20307
##NAMES=HP
##CAS NAME=Diphthalimido-2-propanone
##MOLFORM=C19H12N2O5
##CAS REGISTRY NO=166195-14-8
##MP= -300
##BP= -300
##MW= 348
##$RETENTION INDEX=0
##$CONDENSED SPECTRUM=NO
##NPOINTS= 59
##XYDATA=(XY..XY) 1 
    41          2
    42          5
    43         36
    44         27
    45         55
    47          5
    49         23
    50        430
    51         19
    52         92
    53          6
    55          6
    57          2
    59         29
    61         17
    62         15
    63         37
    64         27
    65          7
    66         93
    70         12
    74        275
    76        999
    78          1
    79          1
    84         21
    86         12
    88          4
    90         23
    92         28
    93          1
    99          2
   100          0
   103        225
   104        748
   106          2
   115          1
   118          0
   119          3
   120          2
   121          1
   126          0
   130         20
   131          0
   133          4
   135          4
   147        982
   152          0
   160          0
   161          1
   163         57
   164          4
   179         12
   180          2
   195          0
   196          0
   222          3
   223          0
   294          0