##TITLE=Library Entry 67410
##JCAMP-DX=Revision 4.10 
##DATA TYPE=MASS SPECTRUM
##SAMPLE DESCRIPTION=Chemical Concepts
##NAMES=HP
##CAS NAME=Heptanoic acid, 6-hydroxy-, phenyl ester
##MOLFORM=C13H18O3
##CAS REGISTRY NO=166273-40-1
##MP= -300
##BP= -300
##MW= 222
##$RETENTION INDEX=0
##$CONDENSED SPECTRUM=NO
##NPOINTS= 130
##XYDATA=(XY..XY) 1 
    26          2
    27         42
    28         11
    29         48
    30          1
    31         14
    37          0
    38          4
    39         56
    41        109
    42         11
    43        127
    44          7
    45        174
    46          3
    47          1
    49          0
    50          4
    51         23
    52          2
    53          9
    54          3
    55        235
    56         33
    57         23
    58         13
    59          7
    60          1
    61          1
    62          1
    63          6
    64          4
    65         52
    66         35
    67         71
    68         26
    69        227
    70         15
    71         25
    72          1
    73          8
    74          1
    75          1
    76          2
    77         56
    78          5
    79          3
    80          0
    81         25
    82          5
    83        285
    84         43
    85         43
    86          2
    87         35
    88          1
    89          0
    91         11
    92          3
    93         15
    94        999
    95        141
    96          9
    97          2
    98          0
    99          3
   100          3
   101          0
   102          0
   103          0
   104          1
   105          1
   107          3
   108          1
   109          7
   110          6
   111        361
   112         29
   113        116
   114          7
   115          1
   116          0
   117          1
   118          0
   119          0
   120          0
   121          1
   122          0
   123          0
   125          0
   127         12
   128          2
   129        643
   130         51
   131          5
   132          0
   133          0
   134          0
   135          1
   136          4
   137          0
   142          0
   143          0
   144          0
   145          0
   147          1
   148          0
   149         24
   150          2
   151          0
   161          1
   162          1
   163          2
   165          0
   175          0
   177          3
   178          2
   179          0
   183          0
   189          0
   204          1
   205          2
   206          0
   207          6
   208          0
   220          0
   221          0
   222          0
   223          1
   224          0