##TITLE=Library Entry 48886
##JCAMP-DX=Revision 4.10 
##DATA TYPE=MASS SPECTRUM
##SAMPLE DESCRIPTION=Chemical Concepts
##NAMES=HP
##CAS NAME=3-Cyclohexene-1-propanol
##MOLFORM=C9H16O
##CAS REGISTRY NO=16626-54-3
##MP= -300
##BP= -300
##MW= 140
##$RETENTION INDEX=0
##$CONDENSED SPECTRUM=NO
##NPOINTS= 98
##XYDATA=(XY..XY) 1 
    25          4
    26         10
    27        147
    29         73
    30          7
    31        132
    33          5
    35          1
    36         11
    37          3
    38         11
    39        283
    40         40
    41        304
    42         29
    43        225
    44         39
    45         25
    46          1
    47          0
    48          1
    50          9
    51         56
    52         29
    53        229
    54        411
    55        223
    56         30
    57         60
    58         94
    59         21
    60          2
    61          4
    62          7
    63         15
    64          3
    65         67
    66         85
    67        363
    68        190
    69         38
    70         10
    71         16
    72          3
    73          3
    74          3
    75          5
    76          4
    77        197
    78        125
    79        999
    80        908
    81        700
    82         64
    83         33
    84         12
    85          3
    86          7
    87         26
    88         11
    89          6
    90          3
    91        108
    92         29
    93        412
    94        504
    95         70
    96        205
    97         43
    98          9
    99          7
   100          3
   101          6
   102          4
   103          8
   104          3
   105         29
   106          6
   107        165
   108         18
   109         31
   110          5
   111          7
   112         16
   113          4
   114          3
   115          4
   116          3
   117          4
   118          3
   119          6
   120          4
   121         41
   122        176
   123         28
   140        113
   141         19
   142          5