##TITLE=Library Entry 65996
##JCAMP-DX=Revision 4.10 
##DATA TYPE=MASS SPECTRUM
##SAMPLE DESCRIPTION=NIST Mass Spectrometry Data Center
##NAMES=HP
##CAS NAME=5,5-Dimethyl-1-vinylbicyclo[2.1.1]hexane
##MOLFORM=C10H16
##CAS REGISTRY NO=16626-39-4
##MP= -300
##BP= -300
##MW= 136
##$RETENTION INDEX=921
##$CONDENSED SPECTRUM=NO
##NPOINTS= 74
##XYDATA=(XY..XY) 1 
    26          3
    27         45
    28          6
    29         19
    37          2
    38          9
    39        147
    40         25
    41        325
    42         17
    43         26
    44          1
    45          1
    49          1
    50         17
    51         50
    52         23
    53         98
    54         11
    55         93
    56          6
    58          3
    61          2
    62          6
    63         20
    64          5
    65         77
    66         42
    67        359
    68         59
    69        366
    70         32
    73          1
    74          2
    75          2
    76          2
    77        242
    78         37
    79        227
    80         94
    81         27
    82         16
    83          1
    86          1
    87          1
    89          3
    90          1
    91        257
    92         82
    93        999
    94        102
    95        120
    96          9
   102          1
   103          9
   104          3
   105         33
   106          8
   107         82
   108        162
   109         17
   110          1
   115          5
   116          1
   117          3
   118          1
   119          8
   120          1
   121        133
   122         13
   123          1
   135          1
   136          6
   137          1