##TITLE=Library Entry 13110
##JCAMP-DX=Revision 4.10 
##DATA TYPE=MASS SPECTRUM
##SAMPLE DESCRIPTION=Chemical Concepts
##NAMES=HP
##CAS NAME=N-(4,5-Difluoro-2-nitrophenyl)acetamide
##MOLFORM=C8H6F2N2O3
##CAS REGISTRY NO=1662-21-1
##MP= -300
##BP= -300
##MW= 216
##$RETENTION INDEX=0
##$CONDENSED SPECTRUM=NO
##NPOINTS= 85
##XYDATA=(XY..XY) 1 
    33          0
    37          0
    38          2
    39          2
    41          1
    42         26
    43        999
    44         22
    45          1
    46          3
    50         23
    51         15
    52         11
    56          8
    57          9
    58          1
    61          3
    62          9
    63          8
    64         12
    65          0
    68          2
    69          2
    70          3
    71          1
    74          1
    75         39
    76         16
    77          2
    78          1
    79          0
    80          7
    81         22
    82          8
    83          1
    87          1
    88         20
    89          2
    90          0
    92          0
    93          1
    94          3
    95          1
    96          3
    97          0
    98          0
    99         21
   100         35
   101        103
   102         10
   106          0
   107          1
   108          8
   109          1
   111          0
   112          4
   113         14
   114         11
   115          5
   116         36
   117          1
   119          0
   120          0
   121          1
   126         40
   127         15
   128        187
   129         16
   140          6
   141          2
   142          1
   143          1
   144         54
   145          2
   157         13
   158         18
   169          0
   170         16
   171          0
   173          0
   174        523
   175         36
   176          1
   216        116
   217          9