##TITLE=Library Entry 30573
##JCAMP-DX=Revision 4.10 
##DATA TYPE=MASS SPECTRUM
##SAMPLE DESCRIPTION=Exported from NIST MS Search
##NAMES=HP
##CAS NAME=Cycloheptanemethanol, .alpha.,.alpha.-dimethyl-
##MOLFORM=C10H20O
##CAS REGISTRY NO=16624-02-5
##MP= -300
##BP= -300
##MW= 156
##$RETENTION INDEX=0
##$CONDENSED SPECTRUM=NO
##NPOINTS= 12
##XYDATA=(XY..XY) 1 
    33         38
    39         24
    41         62
    43         20
    56         32
    59        999
    60         26
    67         20
    81         20
    97         20
   123         20
   141         72