##TITLE=Library Entry 11869
##JCAMP-DX=Revision 4.10 
##DATA TYPE=MASS SPECTRUM
##SAMPLE DESCRIPTION=Chemical Concepts
##NAMES=HP
##CAS NAME=Heptanoic acid, 6-oxo-, phenyl ester
##MOLFORM=C13H16O3
##CAS REGISTRY NO=166273-39-8
##MP= -300
##BP= -300
##MW= 220
##$RETENTION INDEX=0
##$CONDENSED SPECTRUM=NO
##NPOINTS= 100
##XYDATA=(XY..XY) 1 
    26          2
    27         33
    28          1
    29         24
    30          0
    31          1
    37          0
    38          4
    39         63
    41         45
    42         11
    43        999
    44         22
    45          0
    46          0
    47          0
    50          4
    51         23
    52          3
    53          8
    54          2
    55         77
    56         10
    57          7
    58          7
    59          0
    60          0
    62          0
    63          7
    64          4
    65         53
    66         23
    67         10
    68         81
    69         14
    70          2
    71          9
    72          0
    74          0
    75          0
    76          1
    77         57
    78          4
    79          6
    80          0
    81        650
    82         46
    83         23
    84          8
    85         22
    86          0
    91          6
    92          2
    93          9
    94        430
    95         61
    96          4
    97          3
    98         36
    99         70
   100          4
   103          0
   104          0
   106          0
   107          2
   108          2
   109        288
   110         22
   111         18
   112          1
   115          0
   119          0
   121          3
   122          0
   123          1
   125          0
   126         14
   127        710
   128         59
   129          4
   130          0
   131          0
   133          0
   135          1
   136          2
   149          2
   150          0
   159          1
   162          0
   163          5
   164          0
   167          0
   173          0
   177          1
   202          0
   205          0
   216          0
   220         90
   221         14
   222          1