##TITLE=Library Entry 80733
##JCAMP-DX=Revision 4.10 
##DATA TYPE=MASS SPECTRUM
##SAMPLE DESCRIPTION=Chemical Concepts
##NAMES=HP
##CAS NAME=Malonyl dichloride
##MOLFORM=C3H2Cl2O2
##CAS REGISTRY NO=1663-67-8
##MP= -300
##BP= -300
##MW= 140
##$RETENTION INDEX=0
##$CONDENSED SPECTRUM=NO
##NPOINTS= 54
##XYDATA=(XY..XY) 1 
    26         22
    27          1
    28         25
    29         26
    30          1
    31          3
    34          1
    35         44
    36        109
    37         12
    38         28
    39          0
    41         90
    42        239
    43          5
    44          6
    46          0
    47         12
    48         12
    49        117
    50          5
    51         36
    52          2
    55          1
    56          0
    57          6
    59         23
    60          6
    61          4
    62          2
    63        322
    64          3
    65        107
    67          0
    68         17
    70          0
    71          0
    73          1
    75          0
    77         46
    78          0
    79         13
    81          0
    83          0
    84          0
    90          0
   104         11
   105        999
   106         36
   107        337
   108         10
   109          1
   140          3
   142          1