##TITLE=Library Entry 88223
##JCAMP-DX=Revision 4.10 
##DATA TYPE=MASS SPECTRUM
##SAMPLE DESCRIPTION=A.A.Kutin, Moscow, Russia
##NAMES=HP
##CAS NAME=Phosphonic acid, (hydroxyphenylmethyl)-, diethyl ester
##MOLFORM=C11H17O4P
##CAS REGISTRY NO=1663-55-4
##MP= -300
##BP= -300
##MW= 244
##$RETENTION INDEX=0
##$CONDENSED SPECTRUM=NO
##NPOINTS= 91
##XYDATA=(XY..XY) 1 
    33          2
    35          3
    36          6
    37         24
    38         35
    39         68
    40         46
    41         10
    42         12
    43         64
    44         83
    45        170
    46         24
    47         82
    48         13
    49         28
    50        170
    51        333
    52         85
    53         26
    54          2
    55          7
    57          5
    61          9
    62         18
    63         39
    64         26
    65        407
    66        116
    67         13
    69          4
    73         18
    74         54
    75         38
    76         59
    77        910
    78        170
    79        247
    80         26
    81        134
    82        541
    83        662
    84         11
    85         20
    87          4
    89         21
    90         22
    91         74
    92         68
    93        121
    94         89
    95         47
    96          5
    97          6
   104         17
   105        755
   106        640
   107        262
   108         28
   109        101
   110        243
   111        999
   112         26
   113          6
   117         12
   118         57
   119         10
   120          3
   121          4
   122          2
   123         23
   124          7
   125          9
   127          5
   137         26
   138        580
   139         59
   140          9
   141          3
   153         26
   154          4
   172          3
   187          9
   188          8
   199         13
   200          2
   215         16
   216         14
   228          6
   244         93
   245         10