##TITLE=Library Entry 31268
##JCAMP-DX=Revision 4.10 
##DATA TYPE=MASS SPECTRUM
##SAMPLE DESCRIPTION=Chemical Concepts
##NAMES=HP
##CAS NAME=Methyl 2-(methylthio)acetate
##MOLFORM=C4H8O2S
##CAS REGISTRY NO=16630-66-3
##MP= -300
##BP= -300
##MW= 120
##$RETENTION INDEX=904
##$CONDENSED SPECTRUM=NO
##NPOINTS= 66
##XYDATA=(XY..XY) 1 
    23          1
    24          2
    25          1
    26          9
    27        182
    28         62
    29         66
    30         20
    31         43
    33          4
    34          6
    35        198
    36          5
    38          1
    40         13
    41          6
    42        108
    43        174
    44         17
    45        191
    46        136
    47         76
    48         26
    49         13
    51          0
    52          0
    53          1
    55          8
    56          5
    57         11
    58         10
    59         76
    60         24
    61        999
    62         34
    63         48
    64          0
    65          1
    69          3
    70          0
    71          4
    72          2
    74        541
    75         16
    76          1
    77          3
    78          3
    79          0
    83          1
    84          1
    86          1
    87          1
    88          7
    89         16
    90          2
    91          1
    93          1
    95          1
    96          2
    97          1
    98          3
   105          1
   119          4
   120        341
   121         11
   122         21