##TITLE=Library Entry 22698
##JCAMP-DX=Revision 4.10 
##DATA TYPE=MASS SPECTRUM
##SAMPLE DESCRIPTION=Japan AIST/NIMC Database- Spectrum MS-NW-3281
##NAMES=HP
##CAS NAME=cis-3-Aminocyclohexanecarboxylic acid
##MOLFORM=C7H13NO2
##CAS REGISTRY NO=16636-51-4
##MP= -300
##BP= -300
##MW= 143
##$RETENTION INDEX=0
##$CONDENSED SPECTRUM=NO
##NPOINTS= 108
##XYDATA=(XY..XY) 1 
    12          2
    13          1
    14          4
    15         21
    16         10
    17         39
    18        177
    20          1
    24          2
    25          6
    26         55
    27        151
    28        159
    29         56
    30        140
    31          4
    33          1
    36         12
    37         13
    38         22
    39        183
    40         40
    41        213
    42        102
    43        443
    44         37
    45         26
    46          8
    47          3
    48          1
    49          6
    50         31
    51         53
    52         55
    53         91
    54        218
    55         99
    56        999
    57        107
    58         15
    59          3
    60          3
    61          3
    62          4
    63         10
    64          6
    65         28
    66         34
    67        162
    68         61
    69        237
    70        208
    71         40
    72          9
    73         16
    74          8
    75          5
    76          9
    77         58
    78         50
    79        134
    80         91
    81         93
    82        145
    83        275
    84         25
    85          4
    86          6
    87          3
    89          1
    90          2
    91          6
    92         28
    93         10
    94         11
    95         10
    96        137
    97         39
    98        486
    99         37
   100        255
   101         60
   102          8
   103         15
   104         11
   105         12
   106         32
   107         49
   108         34
   109          5
   110         11
   111          3
   113          2
   114         13
   115          3
   121          1
   122          1
   123          3
   124          7
   125        157
   126         25
   127          3
   128          8
   129          2
   142         13
   143        186
   144         16
   145          2