##TITLE=Library Entry 23558
##JCAMP-DX=Revision 4.10 
##DATA TYPE=MASS SPECTRUM
##SAMPLE DESCRIPTION=D.HENNEBERG, MAX-PLANCK INSTITUTE, MULHEIM, WEST GERMAN
Y
##NAMES=HP
##CAS NAME=Zinc, bis(1,1-dimethylethyl)-
##MOLFORM=C8H18Zn
##CAS REGISTRY NO=16636-96-7
##MP= -300
##BP= -300
##MW= 178
##$RETENTION INDEX=0
##$CONDENSED SPECTRUM=NO
##NPOINTS= 55
##XYDATA=(XY..XY) 1 
    26          3
    27         67
    28         54
    29        170
    30          4
    31          7
    32          0
    34          1
    37          1
    38          4
    39        134
    40         36
    41        479
    42        144
    43         62
    44          2
    50          1
    51          4
    52          2
    53         16
    54          7
    55         67
    56        284
    57        999
    58         43
    59         23
    60          0
    64         47
    65          2
    66         26
    67          5
    68         18
    69          0
    77          0
    79          1
    81          0
    83          0
    91          0
   105          0
   119          2
   120         16
   121         43
   122         21
   123         26
   124         15
   125         16
   126          4
   127          0
   178         56
   179          5
   180         31
   181          7
   182         21
   183          2
   184          0