##TITLE=Library Entry 70868
##JCAMP-DX=Revision 4.10 
##DATA TYPE=MASS SPECTRUM
##SAMPLE DESCRIPTION=Chemical Concepts
##NAMES=HP
##CAS NAME=2-Butanone, 4-(1-piperidinyl)-
##MOLFORM=C9H17NO
##CAS REGISTRY NO=16635-03-3
##MP= -300
##BP= -300
##MW= 155
##$RETENTION INDEX=0
##$CONDENSED SPECTRUM=NO
##NPOINTS= 80
##XYDATA=(XY..XY) 1 
    25          2
    26         16
    27         88
    28        106
    29         53
    30         43
    31          1
    36          0
    37          2
    38          4
    39         54
    40         10
    41        143
    42        187
    43        247
    44         77
    45          3
    48          0
    49          1
    50          3
    51          5
    52          3
    53         15
    54         35
    55        176
    56        131
    57         34
    58          6
    59          1
    60          0
    63          0
    65          2
    66          0
    67          9
    68         18
    69         62
    70        113
    71         17
    72          2
    77          0
    78          0
    79          2
    80          5
    81          3
    82         13
    83         15
    84         71
    85         19
    86          2
    91          0
    93          0
    94          4
    95          2
    96         87
    97         53
    98        999
    99         82
   100          3
   108          1
   110         14
   111          2
   112         41
   113          3
   114          2
   120          0
   122          0
   124          0
   126          3
   127          0
   134          0
   136          1
   138          2
   140          3
   141          0
   152          0
   153          1
   154         11
   155         64
   156          6
   157          0