##TITLE=Library Entry 52480
##JCAMP-DX=Revision 4.10 
##DATA TYPE=MASS SPECTRUM
##SAMPLE DESCRIPTION=J. F. J. TODD
##NAMES=HP
##CAS NAME=3-Pentenoic acid, 2,2-dimethyl-
##MOLFORM=C7H12O2
##CAS REGISTRY NO=16642-52-7
##MP= -300
##BP= -300
##MW= 128
##$RETENTION INDEX=0
##$CONDENSED SPECTRUM=NO
##NPOINTS= 13
##XYDATA=(XY..XY) 1 
    39         78
    41        216
    43         65
    53         29
    55        438
    59         25
    67         70
    69         60
    83        999
    95         27
   113         69
   114         40
   128        350