##TITLE=Library Entry 4238
##JCAMP-DX=Revision 4.10 
##DATA TYPE=MASS SPECTRUM
##SAMPLE DESCRIPTION=T. REICHENBACH
##NAMES=HP
##CAS NAME=1-Hexene, 1-iodo-, (E)-
##MOLFORM=C6H11I
##CAS REGISTRY NO=16644-98-7
##MP= -300
##BP= -300
##MW= 210
##$RETENTION INDEX=0
##$CONDENSED SPECTRUM=NO
##NPOINTS= 75
##XYDATA=(XY..XY) 1 
    14          7
    15         39
    17          5
    18         17
    25          3
    26         65
    27        513
    28        101
    29        210
    30          5
    31          2
    36          1
    37         21
    38         59
    39        523
    40        111
    41        999
    42         73
    43        347
    44         15
    45          1
    49          5
    50         36
    51         62
    52         31
    53        131
    54         89
    55        526
    56        101
    57         13
    58          2
    59          2
    61          4
    62          6
    63          9
    64          2
    65         12
    66          9
    67         30
    68          9
    69          2
    71          1
    73          6
    74          4
    75          2
    77          6
    78          2
    79          6
    81         12
    82          4
    83         61
    84          4
    85          2
    87          1
   127        184
   128         31
   129          1
   139          3
   140          6
   141         21
   147          2
   152          7
   153         26
   154        499
   155         17
   165          4
   166          1
   167        308
   168        102
   169         11
   180          3
   181          7
   210        642
   211         43
   212          1