##TITLE=Library Entry 50490
##JCAMP-DX=Revision 4.10 
##DATA TYPE=MASS SPECTRUM
##SAMPLE DESCRIPTION=NIST Mass Spectrometry Data Center
##NAMES=HP
##CAS NAME=3,6-Dimethyl-4,5,6,7-tetrahydrobenzofuran-2(3H)-one
##MOLFORM=C10H14O2
##CAS REGISTRY NO=16642-41-4
##MP= -300
##BP= -300
##MW= 166
##$RETENTION INDEX=1354
##$CONDENSED SPECTRUM=NO
##NPOINTS= 67
##XYDATA=(XY..XY) 1 
    26          7
    27         81
    28         29
    29         47
    37          4
    38         20
    39        265
    40         68
    41        230
    42         55
    43         81
    45          7
    46          5
    47          2
    48          1
    49          2
    50         26
    51         67
    52         46
    53        180
    54        147
    55        214
    56         50
    57         12
    60          3
    61          6
    62          9
    63         22
    64          5
    65         59
    66         41
    67        324
    68        259
    69        123
    70         12
    71          6
    74          4
    75          2
    77         61
    78         17
    79         67
    80         38
    81        999
    82        171
    83         32
    84         18
    91         19
    95        523
    96        101
    97          9
   107         26
   109         79
   110        229
   111         45
   112          5
   120         14
   122          7
   123        364
   124         43
   125          4
   137         56
   138        165
   139         15
   151         25
   166        417
   167         43
   168          4