##TITLE=Library Entry 82428
##JCAMP-DX=Revision 4.10 
##DATA TYPE=MASS SPECTRUM
##SAMPLE DESCRIPTION=NIST Mass Spectrometry Data Center, 1994
##NAMES=HP
##CAS NAME=1,2-Ethanediamine, N-phenyl-
##MOLFORM=C8H12N2
##CAS REGISTRY NO=1664-40-0
##MP= -300
##BP= -300
##MW= 136
##$RETENTION INDEX=1330
##$CONDENSED SPECTRUM=NO
##NPOINTS= 63
##XYDATA=(XY..XY) 1 
    13          0
    14          1
    15          8
    16          0
    26          5
    27         25
    28         71
    29          0
    30        200
    31          5
    37          6
    38         16
    39         47
    40         10
    41         13
    42         23
    43         11
    44          6
    45          0
    50         40
    51        135
    52         27
    53          7
    54          2
    56          0
    57          1
    59          0
    61          2
    62          7
    63         17
    64         10
    65         31
    66         14
    67          3
    73          2
    74         11
    75          8
    76          0
    77        262
    78         58
    79        144
    80         12
    88          0
    89          2
    90          3
    91         16
    92          7
    93         11
    94          2
   102          0
   104         38
   106        999
   107        203
   108         13
   117          7
   118         10
   119          1
   120          0
   133          1
   134          1
   136        150
   137         14
   138          0