##TITLE=Library Entry 67614
##JCAMP-DX=Revision 4.10 
##DATA TYPE=MASS SPECTRUM
##SAMPLE DESCRIPTION=J.VOTH UNIV. OF CALIF, DAVIS, CALIFORNIA, 95616, USA
##NAMES=HP
##CAS NAME=Cyclohexene, 1-chloro-6-methyl-
##MOLFORM=C7H11Cl
##CAS REGISTRY NO=16642-50-5
##MP= -300
##BP= -300
##MW= 130
##$RETENTION INDEX=0
##$CONDENSED SPECTRUM=NO
##NPOINTS= 97
##XYDATA=(XY..XY) 1 
    12          2
    13          4
    14         16
    15        134
    16          4
    17          7
    18         24
    25          3
    26         54
    27        312
    28         50
    29         53
    30          1
    31          2
    32          1
    35          3
    36          5
    37         28
    38         64
    39        403
    40         59
    41        203
    42         20
    43         12
    44          4
    45         16
    46         14
    47          5
    48          2
    49         30
    50         70
    51        163
    52         52
    53        233
    54         49
    55        146
    56         13
    57          2
    60          5
    61         22
    62         28
    63         59
    64         14
    65        104
    66         52
    67        369
    68         90
    69         10
    70          1
    72          3
    73         22
    74         11
    75         41
    76          9
    77        191
    78         37
    79        331
    80         37
    81         70
    82          5
    83          1
    84          3
    85          3
    86          4
    87          7
    88        147
    89        112
    90         54
    91         81
    92          9
    93         49
    94         76
    95        999
    96         78
    97          5
    99          4
   100          4
   101         12
   102         76
   103          8
   104         23
   105          2
   111          1
   112          5
   113          3
   114          2
   115         69
   116          6
   117         22
   118          2
   125          1
   126          1
   129          3
   130        230
   131         19
   132         73
   133          6