##TITLE=Library Entry 6868
##JCAMP-DX=Revision 4.10 
##DATA TYPE=MASS SPECTRUM
##SAMPLE DESCRIPTION=NB-272
##NAMES=HP
##CAS NAME=Ajmalan-17-ol, (17R)-
##MOLFORM=C20H26N2O
##CAS REGISTRY NO=16641-67-1
##MP= -300
##BP= -300
##MW= 310
##$RETENTION INDEX=0
##$CONDENSED SPECTRUM=NO
##NPOINTS= 245
##XYDATA=(XY..XY) 1 
    36         10
    37         20
    38         30
    39        230
    40        260
    41        639
    42        669
    43        999
    44        609
    45        999
    46         50
    47         20
    48         10
    49         60
    50         40
    51         90
    52         50
    53        120
    54        170
    55        300
    56        200
    57        140
    58         40
    59         30
    60        999
    61         50
    62         20
    63         40
    64         20
    65         80
    66         30
    67        120
    68         80
    69         90
    70         80
    71        120
    72         40
    73         20
    74         30
    75         30
    76         40
    77        190
    78         90
    79         80
    80        120
    81        100
    82        210
    83         70
    84         80
    85         30
    86         30
    87         10
    88         20
    89         20
    90         50
    91        110
    92         40
    93         60
    94         90
    95        100
    96         80
    97         40
    98         80
    99         30
   100         20
   101         30
   102         50
   103         80
   104         40
   105         40
   106         70
   107         40
   108         80
   109         40
   110        260
   111         60
   112         70
   113         30
   114         20
   115        140
   116         60
   117        140
   118         70
   119         30
   120         40
   121         40
   122         50
   123         20
   124         70
   125         40
   126         30
   127         60
   128         90
   129         70
   130        180
   131        260
   132        150
   133         30
   134         30
   135         10
   136         70
   137         30
   138         60
   139         30
   140         60
   141         50
   142         60
   143        130
   144        679
   145        140
   146         60
   147         20
   148         20
   149         70
   150         80
   151         30
   152         50
   153         30
   154         70
   155        120
   156        130
   157        430
   158        240
   159         50
   160        120
   161         20
   162         20
   163         10
   164         20
   165         20
   166        200
   167        150
   168        160
   169        100
   170        170
   171         90
   172         70
   173         50
   174         20
   175         10
   176         10
   177         10
   178         20
   179         20
   180         80
   181        100
   182        679
   183        450
   184        170
   185         70
   186         40
   187         10
   188         10
   190         10
   191         10
   192         10
   193         20
   194        100
   195         60
   196        130
   197         90
   198        220
   199         60
   200         50
   201         10
   202         10
   203         10
   204         10
   205         10
   206         20
   207         20
   208         40
   209         40
   210         40
   211         40
   212         50
   213         20
   214         10
   215         10
   217         10
   218         10
   219         10
   220         30
   221         20
   222         20
   223         50
   224         30
   225         30
   226         20
   227         10
   228         10
   231         10
   232         10
   233         10
   234         10
   235         30
   236         40
   237        130
   238         50
   239         50
   240         20
   241         20
   242         10
   246         10
   247         10
   248         10
   249         10
   250         10
   251         20
   252         20
   253         40
   254         40
   255         20
   256         10
   261         10
   262         10
   263         20
   264         10
   265         40
   266         20
   267         20
   268         10
   269         10
   275         10
   277         10
   278         10
   279         40
   280         20
   281         90
   282         30
   283         10
   289         10
   290         10
   291         20
   292         20
   293        110
   294         40
   295         40
   296         10
   307         10
   308         20
   309        460
   310        999
   311        230
   312         30