##TITLE=Library Entry 5784
##JCAMP-DX=Revision 4.10 
##DATA TYPE=MASS SPECTRUM
##SAMPLE DESCRIPTION=N.C.PAUL M.O.D., AVIATION SUPPLY, E.R.D.E., WALTHAM ABB
EY UK
##NAMES=HP
##CAS NAME=Peroxide, bis(1-methylethyl)
##MOLFORM=C6H14O2
##CAS REGISTRY NO=16642-57-2
##MP= -300
##BP= -300
##MW= 118
##$RETENTION INDEX=0
##$CONDENSED SPECTRUM=NO
##NPOINTS= 64
##XYDATA=(XY..XY) 1 
    12          1
    13          2
    14         12
    15        118
    16          5
    17          4
    18         16
    19          5
    25          2
    26         18
    27        154
    28         51
    29        221
    30          6
    31         83
    32          4
    33          5
    37          5
    38          9
    39         93
    40         19
    41        288
    42        154
    43        999
    44         48
    45         67
    46          2
    50          6
    51          6
    52          3
    53          9
    54          8
    55         51
    56        220
    57        192
    58         27
    59         45
    60          2
    61        182
    62          1
    63          1
    65          2
    66          1
    67          4
    68          5
    69         45
    70          6
    71         11
    72          1
    74          1
    75         22
    76         80
    77          9
    78          2
    79          1
    80          1
    83          3
    84         38
    85          7
    86         31
    87          4
   103          1
   118         75
   119          5