##TITLE=Library Entry 3676
##JCAMP-DX=Revision 4.10 
##DATA TYPE=MASS SPECTRUM
##SAMPLE DESCRIPTION=Japan AIST/NIMC Database- Spectrum MS-NW-5246
##NAMES=HP
##CAS NAME=1,1,2,2-Tetrakis(allyloxy)ethane
##MOLFORM=C14H22O4
##CAS REGISTRY NO=16646-44-9
##MP= -300
##BP= -300
##MW= 254
##$RETENTION INDEX=0
##$CONDENSED SPECTRUM=NO
##NPOINTS= 67
##XYDATA=(XY..XY) 1 
    14          1
    15          8
    17          1
    18          3
    26          5
    27         23
    28         26
    29         24
    30          4
    31         21
    32          4
    37          3
    38          6
    39        108
    40         15
    41        999
    42         44
    43         36
    44          2
    45          2
    47          1
    53          9
    54          9
    55         55
    56          5
    57         64
    58          5
    59          3
    60          1
    65          2
    66          1
    67         15
    68          2
    69         13
    70          2
    71         24
    72          1
    77          2
    79         23
    80          3
    81        490
    82         34
    83          6
    84          3
    85          7
    87          9
    93          6
    95          4
    97          8
    98          1
    99         24
   100          3
   101          2
   109          1
   111          9
   113          1
   115          1
   127        268
   128         22
   129          9
   139          2
   140         18
   141          2
   155          2
   185         24
   186          2
   187          1