##TITLE=Library Entry 42815
##JCAMP-DX=Revision 4.10 
##DATA TYPE=MASS SPECTRUM
##SAMPLE DESCRIPTION=CARL DJERASSI DEPT OF CHEM STANFORD UNIV STANFORD CALIF
 94305
##NAMES=HP
##CAS NAME=2-Phenoxyethanethiol, TMS derivative
##MOLFORM=C11H18OSSi
##CAS REGISTRY NO=16654-62-9
##MP= -300
##BP= -300
##MW= 226
##$RETENTION INDEX=0
##$CONDENSED SPECTRUM=NO
##NPOINTS= 28
##XYDATA=(XY..XY) 1 
    43         30
    44         10
    45         60
    51         30
    59         30
    60         30
    61         20
    65         50
    66         10
    73        999
    74         90
    75         60
    77         80
    91         30
    93         70
    94        130
    95         20
   133        340
   134         40
   135         40
   151        410
   152         60
   153         20
   166        380
   167         60
   168         10
   211        200
   226         20