##TITLE=Library Entry 63430
##JCAMP-DX=Revision 4.10 
##DATA TYPE=MASS SPECTRUM
##SAMPLE DESCRIPTION=Japan AIST/NIMC Database- Spectrum MS-NW-7246
##NAMES=HP
##CAS NAME=O-Benzyl-L-tyrosine
##MOLFORM=C16H17NO3
##CAS REGISTRY NO=16652-64-5
##MP= -300
##BP= -300
##MW= 271
##$RETENTION INDEX=0
##$CONDENSED SPECTRUM=NO
##NPOINTS= 71
##XYDATA=(XY..XY) 1 
    16          1
    17          1
    18          3
    27          5
    28         36
    29          3
    30         19
    38          3
    39         24
    40          2
    41          9
    42          2
    43          2
    44         11
    45          1
    46          6
    50          4
    51         16
    52          8
    53          4
    54          1
    55          1
    62          4
    63         11
    64          6
    65         62
    66          5
    67          1
    74         19
    75          1
    76          1
    77         13
    78          9
    79          7
    80          6
    81          1
    89         12
    90         11
    91        999
    92         79
    93          3
   104          1
   105          1
   106         10
   107         45
   108          5
   115          1
   118          1
   119          2
   120          2
   133          1
   134          9
   135          7
   136          1
   152          1
   153          1
   165          1
   167          1
   179          1
   181          1
   195          1
   196          1
   197        205
   198         43
   199          4
   210          1
   225          2
   226          9
   227          2
   271          8
   272          1