##TITLE=Library Entry 76423
##JCAMP-DX=Revision 4.10 
##DATA TYPE=MASS SPECTRUM
##SAMPLE DESCRIPTION=NIST Mass Spectrometry Data Center, 2007
##NAMES=HP
##CAS NAME=2-Ethoxyethanol, TMS derivative
##MOLFORM=C7H18O2Si
##CAS REGISTRY NO=16654-45-8
##MP= -300
##BP= -300
##MW= 162
##$RETENTION INDEX=888
##$CONDENSED SPECTRUM=NO
##NPOINTS= 70
##XYDATA=(XY..XY) 1 
    14          1
    15         14
    19          2
    26          6
    27         46
    28         20
    29        108
    30          7
    31         77
    33          1
    39          2
    41          7
    42         11
    43         91
    44         35
    45        159
    46         11
    47         44
    48          2
    49          2
    50          1
    51         13
    53          4
    54          1
    55         10
    56          3
    57         11
    58         58
    59        172
    60         20
    61         68
    62          5
    63          5
    66         12
    69          1
    70          4
    71          9
    72         28
    73        906
    74         90
    75        836
    76         62
    77         50
    78          2
    79          1
    85          2
    86          2
    87         17
    88         28
    89         24
    90         17
    91          3
    92          1
    99          2
   101         58
   103        999
   104         96
   105         40
   106          2
   116          2
   117         35
   118         19
   119         34
   120          4
   121          1
   131          1
   147        596
   148         72
   149         26
   150          2