##TITLE=Library Entry 20811
##JCAMP-DX=Revision 4.10 
##DATA TYPE=MASS SPECTRUM
##SAMPLE DESCRIPTION=Exported from NIST MS Search
##NAMES=HP
##CAS NAME=6-Phenoxy-1-hexanol, TMS derivative
##MOLFORM=C15H26O2Si
##CAS REGISTRY NO=16654-55-0
##MP= -300
##BP= -300
##MW= 266
##$RETENTION INDEX=0
##$CONDENSED SPECTRUM=NO
##NPOINTS= 57
##XYDATA=(XY..XY) 1 
    41        252
    42         29
    43         44
    44         29
    45         73
    47         58
    51         44
    53         14
    54         29
    55        999
    56         58
    58         29
    59         73
    61         58
    65         58
    66         29
    67         58
    72         29
    73        882
    74         85
    75        382
    76         29
    77        147
    78         14
    79         23
    81         44
    82         58
    83        985
    84         73
    85         14
    87         29
    89         35
    91        191
    92         29
    94        661
    95         58
    99         29
   101         52
   103        308
   104         50
   105         29
   107         38
   151        470
   152         73
   153         32
   156         50
   166        220
   167         44
   168         14
   169         88
   173        323
   174         58
   175         29
   181        117
   266        558
   267        117
   268         58