##TITLE=Library Entry 81247
##JCAMP-DX=Revision 4.10 
##DATA TYPE=MASS SPECTRUM
##SAMPLE DESCRIPTION=Chemical Concepts
##NAMES=HP
##CAS NAME=Glyoxylamide, N-(2'-formylphenyl)-2-phenyl-
##MOLFORM=C15H11NO3
##CAS REGISTRY NO=166538-05-2
##MP= -300
##BP= -300
##MW= 253
##$RETENTION INDEX=0
##$CONDENSED SPECTRUM=NO
##NPOINTS= 85
##XYDATA=(XY..XY) 1 
    26          0
    27         11
    28          3
    29          5
    37          1
    38          7
    39         27
    40          2
    41          3
    42          1
    43          1
    44          0
    45          0
    49          0
    50         27
    51        142
    52         14
    53          1
    54          0
    55          0
    56          0
    57          0
    61          0
    62          3
    63         10
    64         10
    65         59
    66          6
    67          0
    73          0
    74          6
    75          7
    76         15
    77        429
    78         33
    79          1
    87          0
    88          0
    89          0
    90          7
    91          5
    92         52
    93         11
    94          0
   102          2
   103          0
   104          3
   105        999
   106         80
   107          5
   108          0
   115          0
   118          0
   119          6
   120         37
   121          9
   122          0
   130          9
   131          0
   132          0
   139          0
   146          6
   147          1
   148        529
   149         48
   150          4
   151          0
   152          0
   166          0
   167          0
   168          0
   178          0
   180          0
   181          0
   183          0
   196          2
   197          1
   224          0
   225          0
   236          0
   248          0
   252          0
   253        123
   254         23
   255          2