##TITLE=Library Entry 35338
##JCAMP-DX=Revision 4.10 
##DATA TYPE=MASS SPECTRUM
##SAMPLE DESCRIPTION=CARL DJERASSI DEPT OF CHEM STANFORD UNIV STANFORD CALIF
 94305
##NAMES=HP
##CAS NAME=5-Phenoxy-1-pentanol, TMS derivative
##MOLFORM=C14H24O2Si
##CAS REGISTRY NO=16654-53-8
##MP= -300
##BP= -300
##MW= 252
##$RETENTION INDEX=0
##$CONDENSED SPECTRUM=NO
##NPOINTS= 59
##XYDATA=(XY..XY) 1 
    41        370
    42         20
    43         40
    44         20
    45         60
    47         50
    51         40
    53         10
    55         30
    57         20
    58         30
    59         70
    61         50
    65         60
    66         30
    67         30
    68         20
    69        999
    70         60
    72         20
    73        900
    74         80
    75        460
    76         40
    77        150
    78         10
    79         10
    85         40
    89         20
    91         70
    94        690
    95         60
    99         10
   101         40
   103        390
   104         40
   105         20
   107         20
   115         10
   129         20
   135         10
   137         20
   143         30
   147         70
   149         10
   151        480
   152         80
   153         40
   159        760
   160        110
   161         30
   166        170
   167         30
   169         20
   181        100
   182         10
   206         10
   252        120
   253         30