##TITLE=Library Entry 82799
##JCAMP-DX=Revision 4.10 
##DATA TYPE=MASS SPECTRUM
##SAMPLE DESCRIPTION=CARL DJERASSI DEPT OF CHEM STANFORD UNIV STANFORD CALIF
 94305
##NAMES=HP
##CAS NAME=N'-Phenylethylenediamine, TMS derivative
##MOLFORM=C11H20N2Si
##CAS REGISTRY NO=16654-63-0
##MP= -300
##BP= -300
##MW= 208
##$RETENTION INDEX=0
##$CONDENSED SPECTRUM=NO
##NPOINTS= 40
##XYDATA=(XY..XY) 1 
    42         20
    43         30
    44         30
    45         50
    50         20
    51        100
    52         10
    58         10
    59         40
    65         30
    71         20
    72         10
    73        480
    74         70
    75         50
    76         10
    77        280
    78         50
    79         80
    88         10
    91         20
    92         10
    93         30
   102        750
   103         80
   104         70
   105         50
   106        999
   107        390
   108         30
   117         10
   118         20
   136        180
   137         10
   147         20
   150         10
   174         10
   178         30
   193         40
   208         90