##TITLE=Library Entry 79127
##JCAMP-DX=Revision 4.10 
##DATA TYPE=MASS SPECTRUM
##SAMPLE DESCRIPTION=Chemical Concepts
##NAMES=HP
##CAS NAME=Glyoxylic acid, phenyl-, (2'-acetylphenyl) ester
##MOLFORM=C16H12O4
##CAS REGISTRY NO=166538-12-1
##MP= -300
##BP= -300
##MW= 268
##$RETENTION INDEX=0
##$CONDENSED SPECTRUM=NO
##NPOINTS= 73
##XYDATA=(XY..XY) 1 
    26          0
    27          6
    37          0
    38          4
    39         12
    41          0
    42          0
    43         34
    44          0
    49          0
    50         19
    51         76
    52          4
    53          2
    55          0
    61          0
    62          2
    63         10
    64          7
    65          9
    66          1
    73          0
    74          3
    75          4
    76         12
    77        285
    78         19
    79          5
    80          0
    89          1
    90          0
    91          8
    92         10
    93          2
    94          0
   101          0
   102          0
   103          0
   104          3
   105        999
   106         87
   107         13
   108          1
   115          1
   118          0
   119          0
   120          3
   121          5
   122          0
   125          0
   127          0
   135          0
   136          2
   139          0
   141          0
   149          0
   152          0
   163          3
   164          0
   165          0
   168          0
   169          0
   181          0
   197          0
   209          0
   212          0
   222          0
   224          6
   225          1
   226          0
   240         21
   241          3
   242          0