##TITLE=Library Entry 35329
##JCAMP-DX=Revision 4.10 
##DATA TYPE=MASS SPECTRUM
##SAMPLE DESCRIPTION=Chemical Concepts
##NAMES=HP
##CAS NAME=1,8-Octanediol, 2TMS derivative
##MOLFORM=C14H34O2Si2
##CAS REGISTRY NO=16654-42-5
##MP= -300
##BP= -300
##MW= 290
##$RETENTION INDEX=0
##$CONDENSED SPECTRUM=NO
##NPOINTS= 145
##XYDATA=(XY..XY) 1 
    25          0
    26          2
    27         25
    28         14
    29         41
    30          1
    31          9
    32          2
    36          0
    37          1
    38          0
    39         21
    40          2
    41        161
    42         17
    43         71
    44         23
    45        122
    46          8
    47         75
    48          3
    49          2
    50          1
    51          1
    52          2
    53         13
    54         11
    55        451
    56         26
    57         43
    58         34
    59        139
    60         16
    61         74
    62          4
    63          3
    64          0
    65          3
    66         10
    67         76
    68         18
    69        999
    70         58
    71         10
    72         21
    73        507
    74         49
    75        490
    76         35
    77         23
    78          1
    79          6
    80          1
    81         25
    82         32
    83         37
    84          2
    85         13
    86          2
    87         20
    88          9
    89         25
    90          2
    91         11
    92          0
    93          2
    94          0
    95          7
    96          0
    97          5
    98          1
    99         21
   100          2
   101         40
   102          5
   103        164
   104         15
   105         16
   106          1
   107          1
   108          1
   109         34
   110         48
   111         96
   112          8
   113          5
   114          1
   115         21
   116          5
   117          7
   118          1
   119          5
   120          0
   121          0
   122          1
   123          0
   125          0
   126          0
   127          4
   128          0
   129         26
   130         22
   131         30
   132          4
   133         47
   134          6
   135          5
   137          0
   139          0
   141          1
   142          0
   143          5
   144          1
   145          1
   147        379
   148         60
   149        120
   150         17
   151          7
   152          0
   153          0
   155          1
   157         10
   158          1
   159          0
   161          1
   163          1
   165          4
   166          0
   169          0
   170          0
   171          3
   177         37
   178          6
   179          2
   180          0
   185         27
   186          4
   187          2
   200          9
   201          2
   202          0
   259          1
   275          3
   276          0