##TITLE=Library Entry 100151
##JCAMP-DX=Revision 4.10 
##DATA TYPE=MASS SPECTRUM
##SAMPLE DESCRIPTION=Exported from NIST MS Search
##NAMES=HP
##CAS NAME=Germane, trimethyl(2-phenoxyethoxy)-
##MOLFORM=C11H18GeO2
##CAS REGISTRY NO=16654-61-8
##MP= -300
##BP= -300
##MW= 256
##$RETENTION INDEX=0
##$CONDENSED SPECTRUM=NO
##NPOINTS= 108
##XYDATA=(XY..XY) 1 
    41          9
    42          9
    43         12
    47         29
    49         12
    50         61
    51        119
    52         16
    53         29
    55         45
    61         29
    62         38
    63         68
    64         35
    65        226
    66        165
    67         12
    68         12
    70         29
    71         35
    72         29
    73         58
    74         58
    75         68
    76         12
    77        262
    78         29
    79         12
    84         22
    85        106
    86         32
    87        171
    88         68
    89        223
    90         32
    91        129
    92         25
    93         38
    94        427
    95         48
    99         25
   100         35
   101         35
   102         45
   103         42
   104         68
   105         35
   106         12
   107         16
   109         12
   110         12
   111         32
   112         16
   113         16
   115        553
   116         32
   117        744
   118        242
   119        999
   120         48
   121        233
   122          9
   123         12
   135         19
   137         19
   138         22
   139         32
   141         16
   163         74
   164          9
   165        106
   166         35
   167        135
   168         19
   169         38
   177         19
   179         16
   180         19
   181         16
   182         16
   193         97
   194         12
   195        129
   196         38
   197        161
   198         19
   199         38
   208        132
   209         16
   210        171
   211         64
   212        226
   213         29
   214         61
   215         19
   229         32
   231         32
   232         19
   233         38
   234         16
   235         12
   236          9
   237         58
   239         12
   241         12
   252          3
   254          3
   256          3