##TITLE=Library Entry 79853
##JCAMP-DX=Revision 4.10 
##DATA TYPE=MASS SPECTRUM
##SAMPLE DESCRIPTION=Chemical Concepts
##NAMES=HP
##CAS NAME=Glyoxylamide, 2-phenyl-N-(2-cyanophenyl)-
##MOLFORM=C15H10N2O2
##CAS REGISTRY NO=166538-15-4
##MP= -300
##BP= -300
##MW= 250
##$RETENTION INDEX=0
##$CONDENSED SPECTRUM=NO
##NPOINTS= 67
##XYDATA=(XY..XY) 1 
    23          0
    26          0
    27          5
    28          0
    29          1
    37          1
    38          2
    39          9
    40          3
    41          4
    42          1
    43          4
    45          0
    50         14
    51         65
    52          5
    53          0
    56          2
    57          3
    61          0
    62          2
    63          7
    64          4
    65          1
    66          0
    69          0
    70          1
    71          0
    73          0
    74          3
    75          9
    76         10
    77        274
    78         19
    79          0
    85          0
    86          1
    87          0
    88          0
    89          1
    90         13
    91          3
    92          0
    93          0
   102          8
   103          1
   104          2
   105        999
   106         77
   107          4
   116          2
   117         10
   118          1
   119          0
   121          0
   125          0
   134          0
   144          4
   145         15
   146          1
   167          0
   192          0
   222          3
   223          0
   250         91
   251         14
   252          1