##TITLE=Library Entry 3502
##JCAMP-DX=Revision 4.10 
##DATA TYPE=MASS SPECTRUM
##SAMPLE DESCRIPTION=Chemical Concepts
##NAMES=HP
##CAS NAME=Tricyclo[5.1.0.0(3,5)]octane-2,6-dione, 1,3,5,7-tetramethyl-
##MOLFORM=C12H16O2
##CAS REGISTRY NO=16650-33-2
##MP= -300
##BP= -300
##MW= 192
##$RETENTION INDEX=0
##$CONDENSED SPECTRUM=NO
##NPOINTS= 87
##XYDATA=(XY..XY) 1 
    27        186
    28         46
    29         78
    31          5
    38         15
    39        349
    40        110
    41        999
    42         73
    43        243
    44          9
    50         23
    51         71
    52         38
    53        271
    54         33
    55         96
    56         22
    57         27
    62          6
    63         23
    64          8
    65         87
    66         45
    67        415
    68        281
    69        899
    70         44
    71          9
    74         12
    75          6
    76         10
    77        105
    78         24
    79        137
    80         31
    81         47
    82         14
    83         16
    91        153
    92         20
    93        145
    94         38
    95        114
    96        391
    97         56
   103         16
   104         12
   105        179
   106         75
   107        131
   108         44
   109        181
   110         34
   115         13
   116          9
   117         11
   119         48
   120         18
   121        395
   122        141
   123        275
   124        180
   125         18
   131         32
   133         17
   134          9
   135         95
   136         67
   137         59
   138          7
   141          7
   147         12
   149        186
   150         74
   151         20
   159         12
   163         32
   164        232
   165         29
   174         10
   175          7
   177         91
   178         12
   192        525
   193         69
   194          7