##TITLE=Library Entry 55678
##JCAMP-DX=Revision 4.10 
##DATA TYPE=MASS SPECTRUM
##SAMPLE DESCRIPTION=NIST Mass Spectrometry Data Center, 1994
##NAMES=HP
##CAS NAME=N,N-Diethyl-N'-phenylethylenediamine
##MOLFORM=C12H20N2
##CAS REGISTRY NO=1665-59-4
##MP= -300
##BP= -300
##MW= 192
##$RETENTION INDEX=0
##$CONDENSED SPECTRUM=NO
##NPOINTS= 72
##XYDATA=(XY..XY) 1 
    15         16
    17          0
    26          4
    27         50
    28         73
    29         96
    30        215
    37          1
    38          5
    39         24
    40          5
    41         14
    42         67
    43         18
    44         21
    50         10
    51         49
    52         10
    53          3
    54          7
    55          3
    56         40
    57         16
    58        149
    59          0
    60          0
    62          1
    63          7
    64          5
    65         21
    66          5
    67          1
    68          1
    69          0
    70          8
    71          7
    72         23
    73          1
    75          2
    77         91
    78         17
    79         16
    80          2
    84          6
    86        999
    87         59
    89          3
    90          1
    91         14
    92          6
    93          4
    94          1
    98          0
    99          0
   103          2
   104         10
   106         60
   107          5
   113          0
   117          4
   118         13
   119          4
   120         12
   121          1
   134          0
   145          0
   147          1
   175          3
   176          0
   192         27
   193          4
   194          0