##TITLE=Library Entry 20428
##JCAMP-DX=Revision 4.10 
##DATA TYPE=MASS SPECTRUM
##SAMPLE DESCRIPTION=CARL DJERASSI DEPT OF CHEM STANFORD UNIV STANFORD CALIF
 94305
##NAMES=HP
##CAS NAME=7-Phenoxyheptan-1-ol, TMS derivative
##MOLFORM=C16H28O2Si
##CAS REGISTRY NO=16654-57-2
##MP= -300
##BP= -300
##MW= 280
##$RETENTION INDEX=0
##$CONDENSED SPECTRUM=NO
##NPOINTS= 50
##XYDATA=(XY..XY) 1 
    41        120
    42         20
    43         50
    45         30
    47         20
    51         10
    54         10
    55        999
    56         50
    58         10
    59         40
    61         30
    65         20
    66         10
    67         30
    68         30
    69        120
    72         10
    73        490
    74         40
    75        250
    76         20
    77         90
    81         30
    89         20
    91         80
    94        470
    95         50
    96         20
    97        480
    98         40
   101         20
   103        240
   104         20
   105         10
   107         20
   129         20
   133         10
   151        240
   152         30
   153         20
   166        110
   167         10
   169         50
   171         20
   181         60
   187         30
   280        330
   281         80
   282         20