##TITLE=Library Entry 52731
##JCAMP-DX=Revision 4.10 
##DATA TYPE=MASS SPECTRUM
##SAMPLE DESCRIPTION=Exported from NIST MS Search
##NAMES=HP
##CAS NAME=2-(Cyclohexyloxy)ethanol, TMS derivative
##MOLFORM=C11H24O2Si
##CAS REGISTRY NO=16654-73-2
##MP= -300
##BP= -300
##MW= 216
##$RETENTION INDEX=0
##$CONDENSED SPECTRUM=NO
##NPOINTS= 67
##XYDATA=(XY..XY) 1 
    41        393
    42         58
    43         84
    44         40
    45        139
    46         58
    51         14
    52         29
    53         49
    54         87
    55        679
    56         37
    57        151
    58         49
    60          8
    61         64
    66         78
    67        139
    68         11
    69         14
    70         14
    71         11
    72         35
    73        967
    74         87
    75        865
    76         78
    77         55
    79         37
    80         11
    81         58
    82        116
    83        999
    84         78
    87         26
    88         17
    89         49
    90         93
    91         17
    95         29
    98         99
    99         96
   101        125
   102         20
   103        323
   104         49
   105         35
   113         49
   115         20
   116         35
   117        125
   118        110
   119        679
   120         61
   121         35
   129         58
   131         35
   133         20
   135         20
   144         49
   157         29
   170         26
   171        279
   172         55
   173         49
   201         29
   216          1