##TITLE=Library Entry 58813
##JCAMP-DX=Revision 4.10 
##DATA TYPE=MASS SPECTRUM
##SAMPLE DESCRIPTION=Japan AIST/NIMC Database- Spectrum MS-IW- 947
##NAMES=HP
##CAS NAME=Benzaldehyde tosylhydrazone
##MOLFORM=C14H14N2O2S
##CAS REGISTRY NO=1666-17-7
##MP= -300
##BP= -300
##MW= 274
##$RETENTION INDEX=0
##$CONDENSED SPECTRUM=NO
##NPOINTS= 144
##XYDATA=(XY..XY) 1 
    26          3
    27         11
    28         20
    29          2
    32          2
    34          1
    37          7
    38         24
    39        125
    40         20
    41         25
    42          2
    43          9
    44          9
    45         30
    46          1
    47          1
    48         10
    49          3
    50         40
    51         94
    52         17
    53          8
    54          1
    55          2
    57          3
    58          1
    59          7
    60          4
    61         12
    62         43
    63        153
    64         84
    65        427
    66         30
    67         17
    68          1
    69          7
    70          2
    71          4
    73          2
    74          9
    75         12
    76         11
    77        135
    78         32
    79         51
    80         20
    81          3
    82          2
    83          1
    84          2
    85          5
    86          8
    87          8
    88          4
    89        436
    90        999
    91        685
    92        683
    93         50
    94          2
    95          5
    96          1
    97          3
   102         12
   103          8
   104         12
   105         53
   106         55
   107         75
   108         48
   109          6
   110          2
   111         13
   112          1
   113          1
   115          2
   117          2
   118        651
   119        377
   120         30
   121         22
   122         14
   123         21
   124         28
   125          3
   126          1
   128          1
   129          1
   131          8
   135          1
   137          1
   138          1
   139        105
   140         54
   141          9
   142          3
   149          1
   151          1
   152          4
   153          2
   154          1
   155         15
   156        208
   157         20
   158         10
   165         16
   166          9
   167          6
   168          1
   171          2
   176          1
   177          1
   178         10
   179         14
   180         14
   181          7
   182          4
   183          1
   184          2
   194          2
   195          1
   197          1
   198          1
   199          3
   206          1
   207          5
   208          6
   209          9
   210          2
   211          1
   213          4
   214         10
   215          2
   246          6
   247          1
   259          2
   274        199
   275         36
   276         11
   277          2
   278          5
   279          1