##TITLE=Library Entry 85537
##JCAMP-DX=Revision 4.10 
##DATA TYPE=MASS SPECTRUM
##SAMPLE DESCRIPTION=J. SHAW, BORRISTON RESEARCH, ROCKVILLE, MD, USA
##NAMES=HP
##CAS NAME=Carbophenoxon sulfone
##MOLFORM=C11H16ClO5PS2
##CAS REGISTRY NO=16662-87-6
##MP= -300
##BP= -300
##MW= 358
##$RETENTION INDEX=2360
##$CONDENSED SPECTRUM=NO
##NPOINTS= 150
##XYDATA=(XY..XY) 1 
    12          4
    13          3
    14         15
    15         63
    16         12
    17         30
    18        105
    19         18
    25          3
    26         45
    27        332
    28        146
    29        792
    30         27
    31         39
    32         14
    33          5
    34          7
    35          8
    36         14
    37          5
    38         14
    39         26
    40          2
    41         21
    42          9
    43         71
    44         29
    45        330
    46        250
    47        229
    48         29
    49         16
    50        130
    51         78
    52          5
    53          3
    54          1
    55          5
    56          1
    57         15
    58          6
    59         21
    60         13
    61         24
    62         13
    63         44
    64         23
    65        194
    66          4
    67          1
    69         14
    70          4
    71          4
    72          4
    73         31
    74         53
    75        744
    76         76
    77         62
    78          7
    79         15
    81        611
    82         47
    83         23
    84          7
    85         28
    86          3
    87         15
    88          1
    89         22
    91        206
    93         64
    94          4
    95         22
    96         17
    97         80
    98          5
    99         38
   100          4
   101          7
   102          1
   103          1
   105          1
   106          1
   107         10
   109        999
   110         44
   111        379
   112         60
   113        109
   114         27
   115         14
   116          1
   117          2
   121         10
   122          2
   123          7
   124          6
   125         70
   127        212
   128         20
   129         12
   130          7
   131         31
   132          2
   133         11
   135          1
   137        299
   139        408
   140         19
   141         35
   142          5
   143         12
   144          7
   145          3
   146          2
   149          1
   153         83
   155        243
   156         11
   157         23
   159        126
   160         16
   161         43
   162          5
   163          1
   167          5
   169          9
   170          5
   171          2
   173          1
   175         26
   176          3
   177         13
   178          1
   179          2
   183        594
   184         37
   185         29
   186          1
   205          1
   208          7
   210          2
   236          1
   267          3
   269          1
   294          1
   359          3
   361          1