##TITLE=Library Entry 100174
##JCAMP-DX=Revision 4.10 
##DATA TYPE=MASS SPECTRUM
##SAMPLE DESCRIPTION=Japan AIST/NIMC Database- Spectrum MS-IW-7291
##NAMES=HP
##CAS NAME=Benzenesulfonic acid, (phenylmethylene)hydrazide
##MOLFORM=C13H12N2O2S
##CAS REGISTRY NO=1666-16-6
##MP= -300
##BP= -300
##MW= 260
##$RETENTION INDEX=0
##$CONDENSED SPECTRUM=NO
##NPOINTS= 203
##XYDATA=(XY..XY) 1 
    14          2
    16          6
    17         20
    18        101
    25          1
    26         10
    27         27
    28        213
    29          8
    30          3
    31          6
    32          8
    33          5
    34         13
    36          2
    37         20
    38         40
    39        142
    40         18
    41         13
    42          5
    43         11
    44         10
    45         31
    46          2
    47          2
    48         29
    49         15
    50        150
    51        384
    52         83
    53         23
    54         11
    55         17
    56          2
    57          6
    58         11
    59          9
    60          5
    61         15
    62         40
    63        129
    64        118
    65        390
    66        179
    67         10
    68          2
    69         40
    70          6
    71          9
    72          2
    73         13
    74         56
    75         45
    76         82
    77        910
    78        545
    79         44
    80          3
    81         11
    82         11
    83          6
    84         59
    85          7
    86          9
    87          7
    88          8
    89        306
    90        901
    91        244
    92        682
    93         73
    94         79
    95          9
    96          3
    97         39
    98          3
    99          3
   100          1
   101          2
   102         36
   103         79
   104         53
   105        363
   106        346
   107         36
   108         22
   109        154
   110        527
   111         46
   112         23
   113          3
   114          1
   115          8
   116          4
   117          7
   118        940
   119        999
   120        105
   121         31
   122         20
   123          4
   124          2
   125        162
   126         74
   127         14
   128          7
   129          5
   130          4
   131         36
   132          8
   133          2
   134          2
   135          1
   137          1
   138          1
   139          5
   140          3
   141         35
   142        144
   143         23
   144         13
   145          3
   149          2
   150          8
   151          7
   152         19
   153          9
   154         13
   155          2
   156          1
   157         16
   158         39
   159         10
   160          4
   161          1
   163          2
   164          3
   165         48
   166         12
   167         14
   168          6
   169          2
   170          1
   171          4
   172          3
   173          1
   174          1
   175          1
   176          8
   177          8
   178         58
   179         90
   180        101
   181         20
   182          4
   183          2
   184          9
   185         13
   186         16
   187          3
   188          1
   191          1
   192          2
   193          2
   194          3
   195          8
   196          2
   197          3
   198          2
   199          4
   200          4
   201          1
   202          2
   204          1
   205          1
   206          1
   207         20
   208         26
   209          6
   210          2
   211          1
   212          1
   213          1
   218         17
   219          4
   220          4
   221          1
   232          4
   233          2
   234          2
   235          3
   236          1
   240          1
   241          1
   242          1
   244          1
   245          2
   246          1
   260        318
   261         57
   262         20
   263          3