##TITLE=Library Entry 47493
##JCAMP-DX=Revision 4.10 
##DATA TYPE=MASS SPECTRUM
##SAMPLE DESCRIPTION=Exported from NIST MS Search
##NAMES=HP
##CAS NAME=Diselenide, diphenyl
##MOLFORM=C12H10Se2
##CAS REGISTRY NO=1666-13-3
##MP= -300
##BP= -300
##MW= 314
##$RETENTION INDEX=0
##$CONDENSED SPECTRUM=NO
##NPOINTS= 104
##XYDATA=(XY..XY) 1 
    26          9
    27         41
    28          1
    37         15
    38         22
    39        242
    40          3
    41          1
    49         11
    50        274
    51        501
    52         37
    53          1
    61          9
    62         15
    63         53
    64          3
    65        151
    66         11
    73          9
    74         85
    75         94
    76        113
    77        999
    78        217
    79          9
    80         28
    81          5
    82          5
    89          9
    90          5
    91         18
    93         47
    94          9
   101          9
   102         11
   103         28
   104         15
   105         47
   106         18
   107         28
   108          3
   109          3
   111          3
   113         22
   114         20
   115         72
   116          5
   117        142
   118         15
   119         28
   120          3
   125          1
   126         11
   127         20
   128         22
   129         37
   130         34
   131         32
   132          5
   133          5
   139          3
   141          5
   150          3
   151         22
   152         51
   153        231
   154        464
   155        520
   156        113
   157        975
   158        128
   159        174
   160         28
   172          5
   174          3
   175          3
   228          9
   229         13
   230         47
   231         53
   232        104
   233         56
   234        189
   235         56
   236         47
   237         37
   238          5
   239          9
   304          1
   305          1
   306         20
   307         22
   308         98
   309         75
   310        280
   311        170
   312        454
   313         79
   314        505
   315         60
   316        151
   317         18
   318         11