##TITLE=Library Entry 85848
##JCAMP-DX=Revision 4.10 
##DATA TYPE=MASS SPECTRUM
##SAMPLE DESCRIPTION=J. SHAW, BORRISTON RESEARCH, ROCKVILLE, MD, USA
##NAMES=HP
##CAS NAME=Carbophenoxon sulfoxide
##MOLFORM=C11H16ClO4PS2
##CAS REGISTRY NO=16662-86-5
##MP= -300
##BP= -300
##MW= 342
##$RETENTION INDEX=2383
##$CONDENSED SPECTRUM=NO
##NPOINTS= 170
##XYDATA=(XY..XY) 1 
    12          5
    13          3
    14         17
    15         75
    16          7
    17         15
    18         51
    19         18
    25          4
    26         59
    27        412
    28        124
    29        716
    30         25
    31         32
    32         12
    33          5
    34          5
    35          8
    36          9
    37          9
    38         21
    39         43
    40          2
    41         22
    42          9
    43         78
    45        656
    46        223
    47        249
    48         25
    49         20
    50        122
    51         81
    52          7
    53          5
    54          2
    55          6
    56          2
    57         22
    58         18
    59         24
    60         17
    61         26
    62         24
    63         96
    65        222
    66          4
    67          3
    69         76
    70         12
    71         13
    72          7
    73         55
    74         59
    75        635
    76         67
    77         89
    78         19
    79         29
    81        730
    82        109
    83         55
    84         10
    85         29
    86          4
    87         24
    89         30
    91        309
    92         13
    93         64
    95         51
    96         31
    97        155
    99         89
   100         12
   101         19
   102          4
   103          2
   104          1
   105          8
   106          6
   107         30
   108        232
   109        999
   111        479
   112         90
   113         72
   114         41
   115         29
   116          2
   117          4
   118          2
   119          1
   121         44
   122         19
   123         10
   125        148
   127        287
   128         12
   129         13
   131         73
   133         29
   134          2
   135          3
   137        405
   139        496
   140         21
   141         31
   142         26
   143        169
   144         58
   145         60
   146         18
   147          4
   148          1
   149          2
   151          1
   153        129
   155        314
   157        251
   159        211
   160         54
   161         43
   162         16
   163          3
   167          1
   169         13
   170         24
   171         32
   172          4
   173          6
   175         24
   176          3
   177          7
   178          1
   179          1
   183        688
   184         43
   185         32
   186          4
   187          6
   189         23
   191         10
   192          1
   203          1
   207          1
   217          2
   222          2
   224          1
   240          2
   280          1
   281          1
   286          3
   288          2
   296         10
   297          3
   298          4
   299          1
   312          1
   313          1
   318          1
   320          1
   326         35
   327         10
   328         12
   329          3
   330          1
   343         18
   345          9