##TITLE=Library Entry 92839
##JCAMP-DX=Revision 4.10 
##DATA TYPE=MASS SPECTRUM
##SAMPLE DESCRIPTION=Chemical Concepts
##NAMES=HP
##CAS NAME=Acetonitrile, [(ethyl)(dimethylaminato)(trifluoromethyl)borata]-
##MOLFORM=C7H14BF3N2
##CAS REGISTRY NO=166669-23-4
##MP= -300
##BP= -300
##MW= 194
##$RETENTION INDEX=0
##$CONDENSED SPECTRUM=NO
##NPOINTS= 115
##XYDATA=(XY..XY) 1 
    25          3
    26         12
    27         69
    28         64
    29         35
    30         55
    31         34
    33          1
    36          0
    37          7
    38          7
    39         24
    40         26
    41         46
    42         75
    43         17
    44        329
    45         87
    46         29
    48          2
    49         13
    50          6
    51         20
    52         58
    53         16
    54         29
    55         33
    56        135
    57         24
    58         37
    59         52
    60         99
    61          1
    62          2
    63          1
    64          3
    65          6
    66         12
    67          7
    68         25
    69         16
    70         38
    71         16
    72         60
    73        172
    74        678
    75         98
    76        360
    77         12
    78         15
    79          9
    80         29
    81         21
    82         37
    83         25
    84         95
    85         15
    86         40
    87         18
    88         25
    89          5
    90          6
    91          5
    92         17
    93        143
    94        654
    95         22
    96         27
    97        117
    98         20
    99         35
   100         36
   101         12
   102         28
   103        162
   104        622
   105         31
   106          0
   108          1
   109          3
   110          2
   111          2
   112          2
   113          8
   114        238
   115        999
   116         48
   120          0
   121          1
   123          1
   124         40
   125        180
   126         14
   127          2
   128          1
   129          2
   131          1
   135          0
   138          0
   143          3
   144          4
   145          4
   146          3
   149         46
   150          4
   151          0
   155          2
   156          7
   157          1
   165          3
   166          0
   193          0
   194          4
   195         16
   196          1