##TITLE=Library Entry 30419
##JCAMP-DX=Revision 4.10 
##DATA TYPE=MASS SPECTRUM
##SAMPLE DESCRIPTION=Chemical Concepts
##NAMES=HP
##CAS NAME=Benzenepropanol, .alpha.,.alpha.,.gamma.-trimethyl-
##MOLFORM=C12H18O
##CAS REGISTRY NO=16664-06-5
##MP= -300
##BP= -300
##MW= 178
##$RETENTION INDEX=0
##$CONDENSED SPECTRUM=NO
##NPOINTS= 101
##XYDATA=(XY..XY) 1 
    27         26
    28          3
    29         12
    31         43
    36          2
    38          2
    39         36
    40          4
    41         55
    42          4
    43         89
    44          2
    45          6
    50         10
    51         50
    52         11
    53         10
    54          1
    55         15
    56          4
    57          6
    58         15
    59        999
    60         38
    61          2
    62          3
    63         14
    64          5
    65         25
    66          3
    67          5
    69          6
    70          2
    71          3
    72          1
    73          2
    74          5
    75          5
    76          7
    77        113
    78        125
    79         86
    80          6
    81          3
    82          1
    83          7
    85          2
    88          1
    89          8
    90          2
    91        159
    92         19
    93          2
    94          2
    95          3
    97          2
    98          2
    99          1
   101          3
   102         11
   103         86
   104         62
   105        922
   106         79
   107         10
   109          1
   110          1
   111          2
   115         19
   116          5
   117         32
   118         12
   119         11
   120         60
   121         10
   122          0
   123          3
   124          1
   125          2
   127          3
   128          9
   129         10
   130          9
   131          4
   139          2
   141          3
   142          1
   143          4
   144          2
   145        716
   146         66
   147         11
   148          1
   149          1
   159         11
   160        403
   161         54
   162          3
   163         32
   164          4
   178          1