##TITLE=Library Entry 97828
##JCAMP-DX=Revision 4.10 
##DATA TYPE=MASS SPECTRUM
##SAMPLE DESCRIPTION=Japan AIST/NIMC Database- Spectrum MS-IW- 467
##NAMES=HP
##CAS NAME=N-(Acetoacetyl)phenylacetmaide
##MOLFORM=C12H13NO3
##CAS REGISTRY NO=16673-84-0
##MP= -300
##BP= -300
##MW= 219
##$RETENTION INDEX=0
##$CONDENSED SPECTRUM=NO
##NPOINTS= 88
##XYDATA=(XY..XY) 1 
    14          2
    15          9
    26          3
    27          9
    28         15
    29          4
    30          1
    31          2
    37          1
    38          4
    39         26
    40          3
    41         12
    42         16
    43        358
    44         25
    45          5
    50          5
    51         11
    52          4
    53          2
    55          3
    56          2
    57          1
    58          2
    59          9
    61          1
    62          4
    63         15
    64          5
    65         71
    66          5
    67          1
    68          1
    69         33
    70          2
    71          1
    72          1
    73          2
    74          1
    75          1
    76          1
    77          5
    78          2
    79          3
    83          1
    84         48
    85        130
    86         27
    87          2
    89         23
    90         78
    91        339
    92        197
    93         14
    94          1
    98          1
   101          6
   102         19
   103          1
   104          1
   105          2
   106          5
   107          2
   116          3
   117          9
   118        999
   119         89
   120          6
   128         18
   129          1
   133          1
   134          2
   135        113
   136         17
   137          1
   148          1
   149          2
   161          2
   176          1
   177          1
   199          3
   200          2
   201          1
   204          1
   219         55
   220          9
   221          1