##TITLE=Library Entry 86199
##JCAMP-DX=Revision 4.10 
##DATA TYPE=MASS SPECTRUM
##SAMPLE DESCRIPTION=Eur.Mass.Spectrom.,1(2)213(1995);V.Grossi ET AL
##NAMES=HP
##CAS NAME=2,3-Dimethyl-5-(2,6,10-trimethylundecyl) furan
##MOLFORM=C20H36O
##CAS REGISTRY NO=166773-56-4
##MP= -300
##BP= -300
##MW= 292
##$RETENTION INDEX=0
##$CONDENSED SPECTRUM=NO
##NPOINTS= 26
##XYDATA=(XY..XY) 1 
    53          8
    55         40
    56         12
    57         27
    65          8
    67          8
    69          8
    71          8
    76          8
    78          8
    81          8
    94          4
    95          4
    96          4
    97          4
   107          4
   109        999
   110        127
   111          8
   121          8
   123          8
   135          8
   136         38
   137         57
   292         12
   293          8