##TITLE=Library Entry 11419
##JCAMP-DX=Revision 4.10 
##DATA TYPE=MASS SPECTRUM
##SAMPLE DESCRIPTION=Exported from NIST MS Search
##NAMES=HP
##CAS NAME=2,4,6-Trioxa-8-thiaadamantane, 1,3,5,7-tetramethyl-, (.+/-.)-
##MOLFORM=C10H16O3S
##CAS REGISTRY NO=16679-98-4
##MP= -300
##BP= -300
##MW= 216
##$RETENTION INDEX=0
##$CONDENSED SPECTRUM=NO
##NPOINTS= 33
##XYDATA=(XY..XY) 1 
    15         42
    18         21
    27         13
    28         13
    29         10
    31          8
    39         27
    40          4
    41         27
    42          4
    43        999
    44         21
    45         21
    47          2
    58          2
    59         42
    69          6
    73         13
    74        208
    75         15
    76         13
    84          6
    86          6
   100         83
   101          4
   115         10
   116        448
   117         42
   118         25
   183          4
   216         83
   217         13
   218          4