##TITLE=Library Entry 100514
##JCAMP-DX=Revision 4.10 
##DATA TYPE=MASS SPECTRUM
##SAMPLE DESCRIPTION=Japan AIST/NIMC Database- Spectrum MS-NW-4715
##NAMES=HP
##CAS NAME=Benzene, 2-chloro-1,3,5-trimethyl-
##MOLFORM=C9H11Cl
##CAS REGISTRY NO=1667-04-5
##MP= -300
##BP= -300
##MW= 154
##$RETENTION INDEX=1157
##$CONDENSED SPECTRUM=NO
##NPOINTS= 98
##XYDATA=(XY..XY) 1 
    15          4
    26          3
    27         28
    28          2
    29          2
    36          3
    37          4
    38          9
    39         62
    40          7
    41         41
    42          2
    43          5
    44          2
    45          2
    49          4
    50         22
    51         61
    52         16
    53         24
    54          2
    55          3
    56          1
    57         23
    58         26
    59          3
    60          1
    61          6
    62         13
    63         35
    64          7
    65         41
    66          5
    67          3
    69          1
    70          1
    71          2
    72          1
    73          8
    74         11
    75         20
    76         20
    77         97
    78         30
    79         19
    80          2
    84          1
    85          4
    86          4
    87          7
    88          2
    89         18
    90          6
    91        136
    92         15
    93         10
    94          1
    95          1
    97          2
    98          3
    99          5
   100          1
   101          9
   102         23
   103         91
   104         35
   105         27
   106          2
   110          1
   111          2
   112          2
   113          3
   114          3
   115         86
   116         25
   117        110
   118         40
   119        999
   120        113
   121          7
   125          8
   126          1
   127          3
   136          1
   137          2
   138          5
   139        133
   140         12
   141         44
   142          4
   151          2
   152          3
   153         97
   154        535
   155         84
   156        175
   157         18
   158          1