##TITLE=Library Entry 51437
##JCAMP-DX=Revision 4.10 
##DATA TYPE=MASS SPECTRUM
##SAMPLE DESCRIPTION=J. SHAW, BORRISTON RESEARCH, ROCKVILLE, MD, USA
##NAMES=HP
##CAS NAME=Phosphonic acid, (2-chloroethyl)-
##MOLFORM=C2H6ClO3P
##CAS REGISTRY NO=16672-87-0
##MP= -300
##BP= -300
##MW= 144
##$RETENTION INDEX=0
##$CONDENSED SPECTRUM=NO
##NPOINTS= 106
##XYDATA=(XY..XY) 1 
    12          2
    13          3
    14         13
    15         20
    16         13
    17         69
    18        239
    19        160
    20          1
    25          7
    26         98
    27        305
    28        285
    29         65
    30          4
    31         24
    32          4
    33          2
    34          1
    35         17
    36         61
    37          7
    38         20
    39          6
    40          1
    41         32
    42         17
    43         44
    44         42
    45         38
    47        145
    48         22
    49         25
    50          3
    51          8
    53          2
    54          2
    55         16
    56          8
    57         37
    58          4
    59          4
    60         12
    61         17
    62         51
    63        110
    64         54
    65        229
    66          2
    67          4
    68          3
    69          9
    70          5
    71          8
    72          2
    73         11
    74          5
    75          6
    76          1
    77          3
    78         14
    79          8
    81        553
    82        999
    83         23
    84         16
    85          6
    86          4
    87          3
    88          1
    89          5
    91        161
    92          5
    93          3
    94          1
    95          5
    96         11
    97          8
    98          7
    99         43
   100          3
   101         10
   102          1
   103          1
   107          5
   109        413
   110         12
   111         14
   112          4
   113          3
   114          1
   115          4
   117         38
   119         12
   121          2
   122          1
   123          2
   125          9
   126          2
   127         11
   128          5
   129          4
   143          5
   145         60
   147         24
   149          6