##TITLE=Library Entry 8390
##JCAMP-DX=Revision 4.10 
##DATA TYPE=MASS SPECTRUM
##SAMPLE DESCRIPTION=NIST Mass Spectrometry Data Center, 1998.
##NAMES=HP
##CAS NAME=5-Dodecen-1-ol, acetate, (Z)-
##MOLFORM=C14H26O2
##CAS REGISTRY NO=16676-96-3
##MP= -300
##BP= -300
##MW= 226
##$RETENTION INDEX=1592
##$CONDENSED SPECTRUM=NO
##NPOINTS= 104
##XYDATA=(XY..XY) 1 
    14          1
    15         12
    26          4
    27         72
    28         15
    29        125
    30          4
    31          7
    37          1
    38          3
    39        136
    40         25
    41        467
    42         93
    43        999
    44         29
    45          7
    50          3
    51         13
    52         11
    53        114
    54        627
    55        547
    56         92
    57         74
    58          8
    59          2
    60          2
    61         39
    62          1
    63          2
    64          1
    65         47
    66         85
    67        865
    68        588
    69        261
    70         43
    71         39
    72          3
    73         19
    74          1
    77         49
    78         10
    79        161
    80         70
    81        674
    82        742
    83        210
    84         30
    85         15
    86          3
    87          2
    88          1
    91         24
    92          3
    93         42
    94         31
    95        576
    96        540
    97         98
    98         17
    99          4
   100          1
   101          5
   102          1
   103          1
   105          2
   106          1
   107          6
   108          8
   109        253
   110        339
   111         38
   112          3
   113          1
   114          1
   115          1
   116          1
   121          2
   122          5
   123         84
   124         70
   125          8
   126          1
   127          1
   128          1
   135          1
   136          2
   137         38
   138        212
   139         23
   140          1
   141          2
   142          1
   151          2
   155          1
   164          1
   165          3
   166        184
   167         26
   168          2
   181          1
   183          1