##TITLE=Library Entry 98731
##JCAMP-DX=Revision 4.10 
##DATA TYPE=MASS SPECTRUM
##SAMPLE DESCRIPTION=Exported from NIST MS Search
##NAMES=HP
##CAS NAME=2,5-Cyclohexadiene-1,4-dione, 2,5-bis(4-hydroxyphenyl)-
##MOLFORM=C18H12O4
##CAS REGISTRY NO=16688-88-3
##MP= -300
##BP= -300
##MW= 292
##$RETENTION INDEX=0
##$CONDENSED SPECTRUM=NO
##NPOINTS= 48
##XYDATA=(XY..XY) 1 
    39        100
    40         30
    41         40
    42         30
    44         50
    46         20
    50         30
    51         70
    53         60
    55         60
    57         40
    62         50
    63        150
    64         60
    65         50
    69         40
    73         30
    74         40
    75         40
    76         40
    77         40
    89        220
    90         50
    91         50
   109         40
   117         70
   118        999
   119        120
   121         60
   132         30
   145         40
   146         50
   147         80
   149         60
   235         60
   236        120
   237         40
   247         90
   248         30
   263        120
   264        130
   265         40
   275        140
   276         40
   291        140
   292        579
   293        140
   294         22