##TITLE=Library Entry 90261
##JCAMP-DX=Revision 4.10 
##DATA TYPE=MASS SPECTRUM
##SAMPLE DESCRIPTION=James Little,Eastman Chem.Co.,Kingsport,TN
##NAMES=HP
##CAS NAME=5-Carboxy-1,2,3-triazole
##MOLFORM=C3H3N3O2
##CAS REGISTRY NO=16681-70-2
##MP= -300
##BP= -300
##MW= 113
##$RETENTION INDEX=0
##$CONDENSED SPECTRUM=NO
##NPOINTS= 28
##XYDATA=(XY..XY) 1 
    27         64
    28        294
    29        224
    38        120
    39        154
    40        371
    41        223
    42        472
    45        292
    52         11
    53         24
    54         34
    55          8
    57         10
    67         33
    68        172
    69        684
    70         30
    80          9
    82          8
    84         13
    85         30
    86         10
    96        863
    97         43
   113        999
   114         66
   115          8