##TITLE=Library Entry 209
##JCAMP-DX=Revision 4.10 
##DATA TYPE=MASS SPECTRUM
##SAMPLE DESCRIPTION=Exported from NIST MS Search
##NAMES=HP
##CAS NAME=2H-Tetrazole, 2-methyl-
##MOLFORM=C2H4N4
##CAS REGISTRY NO=16681-78-0
##MP= -300
##BP= -300
##MW= 84
##$RETENTION INDEX=0
##$CONDENSED SPECTRUM=NO
##NPOINTS= 12
##XYDATA=(XY..XY) 1 
    26         20
    27        170
    28        999
    29         60
    41         40
    42         10
    43         30
    53         20
    55         20
    56        480
    57         10
    84         20