##TITLE=Library Entry 36004
##JCAMP-DX=Revision 4.10 
##DATA TYPE=MASS SPECTRUM
##SAMPLE DESCRIPTION=A.Long ET AL J.Chrom.,505,395(1990)
##NAMES=HP
##CAS NAME=1,3,5-Triazin-2-amine, 4-methoxy-6-methyl-
##MOLFORM=C5H8N4O
##CAS REGISTRY NO=1668-54-8
##MP= -300
##BP= -300
##MW= 140
##$RETENTION INDEX=0
##$CONDENSED SPECTRUM=NO
##NPOINTS= 20
##XYDATA=(XY..XY) 1 
    45          8
    49         11
    51          7
    53         38
    54         30
    55         46
    56         97
    57         46
    58        207
    67         54
    68        144
    69        999
    70         41
    83         50
    84         43
   110        416
   111         51
   139        113
   140        305
   141         16