##TITLE=Library Entry 31717
##JCAMP-DX=Revision 4.10 
##DATA TYPE=MASS SPECTRUM
##SAMPLE DESCRIPTION=NIST Mass Spectrometry Data Center, 1994
##NAMES=HP
##CAS NAME=5-Nitrothiophene-2-carbonitrile
##MOLFORM=C5H2N2O2S
##CAS REGISTRY NO=16689-02-4
##MP= -300
##BP= -300
##MW= 154
##$RETENTION INDEX=0
##$CONDENSED SPECTRUM=NO
##NPOINTS= 72
##XYDATA=(XY..XY) 1 
    12         19
    13          4
    16         15
    18          2
    24         10
    25         21
    26         18
    28          2
    30        793
    32         63
    33          8
    34          4
    35          2
    36         43
    37        248
    38        130
    39         17
    40          5
    44         56
    45        327
    46         71
    47         19
    48         23
    49         41
    50         42
    51         55
    52         34
    53          9
    54          3
    55          3
    56         38
    57        483
    58         26
    60          7
    61          4
    62         60
    63        107
    64        999
    65         43
    68         34
    69         94
    70        368
    71         19
    72         15
    75         36
    76         12
    80         67
    81         96
    82        101
    83         11
    84          4
    89          4
    92          4
    93          4
    94         17
    95          4
    96        580
    97         41
    98         27
   106         33
   107         46
   108         91
   109          8
   110          4
   124        326
   125         21
   126         17
   138         46
   154        712
   155         51
   156         33
   157          2