##TITLE=Library Entry 28234
##JCAMP-DX=Revision 4.10 
##DATA TYPE=MASS SPECTRUM
##SAMPLE DESCRIPTION=NIST Mass Spectrometry Data Center, 1998.
##NAMES=HP
##CAS NAME=Doxepin
##MOLFORM=C19H21NO
##CAS REGISTRY NO=1668-19-5
##MP= -300
##BP= -300
##MW= 279
##$RETENTION INDEX=2220
##$CONDENSED SPECTRUM=NO
##NPOINTS= 121
##XYDATA=(XY..XY) 1 
    15          1
    27          1
    28          1
    29          4
    30         15
    39          5
    40          1
    41          3
    42         30
    43         11
    44          3
    50          2
    51          6
    52          1
    53          2
    55          4
    56          8
    57          9
    58        999
    59         46
    60          1
    62          1
    63          7
    64          1
    65          4
    70          1
    71          2
    74          2
    75          3
    76          4
    77          6
    78          2
    79          1
    82          2
    84          2
    86          1
    87          2
    88          2
    89          6
    90          1
    91          5
    92          1
    94          1
    95          2
    98          1
    99          1
   100          1
   101          3
   102          3
   103          2
   105          1
   107          2
   109          1
   113          2
   114          1
   115         17
   116          2
   117          1
   126          3
   127          4
   128         10
   129          2
   131          1
   137          1
   138          1
   139          7
   140          1
   141          2
   142          1
   150          3
   151          6
   152         15
   153          4
   154          1
   162          1
   163          6
   164          6
   165         29
   166          6
   167          1
   168          1
   174          1
   175          1
   176          8
   177          5
   178         25
   179          6
   180          1
   181          1
   184          1
   187          2
   188          2
   189         18
   190          8
   191         13
   192          4
   193          3
   194          2
   195          2
   200          2
   201          3
   202         17
   203          8
   204          2
   205          7
   206          2
   207          1
   213          1
   215          3
   216          1
   217          1
   218          6
   219         12
   220          4
   221          3
   222          1
   231          1
   233          1
   234          1
   277          1
   279          1