##TITLE=Library Entry 18891
##JCAMP-DX=Revision 4.10 
##DATA TYPE=MASS SPECTRUM
##SAMPLE DESCRIPTION=Exported from NIST MS Search
##NAMES=HP
##CAS NAME=1H-Tetrazole, 1-methyl-
##MOLFORM=C2H4N4
##CAS REGISTRY NO=16681-77-9
##MP= -300
##BP= -300
##MW= 84
##$RETENTION INDEX=0
##$CONDENSED SPECTRUM=NO
##NPOINTS= 17
##XYDATA=(XY..XY) 1 
    26         50
    27        200
    28        870
    29        300
    38         10
    39         10
    40         20
    41         80
    42        170
    43        180
    53         40
    54         20
    55        999
    56         90
    57         10
    84        320
    85         50