##TITLE=Library Entry 15447
##JCAMP-DX=Revision 4.10 
##DATA TYPE=MASS SPECTRUM
##SAMPLE DESCRIPTION=Chemical Concepts
##NAMES=HP
##CAS NAME=L-Alanine-4-nitroanilide
##MOLFORM=C9H11N3O3
##CAS REGISTRY NO=1668-13-9
##MP= -300
##BP= -300
##MW= 209
##$RETENTION INDEX=0
##$CONDENSED SPECTRUM=NO
##NPOINTS= 48
##XYDATA=(XY..XY) 1 
    27         17
    28         14
    29          5
    30         31
    39         18
    40          5
    41         12
    42         57
    43         26
    44        999
    45         61
    50         15
    51          8
    52         10
    53          7
    55          9
    62          5
    63         25
    64         26
    65         37
    66          6
    74          4
    75         12
    76         19
    77          5
    78          3
    79          4
    80          6
    81          3
    90         11
    91         11
    92         28
    93          6
   106          4
   107          3
   108         20
   119          4
   122         17
   134          3
   138         19
   139          4
   149          4
   165          6
   177          3
   179          3
   181         10
   209         40
   210          6