##TITLE=Library Entry 96947
##JCAMP-DX=Revision 4.10 
##DATA TYPE=MASS SPECTRUM
##SAMPLE DESCRIPTION=Exported from NIST MS Search
##NAMES=HP
##CAS NAME=2-Oxa-4,6,8-trithiaadamantane, 1,3,5,7-tetramethyl-, (.+/-.)-
##MOLFORM=C10H16OS3
##CAS REGISTRY NO=16680-00-5
##MP= -300
##BP= -300
##MW= 248
##$RETENTION INDEX=0
##$CONDENSED SPECTRUM=NO
##NPOINTS= 65
##XYDATA=(XY..XY) 1 
    15         20
    17          6
    18         37
    27         16
    28         20
    29          2
    34          2
    39         61
    40         82
    41         63
    43        331
    44          6
    45         53
    47         16
    53         12
    55          6
    58         29
    59        408
    60         20
    61         24
    65         20
    66          4
    67         20
    71          8
    73         12
    74         16
    75          4
    84          4
    85         22
    91          4
    97         16
    98         16
    99          6
   100          8
   101          8
   107          6
   109          4
   110         16
   111          4
   113          4
   115         27
   116         20
   117        999
   118         41
   119         61
   125         61
   126         61
   127         14
   131        245
   132        163
   133         61
   134         20
   139         24
   141          2
   157         20
   173          4
   183        163
   184         43
   185         10
   215         73
   216          8
   217          4
   248        265
   249         41
   250         41