##TITLE=Library Entry 70799
##JCAMP-DX=Revision 4.10 
##DATA TYPE=MASS SPECTRUM
##SAMPLE DESCRIPTION=J.ELGUERO, UNIV. OF LANGUEDOC, MONTPELLIER CEDEX, FRANC
E
##NAMES=HP
##CAS NAME=4H-1,2,4-Triazol-3-amine, 4-methyl-
##MOLFORM=C3H6N4
##CAS REGISTRY NO=16681-76-8
##MP= -300
##BP= -300
##MW= 98
##$RETENTION INDEX=0
##$CONDENSED SPECTRUM=NO
##NPOINTS= 11
##XYDATA=(XY..XY) 1 
    28        550
    41         60
    42        820
    43        290
    53         60
    55         60
    57         80
    69         50
    97        100
    98        999
    99         60