##TITLE=Library Entry 132
##JCAMP-DX=Revision 4.10 
##DATA TYPE=MASS SPECTRUM
##SAMPLE DESCRIPTION=Exported from NIST MS Search
##NAMES=HP
##CAS NAME=Ethanol, 2-(diethylamino)-, N-oxide
##MOLFORM=C6H15NO2
##CAS REGISTRY NO=16684-49-4
##MP= -300
##BP= -300
##MW= 133
##$RETENTION INDEX=0
##$CONDENSED SPECTRUM=NO
##NPOINTS= 73
##XYDATA=(XY..XY) 1 
    13         10
    14         30
    15         84
    16         13
    24         17
    25         58
    26        421
    27        561
    28        999
    29        285
    30        360
    31         30
    32          3
    33          2
    36          1
    37          2
    38          6
    39         25
    40         25
    41         88
    42        286
    43        117
    44        184
    45         92
    46         43
    47          2
    50          3
    52         10
    53          6
    54         24
    55         29
    56        339
    57         84
    58        305
    59         28
    60         23
    61          3
    62          1
    64          2
    66          2
    67          9
    68          8
    69         28
    70         43
    71         33
    72         70
    73         19
    74         38
    75          5
    76          3
    78          6
    79          4
    80         10
    81          4
    82          5
    83          5
    84          7
    85         28
    86        118
    87         16
    88         13
    89         25
    90          3
    92          4
    93          2
    94          2
    95          5
    96          3
    97          4
    98          4
    99         10
   100        111
   101         28