##TITLE=Library Entry 19257
##JCAMP-DX=Revision 4.10 
##DATA TYPE=MASS SPECTRUM
##SAMPLE DESCRIPTION=HCACAV,60(4)1161(1977);25; G. OHLOFF
##NAMES=HP
##CAS NAME=4-Nonene, 1-bromo-, (E)-
##MOLFORM=C9H17Br
##CAS REGISTRY NO=16695-35-5
##MP= -300
##BP= -300
##MW= 204
##$RETENTION INDEX=0
##$CONDENSED SPECTRUM=NO
##NPOINTS= 15
##XYDATA=(XY..XY) 1 
    41        780
    55        999
    69        610
    81        400
    95        140
   107         30
   109         30
   124         20
   135         70
   148        180
   150        180
   162         90
   164         90
   204        100
   206        100