##TITLE=Library Entry 19746
##JCAMP-DX=Revision 4.10 
##DATA TYPE=MASS SPECTRUM
##SAMPLE DESCRIPTION=Japan AIST/NIMC Database- Spectrum MS-IW-6970
##NAMES=HP
##CAS NAME=3-Octen-2-one
##MOLFORM=C8H14O
##CAS REGISTRY NO=1669-44-9
##MP= -300
##BP= -300
##MW= 126
##$RETENTION INDEX=1040
##$CONDENSED SPECTRUM=NO
##NPOINTS= 74
##XYDATA=(XY..XY) 1 
    14          2
    15         30
    18          2
    26          9
    27        130
    28         36
    29         71
    30          1
    31          2
    32          3
    37          2
    38          9
    39        120
    40         23
    41        302
    42         32
    43        766
    44         20
    45          6
    47          2
    50          9
    51         16
    52          8
    53         48
    54         19
    55        999
    56         59
    57         12
    58         17
    59         14
    60          1
    62          2
    63          4
    65          8
    66          5
    67         34
    68         98
    69        140
    70          9
    71        142
    72         19
    73          1
    74          1
    77         11
    78          2
    79         19
    80          2
    81         21
    82         13
    83         98
    84         34
    85         15
    86          1
    91          5
    93         13
    94          1
    95          8
    96          1
    97        253
    98         20
    99          2
   107          1
   108         28
   109          4
   110          1
   111        643
   112         52
   113          3
   122          1
   124          1
   125          2
   126        218
   127         30
   128          2