##TITLE=Library Entry 12041
##JCAMP-DX=Revision 4.10 
##DATA TYPE=MASS SPECTRUM
##SAMPLE DESCRIPTION=Exported from NIST MS Search
##NAMES=HP
##CAS NAME=Carbamic acid, acetylthio-, O-methyl ester
##MOLFORM=C4H7NO2S
##CAS REGISTRY NO=16696-87-0
##MP= -300
##BP= -300
##MW= 133
##$RETENTION INDEX=0
##$CONDENSED SPECTRUM=NO
##NPOINTS= 22
##XYDATA=(XY..XY) 1 
    42         81
    43        999
    44         54
    45         27
    46         13
    47         49
    48         21
    58        190
    59         65
    60        144
    61        376
    62         21
    63         19
    75         54
    90         21
    91        446
    92         27
    93         21
   118         21
   133        490
   134         35
   135         27