##TITLE=Library Entry 3973
##JCAMP-DX=Revision 4.10 
##DATA TYPE=MASS SPECTRUM
##SAMPLE DESCRIPTION=CARL DJERASSI DEPT OF CHEM STANFORD UNIV STANFORD CALIF
 94305
##NAMES=HP
##CAS NAME=5-Nonanone, semicarbazone
##MOLFORM=C10H21N3O
##CAS REGISTRY NO=1669-37-0
##MP= -300
##BP= -300
##MW= 199
##$RETENTION INDEX=0
##$CONDENSED SPECTRUM=NO
##NPOINTS= 74
##XYDATA=(XY..XY) 1 
    26         20
    27        490
    28         80
    29        600
    30        190
    31         60
    32         70
    38         10
    39        320
    40         60
    41        999
    42        170
    43        230
    44        360
    45         10
    46         10
    51         20
    52         20
    53        120
    54        150
    55        430
    56        120
    57        150
    58        160
    59         10
    60         20
    61         40
    65         20
    66         10
    67         60
    68         50
    69         80
    70         40
    71         50
    72        620
    73         40
    74         80
    75         60
    76         20
    77         10
    79         10
    80         10
    81         20
    82         70
    83         60
    84         70
    85         90
    86         20
    94         10
    95         10
    96         10
    97         20
    98         30
    99         40
   100        230
   101         10
   110         20
   111         10
   112         10
   113         10
   115        640
   116         40
   125         30
   127         30
   128         30
   129         20
   140         20
   142         50
   143         10
   153         10
   155         10
   157         50
   170         20
   199         20