##TITLE=Library Entry 94427
##JCAMP-DX=Revision 4.10 
##DATA TYPE=MASS SPECTRUM
##SAMPLE DESCRIPTION=Exported from NIST MS Search
##NAMES=HP
##CAS NAME=3-Thiophenecarboxylic acid, 2-amino-4-hydroxy-, ethyl ester
##MOLFORM=C7H9NO3S
##CAS REGISTRY NO=16694-23-8
##MP= -300
##BP= -300
##MW= 187
##$RETENTION INDEX=0
##$CONDENSED SPECTRUM=NO
##NPOINTS= 40
##XYDATA=(XY..XY) 1 
    26        137
    27        400
    28        171
    29        585
    30         76
    31        202
    32         76
    39         36
    40        242
    41        195
    42        169
    43        250
    44        175
    45        434
    46        222
    47         68
    60        121
    67         56
    68        478
    69        171
    70         44
    73        101
    74         94
    85        262
    86        181
    87        165
   112         40
   113         44
   114         24
   115        999
   116         80
   117         20
   141         56
   142        505
   143        626
   144         50
   145         24
   187        359
   188         54
   189         20