##TITLE=Library Entry 19150
##JCAMP-DX=Revision 4.10 
##DATA TYPE=MASS SPECTRUM
##SAMPLE DESCRIPTION=Chemical Concepts
##NAMES=HP
##CAS NAME=1,11-Dibromoundecane
##MOLFORM=C11H22Br2
##CAS REGISTRY NO=16696-65-4
##MP= -300
##BP= -300
##MW= 312
##$RETENTION INDEX=0
##$CONDENSED SPECTRUM=NO
##NPOINTS= 121
##XYDATA=(XY..XY) 1 
    26          8
    27        222
    28         41
    29        264
    30          6
    38          1
    39        132
    40         27
    41        717
    42        114
    43        539
    44         17
    46          0
    47          0
    50          2
    51          5
    52          3
    53         59
    54         42
    55        999
    56         91
    57        635
    58         22
    59          4
    60          0
    63          2
    65          6
    66          3
    67         64
    68         35
    69        617
    70         55
    71        446
    72         25
    73          0
    75          0
    77          4
    79          6
    80          1
    81         28
    82         17
    83        354
    84         31
    85        354
    86         21
    87          0
    88          1
    91          1
    92          0
    93          8
    95         11
    96          4
    97        349
    98         25
    99         36
   100          3
   105          1
   106          2
   107         50
   108          5
   109         41
   110          1
   111        102
   112          9
   113          3
   114          0
   119          3
   120          1
   121         23
   122          1
   123         20
   124          0
   125          1
   127          0
   129          0
   133          1
   134          4
   135        298
   136         18
   137        271
   138          8
   140          0
   147          1
   148         18
   149         61
   150         20
   151         69
   152          2
   153         28
   154          1
   161          1
   162          9
   163         63
   164         11
   165         58
   166          4
   175          1
   176          1
   177         79
   178          5
   179         77
   180          6
   189          0
   190          0
   191         42
   192          3
   193         40
   194          4
   204          0
   206          0
   232          0
   233        151
   234         18
   235        138
   236         19
   312          9
   313          1
   314         19
   315          2
   316         12
   317          1