##TITLE=Library Entry 39578
##JCAMP-DX=Revision 4.10 
##DATA TYPE=MASS SPECTRUM
##SAMPLE DESCRIPTION=NIST Mass Spectrometry Data Center, 1994
##NAMES=HP
##CAS NAME=Ethyl N,N-dimethyloxamate
##MOLFORM=C6H11NO3
##CAS REGISTRY NO=16703-52-9
##MP= -300
##BP= -300
##MW= 145
##$RETENTION INDEX=0
##$CONDENSED SPECTRUM=NO
##NPOINTS= 36
##XYDATA=(XY..XY) 1 
     4          0
    14          6
    15         54
    16          1
    17          0
    18         45
    26         11
    27         58
    28         48
    29        100
    30          9
    31          1
    32          0
    39          1
    40          6
    41         12
    42         98
    43         35
    44         43
    45          6
    56         38
    57          2
    58         25
    59          1
    60          0
    72        999
    73         60
    74         11
    86          1
    88          9
    89          6
   116         71
   117          3
   145         93
   146          7
   147          1