##TITLE=Library Entry 55049
##JCAMP-DX=Revision 4.10 
##DATA TYPE=MASS SPECTRUM
##SAMPLE DESCRIPTION=Exported from NIST MS Search
##NAMES=HP
##CAS NAME=Silane, (chloromethyl)ethenyldimethyl-
##MOLFORM=C5H11ClSi
##CAS REGISTRY NO=16709-86-7
##MP= -300
##BP= -300
##MW= 134
##$RETENTION INDEX=0
##$CONDENSED SPECTRUM=NO
##NPOINTS= 71
##XYDATA=(XY..XY) 1 
    35          5
    36         15
    37          5
    38          8
    39          6
    45         42
    46          5
    47          2
    48          2
    49         12
    50         12
    51         16
    52         12
    53         58
    54         15
    55         58
    56         19
    57         16
    58         36
    59        218
    60         49
    61         23
    62          2
    63        121
    64         14
    65         76
    66         19
    67         24
    68          8
    69         16
    70         11
    71         22
    72         14
    73          7
    74          4
    75          4
    76          5
    77         16
    78         39
    79         20
    80         22
    81         85
    82          6
    83         25
    84         11
    85        999
    86         97
    87         39
    88          2
    89          4
    90          5
    91         73
    92         13
    93         97
    94         10
    95         29
    96          2
    97          7
    98          2
    99          3
   103          3
   105          6
   106          3
   107         12
   108          2
   109          4
   117          3
   119         49
   120          6
   121         19
   122          2