##TITLE=Library Entry 11138
##JCAMP-DX=Revision 4.10 
##DATA TYPE=MASS SPECTRUM
##SAMPLE DESCRIPTION=NIST Mass Spectrometry Data Center
##NAMES=HP
##CAS NAME=2-Acetylcyclopentanone
##MOLFORM=C7H10O2
##CAS REGISTRY NO=1670-46-8
##MP= -300
##BP= -300
##MW= 126
##$RETENTION INDEX=0
##$CONDENSED SPECTRUM=NO
##NPOINTS= 64
##XYDATA=(XY..XY) 1 
    12          5
    13          2
    14         16
    15        102
    17          2
    18          2
    25          4
    26         59
    27        262
    28        105
    30          6
    36          3
    37         22
    38         43
    39        247
    40         47
    41         91
    42        130
    43        999
    44         27
    48          2
    49         10
    50         49
    51         66
    52         32
    53         99
    55        527
    56        100
    57         15
    58          3
    61          6
    62         10
    63         10
    64          4
    65         35
    66         23
    67         15
    68         27
    69        120
    70        205
    71        366
    72         16
    77         21
    78          5
    79         48
    80         14
    81         23
    82         45
    83        407
    84        281
    85         25
    93          6
    95          3
    97         13
    98         13
   107         21
   108         84
   109         12
   111        663
   112         44
   113          4
   126        478
   127         41
   128          5