##TITLE=Library Entry 90914
##JCAMP-DX=Revision 4.10 
##DATA TYPE=MASS SPECTRUM
##SAMPLE DESCRIPTION=CARL DJERASSI DEPT OF CHEM STANFORD UNIV STANFORD CALIF
 94305
##NAMES=HP
##CAS NAME=Carbonocyanidothioic amide, dimethyl-
##MOLFORM=C4H6N2S
##CAS REGISTRY NO=16703-47-2
##MP= -300
##BP= -300
##MW= 114
##$RETENTION INDEX=0
##$CONDENSED SPECTRUM=NO
##NPOINTS= 42
##XYDATA=(XY..XY) 1 
    41         70
    42        430
    43        120
    44        150
    45         90
    46         30
    47        150
    48         10
    49         10
    51         10
    52         20
    53         20
    55         10
    56         20
    57         10
    58         20
    59         10
    61         10
    66         40
    67        240
    68         20
    69         10
    70        730
    71         50
    72        150
    73         70
    74        610
    75         20
    76         30
    82         10
    87         10
    88         90
    89         10
    90         10
    99         90
   100         10
   101         10
   113         10
   114        999
   115        110
   116         50
   117         10