##TITLE=Library Entry 59701
##JCAMP-DX=Revision 4.10 
##DATA TYPE=MASS SPECTRUM
##SAMPLE DESCRIPTION=A.A.Kutin, Moscow, Russia
##NAMES=HP
##CAS NAME=Benzene, 1-(3-bromopropyl)-4-benzyloxy-
##MOLFORM=C16H17BrO
##CAS REGISTRY NO=167091-73-8
##MP= -300
##BP= -300
##MW= 304
##$RETENTION INDEX=0
##$CONDENSED SPECTRUM=NO
##NPOINTS= 97
##XYDATA=(XY..XY) 1 
    33          1
    39         20
    40          4
    41          7
    42          0
    43          0
    44          0
    45          0
    50          4
    51         11
    52          6
    53          1
    55          2
    57          0
    59          0
    61          0
    62          1
    63          8
    65         62
    66          3
    67          0
    72          0
    73          0
    74          0
    75          0
    77         13
    78         13
    79          4
    80          0
    81          0
    82          0
    87          0
    89         17
    91        999
    92         61
    93          2
    94          0
    95          0
    97          0
    98          0
   100          0
   102          0
   103          2
   105         10
   106          3
   107          8
   109          4
   110          0
   115          1
   116          0
   117          0
   119          0
   120          0
   121          0
   127          0
   128          0
   131          0
   133          2
   134          0
   141          0
   152          0
   153          0
   154          0
   155          0
   165          0
   166          0
   167          0
   168          0
   169          0
   171          0
   178          0
   180          0
   181          0
   182          0
   183          0
   185          0
   195          0
   196          0
   197          1
   198          0
   213          0
   214          0
   215          0
   226          0
   240          0
   242          0
   274          0
   275          0
   277          0
   284          0
   288          0
   301          0
   304         42
   305          8
   306         37
   307          6
   308          0