##TITLE=Library Entry 48853
##JCAMP-DX=Revision 4.10 
##DATA TYPE=MASS SPECTRUM
##SAMPLE DESCRIPTION=C.HOPKINS NAT. RESEARCH COUNCIL, OTTAWA, CANADA
##NAMES=HP
##CAS NAME=10-Heptadecen-8-ynoic acid, methyl ester, (E)-
##MOLFORM=C18H30O2
##CAS REGISTRY NO=16714-85-5
##MP= -300
##BP= -300
##MW= 278
##$RETENTION INDEX=0
##$CONDENSED SPECTRUM=NO
##NPOINTS= 193
##XYDATA=(XY..XY) 1 
    14          7
    15        104
    16         26
    17        104
    18        402
    19          7
    26         26
    27        286
    28        143
    29        415
    30         26
    31         91
    32         26
    33          7
    35         13
    36         52
    37         13
    38         39
    39        299
    40         52
    41        792
    42        175
    43        779
    44        162
    45         91
    46         13
    47          7
    49          7
    50         39
    51        104
    52         78
    53        136
    54         91
    55        636
    56        305
    57        845
    58         65
    59        234
    60         26
    61         13
    62         19
    63         52
    64         26
    65        195
    66        175
    67        481
    68        156
    69        351
    70        201
    71        370
    72         39
    73         45
    74        182
    75         39
    76         26
    77        325
    78        357
    79        999
    80        895
    81        396
    82        104
    83        156
    84         91
    85        221
    86         39
    87        117
    88         39
    89         26
    90         19
    91        598
    92        156
    93        532
    94        260
    95        214
    96        117
    97        110
    98         52
    99         58
   100         13
   101         26
   102         19
   103         52
   104         45
   105        403
   106        143
   107        208
   108         91
   109        104
   110         84
   111         58
   112         39
   113         52
   114         19
   115         65
   116         26
   117         78
   118         39
   119        286
   120        130
   121        182
   122         91
   123         52
   124         26
   125         32
   126         32
   127         52
   128         65
   129         52
   130         19
   131         52
   132         26
   133        162
   134         71
   135        117
   136         65
   137         39
   138         19
   139         39
   140         26
   141         78
   142         52
   143         26
   144         13
   145         39
   146         19
   147         84
   148         39
   149         52
   150        364
   151         65
   152         26
   153         26
   154         26
   155         45
   156         39
   157         26
   158          7
   159         13
   160         13
   161         52
   162         26
   163         26
   164        253
   165         65
   166         23
   167         26
   168         25
   169         19
   170         27
   171         19
   172          7
   173         13
   174          7
   175         39
   176         13
   177         26
   178         13
   179         19
   180         13
   181         11
   182         11
   183          7
   184         10
   185          7
   189         26
   190         11
   191         19
   192         11
   193         19
   194         11
   195          7
   203         11
   204         26
   205         39
   206         11
   207         11
   208          7
   217          4
   218          7
   219         10
   220          7
   221         10
   222          6
   229          7
   232          7
   235          7
   246          7
   247         26
   248          7
   249          4
   250          4
   278         39
   279         11