##TITLE=Library Entry 80883
##JCAMP-DX=Revision 4.10 
##DATA TYPE=MASS SPECTRUM
##SAMPLE DESCRIPTION=Japan AIST/NIMC Database- Spectrum MS-NW-2734
##NAMES=HP
##CAS NAME=Heptanophenone
##MOLFORM=C13H18O
##CAS REGISTRY NO=1671-75-6
##MP= -300
##BP= -300
##MW= 190
##$RETENTION INDEX=1538
##$CONDENSED SPECTRUM=NO
##NPOINTS= 64
##XYDATA=(XY..XY) 1 
    15          1
    18          1
    26          2
    27         31
    28         10
    29         25
    32          1
    38          2
    39         19
    40          2
    41         43
    42          5
    43         29
    44          1
    50         13
    51         62
    52          5
    53          4
    54          1
    55         18
    56          3
    57          3
    58          1
    62          1
    63          2
    65          4
    67          1
    69          3
    74          3
    75          3
    76         11
    77        334
    78         60
    79          6
    85          1
    89          2
    91         13
    92          6
   102          1
   103          3
   104          4
   105        999
   106         76
   107          7
   115          4
   116          1
   117          2
   119          1
   120        750
   121         69
   122          4
   128          1
   129          2
   131          1
   133         79
   134          9
   143          1
   145          1
   147          7
   148          2
   161          1
   189          3
   190         58
   191          9