##TITLE=Library Entry 81457
##JCAMP-DX=Revision 4.10 
##DATA TYPE=MASS SPECTRUM
##SAMPLE DESCRIPTION=Japan AIST/NIMC Database- Spectrum MS-NW- 969
##NAMES=HP
##CAS NAME=4-Ethylbenzenesulfonyl chloride
##MOLFORM=C8H9ClO2S
##CAS REGISTRY NO=16712-69-9
##MP= -300
##BP= -300
##MW= 204
##$RETENTION INDEX=0
##$CONDENSED SPECTRUM=NO
##NPOINTS= 121
##XYDATA=(XY..XY) 1 
    15          5
    17          1
    18          3
    26          5
    27         80
    28         17
    29         11
    32          3
    35          3
    36         16
    37          5
    38         19
    39        104
    40         10
    41         14
    43          1
    44          4
    45         21
    47          1
    48         31
    49          4
    50         77
    51        168
    52         39
    53         30
    54          1
    55          2
    58          1
    59          3
    60          1
    61          6
    62         25
    63         82
    64         61
    65         46
    66          7
    67          1
    69          9
    70          1
    73          3
    74         24
    75         24
    76         23
    77        270
    78         93
    79        288
    80         18
    81          1
    82          1
    83          3
    84          1
    85          1
    86          3
    87          4
    88          2
    89         94
    90         84
    91        129
    92         12
    93          7
    94          2
    95          2
    97          3
    98          2
    99          3
   101          4
   102         20
   103        171
   104        110
   105        999
   106        121
   107         15
   108          2
   109          6
   110          3
   111          1
   112          1
   119          1
   120         19
   121          9
   122          5
   123         38
   124          3
   125         62
   126          5
   127         19
   128          2
   134          5
   135         10
   136          7
   137         10
   138         32
   139          7
   140          9
   141          2
   142          2
   151         35
   152          4
   153         39
   154          6
   155          2
   165          1
   167          1
   168          2
   169        535
   170         55
   171         29
   172          2
   179          1
   180          1
   184          3
   185          1
   186          2
   189          8
   191          3
   203          1
   204        146
   205         14
   206         54
   207          5
   208          3