##TITLE=Library Entry 31853
##JCAMP-DX=Revision 4.10 
##DATA TYPE=MASS SPECTRUM
##SAMPLE DESCRIPTION=Exported from NIST MS Search
##NAMES=HP
##CAS NAME=Benzene, 2-azido-1-methyl-3-nitro-
##MOLFORM=C7H6N4O2
##CAS REGISTRY NO=16714-18-4
##MP= -300
##BP= -300
##MW= 178
##$RETENTION INDEX=0
##$CONDENSED SPECTRUM=NO
##NPOINTS= 51
##XYDATA=(XY..XY) 1 
    37         83
    38        132
    39        418
    40         60
    41         88
    42         23
    43        116
    44         79
    45         23
    49         30
    50        176
    51        451
    52        176
    53         69
    54         14
    55         14
    61         32
    62         46
    63        139
    64        186
    65        999
    66        158
    67         16
    74         27
    75         60
    76        125
    77        325
    78        116
    79         37
    81         23
    88         23
    89        204
    90        204
    91        116
    92        111
    93         23
    95         27
   102         51
   103         60
   104         46
   105         81
   106         18
   117         18
   118         27
   120         23
   121         79
   122         23
   134         74
   150        139
   151         18
   178         69