##TITLE=Library Entry 87532
##JCAMP-DX=Revision 4.10 
##DATA TYPE=MASS SPECTRUM
##SAMPLE DESCRIPTION=Exported from NIST MS Search
##NAMES=HP
##CAS NAME=Quinoline, decahydro-1-methyl-, cis-
##MOLFORM=C10H19N
##CAS REGISTRY NO=16726-25-3
##MP= -300
##BP= -300
##MW= 153
##$RETENTION INDEX=0
##$CONDENSED SPECTRUM=NO
##NPOINTS= 20
##XYDATA=(XY..XY) 1 
    39         30
    41         40
    42         70
    53         30
    54         20
    55         30
    67         30
    68         20
    70         20
    79         20
    81         20
    82         40
    96         90
    97         70
   110        999
   111         80
   124         20
   152         30
   153        100
   154         20