##TITLE=Library Entry 53524
##JCAMP-DX=Revision 4.10 
##DATA TYPE=MASS SPECTRUM
##SAMPLE DESCRIPTION=N.W. Davies, Centr. Sci. Lab., Univ. Tasmania, Hobart,
 Australia
##NAMES=HP
##CAS NAME=2-Cyclohexen-1-ol, 3-methyl-6-(1-methylethyl)-, trans-
##MOLFORM=C10H18O
##CAS REGISTRY NO=16721-39-4
##MP= -300
##BP= -300
##MW= 154
##$RETENTION INDEX=1208
##$CONDENSED SPECTRUM=NO
##NPOINTS= 49
##XYDATA=(XY..XY) 1 
    27        137
    29        102
    31         16
    39        145
    41        273
    42         25
    43        251
    51         31
    52         15
    53         66
    54         13
    55        179
    56         86
    57         39
    59         30
    65         35
    66         11
    67         56
    68         13
    69         97
    70         19
    71         87
    77        121
    78         25
    79         83
    80         17
    81         61
    82         26
    83        263
    84        999
    85         62
    91         96
    92         45
    93        249
    94         39
    95         46
    96         11
    97         47
    99         11
   105         19
   107         13
   109         13
   111         94
   112         50
   121         59
   136         51
   139        243
   140         23
   154         62