##TITLE=Library Entry 100076
##JCAMP-DX=Revision 4.10 
##DATA TYPE=MASS SPECTRUM
##SAMPLE DESCRIPTION=Chemical Concepts
##NAMES=HP
##CAS NAME=Naphthalene, 1,2,3,4,4a,7-hexahydro-1,6-dimethyl-4-(1-methylethyl
)-
##MOLFORM=C15H24
##CAS REGISTRY NO=16728-99-7
##MP= -300
##BP= -300
##MW= 204
##$RETENTION INDEX=1533
##$CONDENSED SPECTRUM=NO
##NPOINTS= 108
##XYDATA=(XY..XY) 1 
    26          5
    27        238
    29        155
    30          7
    34          6
    38         10
    39        229
    40          3
    41        622
    42         55
    43        135
    44          2
    45          9
    50          6
    51         62
    52         29
    53        100
    54         11
    55        312
    56        162
    57         61
    58          2
    59          6
    63         28
    64         11
    65         75
    66         15
    67         46
    68         13
    69        170
    70         53
    71         11
    73          8
    74          4
    75          8
    76          8
    77        167
    78         50
    79        109
    80         30
    81         94
    82         22
    83         21
    84          9
    85          3
    87         10
    88          8
    89         18
    90         11
    91        384
    92        265
    93        224
    94         29
    95         11
    97         18
    98          3
   101          5
   102         11
   103         71
   104         40
   105        996
   106        102
   107         33
   108          7
   109         11
   110          4
   114          5
   115         77
   116         29
   117         92
   118         54
   119        999
   120        241
   121        232
   122         51
   123          4
   127         23
   128         61
   129         55
   130         22
   131         58
   132         36
   133         87
   134         53
   135         10
   136          5
   141         17
   142         10
   143         24
   144         18
   145         37
   146         11
   147         56
   148         20
   149          3
   152          3
   157         12
   159        118
   160         30
   161        449
   162         60
   173          7
   187          5
   189         15
   202         12
   203          3
   204        165
   205         22