##TITLE=Library Entry 20585
##JCAMP-DX=Revision 4.10 
##DATA TYPE=MASS SPECTRUM
##SAMPLE DESCRIPTION=NIST Mass Spectrometry Data Center, 1998.
##NAMES=HP
##CAS NAME=9-Tetradecen-1-ol, acetate, (Z)-
##MOLFORM=C16H30O2
##CAS REGISTRY NO=16725-53-4
##MP= -300
##BP= -300
##MW= 254
##$RETENTION INDEX=1800
##$CONDENSED SPECTRUM=NO
##NPOINTS= 109
##XYDATA=(XY..XY) 1 
    14          1
    15          9
    26          3
    27         57
    28         12
    29         88
    30          3
    31          6
    37          1
    38          2
    39        107
    40         21
    41        516
    42        108
    43        887
    44         27
    45          7
    50          2
    51          9
    52          8
    53         92
    54        470
    55        999
    56        160
    57         82
    58          7
    59          2
    60          2
    61        104
    62          3
    63          2
    64          1
    65         32
    66         64
    67        787
    68        439
    69        398
    70         72
    71         30
    72          4
    73         35
    74          1
    77         27
    78          7
    79         92
    80         58
    81        889
    82        929
    83        246
    84         29
    85         11
    86          3
    87          3
    91         14
    92          2
    93         27
    94         25
    95        584
    96        723
    97        151
    98         17
    99          3
   100          2
   101          2
   103          1
   105          2
   106          1
   107          9
   108         11
   109        292
   110        320
   111         53
   112         13
   113          3
   114          3
   115          2
   116          1
   121          6
   122         10
   123        135
   124        141
   125         20
   126          5
   127          2
   128          3
   129          1
   135          3
   136          6
   137         79
   138         82
   139         11
   140          1
   141          1
   142          3
   149          1
   150          1
   151         28
   152         24
   153          4
   156          1
   165         13
   166         32
   167          5
   169          1
   179          2
   194        171
   195         26
   196          2
   211          2