##TITLE=Library Entry 280
##JCAMP-DX=Revision 4.10 
##DATA TYPE=MASS SPECTRUM
##SAMPLE DESCRIPTION=Chemical Concepts
##NAMES=HP
##CAS NAME=2,4(1H,3H)-Pyrimidinedione, dihydro-3-methyl-
##MOLFORM=C5H8N2O2
##CAS REGISTRY NO=1672-04-4
##MP= -300
##BP= -300
##MW= 128
##$RETENTION INDEX=0
##$CONDENSED SPECTRUM=NO
##NPOINTS= 73
##XYDATA=(XY..XY) 1 
    24          0
    25          0
    26         51
    27        132
    28        999
    29        186
    30        359
    31         44
    36          3
    37          1
    38          6
    39         12
    40         40
    41         42
    42        267
    43        198
    44         94
    45         17
    46          1
    50          2
    51          3
    52          5
    53          6
    54         19
    55         86
    56        148
    57         60
    58        266
    59         19
    60          1
    66          0
    67          3
    68          7
    69          6
    70         84
    71         74
    72         49
    73         74
    74          5
    75          0
    76          0
    77          0
    78          1
    79          1
    80          0
    81          0
    82          1
    83          1
    84          8
    85         25
    86         10
    87          1
    88          1
    91          0
    95          0
    96          2
    97          0
    98         27
    99        120
   100        150
   101         20
   102          1
   103          0
   105          0
   109          0
   110          2
   111          2
   112          0
   126          0
   127          4
   128        793
   129         50
   130          4