##TITLE=Library Entry 52495
##JCAMP-DX=Revision 4.10 
##DATA TYPE=MASS SPECTRUM
##SAMPLE DESCRIPTION=Chemical Concepts
##NAMES=HP
##CAS NAME=Cyclohexanone, 3-ethyl-3,5,5-trimethyl-
##MOLFORM=C11H20O
##CAS REGISTRY NO=167226-01-9
##MP= -300
##BP= -300
##MW= 168
##$RETENTION INDEX=0
##$CONDENSED SPECTRUM=NO
##NPOINTS= 91
##XYDATA=(XY..XY) 1 
    27         84
    28         20
    29        125
    30          2
    31          0
    37          0
    38          1
    39         79
    40         14
    41        245
    42         37
    43         41
    44          1
    45          0
    46          0
    47          0
    48          0
    50          1
    51          5
    52          4
    53         47
    54         18
    55        630
    56        141
    57         54
    58          2
    59          0
    62          0
    63          0
    64          0
    65          7
    66          3
    67         29
    68          5
    69        304
    70        105
    71         13
    72          1
    73          0
    77          7
    78          1
    79         11
    80          2
    81         21
    82         42
    83        999
    84         67
    85          3
    86          0
    89          0
    91          1
    92          0
    93          2
    94          5
    95         13
    96          9
    97        413
    98         35
    99          4
   100          0
   107          1
   108          0
   109          2
   110         13
   111         60
   112         10
   113          0
   121          2
   122          0
   123          3
   124          1
   125          4
   126         14
   127          1
   135          1
   136          0
   137          0
   138         48
   139        515
   140         57
   141          3
   142          0
   150          0
   152          0
   153        292
   154         33
   155          2
   167          0
   168         94
   169         12
   170          1