##TITLE=Library Entry 28331
##JCAMP-DX=Revision 4.10 
##DATA TYPE=MASS SPECTRUM
##SAMPLE DESCRIPTION=L. Cohen, LC, NIDDK, NIH, Bethesda, MD 20892
##NAMES=HP
##CAS NAME=Tetrahydroimidazole-4,5-dione-, 2-methoxy-2-trifluoromethyl-
##MOLFORM=C5H5F3N2O3
##CAS REGISTRY NO=167223-19-0
##MP= -300
##BP= -300
##MW= 198
##$RETENTION INDEX=0
##$CONDENSED SPECTRUM=NO
##NPOINTS= 63
##XYDATA=(XY..XY) 1 
    41          6
    42        217
    43        196
    44        326
    45         12
    46         12
    47         12
    49         12
    50         61
    51         13
    53          2
    54         15
    55          6
    56          8
    58        999
    59         29
    60          7
    69        787
    70         87
    71          6
    76         18
    77         82
    78         23
    80          9
    81         26
    84          9
    86          8
    88          3
    91          2
    92         12
    95          5
    96        480
    97        143
    98        152
    99          7
   101          4
   104         12
   107         80
   108         41
   111          8
   112          7
   114          7
   120          5
   124          7
   127        703
   128         40
   129        400
   130         29
   131         26
   135         16
   138          8
   139         65
   140          9
   149          2
   150         27
   154         23
   155        486
   156         23
   167        276
   168         20
   198        391
   199         79
   200          8