##TITLE=Library Entry 90075
##JCAMP-DX=Revision 4.10 
##DATA TYPE=MASS SPECTRUM
##SAMPLE DESCRIPTION=ORMSBG,9(7)726(1974); UNDEWALLE
##NAMES=HP
##CAS NAME=m-Dioxane, 4,6-di-sec-butyl-
##MOLFORM=C12H24O2
##CAS REGISTRY NO=16731-97-8
##MP= -300
##BP= -300
##MW= 200
##$RETENTION INDEX=0
##$CONDENSED SPECTRUM=NO
##NPOINTS= 26
##XYDATA=(XY..XY) 1 
    41        570
    42         60
    43        380
    44         70
    45         60
    55        270
    56         90
    57        500
    67         50
    68        840
    70         80
    80         30
    81        170
    83         50
    84        270
    85        100
    87         40
    92         20
    95        360
    96         60
   110         20
   113        999
   114         70
   142        140
   143        790
   144         70