##TITLE=Library Entry 18578
##JCAMP-DX=Revision 4.10 
##DATA TYPE=MASS SPECTRUM
##SAMPLE DESCRIPTION=A.A.Kutin, Moscow, Russia
##NAMES=HP
##CAS NAME=Pyridazine, 3,6-dimethoxy-4-nitro-, 1-oxide
##MOLFORM=C6H7N3O5
##CAS REGISTRY NO=1673-34-3
##MP= -300
##BP= -300
##MW= 201
##$RETENTION INDEX=0
##$CONDENSED SPECTRUM=NO
##NPOINTS= 94
##XYDATA=(XY..XY) 1 
    33          5
    36          3
    37         61
    38         54
    39        315
    40        162
    41         95
    42         49
    43        160
    44         75
    45         34
    46         45
    47          9
    48          1
    50         17
    51        154
    52        188
    53        999
    54        152
    55        155
    56         51
    57         27
    58         38
    59        256
    60          8
    62          1
    63          8
    64          9
    65         21
    66        313
    67        203
    68        196
    69        175
    70         85
    71         17
    72         13
    73          2
    76          1
    78         89
    79        138
    80        443
    81        135
    82        177
    83        103
    84         26
    85         18
    86          3
    87         12
    93          6
    94         97
    95        142
    96        133
    97         39
    98          9
    99         25
   100          1
   108         23
   109         99
   110        238
   111         39
   112         16
   113          4
   115         12
   123         18
   124         41
   125        131
   126         39
   127          3
   129          1
   136          6
   137         45
   138         13
   139         19
   140         19
   141          3
   144          1
   152          2
   153        160
   154         27
   155         30
   156          8
   157          2
   166          1
   169          1
   171         66
   172         10
   184        136
   185         40
   186          5
   199          3
   200         62
   201        532
   202         46
   203          5