##TITLE=Library Entry 90758
##JCAMP-DX=Revision 4.10 
##DATA TYPE=MASS SPECTRUM
##SAMPLE DESCRIPTION=A.A.Kutin, Moscow, Russia
##NAMES=HP
##CAS NAME=Indole-2-carboxylic acid, 7-bromo-
##MOLFORM=C9H6BrNO2
##CAS REGISTRY NO=16732-71-1
##MP= -300
##BP= -300
##MW= 239
##$RETENTION INDEX=0
##$CONDENSED SPECTRUM=NO
##NPOINTS= 80
##XYDATA=(XY..XY) 1 
    34         54
    37         89
    38        110
    39        165
    40        108
    41         62
    42         42
    43        508
    45        137
    49         14
    50        129
    51         87
    52         70
    53         16
    55         50
    56         37
    57        119
    58         46
    61        120
    62        263
    63        222
    64         88
    65         44
    66          1
    69          8
    71         11
    73          7
    74         46
    75         67
    76         84
    77         47
    78          1
    79         30
    80         45
    81         28
    82         46
    84          6
    85         39
    86         88
    87        212
    88        241
    89         66
    90         33
    91         63
    92         10
    96         31
    97         27
   102          1
   103         16
   104         14
   105          5
   110         54
   111         58
   112          6
   113         34
   114        999
   115        162
   116         12
   117          4
   119          7
   131          0
   141         13
   142         71
   143         22
   160         14
   161          1
   167         46
   169         60
   171         10
   192          9
   193         32
   194         17
   195         24
   221        252
   222         20
   223        248
   224         15
   239        102
   240          3
   241         96