##TITLE=Library Entry 69161
##JCAMP-DX=Revision 4.10 
##DATA TYPE=MASS SPECTRUM
##SAMPLE DESCRIPTION=Chemical Concepts
##NAMES=HP
##CAS NAME=Cyclohexanol, 1-methyl-, acetate
##MOLFORM=C9H16O2
##CAS REGISTRY NO=16737-30-7
##MP= -300
##BP= -300
##MW= 156
##$RETENTION INDEX=0
##$CONDENSED SPECTRUM=NO
##NPOINTS= 92
##XYDATA=(XY..XY) 1 
    27         89
    28          4
    29         82
    30          2
    31          5
    36          0
    37          0
    38          3
    39         83
    40         15
    41        120
    42         18
    43        986
    44         20
    45         12
    46          1
    47          0
    48          0
    50          3
    51          8
    52          4
    53         40
    54         76
    55        424
    56         21
    57         12
    58        173
    59         51
    60          3
    61          4
    62          0
    63          2
    64          0
    65          9
    66         11
    67        136
    68        175
    69         36
    70          5
    71        433
    72         71
    73          3
    74          0
    75          0
    77         10
    78          2
    79         23
    80         15
    81        946
    82         56
    83          5
    84          4
    85         41
    86          6
    87          0
    91          5
    92          2
    93          3
    94          2
    95         51
    96        999
    97        215
    98         21
    99        212
   100         14
   101          1
   103          0
   105          0
   106          0
   107          0
   109          0
   110          0
   111          0
   112          0
   113          4
   114         85
   115          7
   116          0
   119          0
   120          0
   121          0
   123          2
   127          0
   128          0
   130          0
   131          0
   136          0
   138          0
   141         15
   142          1
   143          0
   157          0