##TITLE=Library Entry 3817
##JCAMP-DX=Revision 4.10 
##DATA TYPE=MASS SPECTRUM
##SAMPLE DESCRIPTION=ORMSBG,9(7)726(1974); UNDEWALLE
##NAMES=HP
##CAS NAME=m-Dioxane, 4,6-dibutyl-
##MOLFORM=C12H24O2
##CAS REGISTRY NO=16731-95-6
##MP= -300
##BP= -300
##MW= 200
##$RETENTION INDEX=0
##$CONDENSED SPECTRUM=NO
##NPOINTS= 26
##XYDATA=(XY..XY) 1 
    39        290
    40         20
    41        999
    42        250
    43        480
    44         30
    45        140
    67        120
    68         50
    69        670
    70         60
    71        120
    81         40
    83         70
    84        320
    85        120
    86         20
    87         90
    95        999
    96         80
    97         70
   113        480
   114         40
   143        510
   144         40
   170         20