##TITLE=Library Entry 51570
##JCAMP-DX=Revision 4.10 
##DATA TYPE=MASS SPECTRUM
##SAMPLE DESCRIPTION=Japan AIST/NIMC Database- Spectrum MS-NW-2648
##NAMES=HP
##CAS NAME=1H-Imidazole, 2-undecyl-
##MOLFORM=C14H26N2
##CAS REGISTRY NO=16731-68-3
##MP= -300
##BP= -300
##MW= 222
##$RETENTION INDEX=0
##$CONDENSED SPECTRUM=NO
##NPOINTS= 80
##XYDATA=(XY..XY) 1 
    15          4
    17         11
    18         64
    26          3
    27         23
    28         23
    29         36
    30          2
    32          4
    39         13
    40          7
    41         60
    42         20
    43         36
    44          2
    51          1
    52          2
    53          7
    54         24
    55         20
    56          5
    57          9
    59          3
    65          1
    66          1
    67          5
    68          7
    69         16
    70          2
    71          2
    72          1
    79          1
    80          2
    81         78
    82        999
    83         56
    84          7
    85          1
    93          4
    94          6
    95        423
    96        171
    97         12
    98          1
   106          1
   107          8
   108          7
   109         76
   110         16
   111          2
   119          1
   121          9
   122          6
   123         46
   124         24
   125          2
   135          3
   136          1
   137        179
   138         23
   139          2
   149          1
   151         77
   152         14
   153          1
   163          1
   165         32
   166          6
   179         47
   180          8
   181          1
   193         50
   194          9
   195          1
   207          9
   208          1
   221         22
   222         70
   223         11
   224          1