##TITLE=Library Entry 54807
##JCAMP-DX=Revision 4.10 
##DATA TYPE=MASS SPECTRUM
##SAMPLE DESCRIPTION=Exported from NIST MS Search
##NAMES=HP
##CAS NAME=1,3-Dioxane, 4,6-diethyl-, trans-
##MOLFORM=C8H16O2
##CAS REGISTRY NO=16731-92-3
##MP= -300
##BP= -300
##MW= 144
##$RETENTION INDEX=0
##$CONDENSED SPECTRUM=NO
##NPOINTS= 38
##XYDATA=(XY..XY) 1 
    27         69
    28         78
    29        235
    31        110
    32          6
    39         47
    40         15
    41        330
    42         47
    43        283
    44        676
    45         47
    53          9
    54          9
    55        235
    56        613
    57        314
    58         25
    59        220
    67        283
    68         25
    69         40
    70         15
    71          9
    73         31
    83         15
    85        999
    86         78
    87          6
    89         25
    91         15
    96         15
    97         94
   114         56
   115        597
   116         37
   143         62
   144          6