##TITLE=Library Entry 71889
##JCAMP-DX=Revision 4.10 
##DATA TYPE=MASS SPECTRUM
##SAMPLE DESCRIPTION=Japan AIST/NIMC Database- Spectrum MS-NW-3843
##NAMES=HP
##CAS NAME=2,4,6-Tribromophenyl hexanoate
##MOLFORM=C12H13Br3O2
##CAS REGISTRY NO=16732-09-5
##MP= -300
##BP= -300
##MW= 426
##$RETENTION INDEX=0
##$CONDENSED SPECTRUM=NO
##NPOINTS= 111
##XYDATA=(XY..XY) 1 
    14          1
    15          2
    17          1
    18          4
    26          4
    27         47
    28          9
    29         76
    30          1
    37          4
    38          2
    39         21
    40          4
    41         86
    42         25
    43        558
    44         19
    49          1
    50          2
    51          2
    53          5
    54          2
    55         52
    56          6
    57          9
    60          2
    61         14
    62         36
    63          7
    67          1
    68          1
    69         15
    70         11
    71        411
    72         22
    73          3
    74          9
    75          1
    79          1
    80          3
    81          6
    82          2
    83          4
    85          2
    90          2
    91          2
    97          4
    98         11
    99        999
   100         64
   101          4
   116          1
   117          2
   118          2
   119          1
   140          2
   141         21
   142          4
   143         20
   144          2
   153          2
   155          2
   169          1
   170          2
   171          1
   172          1
   173          1
   195          1
   197          3
   199          1
   220          3
   221          2
   222          6
   223          3
   224          3
   225          1
   232          1
   234          2
   236          1
   248          3
   249          1
   250          6
   251          2
   252          3
   277          1
   279          2
   281          1
   291          2
   293          4
   295          2
   299          3
   301          9
   303          9
   305          3
   313          2
   315          2
   327          2
   328         13
   329          6
   330         35
   331          6
   332         35
   333          4
   334         10
   335          1
   426          2
   428          7
   429          1
   430          7
   431          1
   432          2