##TITLE=Library Entry 72513
##JCAMP-DX=Revision 4.10 
##DATA TYPE=MASS SPECTRUM
##SAMPLE DESCRIPTION=ORMSBG,9(7)726(1974); UNDEWALLE
##NAMES=HP
##CAS NAME=1,3-Dioxane, 4,6-bis(1-methylethyl)-, trans-
##MOLFORM=C10H20O2
##CAS REGISTRY NO=16731-94-5
##MP= -300
##BP= -300
##MW= 172
##$RETENTION INDEX=0
##$CONDENSED SPECTRUM=NO
##NPOINTS= 25
##XYDATA=(XY..XY) 1 
    41         40
    42         80
    43        600
    53         90
    55        300
    56         50
    57        200
    60         30
    68        140
    69        370
    70        150
    71         20
    72        110
    75         20
    81        750
    82         60
    85         40
    88         90
    99        999
   100         90
   128        140
   129        760
   130         70
   170         30
   172         20