##TITLE=Library Entry 78898
##JCAMP-DX=Revision 4.10 
##DATA TYPE=MASS SPECTRUM
##SAMPLE DESCRIPTION=NIST Mass Spectrometry Data Center, 1994
##NAMES=HP
##CAS NAME=2-Methylbenzyl isothiocyanate
##MOLFORM=C9H9NS
##CAS REGISTRY NO=16735-69-6
##MP= -300
##BP= -300
##MW= 163
##$RETENTION INDEX=0
##$CONDENSED SPECTRUM=NO
##NPOINTS= 78
##XYDATA=(XY..XY) 1 
    14          3
    15         10
    26         11
    27         82
    28         15
    29          3
    32         20
    37         11
    38         30
    39        140
    40         13
    41         13
    44         13
    45         21
    46          2
    49          7
    50         71
    51        136
    52         38
    53         33
    54          3
    58         32
    59         15
    60          4
    61         12
    62         34
    63         88
    64         20
    65         51
    66          7
    67          6
    68          1
    69          3
    70          9
    71          6
    72         17
    73          4
    74         21
    75         20
    76         27
    77        248
    78        106
    79        227
    80         49
    81          8
    83          2
    85          2
    86          5
    87          6
    88          2
    89         34
    90         14
    91         21
    92          2
    98          3
   101          5
   102         24
   103        149
   104        201
   105        999
   106         85
   107          4
   108          1
   116         10
   117          5
   118          2
   121          9
   122          1
   128          4
   129          1
   131          2
   134          2
   135          4
   148          7
   162         22
   163        111
   164         13
   165          5