##TITLE=Library Entry 89199
##JCAMP-DX=Revision 4.10 
##DATA TYPE=MASS SPECTRUM
##SAMPLE DESCRIPTION=NIST Mass Spectrometry Data Center
##NAMES=HP
##CAS NAME=4-Bromo-2,5-difluoronitrobenzene
##MOLFORM=C6H2BrF2NO2
##CAS REGISTRY NO=167415-27-2
##MP= -300
##BP= -300
##MW= 237
##$RETENTION INDEX=0
##$CONDENSED SPECTRUM=NO
##NPOINTS= 124
##XYDATA=(XY..XY) 1 
    12          6
    16         24
    17          1
    18          1
    19         17
    20          5
    24          3
    25          6
    28         19
    30        980
    31        276
    32          9
    36         27
    37         74
    38         16
    39          3
    40          1
    44         14
    46         54
    47          3
    48          8
    49         28
    50         55
    51         22
    52          2
    53          1
    55         27
    56         91
    57         23
    58          1
    61        241
    62        412
    63         28
    64          3
    68        107
    69         13
    70          3
    71          3
    72          7
    73         30
    74         69
    75         63
    76         11
    77          2
    79         55
    80         68
    81        208
    82         17
    83          1
    86         29
    87         10
    88          1
    92        100
    93         75
    94          8
    95          3
    97          2
    99         42
   100         74
   101          8
   103          1
   104          2
   105          2
   106          7
   107          2
   108          4
   112        999
   113         73
   114          2
   115          1
   116          2
   117          3
   118          2
   119          1
   122          1
   124          3
   126         19
   127          3
   128         18
   129         23
   130          6
   131         22
   134          3
   135         16
   136          4
   137         16
   138          1
   141         20
   142          6
   143         13
   144          1
   146          3
   147          2
   148          4
   151          1
   152          1
   153          5
   155          4
   158          3
   159          3
   160          1
   161          3
   162          1
   171          6
   172          4
   173          6
   174          2
   179        311
   181        308
   182         18
   191        209
   193        192
   194         15
   207        290
   209        262
   210         20
   221         25
   223         23
   224          2
   235          1
   237        398
   239        390
   240         30
   241          3