##TITLE=Library Entry 24842
##JCAMP-DX=Revision 4.10 
##DATA TYPE=MASS SPECTRUM
##SAMPLE DESCRIPTION=NIST Mass Spectrometry Data Center, 1990.
##NAMES=HP
##CAS NAME=Pentane, 3-ethyl-2,2-dimethyl-
##MOLFORM=C9H20
##CAS REGISTRY NO=16747-32-3
##MP= -300
##BP= -300
##MW= 128
##$RETENTION INDEX=824
##$CONDENSED SPECTRUM=NO
##NPOINTS= 44
##XYDATA=(XY..XY) 1 
    14          2
    15         11
    16          1
    26          8
    27        113
    28         29
    29        158
    30          4
    32          3
    37          2
    39        104
    40         26
    41        399
    42         47
    43        218
    44          7
    50          3
    51         10
    52          4
    53         29
    54          2
    55        135
    56        684
    57        999
    58         44
    63          1
    65          5
    66          1
    67          9
    68          1
    69         37
    70         98
    71        130
    72          7
    77          2
    79          2
    81          1
    83         10
    84          4
    97          1
    98          1
    99          4
   113         11
   114          1