##TITLE=Library Entry 9803
##JCAMP-DX=Revision 4.10 
##DATA TYPE=MASS SPECTRUM
##SAMPLE DESCRIPTION=Exported from NIST MS Search
##NAMES=HP
##CAS NAME=Hexane, 2,3,3-trimethyl-
##MOLFORM=C9H20
##CAS REGISTRY NO=16747-28-7
##MP= -300
##BP= -300
##MW= 128
##$RETENTION INDEX=840
##$CONDENSED SPECTRUM=NO
##NPOINTS= 53
##XYDATA=(XY..XY) 1 
    25          1
    26          4
    27        158
    28         19
    29        126
    30          3
    37          1
    38          2
    39         81
    40         14
    41        304
    42         32
    43        999
    44         33
    45          1
    50          1
    51          4
    52          2
    53         22
    54          5
    55         71
    56        145
    57        303
    58         13
    59          1
    63          1
    65          3
    66          1
    67          8
    68          2
    69        105
    70         10
    71         92
    72          5
    73          1
    77          1
    78          1
    79          1
    80          1
    81          1
    82          1
    83          5
    84        268
    85        656
    86         40
    87          1
    91          1
    95          1
    97          1
   112          1
   113         22
   114          2
   128          1