##TITLE=Library Entry 68009
##JCAMP-DX=Revision 4.10 
##DATA TYPE=MASS SPECTRUM
##SAMPLE DESCRIPTION=Exported from NIST MS Search
##NAMES=HP
##CAS NAME=Cyclohexene, 1,2-dimethyl-
##MOLFORM=C8H14
##CAS REGISTRY NO=1674-10-8
##MP= -300
##BP= -300
##MW= 110
##$RETENTION INDEX=868
##$CONDENSED SPECTRUM=NO
##NPOINTS= 85
##XYDATA=(XY..XY) 1 
    12          1
    13          1
    14          6
    15        123
    16          4
    24          1
    25          1
    26         32
    27        343
    28         64
    29        122
    30          3
    31          1
    32          1
    36          1
    37          9
    38         34
    39        456
    40         87
    41        517
    42         46
    43         41
    44          2
    45          6
    46          4
    47          1
    49          5
    50         63
    51        137
    52         64
    53        223
    54        138
    55        250
    56         45
    57          2
    60          1
    61          6
    62         17
    63         44
    64          9
    65         90
    66         43
    67        754
    68        398
    69        283
    70         15
    71          1
    73          1
    74          8
    75          5
    76          3
    77        124
    78         33
    79        122
    80         48
    81        654
    82        253
    83         15
    84          1
    85          1
    86          1
    87          1
    88          1
    89          4
    90          1
    91         84
    92         13
    93         66
    94         19
    95        999
    96         77
    97          2
    98          1
   101          1
   102          1
   103          3
   104          1
   105          5
   106          1
   107          6
   108          3
   109         43
   110        502
   111         44
   112          2