##TITLE=Library Entry 38930
##JCAMP-DX=Revision 4.10 
##DATA TYPE=MASS SPECTRUM
##SAMPLE DESCRIPTION=NIST Mass Spectrometry Data Center, 1990.
##NAMES=HP
##CAS NAME=Hexane, 3,3,4-trimethyl-
##MOLFORM=C9H20
##CAS REGISTRY NO=16747-31-2
##MP= -300
##BP= -300
##MW= 128
##$RETENTION INDEX=853
##$CONDENSED SPECTRUM=NO
##NPOINTS= 44
##XYDATA=(XY..XY) 1 
    14         12
    15          7
    16          7
    27        140
    28         24
    29        189
    30          5
    39        168
    40         42
    41        463
    42        109
    43        813
    44         37
    45          2
    50          6
    51         18
    52          7
    53         64
    54          2
    55        374
    56         94
    57        924
    58         43
    59          2
    63          3
    65         11
    66          3
    67         22
    70        975
    71        999
    72         55
    77          5
    78          1
    79          6
    81          3
    83         28
    84          4
    85          1
    97          2
    98         22
    99        130
   100          9
   113         27
   114          2