##TITLE=Library Entry 24869
##JCAMP-DX=Revision 4.10 
##DATA TYPE=MASS SPECTRUM
##SAMPLE DESCRIPTION=Exported from NIST MS Search
##NAMES=HP
##CAS NAME=Hexane, 2,2,3-trimethyl-
##MOLFORM=C9H20
##CAS REGISTRY NO=16747-25-4
##MP= -300
##BP= -300
##MW= 128
##$RETENTION INDEX=822
##$CONDENSED SPECTRUM=NO
##NPOINTS= 54
##XYDATA=(XY..XY) 1 
    26          3
    27        109
    28         17
    29        189
    30          4
    38          1
    39         67
    40         13
    41        313
    42         39
    43        241
    44          8
    45          1
    46          1
    50          1
    51          3
    52          2
    53         17
    54          5
    55         78
    56        671
    57        999
    58         43
    59          1
    63          1
    64          1
    65          2
    66          1
    67          5
    68          1
    69         22
    70         55
    71        112
    72          6
    73          1
    77          1
    78          1
    79          1
    80          1
    81          1
    82          1
    83          5
    84          2
    85         17
    86          1
    91          1
    93          1
    95          1
    97          1
    99          1
   112          1
   113         18
   114          2
   128          1