##TITLE=Library Entry 52216
##JCAMP-DX=Revision 4.10 
##DATA TYPE=MASS SPECTRUM
##SAMPLE DESCRIPTION=Exported from NIST MS Search
##NAMES=HP
##CAS NAME=Cyclopentane, 1-ethyl-1-methyl-
##MOLFORM=C8H16
##CAS REGISTRY NO=16747-50-5
##MP= -300
##BP= -300
##MW= 112
##$RETENTION INDEX=797
##$CONDENSED SPECTRUM=NO
##NPOINTS= 65
##XYDATA=(XY..XY) 1 
    12          1
    13          1
    14          1
    15         26
    16          1
    26         11
    27        216
    28         45
    29        203
    30          5
    31          1
    32          1
    37          1
    38          6
    39        182
    40         34
    41        472
    42         95
    43         86
    44          3
    45          1
    46          1
    47          1
    50          4
    51         15
    52          9
    53         64
    54         27
    55        814
    56        128
    57         23
    58          1
    62          1
    63          2
    64          1
    65         11
    66          7
    67         93
    68         15
    69        137
    70        339
    71         34
    72          1
    73          1
    74          1
    77          8
    78          2
    79          9
    80          2
    81         14
    82        255
    83        999
    84         92
    85          3
    91          1
    92          1
    93          1
    95          2
    96          2
    97         99
    98          8
    99          1
   111          1
   112         10
   113          1