##TITLE=Library Entry 73424
##JCAMP-DX=Revision 4.10 
##DATA TYPE=MASS SPECTRUM
##SAMPLE DESCRIPTION=A.A.Kutin, Moscow, Russia
##NAMES=HP
##CAS NAME=Morpholine, 4-[2-(2-methoxyphenoxy)ethyl]-
##MOLFORM=C13H19NO3
##CAS REGISTRY NO=167405-05-2
##MP= -300
##BP= -300
##MW= 237
##$RETENTION INDEX=0
##$CONDENSED SPECTRUM=NO
##NPOINTS= 106
##XYDATA=(XY..XY) 1 
    29         39
    30         13
    31          3
    32          8
    33          0
    36          0
    37          0
    38          1
    39          3
    40          1
    41         11
    42         32
    43          9
    44         11
    45         90
    46         51
    47          4
    50          2
    51          7
    52         12
    53          5
    54         15
    55         42
    56         79
    57         47
    58          6
    59          2
    60          0
    62          0
    63          7
    64          4
    65          8
    66          2
    67          2
    68          2
    69          2
    70         21
    71         25
    72          9
    73          5
    74          0
    75          0
    76          3
    77         19
    78          3
    79          3
    80          6
    81          5
    82          1
    83          1
    84          4
    85          6
    86          2
    87          0
    89          0
    90          5
    91          5
    92         26
    93          6
    94          4
    95         30
    96          4
    97          0
    98         11
    99          8
   100        999
   101         92
   102          5
   103          0
   104         10
   105          2
   107          5
   108          2
   109         21
   110          2
   111          0
   112         14
   113         12
   114        177
   115         12
   116          0
   118          0
   119          6
   120          0
   121         19
   122         23
   123          9
   124          7
   125          0
   127          0
   129          1
   132          0
   134          0
   135          2
   136          1
   137          3
   148          2
   150          4
   154          0
   156          0
   186          0
   206          0
   236          1
   237         83
   238         35
   239          8