##TITLE=Library Entry 9869
##JCAMP-DX=Revision 4.10 
##DATA TYPE=MASS SPECTRUM
##SAMPLE DESCRIPTION=Exported from NIST MS Search
##NAMES=HP
##CAS NAME=Pentane, 2,3,3,4-tetramethyl-
##MOLFORM=C9H20
##CAS REGISTRY NO=16747-38-9
##MP= -300
##BP= -300
##MW= 128
##$RETENTION INDEX=861
##$CONDENSED SPECTRUM=NO
##NPOINTS= 55
##XYDATA=(XY..XY) 1 
    26          3
    27        142
    28         12
    29         83
    30          2
    37          1
    38          2
    39         78
    40         13
    41        295
    42         32
    43        999
    44         33
    45          1
    46          1
    50          1
    51          4
    52          2
    53         22
    54          4
    55         66
    56         20
    57        325
    58         14
    59          1
    63          1
    64          1
    65          2
    66          1
    67          8
    68          2
    69        153
    70         16
    71         29
    72          2
    77          1
    78          1
    79          1
    80          1
    81          1
    82          1
    83          3
    84        277
    85        595
    86         37
    87          1
    91          1
    95          1
    96          1
    97          4
    98          1
   112          1
   113          9
   114          1
   128          1