##TITLE=Library Entry 80888
##JCAMP-DX=Revision 4.10 
##DATA TYPE=MASS SPECTRUM
##SAMPLE DESCRIPTION=NIST Mass Spectrometry Data Center, 1994
##NAMES=HP
##CAS NAME=1-Octanone, 1-phenyl-
##MOLFORM=C14H20O
##CAS REGISTRY NO=1674-37-9
##MP= -300
##BP= -300
##MW= 204
##$RETENTION INDEX=0
##$CONDENSED SPECTRUM=NO
##NPOINTS= 81
##XYDATA=(XY..XY) 1 
    12          0
    15          3
    17          1
    18          2
    26          9
    27        146
    28         34
    29        135
    30          1
    37          1
    38          5
    39         88
    40         15
    41        157
    42         35
    43         61
    44          1
    50         40
    51        170
    52         13
    53         14
    54          1
    55         82
    56          9
    57         17
    58          1
    62          2
    63          6
    64          1
    65         12
    66          2
    67          4
    68          1
    69          4
    70          1
    74          2
    75          9
    77        546
    78         93
    79         11
    80          0
    81          0
    82          1
    83          1
    89          3
    91         22
    92          8
   101          0
   102          2
   103          6
   104          0
   105        999
   106         78
   107          8
   108          0
   115          8
   116          1
   117          2
   120        738
   121         71
   122          4
   127          1
   128          2
   129          3
   130          1
   131          2
   133         76
   134          9
   135          0
   143          1
   144          0
   145          1
   146          0
   147          3
   148          1
   161          3
   162          1
   175          1
   204         40
   205          6
   206          0