##TITLE=Library Entry 22378
##JCAMP-DX=Revision 4.10 
##DATA TYPE=MASS SPECTRUM
##SAMPLE DESCRIPTION=NIST Mass Spectrometry Data Center, 1990.
##NAMES=HP
##CAS NAME=2,4-Dimethyl-1-hexene
##MOLFORM=C8H16
##CAS REGISTRY NO=16746-87-5
##MP= -300
##BP= -300
##MW= 112
##$RETENTION INDEX=743
##$CONDENSED SPECTRUM=NO
##NPOINTS= 37
##XYDATA=(XY..XY) 1 
    15          9
    26         15
    27        141
    28         54
    29        213
    39        292
    40         76
    41        655
    42         52
    43         35
    44          6
    50         19
    51         42
    52         18
    53         97
    54          6
    55        378
    56        999
    57        701
    58         31
    63          9
    65         22
    66         10
    67         86
    68         28
    69         56
    70        123
    71          8
    77         18
    79         17
    81         12
    82          8
    83         77
    84         12
    97         13
   112        104
   113         10