##TITLE=Library Entry 44645
##JCAMP-DX=Revision 4.10 
##DATA TYPE=MASS SPECTRUM
##SAMPLE DESCRIPTION=Chemical Concepts
##NAMES=HP
##CAS NAME=3,6-Diazaoctane-1,8-diol, 3,6-bis(t-butoxycarbonyl)-
##MOLFORM=C16H32N2O6
##CAS REGISTRY NO=167407-91-2
##MP= -300
##BP= -300
##MW= 348
##$RETENTION INDEX=0
##$CONDENSED SPECTRUM=NO
##NPOINTS= 141
##XYDATA=(XY..XY) 1 
    26          0
    27          3
    28          8
    29         44
    30         18
    31          5
    37          0
    38          0
    40          0
    41         37
    42         35
    43          2
    44        108
    45         15
    46          0
    53          0
    54          3
    55          9
    56         68
    57        493
    58         33
    59          2
    60          1
    62         13
    68          1
    69         14
    70         26
    71          2
    72          4
    73          3
    74        999
    75         32
    76          3
    85          6
    86          7
    87        133
    88         34
    89         10
    90          0
    97          1
    98          1
    99         10
   100          6
   101         24
   102          2
   103          0
   104          0
   106         30
   107          1
   112          4
   113          5
   114         32
   115          5
   116          0
   117         39
   118         81
   119         57
   120          5
   121          1
   128          0
   129          6
   130          5
   131        305
   132         22
   133          2
   136          1
   139          4
   140          0
   141          1
   142          0
   143         10
   144          9
   145          1
   146          0
   147          8
   148          0
   149          2
   155          1
   156          3
   157         27
   158          2
   159          1
   160          0
   161         48
   162          4
   163          0
   169          2
   170          0
   171          6
   172          1
   173          6
   174         45
   175        110
   176         11
   177          0
   185          0
   186          5
   187        147
   188         17
   189          2
   190          0
   191          8
   192          0
   193          1
   197          0
   200          1
   201          1
   205          4
   206          0
   211          0
   212          0
   213          0
   215          0
   217          7
   218          4
   219          2
   229          0
   230          1
   231          1
   243          7
   244          2
   245          0
   247          0
   249          1
   255          0
   256          0
   261          0
   271          0
   273          0
   274          1
   275          0
   287          0
   288          0
   299         10
   300          6
   301          1
   318          1
   330          1
   348          1
   349          1
   350          0