##TITLE=Library Entry 37057
##JCAMP-DX=Revision 4.10 
##DATA TYPE=MASS SPECTRUM
##SAMPLE DESCRIPTION=Japan AIST/NIMC Database- Spectrum MS-NW-4648
##NAMES=HP
##CAS NAME=2,3-Dimethyl-1-hexene
##MOLFORM=C8H16
##CAS REGISTRY NO=16746-86-4
##MP= -300
##BP= -300
##MW= 112
##$RETENTION INDEX=740
##$CONDENSED SPECTRUM=NO
##NPOINTS= 58
##XYDATA=(XY..XY) 1 
    15          8
    17          1
    18          8
    26          5
    27        105
    28          5
    29         79
    30          2
    32          1
    37          2
    38          8
    39        138
    40         26
    41        630
    42        117
    43        109
    44          4
    45          1
    50          6
    51         13
    52          7
    53         58
    54         18
    55        624
    56         81
    57         22
    58          4
    62          2
    63          3
    65         10
    66          5
    67         58
    68         34
    69        629
    70        999
    71         58
    72          2
    77          6
    78          1
    79          7
    80          1
    81         11
    82          4
    83        120
    84         20
    85          5
    86          1
    91          1
    93          1
    95          5
    96          1
    97         27
    98          3
    99          3
   110          1
   111          1
   112         11
   113          2