##TITLE=Library Entry 8666
##JCAMP-DX=Revision 4.10 
##DATA TYPE=MASS SPECTRUM
##SAMPLE DESCRIPTION=NIST Mass Spectrometry Data Center, 1990.
##NAMES=HP
##CAS NAME=1-Hexene, 4-ethyl-
##MOLFORM=C8H16
##CAS REGISTRY NO=16746-85-3
##MP= -300
##BP= -300
##MW= 112
##$RETENTION INDEX=756
##$CONDENSED SPECTRUM=NO
##NPOINTS= 35
##XYDATA=(XY..XY) 1 
    26         31
    27        211
    28        105
    29        204
    31         58
    32         17
    39        362
    40         61
    41        537
    42        152
    43        999
    44         55
    45         47
    50         26
    51         50
    52         23
    53        116
    54         77
    55        592
    56         73
    59         70
    65         31
    66         14
    67         95
    68         48
    69        129
    70        899
    71        544
    72         26
    74         60
    77         21
    79         21
    83         70
    84         70
   112         36