##TITLE=Library Entry 87082
##JCAMP-DX=Revision 4.10 
##DATA TYPE=MASS SPECTRUM
##SAMPLE DESCRIPTION=A.A.Kutin, Moscow, Russia
##NAMES=HP
##CAS NAME=4H-1,2,4-Triazole, 3,4,5-trimethyl-
##MOLFORM=C5H9N3
##CAS REGISTRY NO=16759-45-8
##MP= -300
##BP= -300
##MW= 111
##$RETENTION INDEX=0
##$CONDENSED SPECTRUM=NO
##NPOINTS= 25
##XYDATA=(XY..XY) 1 
    55        265
    56         15
    57        635
    58         33
    59          9
    60          3
    61          4
    63          6
    64         11
    66         36
    67         27
    68         44
    69        261
    70         16
    73         10
    75          5
    77          3
    80          7
    86          6
    91         30
    96         19
    97         17
   109         81
   110        999
   111        257