##TITLE=Library Entry 51030
##JCAMP-DX=Revision 4.10 
##DATA TYPE=MASS SPECTRUM
##SAMPLE DESCRIPTION=Exported from NIST MS Search
##NAMES=HP
##CAS NAME=2-Cyclohexen-1-one, 3-methyl-6-(1-methylethenyl)-, (S)-
##MOLFORM=C10H14O
##CAS REGISTRY NO=16750-82-6
##MP= -300
##BP= -300
##MW= 150
##$RETENTION INDEX=0
##$CONDENSED SPECTRUM=NO
##NPOINTS= 44
##XYDATA=(XY..XY) 1 
    27        142
    28         83
    29         50
    38         25
    39        317
    40         50
    41        167
    42         42
    43         33
    50         33
    51         67
    52         33
    53        125
    54        192
    55         50
    63         25
    65         42
    66         25
    67         83
    68         33
    69         17
    77         67
    78         25
    79         67
    80         42
    81         25
    82        999
    83         83
    91        100
    93         50
    94         33
    95         50
   105         33
   106         25
   107        167
   108         42
   109         67
   121         33
   122         75
   135        183
   136         17
   149         25
   150        300
   151         33