##TITLE=Library Entry 78216
##JCAMP-DX=Revision 4.10 
##DATA TYPE=MASS SPECTRUM
##SAMPLE DESCRIPTION=AAFS Toxicology Section MS DB Committee, U. Alberta, Ca
nada
##NAMES=HP
##CAS NAME=Methomyl
##MOLFORM=C5H10N2O2S
##CAS REGISTRY NO=16752-77-5
##MP= -300
##BP= -300
##MW= 162
##$RETENTION INDEX=1532
##$CONDENSED SPECTRUM=NO
##NPOINTS= 59
##XYDATA=(XY..XY) 1 
    40         39
    41         35
    42        168
    43         48
    44         77
    45        131
    46         71
    47        140
    48         32
    49         12
    54          5
    55         16
    56         31
    57         29
    58        867
    59        176
    60         17
    61         24
    62          8
    63          5
    64          8
    67          4
    68          4
    69         11
    70         10
    71         60
    72         34
    73         78
    74         45
    75         19
    76          3
    77          3
    79         13
    80         25
    81          8
    82          7
    83         26
    84          4
    85         19
    86         11
    88        830
    89         39
    90         24
    91          4
    94          7
    95         17
    97          4
   100          3
   105        999
   106         55
   107         51
   111          3
   114          7
   115         33
   116         15
   119          4
   144          9
   162         29
   163          4