##TITLE=Library Entry 97132
##JCAMP-DX=Revision 4.10 
##DATA TYPE=MASS SPECTRUM
##SAMPLE DESCRIPTION=Institute of Organic Chemistry, Novosibirsk, USSR 1988
##NAMES=HP
##CAS NAME=Silane, ethenyldimethoxymethyl-
##MOLFORM=C5H12O2Si
##CAS REGISTRY NO=16753-62-1
##MP= -300
##BP= -300
##MW= 132
##$RETENTION INDEX=0
##$CONDENSED SPECTRUM=NO
##NPOINTS= 26
##XYDATA=(XY..XY) 1 
    31         29
    45        103
    59        142
    60         22
    61         68
    71         39
    74         31
    75        340
    76         29
    77         24
    85         19
    86         17
    87        305
    88         40
    89          7
    91        102
    92          9
   101         48
   105        273
   106         17
   107          8
   117        999
   118        123
   119         47
   120          7
   132         13