##TITLE=Library Entry 23735
##JCAMP-DX=Revision 4.10 
##DATA TYPE=MASS SPECTRUM
##SAMPLE DESCRIPTION=CARL DJERASSI DEPT OF CHEM STANFORD UNIV STANFORD CALIF
 94305
##NAMES=HP
##CAS NAME=Orthoformic acid, triisobutyl ester
##MOLFORM=C13H28O3
##CAS REGISTRY NO=16754-49-7
##MP= -300
##BP= -300
##MW= 232
##$RETENTION INDEX=0
##$CONDENSED SPECTRUM=NO
##NPOINTS= 9
##XYDATA=(XY..XY) 1 
    41        190
    42         20
    43         40
    55         20
    56         40
    57        999
    58         50
   103        130
   159         90