##TITLE=Library Entry 26338
##JCAMP-DX=Revision 4.10 
##DATA TYPE=MASS SPECTRUM
##SAMPLE DESCRIPTION=CARL DJERASSI DEPT OF CHEM STANFORD UNIV STANFORD CALIF
 94305
##NAMES=HP
##CAS NAME=Orthoformic acid, tri-sec-butyl ester
##MOLFORM=C13H28O3
##CAS REGISTRY NO=16754-48-6
##MP= -300
##BP= -300
##MW= 232
##$RETENTION INDEX=0
##$CONDENSED SPECTRUM=NO
##NPOINTS= 29
##XYDATA=(XY..XY) 1 
    40         10
    41        240
    42         20
    43         60
    44         20
    45        410
    46         10
    47         30
    50         10
    51         10
    53         10
    54         10
    55         40
    56         90
    57        999
    58         50
    59         80
    63         10
    71         10
    73         40
    74         10
    75         10
   103        580
   104         30
   119         12
   159         80
   160          6
   175          2
   231          4