##TITLE=Library Entry 28443
##JCAMP-DX=Revision 4.10 
##DATA TYPE=MASS SPECTRUM
##SAMPLE DESCRIPTION=O. David Sparkman and Lorena M. Rios (University of the
 Pacific) and Ronald Binder (USDA PW)
##NAMES=HP
##CAS NAME=3-Hexanamine
##MOLFORM=C6H15N
##CAS REGISTRY NO=16751-58-9
##MP= -300
##BP= -300
##MW= 101
##$RETENTION INDEX=0
##$CONDENSED SPECTRUM=NO
##NPOINTS= 58
##XYDATA=(XY..XY) 1 
    25          1
    26         13
    27        142
    29        110
    30        814
    31         16
    35          7
    36         17
    37          4
    38         10
    39         85
    40          8
    41        420
    42        134
    43        187
    44         74
    45          4
    46          1
    47         16
    48          8
    49        112
    50          8
    51         41
    52          8
    53         17
    54         22
    55        143
    56        192
    57        298
    58        999
    59         81
    60          2
    63          2
    65          3
    66          3
    67          6
    68          6
    69         15
    70         36
    71         19
    72        970
    73         61
    74          1
    77          2
    78          1
    79          1
    80          1
    81          2
    82          3
    83          4
    84         86
    85          3
    86         51
    87          1
    88          9
    99         11
   100         33
   101          4