##TITLE=Library Entry 94737
##JCAMP-DX=Revision 4.10 
##DATA TYPE=MASS SPECTRUM
##SAMPLE DESCRIPTION=Exported from NIST MS Search
##NAMES=HP
##CAS NAME=.alpha.-D-Arabino-hexopyranose, 2-deoxy-, tetraacetate
##MOLFORM=C14H20O9
##CAS REGISTRY NO=16750-06-4
##MP= -300
##BP= -300
##MW= 332
##$RETENTION INDEX=0
##$CONDENSED SPECTRUM=NO
##NPOINTS= 67
##XYDATA=(XY..XY) 1 
    53         28
    54         12
    55         90
    56         28
    57         70
    58         53
    59         12
    60         66
    61         49
    69         62
    70         12
    71        157
    72         12
    73        276
    74         12
    81          8
    82        107
    83        396
    84         49
    85         33
    86         16
    87         28
    96          8
    97         16
    99         90
   100        177
   101         24
   102         66
   103        219
   104          4
   110          4
   111        223
   112         20
   113         49
   114          8
   115        999
   116         74
   117         12
   126         24
   127         33
   128         37
   129         41
   142        198
   143         28
   144         20
   145         53
   153        148
   154          8
   157        578
   158         53
   171         28
   184        148
   185         12
   200          0
   201          1
   202          0
   203          0
   212          1
   213         13
   214          1
   228          1
   229          1
   230          2
   245          1
   273         20
   274         24
   289          0