##TITLE=Library Entry 19301
##JCAMP-DX=Revision 4.10 
##DATA TYPE=MASS SPECTRUM
##SAMPLE DESCRIPTION=V.G.Zaikin, TIPS, Russian Acad. Sci.
##NAMES=HP
##CAS NAME=1-Trifluoroacetoxy-10-undecene
##MOLFORM=C13H21F3O2
##CAS REGISTRY NO=1675-20-3
##MP= -300
##BP= -300
##MW= 266
##$RETENTION INDEX=0
##$CONDENSED SPECTRUM=NO
##NPOINTS= 39
##XYDATA=(XY..XY) 1 
    39        229
    40        140
    41        849
    42        257
    43        222
    44        185
    45         35
    50         20
    51         39
    52         48
    53         98
    54        370
    55        999
    56        300
    57         88
    66         26
    67        345
    68        386
    69        676
    70        154
    71         21
    81        211
    82        245
    83        167
    84         51
    85          7
    94          7
    95        123
    96        128
    97         91
    98          9
    99         23
   109         40
   110         57
   111         16
   123         16
   124         27
   125          3
   152          5