##TITLE=Library Entry 3074
##JCAMP-DX=Revision 4.10 
##DATA TYPE=MASS SPECTRUM
##SAMPLE DESCRIPTION=CARL DJERASSI DEPT OF CHEM STANFORD UNIV STANFORD CALIF
 94305
##NAMES=HP
##CAS NAME=1-Propene, 3,3',3''-[methylidynetris(oxy)]tris-
##MOLFORM=C10H16O3
##CAS REGISTRY NO=16754-50-0
##MP= -300
##BP= -300
##MW= 184
##$RETENTION INDEX=0
##$CONDENSED SPECTRUM=NO
##NPOINTS= 34
##XYDATA=(XY..XY) 1 
    41        999
    42         90
    43         60
    44         50
    45         10
    47         10
    51         10
    53         20
    54         50
    55         90
    56         40
    57        420
    58         90
    59         10
    65         10
    66         10
    67         50
    68         10
    69         30
    70         10
    71         10
    77         10
    79         30
    80         10
    81        330
    82         30
    83         10
    85         10
    87         10
   126         10
   127        250
   128         20
   129         10
   184         20