##TITLE=Library Entry 31319
##JCAMP-DX=Revision 4.10 
##DATA TYPE=MASS SPECTRUM
##SAMPLE DESCRIPTION=V.G.Zaikin,TIPS,Russian Acad.Sci.Moscow
##NAMES=HP
##CAS NAME=Diisopropyl(propoxy)silane
##MOLFORM=C9H22OSi
##CAS REGISTRY NO=167567-63-7
##MP= -300
##BP= -300
##MW= 174
##$RETENTION INDEX=0
##$CONDENSED SPECTRUM=NO
##NPOINTS= 63
##XYDATA=(XY..XY) 1 
    29         88
    30          4
    31         21
    38         11
    39        109
    40         16
    41        219
    42         49
    43        131
    44         68
    45        575
    46         56
    47        179
    48         14
    49          5
    50          5
    51          5
    52          5
    53         15
    55         25
    56          8
    57         21
    58         29
    59        192
    60         33
    61        999
    62         61
    63         43
    67          4
    69          8
    70          8
    71         39
    72         37
    73         78
    74         15
    75         63
    76          2
    79         12
    81         17
    85          3
    87        125
    88         24
    89        178
    90         15
    91          9
   101          4
   102          7
   103        861
   104         96
   105         39
   113          5
   115          7
   117          9
   130         33
   131        579
   132         69
   133         27
   145         11
   146          2
   173          2
   174         48
   175          4
   176          2