##TITLE=Library Entry 21474
##JCAMP-DX=Revision 4.10 
##DATA TYPE=MASS SPECTRUM
##SAMPLE DESCRIPTION=Exported from NIST MS Search
##NAMES=HP
##CAS NAME=Showdomycin
##MOLFORM=C9H11NO6
##CAS REGISTRY NO=16755-07-0
##MP= -300
##BP= -300
##MW= 229
##$RETENTION INDEX=0
##$CONDENSED SPECTRUM=NO
##NPOINTS= 120
##XYDATA=(XY..XY) 1 
    24         65
    25        161
    26        268
    27        564
    28        355
    29        809
    30        161
    31        969
    32         87
    37        203
    38        484
    39        903
    40        387
    41        387
    42        516
    43        586
    44        404
    45        210
    47         97
    50        187
    51        410
    52        387
    53        596
    54        272
    55        999
    56        420
    57        809
    58        242
    59         94
    60        372
    61        210
    62         65
    63        142
    64         94
    65         81
    66        268
    67        355
    68        579
    69        236
    70        236
    71        194
    72        122
    73        629
    74        307
    75        116
    77         97
    78         74
    79        119
    80        290
    81        290
    82        177
    83        355
    84        174
    85        531
    86        340
    87        103
    89         71
    91         97
    92         68
    93        135
    94        226
    95        297
    96        113
    97        168
    98        264
    99        187
   104         81
   106         64
   107         71
   108        258
   109        297
   110        869
   111        268
   112        145
   113         64
   114         71
   121        119
   122        242
   123        497
   124        165
   125         97
   126        999
   127        934
   128         90
   132         84
   134         64
   135         90
   136        110
   137        200
   138        177
   139        274
   140        484
   141        110
   144         68
   147         64
   152        387
   153        129
   155         97
   156        387
   157        103
   163         68
   164         97
   165         74
   168         68
   169        171
   170         87
   171         91
   178         64
   180        404
   181        165
   182        145
   183         60
   193         87
   200         64
   201         64
   211        773
   212        168
   213         64
   229         90
   230         48