##TITLE=Library Entry 59294
##JCAMP-DX=Revision 4.10 
##DATA TYPE=MASS SPECTRUM
##SAMPLE DESCRIPTION=J.E. Oliver, Agricultural Research Center, USDA, Beltsv
ille, MD 207
##NAMES=HP
##CAS NAME=2-Cyclohexen-3,5-diol-1-one, 2-[11-phenylundecanoyl]-
##MOLFORM=C23H32O4
##CAS REGISTRY NO=167688-10-0
##MP= -300
##BP= -300
##MW= 372
##$RETENTION INDEX=0
##$CONDENSED SPECTRUM=NO
##NPOINTS= 104
##XYDATA=(XY..XY) 1 
    41        576
    42        109
    43        656
    44         46
    45         20
    47          6
    52         10
    53         69
    54         48
    55        758
    56         69
    57        100
    60          4
    61          9
    63          4
    65        109
    66         28
    67        129
    68         41
    69        577
    70         61
    71        125
    77         67
    78         44
    79         93
    80         11
    81         83
    82         44
    83        149
    84        137
    85        111
    86         23
    87          8
    89          9
    91        999
    92        155
    93         40
    94          9
    95         52
    96         12
    97        131
    98         82
    99          9
   100          4
   103         28
   104         88
   105         78
   107         20
   108          4
   109         30
   110         40
   111        124
   112         11
   113         32
   115         16
   117         48
   118         10
   119         13
   121         25
   123         44
   124         20
   125         21
   126        112
   127         29
   128         48
   129        155
   130          9
   131         21
   133         14
   134         64
   135         20
   137        127
   138         10
   139         50
   140         37
   141          8
   147         10
   149         10
   151          9
   152         41
   153         35
   154         25
   155        186
   156         16
   157         18
   165        154
   166         30
   167         14
   170        394
   171         45
   179         26
   183        628
   184         80
   185          5
   193          5
   197         20
   207         12
   208          9
   221          9
   263          9
   354          9
   355          4
   372        200
   373         63