##TITLE=Library Entry 63135
##JCAMP-DX=Revision 4.10 
##DATA TYPE=MASS SPECTRUM
##SAMPLE DESCRIPTION=LAC, NIDDK, NIH, Bethesda, MD 20892
##NAMES=HP
##CAS NAME=N-Carbobenzyloxy-serylglycine methyl ester
##MOLFORM=C14H18N2O6
##CAS REGISTRY NO=1676-77-3
##MP= -300
##BP= -300
##MW= 310
##$RETENTION INDEX=0
##$CONDENSED SPECTRUM=NO
##NPOINTS= 132
##XYDATA=(XY..XY) 1 
    41         25
    42         11
    43         50
    44         27
    45          3
    46          0
    47          0
    49          4
    50          3
    51          9
    52          2
    53          2
    54          1
    55         10
    56         18
    57          7
    58          3
    59          1
    60          1
    61          0
    62          1
    63          8
    64          2
    65         55
    66          3
    67          1
    68          2
    69          7
    70          8
    71          1
    72          2
    73          1
    74         44
    75          1
    76          2
    77         15
    78          3
    79          9
    80          0
    81          0
    82          1
    83          2
    84         11
    85          6
    86         24
    87          1
    88          8
    89         16
    91        999
    92         95
    93          4
    95          1
    96          1
    97          2
    98          1
    99          0
   100          0
   101          1
   102         27
   103          1
   104          9
   105          4
   106          1
   107         28
   108         11
   109          0
   110          0
   112          6
   113          4
   114          3
   115          0
   116          0
   117          1
   118          1
   119          0
   120          6
   121          0
   125          0
   127          0
   128          1
   129          0
   130         46
   131          4
   132          3
   133          0
   135          1
   141          2
   143          0
   146          2
   147          1
   149          3
   150          0
   157          1
   158          3
   159          5
   160          3
   161          1
   162          0
   163          4
   164          2
   169          2
   174          0
   176        403
   177         53
   178          3
   194          1
   198          2
   207          0
   208          1
   210          0
   215          0
   218          0
   219          5
   220        347
   221         53
   222          5
   232          0
   233          0
   243          4
   247          0
   248          4
   249          1
   259          0
   264          4
   265          0
   280          1
   291          0
   294          7
   295         10
   309          1
   310         13
   311          2