##TITLE=Library Entry 54456
##JCAMP-DX=Revision 4.10 
##DATA TYPE=MASS SPECTRUM
##SAMPLE DESCRIPTION=PET06 P.H. Peterman, U.S. Fish Wildlife Serv., Columbia
, Mo., USA
##NAMES=HP
##CAS NAME=Benzene, 1,2,3-trichloro-4,5-dimethoxy-
##MOLFORM=C8H7Cl3O2
##CAS REGISTRY NO=16766-29-3
##MP= -300
##BP= -300
##MW= 240
##$RETENTION INDEX=1622
##$CONDENSED SPECTRUM=NO
##NPOINTS= 156
##XYDATA=(XY..XY) 1 
    35         60
    36        150
    37         65
    38        100
    41         50
    43         20
    44        100
    45         20
    47         60
    48         60
    49        290
    50         60
    51        100
    52         20
    53        100
    54         20
    55         25
    56         20
    57         20
    59         20
    60        160
    61        480
    62        150
    63        430
    64         80
    65        150
    67         20
    68         10
    71        120
    72        120
    73        270
    74        290
    75        170
    76         30
    77        560
    78        110
    79         25
    81         30
    82         20
    83        160
    84        999
    85        170
    86        320
    87        290
    88         30
    89         90
    90         10
    91         40
    94         60
    95        110
    96        470
    97        280
    98        190
    99        200
   100         20
   101         60
   104         50
   106         50
   107        160
   108        200
   109        270
   110         90
   111        240
   112         95
   113         80
   114         50
   115         65
   118         70
   119        500
   120         80
   121        360
   122         30
   123         70
   124         30
   125         20
   126         20
   127         80
   128         40
   130         25
   131        430
   132         80
   133        820
   134        170
   135        440
   136         85
   137         75
   138         20
   140         20
   141         40
   142         30
   143        100
   144         70
   145        130
   146         60
   147        700
   148         75
   149        390
   150         20
   151         75
   154        180
   155         30
   156        170
   157         20
   158         50
   159         20
   160         80
   161        320
   162        790
   163        260
   164        450
   165         70
   166        110
   167        130
   168         50
   169        140
   170         20
   171         60
   175         75
   177         50
   179         60
   180         10
   181         60
   182        280
   183         30
   184        270
   185         20
   186        100
   188         20
   189         20
   190         20
   191         20
   194         50
   196         40
   197        340
   198         40
   199        320
   200         20
   201        110
   202         10
   203         15
   223         30
   224         40
   225        960
   226        120
   227        910
   228        100
   229        300
   230         40
   231         40
   240        800
   241         80
   242        780
   243         75
   244        270
   245         40
   246         30