##TITLE=Library Entry 97444
##JCAMP-DX=Revision 4.10 
##DATA TYPE=MASS SPECTRUM
##SAMPLE DESCRIPTION=V.G.Zaikin, TIPS, Russian Acad. Sci.
##NAMES=HP
##CAS NAME=3-Phenyltetrahydrofuran
##MOLFORM=C10H12O
##CAS REGISTRY NO=16766-63-5
##MP= -300
##BP= -300
##MW= 148
##$RETENTION INDEX=0
##$CONDENSED SPECTRUM=NO
##NPOINTS= 58
##XYDATA=(XY..XY) 1 
    38         39
    39        273
    40        220
    41        140
    42         22
    43         29
    44        149
    45          7
    49         12
    50         89
    51        205
    52         61
    53         26
    57         27
    58         20
    59          4
    60          2
    61         11
    62         24
    63        100
    64         27
    65        162
    66         18
    67          7
    68          3
    69         23
    70         37
    74         20
    75         20
    76         22
    77        164
    78        148
    79         37
    89         59
    90         42
    91        426
    92        127
    93         11
   101          5
   102         29
   103        123
   104         88
   105        107
   106         12
   107          9
   113         30
   114         25
   115        201
   116        186
   117        999
   118        893
   119        103
   120         19
   133          8
   147         13
   148        291
   149         32
   150          2