##TITLE=Library Entry 92801
##JCAMP-DX=Revision 4.10 
##DATA TYPE=MASS SPECTRUM
##SAMPLE DESCRIPTION=Japan AIST/NIMC Database- Spectrum MS-IW-6233
##NAMES=HP
##CAS NAME=4,4-Dimethyl-6-semicarbazonoheptanoic acid
##MOLFORM=C10H19N3O3
##CAS REGISTRY NO=16769-45-2
##MP= -300
##BP= -300
##MW= 229
##$RETENTION INDEX=0
##$CONDENSED SPECTRUM=NO
##NPOINTS= 140
##XYDATA=(XY..XY) 1 
    14          2
    15          9
    16         12
    17         24
    18         58
    25          1
    26          9
    27         52
    28         38
    29         47
    30         42
    31         26
    32         16
    37          2
    38          6
    39         65
    40         25
    41        212
    42         79
    43         80
    44         88
    45         19
    46          2
    50          5
    51         10
    52          8
    53         36
    54         26
    55        164
    56         50
    57         58
    58         13
    59          7
    60          8
    61          5
    62          1
    63          4
    64          2
    65         10
    66          8
    67         44
    68         18
    69        180
    70         30
    71         64
    72        548
    73        115
    74        103
    75          9
    76          5
    77         12
    78          6
    79         16
    80          9
    81         24
    82         17
    83         31
    84         13
    85         79
    86          5
    87          3
    89          1
    90          1
    91         15
    92          6
    93         14
    94         15
    95         31
    96         29
    97         83
    98        170
    99         70
   100        237
   101         11
   102          2
   103          2
   104          1
   105          4
   106          5
   107         11
   108         20
   109         20
   110         15
   111         15
   112         13
   113         15
   114          5
   115        999
   116         61
   117          5
   118          2
   119          1
   120          5
   121         16
   122          7
   123          5
   124          6
   125          9
   126          1
   127          2
   128          2
   130          1
   131          1
   132          1
   133          2
   134          1
   135          8
   136          7
   137         12
   138          6
   139         28
   140         13
   141          2
   142          3
   149          1
   150          3
   151          9
   152          2
   153         20
   154          5
   155          2
   156         32
   157          6
   167          1
   168         22
   169          6
   170          3
   171          8
   172          1
   173          1
   179          4
   196          1
   197          4
   211          1
   212          2
   213          1
   214          7
   215          1
   229         10
   230          3