##TITLE=Library Entry 63370
##JCAMP-DX=Revision 4.10 
##DATA TYPE=MASS SPECTRUM
##SAMPLE DESCRIPTION=Japan AIST/NIMC Database- Spectrum MS-NW-7335
##NAMES=HP
##CAS NAME=.gamma.-Benzyl L-glutamate
##MOLFORM=C12H15NO4
##CAS REGISTRY NO=1676-73-9
##MP= -300
##BP= -300
##MW= 237
##$RETENTION INDEX=0
##$CONDENSED SPECTRUM=NO
##NPOINTS= 117
##XYDATA=(XY..XY) 1 
    17          3
    18         10
    26          3
    27         12
    28         53
    29         11
    30         15
    31          2
    36          2
    37          2
    38          5
    39         30
    40          4
    41         40
    42         10
    43         14
    44          8
    45          7
    46          6
    49          1
    50         11
    51         31
    52         10
    53          6
    54          9
    55         12
    56         53
    57         19
    58         14
    59          2
    61          2
    62          6
    63         16
    64          7
    65         69
    66          6
    67          1
    68          2
    69          2
    70          1
    71          1
    72          7
    73          6
    74         46
    75         28
    76          4
    77         51
    78         12
    79         62
    80          6
    81          1
    82          9
    83          8
    84        160
    85         14
    86          2
    87          6
    88          1
    89         24
    90         23
    91        999
    92         89
    93          5
    95          3
    96          6
    97          1
   100         40
   101          6
   102         17
   103         25
   104         13
   105         11
   106          4
   107         52
   108         66
   109          6
   110          3
   111          1
   113          2
   114          2
   115          1
   117          1
   118          2
   119          1
   125          1
   126          5
   127          3
   128         76
   129         18
   130          8
   131          2
   132          1
   133          1
   145          1
   146        181
   147         14
   148          2
   149          1
   157          2
   164          2
   165          1
   167          2
   174         23
   175          5
   179          1
   180          1
   181          1
   190          1
   191          1
   192        253
   193         35
   194          4
   198          1
   218          1
   219          7
   220          1
   237          4