##TITLE=Library Entry 8479
##JCAMP-DX=Revision 4.10 
##DATA TYPE=MASS SPECTRUM
##SAMPLE DESCRIPTION=Chemical Concepts
##NAMES=HP
##CAS NAME=2(3H)-Benzofuranone, hexahydro-4,4,7a-trimethyl-
##MOLFORM=C11H18O2
##CAS REGISTRY NO=16778-27-1
##MP= -300
##BP= -300
##MW= 182
##$RETENTION INDEX=2315
##$CONDENSED SPECTRUM=NO
##NPOINTS= 131
##XYDATA=(XY..XY) 1 
    27        211
    28         93
    29        174
    30         14
    31         18
    38         17
    39        225
    40         89
    41        642
    42         82
    43        999
    44         58
    45         39
    46         14
    47         17
    48         20
    49          8
    50         16
    51         45
    52         28
    53        145
    54         56
    55        401
    56        235
    57        108
    58         73
    59         28
    60         12
    61          7
    62         13
    63         18
    64          8
    65         53
    66         28
    67        253
    68        206
    69        670
    70        139
    71        138
    72         28
    73         16
    74          7
    75          7
    76         10
    77         62
    78         23
    79         99
    80         31
    81        379
    82        179
    83        141
    84         96
    85        232
    86         39
    87         58
    88         13
    89          7
    90          5
    91         60
    92         16
    93         82
    94         35
    95        188
    96        304
    97        102
    98        172
    99         91
   100         14
   101          6
   102          4
   103         10
   104         22
   105         33
   106         22
   107         87
   108         30
   109        319
   110         57
   111        230
   112         42
   113         23
   114         15
   115         12
   116          9
   117         19
   118          6
   119         14
   120         11
   121        145
   122         46
   123        134
   124        110
   125         93
   126         27
   127         25
   128         18
   129         19
   130         10
   131         64
   132         14
   133         15
   134          8
   135         30
   136         23
   137         28
   138         18
   139        629
   140         75
   141         14
   142          8
   143         11
   144          5
   145         15
   146         10
   147          4
   150         10
   151         22
   152          9
   153         10
   154         11
   155          6
   156          3
   163          8
   164          5
   165          7
   166         10
   167        506
   168         60
   169         13
   182         26
   183          5