##TITLE=Library Entry 90852
##JCAMP-DX=Revision 4.10 
##DATA TYPE=MASS SPECTRUM
##SAMPLE DESCRIPTION=B. Derendyaev, Novosibirsk Institute of Organic Chemist
ry
##NAMES=HP
##CAS NAME=10-Methyl-2,3-benzo-1,4,7,13-tetraoxa-10-azacyclopentadec-2-ene
##MOLFORM=C15H23NO4
##CAS REGISTRY NO=167780-45-2
##MP= -300
##BP= -300
##MW= 281
##$RETENTION INDEX=0
##$CONDENSED SPECTRUM=NO
##NPOINTS= 134
##XYDATA=(XY..XY) 1 
    50         15
    51         35
    52        123
    53         30
    54         22
    55         33
    56        164
    57        896
    58        329
    59        308
    60         12
    63         21
    64         30
    65         59
    66          9
    67          8
    68          8
    69         16
    70        267
    71        195
    72        123
    73         16
    74          9
    75         18
    76          8
    77         35
    78          8
    79         13
    80         49
    81         41
    82         19
    83         19
    84        226
    85         50
    86        133
    87         82
    88        308
    89         18
    90          3
    91         25
    92         13
    93         15
    94          9
    95         10
    96          6
    97         10
    98          8
    99          9
   100         71
   101         30
   102         58
   103          7
   107          9
   108         11
   109         22
   110         20
   111          8
   112          8
   113          5
   114        999
   115        102
   116         13
   117          3
   120          7
   121        102
   122         10
   123          6
   124          3
   125          6
   126          7
   127          3
   128         17
   129          3
   130          8
   131          2
   132          5
   133          2
   134          4
   135          9
   136        174
   137         21
   138          4
   144          4
   145          1
   146         10
   147          2
   148          2
   149          6
   150          4
   151          3
   152          4
   153          2
   154          1
   163          4
   164          4
   165          2
   166          1
   172         11
   173          3
   178          8
   179          6
   180          5
   181          1
   193          2
   194          8
   195         20
   196          3
   206         10
   207          3
   208          2
   209          1
   210          2
   211          2
   212          1
   220          5
   221          2
   222          5
   223         58
   224        339
   225         46
   226          7
   227          1
   236         20
   237          5
   238         13
   239          3
   250         62
   251         10
   252          4
   253          1
   280         11
   281        257
   282         45
   283          8