##TITLE=Library Entry 50678
##JCAMP-DX=Revision 4.10 
##DATA TYPE=MASS SPECTRUM
##SAMPLE DESCRIPTION=Drug Lab
##NAMES=HP
##CAS NAME=Ornidazole
##MOLFORM=C7H10ClN3O3
##CAS REGISTRY NO=16773-42-5
##MP= -300
##BP= -300
##MW= 219
##$RETENTION INDEX=0
##$CONDENSED SPECTRUM=NO
##NPOINTS= 115
##XYDATA=(XY..XY) 1 
    35          8
    38         15
    39         61
    40         35
    41         55
    42        192
    43        207
    44         38
    47          8
    48          8
    49         82
    50         21
    51         61
    52        336
    53        719
    54        408
    55        107
    56         40
    57        100
    58         11
    60         15
    61         10
    63         20
    64         11
    65         16
    66         38
    67        272
    68         66
    69         31
    70         16
    71         10
    75         33
    76         13
    77         26
    78         23
    79        210
    80        440
    81        999
    82        165
    83        100
    84         21
    87          8
    90         13
    91         30
    92         46
    93         98
    94        192
    95        451
    96        194
    97         35
    98         16
   100         13
   102         13
   104         11
   106         15
   107         10
   108         46
   109         60
   110         48
   111        279
   112        896
   113         61
   114          8
   115         11
   116         10
   117         15
   118         13
   119         13
   120         25
   121         21
   122         11
   123         31
   124        314
   125         38
   126         28
   127         18
   128         23
   129         40
   130         13
   131         28
   132         20
   133         11
   135         15
   136         13
   137        323
   138         80
   139         10
   140         45
   141        107
   142          8
   143         13
   146          8
   150         13
   152         10
   153         11
   155         11
   157         11
   159         10
   166         10
   168          8
   170         66
   171         20
   172        545
   173        466
   174        227
   175        145
   176         30
   178         10
   184          8
   202         40
   204         13
   219        294
   220         23
   221         88
   222          8