##TITLE=Library Entry 20697
##JCAMP-DX=Revision 4.10 
##DATA TYPE=MASS SPECTRUM
##SAMPLE DESCRIPTION=NIST Mass Spectrometry Data Center, 1990.
##NAMES=HP
##CAS NAME=Cyclohexane, (2-methylpropyl)-
##MOLFORM=C10H20
##CAS REGISTRY NO=1678-98-4
##MP= -300
##BP= -300
##MW= 140
##$RETENTION INDEX=992
##$CONDENSED SPECTRUM=NO
##NPOINTS= 53
##XYDATA=(XY..XY) 1 
    15         11
    27        162
    28         29
    29        150
    39        231
    40         59
    41        537
    42         75
    43        172
    44         11
    45          1
    50          6
    51         22
    52         12
    53         82
    54        116
    55        999
    56        219
    57        102
    58          5
    59          1
    62          1
    63          4
    65         19
    67        220
    68         48
    69        211
    70         37
    71          5
    74          1
    77         18
    78          3
    79         22
    80          1
    81         70
    82        497
    83        804
    84         63
    85          4
    91          6
    92          1
    93          2
    96        127
    97        318
    98         28
    99          1
   111          2
   112          6
   125         24
   126          2
   140        164
   141         14
   142          0