##TITLE=Library Entry 21956
##JCAMP-DX=Revision 4.10 
##DATA TYPE=MASS SPECTRUM
##SAMPLE DESCRIPTION=J.BUS, UNILEVER RESEARCH LAB., VLAARDINGEN, HOLLAND
##NAMES=HP
##CAS NAME=1,1-Cyclopropanedicarbonitrile, 2-ethyl-2-methyl-
##MOLFORM=C8H10N2
##CAS REGISTRY NO=16789-03-0
##MP= -300
##BP= -300
##MW= 134
##$RETENTION INDEX=0
##$CONDENSED SPECTRUM=NO
##NPOINTS= 60
##XYDATA=(XY..XY) 1 
    26         10
    27        120
    28        100
    29        120
    30          4
    32          1
    37          4
    38         10
    39        120
    40         40
    41        440
    42         80
    43         30
    44         10
    50         10
    51         30
    52         40
    53         40
    55         80
    56        999
    57         50
    62          3
    63         10
    64         20
    65         20
    66         20
    67         20
    68          8
    69         10
    70          4
    75          4
    76         10
    77         20
    78         20
    79        110
    80         20
    81          4
    82         10
    88          1
    89          2
    90          4
    91         10
    92         30
    93         20
    94         10
   102          1
   103          2
   104          4
   105         30
   106         20
   107          5
   116          1
   117          1
   118          5
   119         20
   120          2
   131          1
   133          8
   134          1
   135          2