##TITLE=Library Entry 61211
##JCAMP-DX=Revision 4.10 
##DATA TYPE=MASS SPECTRUM
##SAMPLE DESCRIPTION=Chemical Concepts
##NAMES=HP
##CAS NAME=3-Benzyloxy-1-nitro-butan-2-ol
##MOLFORM=C11H15NO4
##CAS REGISTRY NO=167866-87-7
##MP= -300
##BP= -300
##MW= 225
##$RETENTION INDEX=0
##$CONDENSED SPECTRUM=NO
##NPOINTS= 74
##XYDATA=(XY..XY) 1 
    26          7
    27         63
    28         13
    29         47
    30         34
    31         23
    37          2
    38          9
    39        107
    40         10
    41         56
    42         13
    43        127
    44         67
    45         43
    46         10
    50         23
    51         75
    52         22
    53         15
    54          4
    55         19
    56          4
    57         55
    58         23
    59          5
    61          6
    62         35
    63         46
    64         17
    65        223
    66         13
    69         14
    70          2
    71         31
    72          8
    73          3
    74          5
    75         17
    76          6
    77         67
    78         17
    79         69
    80          6
    87          9
    88          5
    89         53
    90         35
    91        999
    92        245
    93         11
   102          8
   105         20
   106          5
   107        305
   108         33
   117          2
   118          3
   119          7
   120          4
   131          4
   133         11
   134         11
   135        132
   136         13
   138          3
   141          2
   149          5
   163        121
   164         12
   165          2
   177          8
   207          0
   225          1