##TITLE=Library Entry 52331
##JCAMP-DX=Revision 4.10 
##DATA TYPE=MASS SPECTRUM
##SAMPLE DESCRIPTION=NIST Mass Spectrometry Data Center, 1990.
##NAMES=HP
##CAS NAME=Cyclohexane, ethyl-
##MOLFORM=C8H16
##CAS REGISTRY NO=1678-91-7
##MP= -300
##BP= -300
##MW= 112
##$RETENTION INDEX=836
##$CONDENSED SPECTRUM=NO
##NPOINTS= 33
##XYDATA=(XY..XY) 1 
    15          7
    26         14
    27        120
    28         24
    29        105
    39        206
    40         45
    41        408
    42         97
    43         53
    44          8
    50         13
    51         29
    52         14
    53         78
    54         98
    55        894
    56        115
    57         14
    63          6
    65         19
    67        167
    68         33
    69         92
    70         34
    77         19
    78          5
    79         19
    82        560
    83        999
    84         72
   112        276
   113         24