##TITLE=Library Entry 21137
##JCAMP-DX=Revision 4.10 
##DATA TYPE=MASS SPECTRUM
##SAMPLE DESCRIPTION=Japan AIST/NIMC Database- Spectrum MS-NW-3914
##NAMES=HP
##CAS NAME=Cyclohexane, 1-methyl-4-(1-methylethyl)-, trans-
##MOLFORM=C10H20
##CAS REGISTRY NO=1678-82-6
##MP= -300
##BP= -300
##MW= 140
##$RETENTION INDEX=981
##$CONDENSED SPECTRUM=NO
##NPOINTS= 58
##XYDATA=(XY..XY) 1 
    15          4
    18          1
    26          3
    27         71
    28          7
    29         70
    30          1
    32          1
    38          2
    39         71
    40         11
    41        192
    42         31
    43        108
    44          3
    50          2
    51          8
    52          4
    53         31
    54         41
    55        999
    56         74
    57         33
    58          2
    59          1
    63          2
    65          7
    66          6
    67         54
    68         36
    69        170
    70         25
    71          5
    77          8
    78          2
    79          9
    80          2
    81        184
    82         20
    83         64
    84          8
    85          1
    91          3
    93          2
    94          1
    95         12
    96        484
    97        896
    98         83
    99          3
   109          1
   111          1
   112          1
   125          8
   126          1
   139          1
   140         88
   141         10