##TITLE=Library Entry 20201
##JCAMP-DX=Revision 4.10 
##DATA TYPE=MASS SPECTRUM
##SAMPLE DESCRIPTION=Japan AIST/NIMC Database- Spectrum MS-NW-3651
##NAMES=HP
##CAS NAME=Cyclohexane, 1,2,3-trimethyl-
##MOLFORM=C9H18
##CAS REGISTRY NO=1678-97-3
##MP= -300
##BP= -300
##MW= 126
##$RETENTION INDEX=0
##$CONDENSED SPECTRUM=NO
##NPOINTS= 76
##XYDATA=(XY..XY) 1 
    15         13
    26          8
    27        172
    28         11
    29        182
    30          4
    31          1
    36          1
    37          1
    38          7
    39        177
    40         30
    41        538
    42        185
    43        248
    44          8
    45          5
    46          1
    50          7
    51         21
    52          9
    53         68
    54         31
    55        999
    56        472
    57        141
    58         17
    59          3
    61          1
    62          2
    63          5
    64          1
    65         13
    66          6
    67         92
    68         38
    69        906
    70        824
    71        202
    72         20
    73          2
    74          1
    75          1
    77         14
    78          4
    79         11
    80          3
    81         26
    82         72
    83        333
    84        131
    85         21
    86          2
    91          8
    92          1
    93          3
    94          1
    95         14
    96        113
    97        492
    98        100
    99          9
   105          1
   107          1
   109         11
   110          4
   111        254
   112         25
   113          3
   122          1
   123          1
   124          5
   125          8
   126        266
   127         28
   128          2