##TITLE=Library Entry 7923
##JCAMP-DX=Revision 4.10 
##DATA TYPE=MASS SPECTRUM
##SAMPLE DESCRIPTION=Exported from NIST MS Search
##NAMES=HP
##CAS NAME=Hexane, 3-ethyl-2-methyl-
##MOLFORM=C9H20
##CAS REGISTRY NO=16789-46-1
##MP= -300
##BP= -300
##MW= 128
##$RETENTION INDEX=845
##$CONDENSED SPECTRUM=NO
##NPOINTS= 55
##XYDATA=(XY..XY) 1 
    25          1
    26         10
    27        241
    28         30
    29        178
    30          4
    37          3
    38          4
    39        115
    40         17
    41        302
    42        104
    43        999
    44         33
    45          1
    50          3
    51          8
    52          4
    53         25
    54         10
    55        131
    56        116
    57        350
    58         15
    59          1
    63          1
    64          1
    65          3
    66          1
    67          7
    68          2
    69         70
    70         16
    71         41
    72          2
    77          2
    78          1
    79          1
    80          1
    81          1
    82          1
    83          4
    84        316
    85        270
    86         17
    87          1
    91          1
    97          1
    98         11
    99         24
   100          2
   101          1
   113          1
   128          7
   129          1