##TITLE=Library Entry 59540
##JCAMP-DX=Revision 4.10 
##DATA TYPE=MASS SPECTRUM
##SAMPLE DESCRIPTION=NIST Mass Spectrometry Data Center, 1994
##NAMES=HP
##CAS NAME=2-Benzyloxy-6-methoxybenzonitrile
##MOLFORM=C15H13NO2
##CAS REGISTRY NO=167832-66-8
##MP= -300
##BP= -300
##MW= 239
##$RETENTION INDEX=0
##$CONDENSED SPECTRUM=NO
##NPOINTS= 77
##XYDATA=(XY..XY) 1 
    13          0
    14          2
    15         27
    16          0
    17          0
    18          1
    26          9
    27         10
    28          5
    29          7
    30          0
    31          1
    37          5
    38         23
    39        106
    40          7
    41         23
    42          5
    43          1
    45          0
    50         27
    51         49
    52         12
    53          6
    54          3
    55          1
    61          5
    62         26
    63         52
    64         20
    65        183
    66         20
    67          1
    68          0
    74          3
    75          7
    76         13
    77         37
    78          5
    79          4
    80          1
    81          1
    82          0
    86          1
    87          3
    88          8
    89         36
    90          0
    91        999
    92         82
    93          4
    94          1
   102          1
   103          0
   104          1
   105          9
   106          3
   115          1
   117          6
   118          1
   120         14
   121          1
   128          0
   129          0
   133          2
   139          1
   140          1
   148          1
   149          0
   151          0
   152          0
   166          1
   167          1
   195          0
   239         73
   240         11
   241          1