##TITLE=Library Entry 58301
##JCAMP-DX=Revision 4.10 
##DATA TYPE=MASS SPECTRUM
##SAMPLE DESCRIPTION=V.G.Zaikin, Petrochem. Synth. Inst., Moscow
##NAMES=HP
##CAS NAME=Isobutyric acid, tetradecyl ester
##MOLFORM=C18H36O2
##CAS REGISTRY NO=167871-30-9
##MP= -300
##BP= -300
##MW= 284
##$RETENTION INDEX=0
##$CONDENSED SPECTRUM=NO
##NPOINTS= 70
##XYDATA=(XY..XY) 1 
    26          8
    27         85
    28         24
    29        102
    31         11
    39         89
    40         21
    41        378
    42        134
    43        906
    44         76
    45          6
    51          9
    53         25
    54         65
    55        373
    56        261
    57        439
    58         25
    59          6
    65          5
    66          9
    67         71
    68         95
    69        298
    70        239
    71        677
    72         33
    73         29
    79         13
    81         33
    82        131
    83        308
    84        169
    85        139
    86         13
    88        108
    89        999
    90         49
    91         17
    95         19
    96         49
    97        235
    98         89
    99         31
   101         11
   105          5
   109          5
   110         26
   111        121
   112         74
   113         19
   124         10
   125         49
   126         45
   127         11
   139         12
   140         23
   149         38
   150          3
   167          7
   168         51
   169          6
   195          4
   196         75
   197         16
   241         19
   242          2
   284         12
   285          2