##TITLE=Library Entry 65106
##JCAMP-DX=Revision 4.10 
##DATA TYPE=MASS SPECTRUM
##SAMPLE DESCRIPTION=Japan AIST/NIMC Database- Spectrum MS-NW-4454
##NAMES=HP
##CAS NAME=Benzenesulfonanilide
##MOLFORM=C12H11NO2S
##CAS REGISTRY NO=1678-25-7
##MP= -300
##BP= -300
##MW= 233
##$RETENTION INDEX=0
##$CONDENSED SPECTRUM=NO
##NPOINTS= 89
##XYDATA=(XY..XY) 1 
    26          3
    27         21
    28          9
    32          1
    37          9
    38         30
    39        167
    40         16
    41         10
    42          2
    44          2
    45          5
    48          3
    49          3
    50         52
    51        197
    52         31
    53          8
    54          4
    57          1
    58          1
    61          4
    62          9
    63         44
    64         51
    65        376
    66         48
    67          4
    69          5
    70          1
    71          1
    73          2
    74         13
    75         10
    76         12
    77        509
    78         50
    79          3
    80          2
    81          2
    82          1
    84          1
    87          1
    88          1
    89          3
    90          6
    91         37
    92        999
    93        116
    94          9
    95          1
    97         11
    98          1
   102          1
   103          1
   104          2
   106          1
   108          2
   109          4
   110          2
   114          1
   115         12
   116          3
   117          1
   122          1
   125         26
   126          4
   127          3
   128          5
   129          2
   139          4
   140          5
   141        164
   142         25
   143          9
   151          1
   152          1
   153          2
   154          5
   166          6
   167         36
   168        204
   169         56
   170          6
   232          1
   233        451
   234         61
   235         26
   236          3