##TITLE=Library Entry 20655
##JCAMP-DX=Revision 4.10 
##DATA TYPE=MASS SPECTRUM
##SAMPLE DESCRIPTION=NIST Mass Spectrometry Data Center, 1990.
##NAMES=HP
##CAS NAME=3-Ethyl-3-hexene
##MOLFORM=C8H16
##CAS REGISTRY NO=16789-51-8
##MP= -300
##BP= -300
##MW= 112
##$RETENTION INDEX=773
##$CONDENSED SPECTRUM=NO
##NPOINTS= 38
##XYDATA=(XY..XY) 1 
    15         11
    26          9
    27         77
    28         31
    29         70
    39        160
    40         30
    41        263
    42         44
    43         39
    44          6
    50         21
    51         42
    52         19
    53         88
    54          6
    55        999
    56         69
    57          8
    62          6
    63         13
    65         36
    66         14
    67         95
    68         23
    69        103
    70         69
    77         26
    78          6
    79         33
    80          6
    81         25
    82          6
    83        465
    84         71
    97         17
   112        201
   113         18