##TITLE=Library Entry 13275
##JCAMP-DX=Revision 4.10 
##DATA TYPE=MASS SPECTRUM
##SAMPLE DESCRIPTION=R.T.HOLMAN,UNIVERSITY OF MINNESOTA
##NAMES=HP
##CAS NAME=Dodecanoic acid, 2-hydroxy-1-(hydroxymethyl)ethyl ester
##MOLFORM=C15H30O4
##CAS REGISTRY NO=1678-45-1
##MP= -300
##BP= -300
##MW= 274
##$RETENTION INDEX=0
##$CONDENSED SPECTRUM=NO
##NPOINTS= 226
##XYDATA=(XY..XY) 1 
    26         22
    27        550
    28        140
    29        540
    30         20
    31        190
    32         12
    33          4
    34          2
    35          5
    36          2
    37          4
    38          6
    39        140
    40         32
    41        740
    42        220
    43        999
    44        150
    45        150
    46         10
    47          9
    48          2
    49          2
    50          3
    51          6
    52          4
    53         45
    54         56
    55        660
    56        270
    57        790
    58         46
    59         32
    60        170
    61        150
    62          7
    63          6
    64          1
    65          8
    66          7
    67         80
    68         55
    69        260
    70         90
    71        290
    72         23
    73        220
    74        630
    75        170
    76         10
    77         11
    78          3
    79         20
    80         11
    81         70
    82         39
    83        190
    84        380
    85        200
    86         18
    87        150
    88         17
    89         13
    90          2
    91          8
    92          2
    93         38
    94         10
    95        100
    96         31
    97        150
    98        520
    99         62
   100         16
   101         51
   102         14
   103         11
   104          2
   105          6
   106          2
   107         11
   108          6
   109         54
   110         17
   111         63
   112        170
   113         26
   114          5
   115         48
   116        150
   117         22
   118          3
   119          2
   120          1
   121         14
   122          4
   123         18
   124          5
   125         24
   126         90
   127         12
   128          3
   129        110
   130         12
   131          4
   132          1
   133          2
   134        400
   135         34
   136          6
   137          5
   138         24
   139         18
   140         36
   141         30
   142          5
   143         38
   144          4
   145          2
   146          1
   147         48
   148          5
   149          6
   150          2
   151          2
   152          2
   153         10
   154         11
   155         34
   156         10
   157         31
   158          5
   159          2
   160          2
   161          3
   162          1
   163          7
   164          7
   165          6
   166          2
   167          5
   168          2
   169          5
   170          2
   171         35
   172          8
   173          8
   174          1
   175          2
   176         16
   177          3
   178          2
   179          2
   180          4
   181         10
   182         69
   183        980
   184        130
   185         27
   186          6
   187          2
   188          1
   189          2
   190          4
   191          1
   192          1
   193          1
   194          1
   195          1
   196          1
   197          2
   198          3
   199          5
   200        110
   201        290
   202         38
   203          5
   204          2
   205          1
   206          1
   207          1
   208          1
   209          1
   210          2
   211          6
   212          4
   213          8
   214        100
   215         21
   216          4
   217          2
   218          2
   219          2
   220          1
   224          1
   225          2
   226          2
   227          5
   228          4
   229          3
   230          1
   231          2
   239          2
   240          2
   241          3
   243        200
   244         34
   245          5
   246          2
   247          1
   253          1
   254          1
   255          4
   256         10
   257         26
   258          5
   259          1
   267          1
   268          1
   269          1
   271          2
   272          1
   273          2
   274          9
   275          2