##TITLE=Library Entry 80867
##JCAMP-DX=Revision 4.10 
##DATA TYPE=MASS SPECTRUM
##SAMPLE DESCRIPTION=Exported from NIST MS Search
##NAMES=HP
##CAS NAME=Benzene, 1-(2-bromoethyl)-3-methyl-
##MOLFORM=C9H11Br
##CAS REGISTRY NO=16799-08-9
##MP= -300
##BP= -300
##MW= 198
##$RETENTION INDEX=0
##$CONDENSED SPECTRUM=NO
##NPOINTS= 16
##XYDATA=(XY..XY) 1 
    39        170
    51        110
    65        120
    77        150
    91        230
    92         10
   105        999
   106         70
   117        140
   118         10
   119        460
   120         30
   198        270
   199         30
   200        260
   201         30