##TITLE=Library Entry 70992
##JCAMP-DX=Revision 4.10 
##DATA TYPE=MASS SPECTRUM
##SAMPLE DESCRIPTION=Japan AIST/NIMC Database- Spectrum MS-IW-7256
##NAMES=HP
##CAS NAME=10-Hydroxydecanoic acid
##MOLFORM=C10H20O3
##CAS REGISTRY NO=1679-53-4
##MP= -300
##BP= -300
##MW= 188
##$RETENTION INDEX=0
##$CONDENSED SPECTRUM=NO
##NPOINTS= 143
##XYDATA=(XY..XY) 1 
    15          4
    16          1
    17          2
    18          7
    19          1
    26          9
    27        115
    28         64
    29        159
    30          7
    31        141
    32          2
    37          2
    38          5
    39        119
    40         26
    41        540
    42        155
    43        253
    44         27
    45        101
    46          3
    47          3
    49          1
    50          7
    51         14
    52          8
    53         58
    54        130
    55        920
    56        226
    57        182
    58         34
    59         52
    60        471
    61         50
    62          5
    63          7
    64          5
    65         19
    66         28
    67        233
    68        346
    69        858
    70        186
    71         80
    72         11
    73        564
    74         51
    75          7
    76          2
    77         26
    78         21
    79         81
    80         57
    81        219
    82        332
    83        294
    84        671
    85         81
    86         17
    87        129
    88         23
    89          8
    90          1
    91         63
    92         36
    93         51
    94         74
    95        135
    96        267
    97        192
    98        999
    99        108
   100         92
   101        121
   102         30
   103          9
   104          6
   105         33
   106         20
   107         26
   108        267
   109        146
   110        221
   111        215
   112         63
   113         47
   114         83
   115        227
   116         24
   117         23
   118          5
   119         33
   120          6
   121         19
   122         20
   123        130
   124        159
   125         52
   126         63
   127         61
   128         31
   129        194
   130         31
   131          9
   132         12
   133          9
   134        124
   135         25
   136         11
   137         46
   138         14
   139          8
   140          6
   141         27
   142         17
   143          6
   144          3
   145          3
   146          3
   147          1
   148          3
   149          3
   150          9
   151         14
   152        239
   153         39
   154          4
   155          1
   158        370
   159         36
   160          3
   166          9
   167          1
   168          2
   169         12
   170         42
   171         24
   172          3
   188          1
   189          9
   190          1