##TITLE=Library Entry 49100
##JCAMP-DX=Revision 4.10 
##DATA TYPE=MASS SPECTRUM
##SAMPLE DESCRIPTION=Exported from NIST MS Search
##NAMES=HP
##CAS NAME=3-Cyclohexene-1-methanol
##MOLFORM=C7H12O
##CAS REGISTRY NO=1679-51-2
##MP= -300
##BP= -300
##MW= 112
##$RETENTION INDEX=1106
##$CONDENSED SPECTRUM=NO
##NPOINTS= 64
##XYDATA=(XY..XY) 1 
    15          3
    18          3
    26          5
    27         66
    28         25
    29         37
    30          2
    31         35
    32          4
    37          2
    38          7
    39        102
    40         15
    41        131
    42         12
    43         24
    44          4
    45          3
    49          1
    50         13
    51         31
    52         16
    53        118
    54         90
    55         49
    56          9
    57         49
    58          3
    61          1
    62          4
    63          6
    64          1
    65         29
    66         70
    67         55
    68         23
    69          9
    70         21
    71          5
    74          2
    75          1
    76          1
    77        130
    78         29
    79        999
    80         93
    81        275
    82         26
    83         14
    84          4
    89          1
    91         36
    92          4
    93         91
    94        402
    95         36
    96          2
    97          5
   108          5
   109          3
   110          1
   111          2
   112         20
   113          1