##TITLE=Library Entry 34484
##JCAMP-DX=Revision 4.10 
##DATA TYPE=MASS SPECTRUM
##SAMPLE DESCRIPTION=Japan AIST/NIMC Database- Spectrum MS-NW-4007
##NAMES=HP
##CAS NAME=Cyclopentanethiol
##MOLFORM=C5H10S
##CAS REGISTRY NO=1679-07-8
##MP= -300
##BP= -300
##MW= 102
##$RETENTION INDEX=829
##$CONDENSED SPECTRUM=NO
##NPOINTS= 61
##XYDATA=(XY..XY) 1 
    15          9
    25          1
    26         12
    27         83
    28         19
    29         24
    31          1
    32          6
    33          9
    34          8
    35          5
    36          1
    37          9
    38         21
    39        194
    40         45
    41        694
    42         42
    43         17
    44          5
    45        116
    46         15
    47         48
    48          3
    49          5
    50          8
    51         10
    52          4
    53         62
    54          7
    55         33
    56          7
    57          4
    58         25
    59         66
    60        235
    61         33
    62         14
    63          7
    64          1
    65         25
    66         15
    67        356
    68        357
    69        999
    70         54
    71         15
    72          9
    73        114
    74         59
    75          8
    76          6
    85          5
    87         14
    97          2
    99          2
   101          6
   102        462
   103         29
   104         21
   105          1