##TITLE=Library Entry 56480
##JCAMP-DX=Revision 4.10 
##DATA TYPE=MASS SPECTRUM
##SAMPLE DESCRIPTION=Tox21 Consortium/NIST Mass Spectrometry Data Center, 20
12
##NAMES=HP
##CAS NAME=Drofenine
##MOLFORM=C20H31NO2
##CAS REGISTRY NO=1679-76-1
##MP= -300
##BP= -300
##MW= 317
##$RETENTION INDEX=0
##$CONDENSED SPECTRUM=NO
##NPOINTS= 88
##XYDATA=(XY..XY) 1 
    18          1
    26          1
    27          5
    28          9
    29         14
    30         19
    39          6
    40          1
    41         23
    42         18
    43          7
    44         25
    45          2
    50          1
    51          2
    52          1
    53          4
    54          4
    55         38
    56         25
    57         10
    58         33
    59          1
    63          2
    64          1
    65          5
    66          1
    67          4
    68          1
    69          4
    70         12
    71         22
    72         12
    73          2
    76          1
    77          6
    78          2
    79          4
    80          1
    81          6
    82          1
    83          7
    84         19
    86        999
    87         61
    88          2
    89          5
    90         10
    91         93
    92          8
    93          1
    95          3
    96          1
    97          1
    99        145
   100         35
   101          3
   102          3
   103          3
   104          4
   105          7
   106          1
   114          1
   115         16
   116          7
   117          8
   118         11
   119          2
   127          2
   128          7
   129          8
   130          4
   131          2
   136          1
   141          1
   143          1
   162          3
   163         13
   164          2
   173          6
   174          1
   233          1
   235          1
   245          5
   246          1
   302          4
   303          1
   316          1