##TITLE=Library Entry 80702
##JCAMP-DX=Revision 4.10 
##DATA TYPE=MASS SPECTRUM
##SAMPLE DESCRIPTION=C.R.ENZELL SWEDISH TOBACCO CO., STOCKHOLM, SWEDEN
##NAMES=HP
##CAS NAME=.beta.,.Psi.-Carotene, 3',4'-didehydro-1',2'-dihydro-1',2'-dihydr
oxy-, (2'R)-
##MOLFORM=C40H56O2
##CAS REGISTRY NO=16795-87-2
##MP= -300
##BP= -300
##MW= 568
##$RETENTION INDEX=0
##$CONDENSED SPECTRUM=NO
##NPOINTS= 537
##XYDATA=(XY..XY) 1 
    12          3
    13          1
    14          9
    15         51
    16          7
    17         45
    18        189
    19          1
    20          1
    24          1
    25          6
    26         39
    27         95
    28        103
    29         84
    30          3
    31         45
    32         11
    36          3
    37         14
    38         29
    39        192
    40         29
    41        322
    42         29
    43        467
    44         57
    45         20
    46          3
    47          1
    48          3
    49          9
    50         67
    51        153
    52         76
    53        111
    54         15
    55        378
    56         26
    57         95
    58         65
    59        433
    60         23
    61         17
    62         36
    63         89
    64         21
    65        140
    66         26
    67        159
    68         21
    69        532
    70         39
    71         65
    72          7
    73         20
    74         28
    75         20
    76         20
    77        314
    78        129
    79        317
    80         62
    81        380
    82         43
    83        150
    84         18
    85         21
    86         12
    87         11
    88          6
    89         51
    90         21
    91        156
    92        247
    93        389
    94         56
    95        424
    96         54
    97         98
    98         18
    99         11
   100          4
   101         12
   102         29
   103        128
   104         64
   105        999
   106        868
   107        435
   108         68
   109        236
   110         34
   111         50
   112          7
   113          9
   114          7
   115        133
   116         68
   117        175
   118         61
   119        716
   120        151
   121        358
   122         68
   123        200
   124         25
   125         18
   126          9
   127         48
   128        158
   129        226
   130        112
   131        295
   132        104
   133        391
   134         78
   135        156
   136         31
   137        183
   138         25
   139         21
   140         12
   141        129
   142        156
   143        325
   144        158
   145        499
   146        126
   147        245
   148         56
   149         78
   150         23
   151         23
   152         45
   153         72
   154         51
   155        158
   156        156
   157        413
   158        140
   159        358
   160         87
   161        167
   162         37
   163         56
   164         18
   165         93
   166         61
   167         95
   168         64
   169        225
   170        111
   171        284
   172         89
   173        192
   174         62
   175        183
   176         54
   177        234
   178         73
   179        103
   180         64
   181        129
   182         86
   183        247
   184         87
   185        189
   186         62
   187        136
   188         51
   189        118
   190         51
   191         45
   192         48
   193        100
   194         76
   195        194
   196         90
   197        256
   198         89
   199        144
   200         48
   201        117
   202         57
   203        172
   204         45
   205         43
   206         40
   207        117
   208         67
   209        239
   210         82
   211        156
   212         54
   213         95
   214         54
   215         73
   216         37
   217         39
   218         25
   219         45
   220         37
   221        104
   222         57
   223        131
   224         45
   225         89
   226         34
   227         61
   228         51
   229         48
   230         25
   231         29
   232         37
   233         54
   234         29
   235         87
   236         37
   237         70
   238         29
   239         73
   240         40
   241         82
   242         34
   243        112
   244         37
   245         34
   246         23
   247         54
   248         26
   249         61
   250         25
   251         56
   252         26
   253         70
   254         48
   255        104
   256         67
   257         29
   258         17
   259         29
   260         20
   261         51
   262         23
   263         51
   264         25
   265         57
   266         34
   267         97
   268         62
   269        111
   270         39
   271         21
   272         17
   273         31
   274         17
   275         43
   276         20
   277         40
   278         18
   279         42
   280         39
   281        104
   282         56
   283         26
   284         14
   285         18
   286         15
   287         28
   288         15
   289         29
   290         15
   291         29
   292         18
   293         40
   294         25
   295         43
   296         20
   297         15
   298         14
   299         17
   300         11
   301         20
   302         11
   303         20
   304         12
   305         23
   306         15
   307         29
   308         15
   309         29
   310         21
   311         59
   312         34
   313         15
   314          6
   315         14
   316          9
   317         18
   318         14
   319         26
   320         21
   321         43
   322         23
   323         18
   324         51
   325         21
   326          9
   327         11
   328          6
   329         15
   330          9
   331         23
   332         17
   333         42
   334         29
   335         37
   336         37
   337         17
   338         11
   339          9
   340          6
   341         11
   342          7
   343         14
   344         12
   345         20
   346         28
   347         43
   348         31
   349         15
   350         14
   351         23
   352         29
   353         17
   354         11
   355         12
   356          9
   357         15
   358         12
   359         21
   360         18
   361         15
   362         11
   363          7
   364         17
   365         12
   366         17
   367          9
   368          6
   369          7
   370         21
   371         18
   372         17
   373         21
   374         21
   375         12
   376         17
   377          7
   378          9
   379          4
   380          3
   381          4
   382          4
   383         11
   384          9
   385         12
   386         21
   387         18
   388         18
   389         14
   390          9
   391          6
   392         11
   393          4
   394          6
   395          6
   396          4
   397         11
   398          9
   399         18
   400         17
   401         21
   402         87
   403        161
   404        139
   405         37
   406         12
   407          4
   408          4
   409          4
   410         25
   411         15
   412         18
   413         20
   414         12
   415          9
   416         11
   417         12
   418         11
   419          4
   420          3
   421          1
   422          3
   423          4
   424          7
   425          9
   426         23
   427         14
   428        126
   429         57
   430         23
   431         12
   432          4
   433          3
   434          1
   435          1
   436          1
   437          1
   438          1
   439          3
   440          4
   441          3
   442         21
   443         12
   444        189
   445         72
   446         73
   447         26
   448          7
   449          4
   450          3
   451          3
   452          4
   453          4
   454          6
   455          4
   456          7
   457          4
   458         17
   459          7
   460         34
   461         15
   462        607
   463        225
   464         59
   465         15
   466          6
   467          3
   468          3
   469          1
   470          6
   471          4
   472          4
   473          3
   474          6
   475          4
   476         40
   477         15
   478         54
   479         26
   480         23
   481         11
   482         11
   483          4
   484          3
   485          1
   486          1
   487          1
   488          3
   489          6
   490          4
   491          4
   492          6
   493          4
   494          4
   495          4
   496          3
   497          1
   498          1
   500          1
   502          1
   503          1
   504          1
   505          1
   506         18
   507         12
   508         68
   509         42
   510         59
   511         21
   512         12
   513          4
   514          1
   515          1
   516          1
   517          1
   518          1
   519          3
   520          3
   521          3
   522          1
   523          1
   524          1
   525          1
   528          1
   530          4
   531          3
   532         23
   533         14
   534         82
   535         40
   536         29
   537         12
   538          4
   539          1
   540          1
   544          1
   545          1
   546          3
   547          3
   548         21
   549         11
   550        122
   551         56
   552         56
   553         23
   554          9
   555          3
   556          1
   562          1
   564          3
   565          3
   566         37
   567         18
   568        272