##TITLE=Library Entry 109359
##JCAMP-DX=Revision 4.10 
##DATA TYPE=MASS SPECTRUM
##SAMPLE DESCRIPTION=Exported from NIST MS Search
##NAMES=HP
##CAS NAME=Benzene, 1-(2-bromoethyl)-3-chloro-
##MOLFORM=C8H8BrCl
##CAS REGISTRY NO=16799-05-6
##MP= -300
##BP= -300
##MW= 218
##$RETENTION INDEX=0
##$CONDENSED SPECTRUM=NO
##NPOINTS= 22
##XYDATA=(XY..XY) 1 
    50        200
    51        310
    52         20
    75         23
    76          2
    77         36
    78          3
   103        480
   104         40
   125        999
   126         90
   127        330
   128         30
   139        480
   140         40
   183        160
   184         10
   218        280
   219         30
   220        360
   221         40
   222         80