##TITLE=Library Entry 4461
##JCAMP-DX=Revision 4.10 
##DATA TYPE=MASS SPECTRUM
##SAMPLE DESCRIPTION=Chemical Concepts
##NAMES=HP
##CAS NAME=2(3H)-Furanone, dihydro-4-methyl-
##MOLFORM=C5H8O2
##CAS REGISTRY NO=1679-49-8
##MP= -300
##BP= -300
##MW= 100
##$RETENTION INDEX=914
##$CONDENSED SPECTRUM=NO
##NPOINTS= 27
##XYDATA=(XY..XY) 1 
    31        263
    34          2
    37         21
    38         49
    39        303
    40        113
    41        873
    42        999
    43        110
    44          6
    45          1
    49          1
    50          7
    51          6
    52          2
    53         12
    54          6
    55         67
    56        435
    57         24
    59          3
    69          6
    70         23
    71         11
    72          2
    99          1
   100         17