##TITLE=Library Entry 23536
##JCAMP-DX=Revision 4.10 
##DATA TYPE=MASS SPECTRUM
##SAMPLE DESCRIPTION=Exported from NIST MS Search
##NAMES=HP
##CAS NAME=1-Propanethiol, 2,2-dimethyl-
##MOLFORM=C5H12S
##CAS REGISTRY NO=1679-08-9
##MP= -300
##BP= -300
##MW= 104
##$RETENTION INDEX=0
##$CONDENSED SPECTRUM=NO
##NPOINTS= 71
##XYDATA=(XY..XY) 1 
    24          1
    25          2
    26         26
    27        234
    28         42
    29        416
    30         10
    31          1
    32          9
    33         23
    34         16
    35          9
    36          2
    37         15
    38         30
    39        257
    40         30
    41        554
    42         33
    43         91
    44          9
    45        123
    46         33
    47        165
    48         14
    49         15
    50         20
    51         24
    52          6
    53         45
    54         14
    55        476
    56        162
    57        999
    58         56
    59         21
    60          7
    61         31
    62          2
    63          2
    64          1
    65          1
    66          1
    67          2
    68          1
    69         13
    70          3
    71         23
    72          2
    73         11
    74          2
    75          1
    76          1
    78          1
    80          1
    81          1
    82          1
    83          1
    84          1
    85          2
    86          1
    87          2
    88          7
    89        161
    90          9
    91          7
    92          1
   104        310
   105         20
   106         14
   107          1