##TITLE=Library Entry 21633
##JCAMP-DX=Revision 4.10 
##DATA TYPE=MASS SPECTRUM
##SAMPLE DESCRIPTION=Japan AIST/NIMC Database- Spectrum MS-IW-6612
##NAMES=HP
##CAS NAME=10-Undecenehydroxamic acid
##MOLFORM=C11H21NO2
##CAS REGISTRY NO=16791-35-8
##MP= -300
##BP= -300
##MW= 199
##$RETENTION INDEX=0
##$CONDENSED SPECTRUM=NO
##NPOINTS= 146
##XYDATA=(XY..XY) 1 
    15          4
    16          1
    17          3
    18          9
    26          3
    27         79
    28         40
    29        132
    30         17
    31          3
    32         10
    33          6
    34          1
    38          2
    39        111
    40         17
    41        526
    42         99
    43        303
    44         72
    45          9
    46          5
    47          1
    48          1
    50          2
    51          7
    52          4
    53         53
    54         88
    55        999
    56        113
    57        155
    58         12
    59        505
    60         67
    61          3
    62          2
    63          1
    65         10
    66          9
    67        482
    68         80
    69        478
    70         60
    71         78
    72        231
    73         52
    74          7
    75        296
    76         14
    77          9
    78          3
    79         67
    80         30
    81        363
    82         88
    83        459
    84        119
    85        134
    86         45
    87         10
    88         90
    89          9
    90          1
    91          9
    92          3
    93        137
    94         44
    95        105
    96         57
    97        198
    98        111
    99         84
   100         35
   101         13
   102         18
   103          3
   105          6
   106          3
   107        129
   108         30
   109         52
   110         33
   111         59
   112         39
   113         23
   114         49
   115          9
   116          9
   117          5
   119          9
   120          4
   121         43
   122         72
   123         51
   124         48
   125         45
   126         25
   127          9
   128         17
   129          5
   130          3
   132          1
   133          5
   134          4
   135          4
   136         47
   137         31
   138         28
   139         28
   140         25
   141          7
   142         15
   143          5
   144          6
   145          1
   147          9
   148         16
   149        593
   150         78
   151          9
   152         21
   153          8
   154         12
   155          4
   156          6
   157          2
   158          3
   159          1
   160          1
   164         11
   165          6
   166         50
   167        615
   168         76
   169         17
   170          4
   180          3
   181         14
   182         31
   183         14
   184          9
   185          1
   198          1
   199         16
   200          5