##TITLE=Library Entry 2965
##JCAMP-DX=Revision 4.10 
##DATA TYPE=MASS SPECTRUM
##SAMPLE DESCRIPTION=Japan AIST/NIMC Database- Spectrum MS-IW- 551
##NAMES=HP
##CAS NAME=2(3H)-Furanone, dihydro-3-methyl-
##MOLFORM=C5H8O2
##CAS REGISTRY NO=1679-47-6
##MP= -300
##BP= -300
##MW= 100
##$RETENTION INDEX=948
##$CONDENSED SPECTRUM=NO
##NPOINTS= 47
##XYDATA=(XY..XY) 1 
    13          1
    14          8
    15         29
    16          1
    18          2
    25          6
    26         64
    27        230
    28        261
    29        110
    30          7
    31         13
    32          4
    34          1
    36          1
    37         13
    38         25
    39        197
    40         77
    41        999
    42        409
    43        119
    44          9
    45          9
    49          3
    50         11
    51          9
    52          3
    53         21
    54         13
    55        132
    56        664
    57         35
    58          2
    59          5
    68          1
    69          5
    70          3
    71         20
    72          4
    73          4
    83          1
    85          2
    99         11
   100         71
   101         17
   102          2