##TITLE=Library Entry 99212
##JCAMP-DX=Revision 4.10 
##DATA TYPE=MASS SPECTRUM
##SAMPLE DESCRIPTION=NIST Mass Spectrometry Data Center, 1994
##NAMES=HP
##CAS NAME=4-Methylbenzoyl isothiocyanate
##MOLFORM=C9H7NOS
##CAS REGISTRY NO=16794-68-6
##MP= -300
##BP= -300
##MW= 177
##$RETENTION INDEX=0
##$CONDENSED SPECTRUM=NO
##NPOINTS= 53
##XYDATA=(XY..XY) 1 
    14          1
    15          2
    26          7
    27         17
    28         11
    32         16
    37         13
    38         33
    39        155
    40         12
    41         34
    42          1
    43          6
    44          8
    45          9
    49          6
    50         61
    51         61
    52         15
    53         10
    58         52
    59         12
    60          5
    61         20
    62         52
    63        124
    64         38
    65        297
    66         17
    69          1
    70          1
    73          4
    74         17
    75         12
    76          9
    77          6
    85          5
    86         16
    87          8
    88          4
    89         88
    90          4
    91        651
    92         47
    93          1
   104          1
   116          3
   117          5
   119        999
   120         88
   121          6
   148          1
   177          3