##TITLE=Library Entry 77736
##JCAMP-DX=Revision 4.10 
##DATA TYPE=MASS SPECTRUM
##SAMPLE DESCRIPTION=Exported from NIST MS Search
##NAMES=HP
##CAS NAME=4H-1-Benzothiopyran-4-one, 2,3-dihydro-2-methyl-, 1,1-dioxide
##MOLFORM=C10H10O3S
##CAS REGISTRY NO=16808-50-7
##MP= -300
##BP= -300
##MW= 210
##$RETENTION INDEX=0
##$CONDENSED SPECTRUM=NO
##NPOINTS= 19
##XYDATA=(XY..XY) 1 
    50        240
    51         60
    69         20
    74         30
    75         40
    76        240
    77         30
    95         10
    96         20
   104        999
   105         70
   115         20
   131         10
   146         10
   152         30
   168         90
   169        350
   170         40
   210         20