##TITLE=Library Entry 83693
##JCAMP-DX=Revision 4.10 
##DATA TYPE=MASS SPECTRUM
##SAMPLE DESCRIPTION=A.A.Kutin, Moscow, Russia
##NAMES=HP
##CAS NAME=Benzenesulfonamide, 4-amino-N-(4-methylphenyl)-
##MOLFORM=C13H14N2O2S
##CAS REGISTRY NO=16803-95-5
##MP= -300
##BP= -300
##MW= 262
##$RETENTION INDEX=0
##$CONDENSED SPECTRUM=NO
##NPOINTS= 140
##XYDATA=(XY..XY) 1 
    33          0
    34          0
    36          0
    37          1
    38          5
    39         36
    40          6
    41         12
    42          4
    43          2
    44          2
    45          3
    46          0
    47          0
    48          2
    50          9
    51         19
    52         43
    53         73
    54         20
    55          3
    56          0
    57          1
    58          0
    59          0
    60          0
    61          1
    62          7
    63         23
    64         12
    65         60
    66          7
    67          4
    68          0
    69          2
    70          0
    71          1
    72          0
    73          0
    74          1
    75          1
    76          2
    77          7
    78         12
    79         40
    80        155
    81         11
    82          1
    83          0
    84          0
    85          0
    86          0
    87          1
    89         17
    90         20
    91         77
    92         12
    93          2
    94          0
    95          0
    96          0
    97          0
    98          0
    99          0
   101          0
   102          0
   105         38
   107        999
   108         90
   109          3
   110          0
   111          0
   112          0
   113          0
   115          0
   116          0
   117          0
   118          0
   119          1
   120          0
   121          4
   122          1
   123          1
   124          2
   125          0
   126          0
   127          0
   128          0
   129          0
   130          0
   131          0
   133          0
   135          0
   136          0
   137          0
   139          3
   140          1
   141          0
   142          0
   143          0
   144          0
   147          0
   149          1
   150          0
   151          0
   152          0
   153          0
   154          1
   155          7
   156          1
   157          0
   158          0
   164          0
   165          0
   166          0
   167          0
   168          0
   169          0
   170          0
   171          1
   172          0
   178          0
   179          0
   180          1
   181          1
   182          2
   183          2
   184          0
   193          0
   195          1
   196          1
   197          5
   198          3
   199          0
   258          0
   259          0
   262        107
   263         15
   264          6
   265          0