##TITLE=Library Entry 66917
##JCAMP-DX=Revision 4.10 
##DATA TYPE=MASS SPECTRUM
##SAMPLE DESCRIPTION=A.A.Kutin, Moscow, Russia
##NAMES=HP
##CAS NAME=Indane-1,3-dione, 2-[1-(2-furyl)-2-nitroethyl]-2-methyl-
##MOLFORM=C16H13NO5
##CAS REGISTRY NO=16808-03-0
##MP= -300
##BP= -300
##MW= 299
##$RETENTION INDEX=0
##$CONDENSED SPECTRUM=NO
##NPOINTS= 104
##XYDATA=(XY..XY) 1 
    37         18
    38         63
    39        281
    40         94
    41         53
    42          2
    43         64
    44          8
    46          8
    49          3
    50        183
    51        157
    52         56
    53        108
    55        119
    61          3
    62         29
    63         66
    64         34
    65        195
    66        158
    67         17
    68          4
    69          1
    74         62
    75         87
    76        249
    77        275
    78         41
    79         23
    81        204
    82         28
    83        139
    84          4
    86          1
    87          5
    88          4
    89         23
    90          3
    91         84
    92         20
    94        999
    95         54
    97          5
    98          2
   101          9
   102         36
   103         45
   104         95
   105        115
   106         10
   107          3
   110          3
   115         53
   116          4
   119          4
   121         11
   126          8
   127         15
   128         39
   129         22
   131         10
   132          6
   133         20
   139          6
   140         29
   141         10
   147          8
   149          1
   151          5
   152         31
   153         33
   154          4
   155         13
   157         10
   158          1
   159          3
   160          7
   161          2
   165         28
   166         17
   167         34
   168         13
   173         14
   177          2
   178         15
   179         15
   180          2
   181         34
   182          3
   183          4
   185          2
   194          3
   195         48
   196         60
   197         13
   222          2
   223         54
   224         63
   225          7
   250          2
   251         34
   252        191
   253         38