##TITLE=Library Entry 12044
##JCAMP-DX=Revision 4.10 
##DATA TYPE=MASS SPECTRUM
##SAMPLE DESCRIPTION=A.A.Kutin, Moscow, Russia
##NAMES=HP
##CAS NAME=3H-Indol-3-one, 1-acetyl-1,2-dihydro-
##MOLFORM=C10H9NO2
##CAS REGISTRY NO=16800-68-3
##MP= -300
##BP= -300
##MW= 175
##$RETENTION INDEX=0
##$CONDENSED SPECTRUM=NO
##NPOINTS= 73
##XYDATA=(XY..XY) 1 
    33          4
    34          0
    37         22
    38         41
    39         57
    40         16
    43        999
    44         15
    50        234
    51        330
    52         57
    53         13
    54          4
    55          2
    56          2
    57          0
    59          0
    61         12
    62         24
    63         52
    64         23
    65         30
    67          0
    71          0
    74         78
    75         73
    76        178
    77        533
    78        259
    79         16
    82          0
    84          0
    85          0
    86          1
    87          2
    88          3
    89         10
    90         10
    91         12
    92          7
    93          2
    98          0
    99          1
   100          1
   102         22
   104        820
   105        773
   106         46
   107          1
   116          1
   117          4
   118          6
   119         18
   120          2
   121          0
   128          0
   132        299
   133        904
   134         67
   135          5
   137         10
   138          0
   144          0
   146          7
   147          0
   148          1
   149          0
   160          2
   161          0
   162          0
   175        640
   176         58
   177          4