##TITLE=Library Entry 31628
##JCAMP-DX=Revision 4.10 
##DATA TYPE=MASS SPECTRUM
##SAMPLE DESCRIPTION=Japan AIST/NIMC Database- Spectrum MS-IW-7554
##NAMES=HP
##CAS NAME=N,N'-Bis(2-chloroethyl)oxamide
##MOLFORM=C6H10Cl2N2O2
##CAS REGISTRY NO=16813-43-7
##MP= -300
##BP= -300
##MW= 212
##$RETENTION INDEX=0
##$CONDENSED SPECTRUM=NO
##NPOINTS= 149
##XYDATA=(XY..XY) 1 
    12          1
    13          2
    14          9
    15         59
    16          3
    17          1
    18          3
    25          3
    26         41
    27        409
    28        318
    29         78
    30        519
    31          8
    35         21
    36        210
    37          8
    38         67
    39         12
    40         48
    41         96
    42        170
    43         72
    44        225
    45         50
    46         31
    47          3
    48          8
    49         57
    50          4
    51         20
    52         10
    53         12
    54         23
    55          9
    56        177
    57         13
    58        122
    59          4
    60          3
    61         11
    62         45
    63        999
    64         46
    65        371
    66         28
    67          8
    68          7
    69         29
    70         87
    71         61
    72        390
    73         16
    74          1
    75          1
    76          6
    77         23
    78         43
    79         35
    80         24
    81         11
    82          4
    83         12
    84          9
    85         15
    86         11
    87         22
    88         24
    89          3
    90          3
    91          2
    92          4
    94          1
    95          2
    96         10
    97          8
    98         30
    99         10
   100          1
   101          4
   104          4
   105         21
   106        846
   107        686
   108        300
   109        218
   110         57
   111         10
   112         10
   113         58
   114         32
   115         10
   116          1
   117          1
   119         12
   120          1
   121          6
   122          7
   123          2
   124          2
   127        192
   128         13
   129          1
   132          1
   133          1
   134          4
   135        108
   136          9
   137         44
   138          6
   139         26
   140        110
   141         73
   142          6
   145          1
   146          1
   147          2
   148        173
   149        191
   150        106
   151         71
   152         18
   153          2
   155         35
   156          2
   157         21
   158          1
   159          4
   163        173
   164         17
   165         65
   166          5
   169          1
   175          2
   176        122
   177         89
   178         62
   179         35
   180          3
   184         14
   185          1
   186          9
   188          2
   212        117
   213         13
   214         76
   215          9
   216         12
   217          1