##TITLE=Library Entry 16851
##JCAMP-DX=Revision 4.10 
##DATA TYPE=MASS SPECTRUM
##SAMPLE DESCRIPTION=R.T.HOLMAN,UNIVERSITY OF MINNESOTA
##NAMES=HP
##CAS NAME=2-Heptadecanol
##MOLFORM=C17H36O
##CAS REGISTRY NO=16813-18-6
##MP= -300
##BP= -300
##MW= 256
##$RETENTION INDEX=1909
##$CONDENSED SPECTRUM=NO
##NPOINTS= 161
##XYDATA=(XY..XY) 1 
    28         77
    29         94
    30          4
    31          8
    32         14
    39         23
    40          7
    41        216
    42         57
    43        361
    44         52
    45        999
    46         26
    47          3
    51          2
    52          2
    53         13
    54         26
    55        250
    56        127
    57        300
    58        127
    59         77
    60          5
    65          3
    66          4
    67         37
    68         30
    69        183
    70        105
    71        183
    72         12
    73          6
    74          2
    75          2
    77          3
    78          2
    79          6
    80          3
    81         23
    82         53
    83        177
    84         72
    85        100
    86          8
    87          3
    88          2
    89          2
    91          3
    92          2
    93          2
    94          2
    95         16
    96         37
    97        161
    98         52
    99         24
   100          4
   101          2
   103          2
   104          2
   105          2
   106          2
   107          2
   108          2
   109          7
   110         17
   111         88
   112         37
   113         16
   114          7
   115          2
   116          2
   117          1
   119          2
   120          2
   121          2
   122          2
   123          4
   124         12
   125         47
   126         25
   127         12
   128          2
   129          2
   131          1
   133          2
   135          2
   137          3
   138          8
   139         21
   140         18
   141          9
   142          2
   143          1
   145          1
   147          2
   149          2
   151          2
   152          6
   153         12
   154         14
   155          7
   156          2
   165          2
   166          3
   167          8
   168         11
   169          6
   170          2
   175          1
   176          1
   177          2
   178          1
   179          2
   180          3
   181          5
   182          8
   183          3
   184          2
   185          1
   191          2
   192          2
   193          2
   194          4
   195          4
   196         10
   197          3
   198          1
   199          1
   207         13
   208          5
   209          4
   210         20
   211          5
   212          7
   213          3
   219          2
   220          1
   221          1
   222          1
   223          1
   224          3
   225          2
   226          1
   227          1
   236          2
   237          2
   238         34
   239         10
   240          3
   241         15
   242          3
   243          1
   250          1
   251          1
   252          2
   253          1
   254          6
   255          3
   256          1