##TITLE=Library Entry 100323
##JCAMP-DX=Revision 4.10 
##DATA TYPE=MASS SPECTRUM
##SAMPLE DESCRIPTION=Humboldt-Universitat zu Berlin, Department of Chemistry
, Analytical Group
##NAMES=HP
##CAS NAME=Methoxyimino-phenylacetic acid, methyl ester
##MOLFORM=C10H11NO3
##CAS REGISTRY NO=168139-29-5
##MP= -300
##BP= -300
##MW= 193
##$RETENTION INDEX=0
##$CONDENSED SPECTRUM=NO
##NPOINTS= 95
##XYDATA=(XY..XY) 1 
    12          2
    13          2
    15        515
    16          8
    17          4
    18         15
    26         17
    27         34
    28         23
    29         99
    30         34
    31         14
    32          1
    36          1
    37         11
    38         22
    39         91
    40          5
    41          9
    42          4
    43          5
    44          5
    45         30
    46          1
    48          1
    49          8
    50        139
    51        211
    52         57
    53         11
    54          3
    55          3
    56          3
    57          4
    59        289
    60          8
    61         11
    62         26
    63         78
    64         49
    65         41
    66          5
    67          3
    69          2
    70          1
    71          3
    73          5
    74         29
    75         78
    76        347
    77        460
    78         51
    79         29
    80          2
    83          2
    85          4
    86          5
    87          6
    88         10
    89         29
    90         21
    91        178
    92         15
    93          5
    95          1
    97          1
    99          5
   100          4
   101          3
   102         36
   103        450
   104        198
   105         26
   106         28
   107          9
   108        114
   109         11
   116         17
   117          8
   119        999
   120         88
   121          7
   130          1
   132         11
   134        662
   135         62
   136          4
   150          1
   151          1
   162         35
   163          4
   178          1
   193        383
   194         41
   195          4