##TITLE=Library Entry 52168
##JCAMP-DX=Revision 4.10 
##DATA TYPE=MASS SPECTRUM
##SAMPLE DESCRIPTION=Chemical Concepts
##NAMES=HP
##CAS NAME=2-Pentenoic acid, 4,4-dimethyl-, methyl ester
##MOLFORM=C8H14O2
##CAS REGISTRY NO=16812-85-4
##MP= -300
##BP= -300
##MW= 142
##$RETENTION INDEX=0
##$CONDENSED SPECTRUM=NO
##NPOINTS= 87
##XYDATA=(XY..XY) 1 
    25          2
    26         18
    27        212
    29         84
    30          7
    31         19
    33          3
    34          3
    35          3
    36          4
    37         14
    38         41
    39        433
    40         59
    41        698
    42         62
    43        346
    44         16
    45         35
    46          2
    47          3
    48          4
    49          6
    50         26
    51         56
    52         26
    53        175
    54         35
    55        853
    56         52
    57         35
    58          5
    59        161
    60          4
    61          7
    62         12
    63         22
    64          3
    65         96
    66         31
    67        621
    68         72
    69        253
    70         15
    71         29
    72          5
    73        270
    74         45
    75          4
    77         45
    78          6
    79        123
    80         10
    81        352
    82        269
    83        999
    84         85
    85         92
    86          5
    87         13
    88          3
    91         25
    92          5
    93         58
    94          5
    95        626
    96         66
    97         19
    99         83
   100         12
   101         50
   102          3
   107          3
   109        115
   110        181
   111        544
   112         50
   113         11
   114          8
   125         18
   127        574
   128         37
   129          3
   141          6
   142        344
   143         25
   144          4