##TITLE=Library Entry 67284
##JCAMP-DX=Revision 4.10 
##DATA TYPE=MASS SPECTRUM
##SAMPLE DESCRIPTION=A.S.Moskovkin,I.M.Karnaukh, Russian Center on Disaster
 Medicine
##NAMES=HP
##CAS NAME=4,4-Diacetamido-1-methylpiperidine
##MOLFORM=C10H19N3O2
##CAS REGISTRY NO=168143-18-8
##MP= -300
##BP= -300
##MW= 213
##$RETENTION INDEX=0
##$CONDENSED SPECTRUM=NO
##NPOINTS= 60
##XYDATA=(XY..XY) 1 
    41         44
    42        241
    43        312
    44        147
    54         33
    55         18
    56         46
    57         40
    58         32
    59         27
    60         17
    68         24
    69         54
    70        273
    71         92
    72         18
    80         18
    81         18
    82         57
    83         53
    84         12
    85         19
    94        999
    95        847
    96        317
    97         57
    98         14
   100         17
   101         18
   109         22
   110         18
   111        415
   112        107
   113         21
   114          5
   124          6
   125          4
   126          6
   127          4
   135          2
   137          7
   138          2
   139         52
   140          4
   141          3
   142         17
   143          2
   151          6
   152          5
   153        123
   154        401
   155         66
   156          5
   165          1
   169          1
   170         28
   171          3
   213        136
   214         17
   215          1