##TITLE=Library Entry 6010
##JCAMP-DX=Revision 4.10 
##DATA TYPE=MASS SPECTRUM
##SAMPLE DESCRIPTION=N.W. Davies, Centr. Sci. Lab., Univ. Tasmania, Hobart,
 Australia
##NAMES=HP
##CAS NAME=Naphtho[2,3-b]furan-2(3H)-one, 4-(acetyloxy)decahydro-8-hydroxy-3
,8a-dimethyl-5-methylene-, [3R-(3.alpha.,3a.alpha.,4.alpha.,4a.alpha.,8.beta
.,8a.beta.,9a.beta.)]-
##MOLFORM=C17H24O5
##CAS REGISTRY NO=16822-17-6
##MP= -300
##BP= -300
##MW= 308
##$RETENTION INDEX=0
##$CONDENSED SPECTRUM=NO
##NPOINTS= 140
##XYDATA=(XY..XY) 1 
    26         10
    27        117
    29        146
    31         27
    32        101
    39        106
    41        300
    42         29
    43        999
    44         38
    45         30
    50          7
    51         22
    52         11
    53        109
    54         18
    55        175
    56         29
    57         42
    60         11
    61          6
    63          7
    65         41
    66         15
    67         94
    68         62
    69         55
    70         12
    71         93
    72          6
    74         14
    77         90
    78         23
    79        110
    80         26
    81         83
    82         30
    83         42
    84         27
    85         19
    91        131
    92         23
    93        109
    94         23
    95         80
    96         35
    97         35
    98          9
    99         14
   103          9
   104          7
   105        100
   106         51
   107        135
   108         69
   109         94
   110         15
   111         19
   112          5
   115         18
   116          9
   117         28
   118         20
   119         75
   120         50
   121         59
   122         22
   123         44
   124         19
   125         95
   126          7
   127         13
   128         12
   129         18
   130          7
   131         43
   132         32
   133         52
   134         19
   135         36
   136         24
   137         21
   138         19
   139         10
   143         21
   144         17
   145         59
   146         20
   147         44
   148         21
   149         28
   150         12
   151          8
   153          5
   155          5
   156         11
   157         64
   158         15
   159         43
   160         24
   161         26
   162         20
   163         20
   164         10
   165         15
   169          8
   171         20
   172         13
   173         29
   174         35
   175         48
   176         21
   177         10
   178          7
   185          8
   186          8
   187         14
   188         39
   189         14
   190          5
   191         18
   192         11
   193          6
   201         16
   202         21
   203         11
   204         21
   205          9
   206         56
   207         11
   215         10
   217         14
   219         19
   220         16
   230        112
   231         21
   232         16
   233         10
   248         87
   249         16