##TITLE=Library Entry 63186
##JCAMP-DX=Revision 4.10 
##DATA TYPE=MASS SPECTRUM
##SAMPLE DESCRIPTION=Exported from NIST MS Search
##NAMES=HP
##CAS NAME=3,4-Flavandiol, 7-(benzyloxy)-3',4'-dimethoxy-, trans-2,3,cis-3,4
-
##MOLFORM=C24H24O6
##CAS REGISTRY NO=16821-22-0
##MP= -300
##BP= -300
##MW= 408
##$RETENTION INDEX=0
##$CONDENSED SPECTRUM=NO
##NPOINTS= 17
##XYDATA=(XY..XY) 1 
    91        999
    92        110
   105         80
   107         50
   135         60
   149        100
   151        270
   165        100
   178         90
   180        649
   181         80
   228        100
   271        310
   272         70
   362        110
   390        100
   408         30