##TITLE=Library Entry 26615
##JCAMP-DX=Revision 4.10 
##DATA TYPE=MASS SPECTRUM
##SAMPLE DESCRIPTION=Exported from NIST MS Search
##NAMES=HP
##CAS NAME=Butane, 1,1'-[1,2-ethanediylbis(sulfonyl)]bis-
##MOLFORM=C10H22O4S2
##CAS REGISTRY NO=16823-95-3
##MP= -300
##BP= -300
##MW= 270
##$RETENTION INDEX=0
##$CONDENSED SPECTRUM=NO
##NPOINTS= 55
##XYDATA=(XY..XY) 1 
    41        249
    42         25
    43         50
    44         20
    53         17
    55        100
    56         80
    57        999
    58         70
    59         17
    63         20
    64         17
    65         20
    66         17
    75         20
    76         15
    77         25
    85         20
    93         50
    95         15
   104         17
   105         97
   106         17
   107         17
   108         12
   121         55
   122        363
   123        450
   124         47
   125         35
   133         17
   141         47
   143         17
   149        221
   150         72
   151         30
   152         12
   157         12
   179         25
   186         15
   197         72
   198         12
   199         25
   213        112
   214         25
   215         77
   219         25
   220         15
   228         82
   229         17
   241        244
   242         30
   243         30
   253         25
   270         15