##TITLE=Library Entry 2448
##JCAMP-DX=Revision 4.10 
##DATA TYPE=MASS SPECTRUM
##SAMPLE DESCRIPTION=V.A.Korolev, Moscow, Russia
##NAMES=HP
##CAS NAME=Propanoic acid, 3-(dodecylthio)-2-methyl-, methyl ester
##MOLFORM=C17H34O2S
##CAS REGISTRY NO=16832-25-0
##MP= -300
##BP= -300
##MW= 302
##$RETENTION INDEX=0
##$CONDENSED SPECTRUM=NO
##NPOINTS= 121
##XYDATA=(XY..XY) 1 
    33         14
    34          6
    35          7
    37          4
    39        266
    41        999
    42        305
    43        797
    44         39
    45        283
    46         52
    47         85
    48          6
    49          6
    50          2
    51          8
    52          3
    53         54
    54         50
    55        479
    56        103
    57        288
    58         25
    59        192
    60         84
    61        169
    62          8
    63          8
    65          8
    67        102
    68         45
    69        286
    70         54
    71         88
    72         21
    73         97
    74         94
    75         65
    76          4
    77         20
    79         13
    81         60
    82         34
    83        148
    84         32
    85         54
    87        223
    88         52
    89         55
    91          3
    93          4
    95         31
    96         19
    97        109
    98         18
    99          8
   101        301
   102        126
   103         69
   104          5
   105          2
   106          6
   109         14
   110          7
   111         35
   112          7
   113          4
   115         32
   116         14
   117          7
   118          1
   119          4
   120          5
   121          3
   122          2
   123          4
   124          2
   125          4
   126          1
   129         36
   130          4
   131          3
   133         36
   134        158
   135         21
   136          8
   140          1
   143         18
   144          2
   145          2
   147         28
   148          2
   157         22
   158          3
   159          3
   168          3
   171         10
   189          3
   196          2
   199         13
   200         25
   201        295
   202         43
   203         13
   208          1
   213          2
   215         84
   216         11
   217          4
   242         34
   243         27
   244          6
   245          2
   246          2
   271         12
   272          1
   283          1
   302         42
   303          6
   304          1
   308          2