##TITLE=Library Entry 4634
##JCAMP-DX=Revision 4.10 
##DATA TYPE=MASS SPECTRUM
##SAMPLE DESCRIPTION=H. Fales, LC, NHLBI, NIH, Bethesda, MD 20892
##NAMES=HP
##CAS NAME=Criwelline, 1,2-dihydro-
##MOLFORM=C18H23NO5
##CAS REGISTRY NO=16831-29-1
##MP= -300
##BP= -300
##MW= 333
##$RETENTION INDEX=0
##$CONDENSED SPECTRUM=NO
##NPOINTS= 232
##XYDATA=(XY..XY) 1 
    42        999
    43        230
    44        867
    45        146
    46         17
    49          9
    50         22
    51         71
    52         24
    53         68
    54         39
    55        119
    56         66
    57        119
    58        480
    59         39
    60         12
    61          6
    62         12
    63         53
    64         19
    65         67
    66         18
    67         27
    68         27
    70        699
    71        365
    72         74
    73         20
    74         29
    75         33
    76         36
    77        131
    78         39
    79         37
    80         16
    81         22
    82        127
    83         43
    84         72
    85         24
    86         19
    87         14
    88         27
    89         59
    90         22
    91         76
    92         17
    93         17
    94         29
    95         15
    96         60
    97        300
    98         94
    99         21
   100         52
   101         41
   102         99
   103        148
   104         24
   105         22
   106         11
   107         16
   108         17
   109         13
   110         54
   111         15
   112         21
   113         22
   114        208
   115        242
   116         59
   117         44
   118         20
   119         22
   120         12
   121         21
   122         14
   123         12
   124         11
   125          4
   126         15
   127         59
   128        154
   129         71
   130         53
   131         76
   132         17
   133         11
   134         11
   135         52
   136         12
   137          3
   138          3
   139         25
   140         15
   141         38
   142         16
   143         53
   144         31
   145         27
   146         29
   147         59
   148         25
   149         35
   150         24
   151         21
   152         36
   153         41
   154         24
   155         56
   156         25
   157         31
   158         19
   159        140
   160         68
   161         26
   162         18
   163         16
   164          5
   165         11
   166          9
   167          8
   168         13
   169         13
   170         10
   171         28
   172         44
   173         87
   174         40
   175         62
   176         49
   177         59
   178          8
   179         10
   180          4
   181         33
   182         26
   183         36
   184         15
   185         55
   186        105
   187         48
   188         49
   189         38
   190         15
   191         12
   192          9
   193          4
   195          3
   196          4
   197          6
   198         12
   199         29
   200         29
   201         49
   202         80
   203         35
   204        333
   205         77
   206         13
   209          3
   210          6
   211         44
   212         33
   213         69
   214         43
   215         21
   216         29
   217         38
   218         24
   219          6
   224          7
   225         11
   226         13
   227         15
   228         23
   229         35
   230         96
   231         36
   232         17
   233          4
   238          3
   239          5
   240         32
   241         26
   242         56
   243         26
   244         25
   245         10
   246         19
   247         84
   248         13
   252          3
   254          7
   255          4
   256         12
   257         12
   258         22
   259         12
   260         28
   261         23
   262         13
   263          3
   270          4
   272         31
   273         11
   274         14
   275          4
   284        132
   285         48
   286         13
   287          5
   288          7
   290         10
   298          5
   300         21
   301          9
   302        677
   303        191
   304         29
   305          5
   308          4
   315         13
   316          8
   317          3
   318         31
   319          6
   332         17
   333        163
   334         39
   335          7