##TITLE=Library Entry 91055
##JCAMP-DX=Revision 4.10 
##DATA TYPE=MASS SPECTRUM
##SAMPLE DESCRIPTION=NIST Mass Spectrometry Data Center, 1990.
##NAMES=HP
##CAS NAME=2-Methoxythiophene
##MOLFORM=C5H6OS
##CAS REGISTRY NO=16839-97-7
##MP= -300
##BP= -300
##MW= 114
##$RETENTION INDEX=878
##$CONDENSED SPECTRUM=NO
##NPOINTS= 58
##XYDATA=(XY..XY) 1 
    12          4
    13          5
    14         18
    15         63
    16          5
    17          3
    18          2
    25          9
    26         39
    27         59
    28         10
    29         25
    32         18
    35          4
    36         12
    37         54
    38         86
    39        123
    40          7
    41         13
    42          3
    44         29
    45        489
    46         12
    47         28
    49         11
    50         11
    51          5
    52          3
    53         30
    54          3
    55        556
    56         32
    57         61
    58         22
    59          5
    60          5
    61          3
    66          4
    68         19
    69        123
    70         49
    71        423
    72         22
    73         17
    75          8
    80          3
    81         25
    82         19
    83          8
    84          5
    85         13
    99        970
   100         50
   101         45
   114        999
   115         60
   116         40