##TITLE=Library Entry 19341
##JCAMP-DX=Revision 4.10 
##DATA TYPE=MASS SPECTRUM
##SAMPLE DESCRIPTION=Chemical Concepts
##NAMES=HP
##CAS NAME=Cyclododecanone, 2-methyl-
##MOLFORM=C13H24O
##CAS REGISTRY NO=16837-94-8
##MP= -300
##BP= -300
##MW= 196
##$RETENTION INDEX=0
##$CONDENSED SPECTRUM=NO
##NPOINTS= 112
##XYDATA=(XY..XY) 1 
    26         10
    27        245
    28         23
    29        359
    30          7
    31          6
    34          1
    37          1
    38          2
    39        206
    40         21
    41        900
    42        355
    43        421
    44          4
    45          9
    47          2
    50          3
    51          9
    52          4
    53         90
    54        127
    55        999
    56        487
    57        307
    58         36
    59         15
    63          2
    65         11
    66         21
    67        201
    68        177
    69        543
    70        342
    71        116
    72        601
    73         95
    74          4
    77         15
    78          7
    79         73
    80         57
    81        163
    82        180
    83        401
    84        297
    85        318
    86         35
    87          2
    91         11
    92          5
    93         51
    94         41
    95         98
    96        116
    97        299
    98        416
    99         49
   100         29
   101          2
   105          4
   106          2
   107         29
   108         41
   109         37
   110         56
   111        182
   112        153
   113         22
   114         30
   115          3
   116          1
   117          1
   119          3
   120          2
   121         39
   122         42
   123         19
   124         63
   125         97
   126         35
   127         15
   128         15
   129          1
   133          3
   134          1
   135         31
   136          8
   137          6
   138          7
   139        123
   140         23
   141          9
   142          2
   147          1
   149         60
   150          8
   151          3
   152          6
   153         32
   154          9
   155          4
   163          5
   165          2
   167         64
   168         13
   178          5
   181          4
   194          4
   196        151
   197         20
   198          1