##TITLE=Library Entry 36298
##JCAMP-DX=Revision 4.10 
##DATA TYPE=MASS SPECTRUM
##SAMPLE DESCRIPTION=Chemical Concepts
##NAMES=HP
##CAS NAME=(2-Cyano,1-methyl)ethyl propanedioic acid, dimethyl ester
##MOLFORM=C9H13NO4
##CAS REGISTRY NO=168430-02-2
##MP= -300
##BP= -300
##MW= 199
##$RETENTION INDEX=0
##$CONDENSED SPECTRUM=NO
##NPOINTS= 94
##XYDATA=(XY..XY) 1 
    33          7
    36          6
    37         21
    38         69
    39        301
    41        462
    42        120
    43         44
    45         57
    46          1
    47          5
    49          2
    50         14
    51         36
    52         59
    53        150
    54         71
    55        503
    56         54
    57         30
    59        620
    60         11
    61          2
    63          8
    64         19
    65         14
    66         42
    67         43
    68        142
    69        999
    70         59
    71         67
    72         12
    73         13
    74         66
    75          8
    76          1
    77          4
    78          9
    79         13
    80        108
    81         24
    82         22
    83         27
    84         17
    85         13
    86          2
    89          1
    92          6
    93         12
    94         25
    95         17
    96         19
    97         14
    98         39
    99        139
   100        441
   101         98
   102          5
   104          2
   106          6
   107         25
   108        147
   109         16
   110         14
   111         21
   112         16
   113         12
   115         99
   116          7
   123          1
   124          8
   125          4
   127         79
   128          8
   129          2
   130          9
   132        980
   133         46
   134         10
   136         71
   137          8
   138          9
   139         18
   140         52
   141          5
   152          3
   159          9
   166          4
   167          9
   168        261
   169         21
   170          2
   171          5