##TITLE=Library Entry 6946
##JCAMP-DX=Revision 4.10 
##DATA TYPE=MASS SPECTRUM
##SAMPLE DESCRIPTION=Exported from NIST MS Search
##NAMES=HP
##CAS NAME=Acetic acid, mercapto-, propyl ester
##MOLFORM=C5H10O2S
##CAS REGISTRY NO=16849-94-8
##MP= -300
##BP= -300
##MW= 134
##$RETENTION INDEX=0
##$CONDENSED SPECTRUM=NO
##NPOINTS= 34
##XYDATA=(XY..XY) 1 
    26         27
    27        565
    28         75
    29         95
    39        154
    40         17
    41        554
    42        171
    43        999
    44         34
    45        171
    46        212
    47        678
    48         68
    49         34
    57         37
    58         17
    59         51
    60         17
    61         34
    64         34
    74        239
    75        335
    76         34
    77         27
    92        301
    93        102
    94         17
   105         17
   115          6
   119          3
   134        137
   135         27
   136          6