##TITLE=Library Entry 6950
##JCAMP-DX=Revision 4.10 
##DATA TYPE=MASS SPECTRUM
##SAMPLE DESCRIPTION=J.H.BOWIE UNIVERSITY OF ADELAIDE, AUSTRALIA
##NAMES=HP
##CAS NAME=Acetic acid, mercapto-, 3-methylbutyl ester
##MOLFORM=C7H14O2S
##CAS REGISTRY NO=16849-97-1
##MP= -300
##BP= -300
##MW= 162
##$RETENTION INDEX=0
##$CONDENSED SPECTRUM=NO
##NPOINTS= 19
##XYDATA=(XY..XY) 1 
    27        240
    29        360
    39        150
    41        340
    42        140
    43        999
    45         90
    46        110
    47        380
    55        230
    57         60
    70        370
    71        300
    74         80
    75        100
    92        110
   103         60
   115         70
   162         40