##TITLE=Library Entry 8281
##JCAMP-DX=Revision 4.10 
##DATA TYPE=MASS SPECTRUM
##SAMPLE DESCRIPTION=J.H.BOWIE UNIVERSITY OF ADELAIDE, AUSTRALIA
##NAMES=HP
##CAS NAME=Propanoic acid, 2-mercapto-, 1-methylethyl ester
##MOLFORM=C6H12O2S
##CAS REGISTRY NO=16849-77-7
##MP= -300
##BP= -300
##MW= 148
##$RETENTION INDEX=0
##$CONDENSED SPECTRUM=NO
##NPOINTS= 16
##XYDATA=(XY..XY) 1 
    27        430
    28        140
    35         90
    39        130
    41        400
    43        999
    45         90
    59        120
    60        200
    61        920
    62         90
    75        150
    88        110
    89         90
   106        410
   148        200