##TITLE=Library Entry 59547
##JCAMP-DX=Revision 4.10 
##DATA TYPE=MASS SPECTRUM
##SAMPLE DESCRIPTION=J.H.BOWIE UNIVERSITY OF ADELAIDE, AUSTRALIA
##NAMES=HP
##CAS NAME=Sydnone, 3-(phenylmethyl)-
##MOLFORM=C9H8N2O2
##CAS REGISTRY NO=16844-42-1
##MP= -300
##BP= -300
##MW= 176
##$RETENTION INDEX=0
##$CONDENSED SPECTRUM=NO
##NPOINTS= 15
##XYDATA=(XY..XY) 1 
    28         80
    38         60
    39        330
    41         70
    50         90
    51        110
    62         60
    63        160
    64         60
    65        410
    77        300
    89         60
    91        999
    92         90
   176         30