##TITLE=Library Entry 19333
##JCAMP-DX=Revision 4.10 
##DATA TYPE=MASS SPECTRUM
##SAMPLE DESCRIPTION=Exported from NIST MS Search
##NAMES=HP
##CAS NAME=Cyclohexaneheptanoic acid, 2-pentyl-, methyl ester
##MOLFORM=C19H36O2
##CAS REGISTRY NO=16847-10-2
##MP= -300
##BP= -300
##MW= 296
##$RETENTION INDEX=0
##$CONDENSED SPECTRUM=NO
##NPOINTS= 37
##XYDATA=(XY..XY) 1 
    15        135
    27        194
    28        412
    29        514
    39        145
    40        339
    41        825
    43        708
    53        155
    54        169
    55        999
    59        349
    60        339
    67        407
    68        194
    69        728
    74        567
    81        388
    82        155
    83        718
    87        291
    96        194
    97        611
   101        121
   105         87
   110        165
   111        291
   115         82
   129         58
   143        291
   153        291
   175        135
   193        194
   225        388
   265        135
   296        582
   297        120