##TITLE=Library Entry 8298
##JCAMP-DX=Revision 4.10 
##DATA TYPE=MASS SPECTRUM
##SAMPLE DESCRIPTION=E. Zissis, LC, NIDDK, NIH, Bethesda, MD 20892
##NAMES=HP
##CAS NAME=5-Keto-D-fructose
##MOLFORM=C6H12O6
##CAS REGISTRY NO=1684-29-3
##MP= -300
##BP= -300
##MW= 180
##$RETENTION INDEX=0
##$CONDENSED SPECTRUM=NO
##NPOINTS= 104
##XYDATA=(XY..XY) 1 
    42        544
    43        999
    44        203
    45        415
    46         79
    47         30
    49         58
    50         15
    51         26
    52         14
    53         28
    54         34
    55        139
    56         92
    57         82
    58         69
    59         53
    60        627
    61        903
    62         51
    63         14
    64          4
    65         10
    66          6
    67         13
    68         14
    69         37
    70         15
    71        882
    72        260
    73        460
    74         86
    75         11
    76         13
    77        189
    78        119
    79         15
    80          2
    81          5
    82          5
    83         36
    84         60
    85         81
    86         15
    87         18
    88          8
    89        130
    90        156
    91        150
    92          9
    93          4
    94          2
    95          9
    96          7
    97         11
    98          3
    99          4
   100         35
   101        207
   102        122
   103         45
   104          5
   105          8
   106         54
   107         11
   109          3
   110          0
   111          4
   112          7
   113         18
   114         14
   115          8
   116          2
   117          6
   118         19
   119        112
   120         11
   121          6
   122          1
   123          3
   124         50
   125          7
   126          3
   128          0
   129         13
   130          3
   131         18
   132          2
   133          0
   135          1
   136          4
   141          2
   142          3
   144         12
   145         80
   146          5
   147         16
   151          1
   153          0
   161          6
   162         16
   163          0
   180          1
   181          0