##TITLE=Library Entry 45761
##JCAMP-DX=Revision 4.10 
##DATA TYPE=MASS SPECTRUM
##SAMPLE DESCRIPTION=NIST Mass Spectrometry Data Center
##NAMES=HP
##CAS NAME=Butyric Acid, TMS derivative
##MOLFORM=C7H16O2Si
##CAS REGISTRY NO=16844-99-8
##MP= -300
##BP= -300
##MW= 160
##$RETENTION INDEX=882
##$CONDENSED SPECTRUM=NO
##NPOINTS= 84
##XYDATA=(XY..XY) 1 
    14          1
    15          8
    26          6
    27         51
    28         16
    29         37
    30          2
    31          5
    37          1
    38          4
    39         46
    40          7
    41         77
    42         44
    43        144
    44         28
    45        209
    46         16
    47         92
    48          5
    49          3
    50          1
    51          2
    53          9
    54          3
    55         47
    56          6
    57         18
    58         45
    59         65
    60         25
    61         96
    62          7
    63          3
    65          2
    66          1
    67          1
    68          3
    69         13
    70         23
    71         31
    72         48
    73        823
    74        131
    75        999
    76        130
    77         68
    78          2
    83          1
    85          5
    86          2
    87          6
    88         10
    89          6
    90          2
    91          4
    99          4
   100          2
   101         31
   102          4
   103          5
   111          1
   115          2
   116         30
   117        145
   118         15
   119          6
   127          2
   129         67
   130          8
   131          3
   132         74
   133          9
   134          3
   142          1
   143          3
   145        974
   146        171
   147         64
   148          4
   149          1
   160         27
   161          5
   162          1