##TITLE=Library Entry 2107
##JCAMP-DX=Revision 4.10 
##DATA TYPE=MASS SPECTRUM
##SAMPLE DESCRIPTION=TNO Volatile Compounds in Food - Chemical Concepts
##NAMES=HP
##CAS NAME=Allyl sulfone
##MOLFORM=C6H10O2S
##CAS REGISTRY NO=16841-48-8
##MP= -300
##BP= -300
##MW= 146
##$RETENTION INDEX=0
##$CONDENSED SPECTRUM=NO
##NPOINTS= 80
##XYDATA=(XY..XY) 1 
    25          3
    26         14
    27         43
    29         24
    30          3
    31         10
    32        199
    33          2
    34          3
    35         28
    36          2
    37         18
    38         44
    39        540
    40          6
    41        999
    42         54
    43         94
    44        131
    45         71
    46          8
    47          7
    48          8
    49          2
    50          4
    51          3
    52          2
    53         14
    54         12
    55         22
    56          5
    57         32
    58         20
    59         13
    60          5
    61         49
    62          2
    63          8
    64          9
    65         10
    66          9
    67         87
    68          8
    69         17
    70          5
    71          8
    72         11
    73         87
    74         13
    76          1
    77          9
    78          2
    79         22
    80         18
    81         28
    82         37
    83          8
    84          5
    85          2
    86          2
    87          7
    89        135
    90         41
    91         11
    92          3
    95          4
    96          3
    97         11
    98          4
    99          8
   101          4
   105         48
   106          3
   107          3
   111          7
   112          3
   113          2
   115          3
   117          4
   119          2