##TITLE=Library Entry 18720
##JCAMP-DX=Revision 4.10 
##DATA TYPE=MASS SPECTRUM
##SAMPLE DESCRIPTION=MPI,B2419-G1875,16-JAN-69 (ID=4, PURITY=4)
##NAMES=HP
##CAS NAME=1,5-Cyclododecadiene, (E,E)-
##MOLFORM=C12H20
##CAS REGISTRY NO=1684-05-5
##MP= -300
##BP= -300
##MW= 164
##$RETENTION INDEX=1332
##$CONDENSED SPECTRUM=NO
##NPOINTS= 89
##XYDATA=(XY..XY) 1 
    25          1
    26          6
    27        163
    28         26
    29        128
    30          1
    33          0
    34          0
    35          1
    37          0
    38          7
    39        325
    40         49
    41        612
    42         37
    43         35
    46          0
    47          1
    48          0
    49          0
    50          7
    51         35
    52         28
    53        177
    54        999
    55        424
    56         31
    57          5
    58          0
    61          0
    62          1
    63          9
    64          4
    65         66
    66         94
    67        954
    68        394
    69        119
    70          4
    71          3
    72          0
    73          0
    74          1
    75          5
    76          2
    77         74
    78         56
    79        367
    80        455
    81        660
    82        272
    83         63
    84          3
    87          1
    88          0
    89          3
    90          1
    91         49
    92         14
    93        244
    94        233
    95        221
    96         91
    97         33
    98          1
   103          1
   104          0
   105          8
   106          4
   107        160
   108         81
   109         67
   110         43
   111          3
   117          1
   119          1
   120          7
   121        422
   122         92
   123         26
   124          0
   134          0
   135        124
   136         80
   137          7
   149         24
   150          2
   164         64
   165          7