##TITLE=Library Entry 12901
##JCAMP-DX=Revision 4.10 
##DATA TYPE=MASS SPECTRUM
##SAMPLE DESCRIPTION=Exported from NIST MS Search
##NAMES=HP
##CAS NAME=2,4-Pentanedione, 3-[(3,5-dimethyl-4-isoxazolyl)methyl]-
##MOLFORM=C11H15NO3
##CAS REGISTRY NO=16858-07-4
##MP= -300
##BP= -300
##MW= 209
##$RETENTION INDEX=0
##$CONDENSED SPECTRUM=NO
##NPOINTS= 16
##XYDATA=(XY..XY) 1 
    43        999
    44         40
    68        450
    69         30
    82        110
    83        100
    84         10
    97         40
   110        410
   111         40
   124        290
   125         30
   166        730
   167         90
   168         10
   209         30