##TITLE=Library Entry 85571
##JCAMP-DX=Revision 4.10 
##DATA TYPE=MASS SPECTRUM
##SAMPLE DESCRIPTION=Exported from NIST MS Search
##NAMES=HP
##CAS NAME=Phenanthrene, 7-ethenyl-1,2,3,4,4a,4b,5,6,7,8,10,10a-dodecahydro-
1,1,4a,7-tetramethyl-, [4aS-(4a.alpha.,4b.beta.,7.beta.,10a.beta.)]-
##MOLFORM=C20H32
##CAS REGISTRY NO=1686-66-4
##MP= -300
##BP= -300
##MW= 272
##$RETENTION INDEX=1994
##$CONDENSED SPECTRUM=NO
##NPOINTS= 80
##XYDATA=(XY..XY) 1 
    41        822
    42         26
    43        268
    44         26
    53        194
    54         50
    55        597
    56         40
    65        100
    67        335
    68         73
    69        469
    70         23
    76        234
    77         40
    78        463
    80        543
    81         90
    82         94
    83         26
    91        496
    92        228
    93        442
    94        140
    95        395
    96         33
    97         40
   105        620
   106        362
   107        392
   108         26
   109        999
   110         63
   119        530
   120        234
   121        302
   122         43
   123         90
   124        194
   131        144
   132         60
   133        395
   134        100
   135        127
   136         26
   137         43
   145        107
   146         26
   147        140
   148        362
   149         83
   159        117
   160         23
   161        194
   162         26
   163         83
   164         16
   172         43
   173         13
   174         94
   175         67
   176         50
   187        251
   188         43
   189         94
   190         23
   201         94
   202         67
   203        140
   215         43
   216         33
   242        184
   243         20
   245         16
   257        503
   258        100
   259         53
   272        342
   273         60
   274         13