##TITLE=Library Entry 10224
##JCAMP-DX=Revision 4.10 
##DATA TYPE=MASS SPECTRUM
##SAMPLE DESCRIPTION=Chemical Concepts
##NAMES=HP
##CAS NAME=trans-Pinocarvyl acetate
##MOLFORM=C12H18O2
##CAS REGISTRY NO=1686-15-3
##MP= -300
##BP= -300
##MW= 194
##$RETENTION INDEX=1297
##$CONDENSED SPECTRUM=NO
##NPOINTS= 110
##XYDATA=(XY..XY) 1 
    26          5
    27        110
    28         29
    29         45
    30          2
    31          4
    32          2
    37          1
    38          5
    39        113
    40         18
    41        199
    42         14
    43        999
    44         24
    45          5
    46          0
    49          0
    50          8
    51         28
    52         14
    53         74
    54         14
    55         54
    56          9
    57          4
    58          3
    59          3
    60          1
    61          6
    62          2
    63         11
    64          3
    65         36
    66         12
    67         33
    68         10
    69        104
    70         24
    71          2
    72          1
    73          4
    74          0
    75          1
    76          1
    77         63
    78         28
    79         75
    80         12
    81         29
    82          7
    83         53
    84         10
    85          2
    86          0
    87          0
    88          0
    89          3
    90          7
    91        536
    92        311
    93         71
    94          9
    95         16
    96          9
    97         11
    98          2
   101          0
   102          1
   103          7
   104          4
   105         44
   106         23
   107         18
   108         71
   109         38
   110          8
   111         12
   112          6
   113          0
   114          0
   115          4
   116          2
   117         13
   118          5
   119        201
   120         21
   121          8
   122          0
   123          3
   124          2
   125         16
   126          2
   127          0
   130          0
   131          1
   132          0
   133          7
   134        134
   135         18
   136          2
   137          4
   138          0
   148          0
   150          3
   151          3
   152         19
   153          2
   159          0
   166          0