##TITLE=Library Entry 88058
##JCAMP-DX=Revision 4.10 
##DATA TYPE=MASS SPECTRUM
##SAMPLE DESCRIPTION=Japan AIST/NIMC Database- Spectrum MS-IW-4337
##NAMES=HP
##CAS NAME=2(1H)-Pyridinone, 3-hydroxy-
##MOLFORM=C5H5NO2
##CAS REGISTRY NO=16867-04-2
##MP= -300
##BP= -300
##MW= 111
##$RETENTION INDEX=0
##$CONDENSED SPECTRUM=NO
##NPOINTS= 43
##XYDATA=(XY..XY) 1 
    17          4
    18         15
    25          2
    26         12
    27         22
    28         65
    29         16
    30          1
    36          1
    37          7
    38         21
    39         24
    40          6
    41         11
    42          4
    43          2
    44          8
    50          1
    51          6
    52         12
    53         15
    54         71
    55        182
    56         15
    57          2
    64          4
    65         32
    66          5
    67          2
    68          1
    69          1
    70          1
    81          2
    82         29
    83         48
    84          4
    93         44
    94          4
    95          1
   110          3
   111        999
   112         78
   113          7