##TITLE=Library Entry 46507
##JCAMP-DX=Revision 4.10 
##DATA TYPE=MASS SPECTRUM
##SAMPLE DESCRIPTION=S.OZAKI TOYO KOATSU IND. INC., KUDEN, YOKOHAMA, JAPAN.
##NAMES=HP
##CAS NAME=1,3-Oxazetidin-2-one, 3-phenyl-
##MOLFORM=C8H7NO2
##CAS REGISTRY NO=16877-22-8
##MP= -300
##BP= -300
##MW= 149
##$RETENTION INDEX=0
##$CONDENSED SPECTRUM=NO
##NPOINTS= 16
##XYDATA=(XY..XY) 1 
    18         14
    28         34
    39         13
    44        775
    50         22
    51         43
    52         16
    63          6
    74          6
    77        999
    91          5
   104         77
   105         97
   119          8
   120          0
   149          1