##TITLE=Library Entry 80049
##JCAMP-DX=Revision 4.10 
##DATA TYPE=MASS SPECTRUM
##SAMPLE DESCRIPTION=Chemical Concepts
##NAMES=HP
##CAS NAME=Benzoic acid, 6,7-dihydroxy-3,3-dimethyl-5-oxohexahydrooxazolo[3,
4-a]pyridin-8-yl ester
##MOLFORM=C16H19NO6
##CAS REGISTRY NO=168772-37-0
##MP= -300
##BP= -300
##MW= 321
##$RETENTION INDEX=0
##$CONDENSED SPECTRUM=NO
##NPOINTS= 203
##XYDATA=(XY..XY) 1 
    25          0
    26          1
    27         15
    28          8
    29          9
    30          4
    31         15
    36          0
    37          0
    38          0
    39         12
    40          1
    41         24
    42         28
    43         47
    44          2
    45          2
    46          0
    47          0
    49          0
    50          8
    51         56
    52          6
    53          2
    54          4
    55          6
    56         13
    57          4
    58          5
    59         12
    60          8
    61         10
    62          0
    63          1
    64          0
    65          2
    66          0
    67          0
    68          4
    69          4
    70          7
    71          1
    72          9
    73          3
    74          2
    75          3
    76         14
    77        374
    78         26
    79          3
    80          0
    81          1
    82          1
    83          3
    84         11
    86          0
    88          0
    89          2
    90          1
    91          8
    92          1
    93          0
    94          1
    95          0
    96          1
    97          1
    98          6
    99          1
   100          3
   102          0
   103          1
   104         13
   105        999
   106        115
   107          7
   108          0
   109          0
   110          0
   111          0
   112          2
   113          0
   114          1
   115          1
   117          1
   118          5
   119          1
   120          0
   121          0
   122         16
   123          2
   124          0
   125          2
   126          1
   127          0
   128          1
   129          0
   130          2
   132          0
   133          0
   134          1
   136          0
   138          1
   139          0
   140          4
   141          0
   142          0
   143          0
   144          0
   145          0
   146         18
   147          6
   148          4
   154          0
   156          0
   157          0
   158          1
   159          1
   160          2
   161          1
   162          3
   163          1
   164          2
   165          0
   166          0
   169          0
   172          0
   173          0
   174          0
   175          0
   176          3
   177          0
   178          0
   180          0
   182          4
   183          0
   184          5
   185          0
   186          2
   188          3
   189          0
   190          2
   191          0
   192          0
   194          0
   196          0
   198          0
   199          0
   200          0
   202          0
   204        120
   205         16
   206          2
   207          0
   212          0
   216          0
   217          0
   218          1
   219         12
   220          1
   221          0
   224          0
   228          0
   230          0
   231          0
   232          0
   233          0
   234          0
   236          0
   238          0
   240          0
   245          1
   246         11
   247          2
   248          0
   250          0
   256          0
   260          0
   261          0
   262          0
   263          4
   264          1
   265          0
   266          0
   268          0
   272          0
   278          0
   282          0
   285          0
   286          2
   287          0
   288          5
   289          0
   290          0
   303         18
   304          4
   305          0
   306        202
   307         31
   308          5
   309          0
   320          3
   321          5
   322          1