##TITLE=Library Entry 1862
##JCAMP-DX=Revision 4.10 
##DATA TYPE=MASS SPECTRUM
##SAMPLE DESCRIPTION=NIST Mass Spectrometry Data Center, 1992
##NAMES=HP
##CAS NAME=6-Chloro-2-pyridinol
##MOLFORM=C5H4ClNO
##CAS REGISTRY NO=16879-02-0
##MP= -300
##BP= -300
##MW= 129
##$RETENTION INDEX=0
##$CONDENSED SPECTRUM=NO
##NPOINTS= 76
##XYDATA=(XY..XY) 1 
    12          8
    13          8
    15          7
    17          2
    18         20
    24          7
    25         35
    26         67
    27         82
    28          2
    29         81
    30          3
    35         32
    36         46
    37        217
    38        395
    39        999
    40        107
    41         49
    42         36
    43          9
    44         10
    45          3
    46          3
    47         39
    48         16
    49         67
    50        127
    51         80
    52         36
    53         38
    54         12
    55          6
    56          2
    59          2
    60         30
    61         14
    62         81
    63         65
    64        147
    65        136
    66        881
    67         62
    68         11
    71          4
    72          8
    73         48
    74         92
    75         60
    76         62
    77         11
    78          3
    84         11
    85         15
    86         13
    87          3
    88          1
    89          4
    90          3
    91          4
    94        997
    95         55
    96          5
    98          2
   101        851
   102         99
   103        264
   104         25
   105          0
   112          4
   121          2
   129        898
   130         68
   131        288
   132         12
   133          2