##TITLE=Library Entry 29072
##JCAMP-DX=Revision 4.10 
##DATA TYPE=MASS SPECTRUM
##SAMPLE DESCRIPTION=Exported from NIST MS Search
##NAMES=HP
##CAS NAME=Dibenz[b,e][1,4]oxazepine, 5-[2-(dimethylamino)ethyl]-5,11-dihydr
o-
##MOLFORM=C17H20N2O
##CAS REGISTRY NO=16882-89-6
##MP= -300
##BP= -300
##MW= 268
##$RETENTION INDEX=0
##$CONDENSED SPECTRUM=NO
##NPOINTS= 113
##XYDATA=(XY..XY) 1 
    41          6
    42         50
    43         10
    44          6
    51         10
    52          6
    55          7
    56         10
    57          7
    58        999
    59         51
    62         25
    63        100
    64         50
    65        143
    66         34
    67          9
    69          9
    70         29
    71         41
    72         50
    73         50
    74         16
    75         25
    76         33
    77        118
    78         50
    79         25
    80          9
    81          9
    83          9
    87         15
    88         16
    89        101
    90         54
    91        134
    92         30
    93         16
    97         16
   101          9
   102         18
   103         25
   104         18
   105         15
   107         15
   113         10
   114          9
   115         50
   116         44
   117         50
   118         31
   119         10
   120         10
   126        101
   127        260
   128        311
   129        101
   130        202
   131        101
   132        159
   139        345
   140        311
   141        252
   142        101
   143        143
   150         17
   151         20
   152         45
   153         26
   154         26
   155          6
   156          7
   165          7
   166         26
   167         44
   168        149
   169         76
   170         44
   171         14
   177          7
   178         10
   179         25
   180         90
   181         75
   182         42
   183         11
   191         16
   192         16
   193         25
   194         25
   195        141
   196        189
   197         34
   198          6
   204         10
   206          6
   207         10
   208         35
   209         52
   210        343
   211        136
   212         26
   220         10
   221         22
   222         26
   223         18
   224          6
   251         75
   265          7
   266          7
   267          6
   268         51
   269         25