##TITLE=Library Entry 37301
##JCAMP-DX=Revision 4.10 
##DATA TYPE=MASS SPECTRUM
##SAMPLE DESCRIPTION=Exported from NIST MS Search
##NAMES=HP
##CAS NAME=Cyclopentane, 1,2,4-trimethyl-, (1.alpha.,2.beta.,4.alpha.)-
##MOLFORM=C8H16
##CAS REGISTRY NO=16883-48-0
##MP= -300
##BP= -300
##MW= 112
##$RETENTION INDEX=743
##$CONDENSED SPECTRUM=NO
##NPOINTS= 65
##XYDATA=(XY..XY) 1 
    13          1
    14          1
    15         32
    16          1
    26          7
    27        169
    28         30
    29        129
    30          3
    34          1
    35          1
    37          2
    38          5
    39        158
    40         29
    41        338
    42        247
    43         77
    44          3
    45          1
    46          1
    50          3
    51         13
    52          6
    53         50
    54         25
    55        735
    56        162
    57         56
    58          3
    62          1
    63          3
    64          1
    65          8
    66          5
    67         21
    68         32
    69        236
    70        999
    71         71
    72          2
    75          1
    77          8
    78          2
    79          6
    80          1
    81          9
    82          2
    83         40
    84         39
    85          3
    91          2
    92          1
    93          1
    94          1
    95          7
    96          2
    97         70
    98          5
    99          1
   109          1
   111          3
   112         95
   113          8
   114          1