##TITLE=Library Entry 80329
##JCAMP-DX=Revision 4.10 
##DATA TYPE=MASS SPECTRUM
##SAMPLE DESCRIPTION=RADIAN CORP
##NAMES=HP
##CAS NAME=Silane, dimethoxymethyl-
##MOLFORM=C3H10O2Si
##CAS REGISTRY NO=16881-77-9
##MP= -300
##BP= -300
##MW= 106
##$RETENTION INDEX=0
##$CONDENSED SPECTRUM=NO
##NPOINTS= 39
##XYDATA=(XY..XY) 1 
    15         58
    26          1
    27          7
    28         20
    29         93
    30         17
    31         39
    32          4
    33          4
    41         10
    42         28
    43         79
    44         31
    45        339
    46         24
    47         41
    49          1
    52         21
    56          8
    57          5
    58         24
    59        371
    60         64
    61        544
    62         42
    63         21
    74         21
    75        512
    76         44
    77         24
    89         24
    90         18
    91        952
    92         80
    93         40
   105        999
   106         94
   107         42
   108          1