##TITLE=Library Entry 109753
##JCAMP-DX=Revision 4.10 
##DATA TYPE=MASS SPECTRUM
##SAMPLE DESCRIPTION=Exported from NIST MS Search
##NAMES=HP
##CAS NAME=Thiophene, 2-(1,1-dimethylethyl)-
##MOLFORM=C8H12S
##CAS REGISTRY NO=1689-78-7
##MP= -300
##BP= -300
##MW= 140
##$RETENTION INDEX=989
##$CONDENSED SPECTRUM=NO
##NPOINTS= 108
##XYDATA=(XY..XY) 1 
    12          1
    13          1
    14          4
    15         50
    16          1
    26          5
    27         86
    28         13
    29         41
    30          1
    32          1
    33          2
    34          1
    35          1
    36          1
    37         10
    38         27
    39        183
    40         12
    41        213
    42          9
    43          3
    44          2
    45        141
    46          5
    47         14
    48          1
    49          3
    50         25
    51         49
    52         12
    53         37
    54          4
    55         14
    56          2
    57         28
    58         35
    59         23
    60          5
    61          9
    62         11
    63         23
    64          4
    65         51
    66         12
    67          7
    68          2
    69         35
    70          7
    71         16
    72          1
    73          3
    74          5
    75          4
    76          2
    77         23
    78          7
    79         16
    80          2
    81         11
    82         11
    83          8
    84         18
    85        121
    86          7
    87          6
    88          1
    89          2
    90          1
    91         38
    92         10
    93          4
    94          1
    95          5
    96          3
    97        186
    98          5
    99         11
   100          1
   101          1
   102          1
   103          1
   104          1
   105          3
   106          1
   107          1
   108          6
   109         46
   110         23
   111          2
   112          2
   120          1
   121          3
   122          1
   123          9
   124          6
   125        999
   126         82
   127         47
   128          4
   129          1
   135          1
   137          1
   139          1
   140        248
   141         21
   142         12
   143          1