##TITLE=Library Entry 109768
##JCAMP-DX=Revision 4.10 
##DATA TYPE=MASS SPECTRUM
##SAMPLE DESCRIPTION=N.G. FOSTER TEXAS WOMANS UNIV., DENTON, TEXAS, USA
##NAMES=HP
##CAS NAME=Thiophene, 3-(1,1-dimethylethyl)-
##MOLFORM=C8H12S
##CAS REGISTRY NO=1689-79-8
##MP= -300
##BP= -300
##MW= 140
##$RETENTION INDEX=1007
##$CONDENSED SPECTRUM=NO
##NPOINTS= 105
##XYDATA=(XY..XY) 1 
    25          2
    26         22
    27         95
    28         14
    29         47
    30          1
    31          1
    32          2
    33          3
    34          2
    36          1
    37         13
    38         31
    39        191
    40         15
    41        199
    42          9
    43          6
    44          3
    45        153
    46          5
    47         12
    48          1
    49          4
    50         28
    51         46
    52         11
    53         32
    54          3
    55         16
    56          3
    57         27
    58         33
    59         18
    60          5
    61         11
    62         16
    63         22
    64          4
    65         46
    66         11
    67          8
    68          3
    69         31
    70          6
    71         13
    73          3
    74          4
    75          4
    76          3
    77         22
    78          8
    79         15
    80          2
    81         14
    82         15
    83         11
    84         29
    85        142
    86          9
    87          8
    89          2
    90          1
    91         33
    92         11
    93          4
    94          1
    95          5
    96          3
    97        209
    98         15
    99         12
   100          1
   103          0
   104          0
   105          1
   106          0
   107          1
   108          8
   109         46
   110         24
   111          8
   112          3
   113          2
   117          0
   118          0
   119          0
   121          4
   122          2
   123         11
   124          9
   125        999
   126         82
   127         47
   128          3
   129          0
   134          0
   135          0
   137          0
   138          0
   139          0
   140        270
   141         27
   142         13
   143          1