##TITLE=Library Entry 16873
##JCAMP-DX=Revision 4.10 
##DATA TYPE=MASS SPECTRUM
##SAMPLE DESCRIPTION=V.Zaikin,Topchiev Inst.Petrochem.Synth.,Moscow
##NAMES=HP
##CAS NAME=Methoxyacetic acid, pentyl ester
##MOLFORM=C8H16O3
##CAS REGISTRY NO=168920-35-2
##MP= -300
##BP= -300
##MW= 160
##$RETENTION INDEX=0
##$CONDENSED SPECTRUM=NO
##NPOINTS= 43
##XYDATA=(XY..XY) 1 
    27        112
    28         18
    29        145
    30          7
    31         30
    36          3
    38          7
    39         67
    40         20
    41        183
    42        133
    43        659
    44         39
    45        999
    46         14
    47         10
    50          2
    51         10
    52          3
    53          6
    55        161
    56         22
    57         12
    58          3
    59          3
    60         90
    61         57
    62          3
    63         27
    67          2
    68          3
    69         23
    70        215
    71        128
    72          6
    75         11
    83          4
    85          4
    91         28
   102          8
   103          3
   115          6
   130          7