##TITLE=Library Entry 51198
##JCAMP-DX=Revision 4.10 
##DATA TYPE=MASS SPECTRUM
##SAMPLE DESCRIPTION=NIST Mass Spectrometry Data Center, 1990.
##NAMES=HP
##CAS NAME=Piperidine, 4,4'-(1,3-propanediyl)bis-
##MOLFORM=C13H26N2
##CAS REGISTRY NO=16898-52-5
##MP= -300
##BP= -300
##MW= 210
##$RETENTION INDEX=0
##$CONDENSED SPECTRUM=NO
##NPOINTS= 102
##XYDATA=(XY..XY) 1 
    15         23
    26         11
    27        158
    28        491
    29        449
    30        840
    31         18
    32         11
    39        132
    40         36
    41        339
    42        427
    43        288
    44        622
    45         27
    46         12
    51         16
    52         13
    53         94
    54         92
    55        473
    56        906
    57        431
    58         96
    65         26
    66         12
    67        121
    68         77
    69         69
    70         83
    71         33
    72          9
    77         18
    78          7
    79         46
    80         70
    81          7
    82        999
    83        129
    84        499
    85        282
    86         20
    91         13
    93         27
    94         21
    95         50
    96        150
    97         41
    98        405
    99        102
   100         13
   104         10
   105          8
   106         13
   107         16
   108         51
   109         20
   110         48
   111          8
   112        407
   113        102
   114         11
   121         12
   122         20
   123         10
   124         40
   125         10
   126        533
   127         55
   128          9
   135          8
   136         20
   137          5
   138         20
   139         15
   140         25
   148          7
   150         11
   152         77
   153         51
   154        237
   155         25
   164         25
   165         12
   166         51
   167         39
   168         70
   169         10
   178         23
   179         12
   180         54
   181         47
   182         23
   192          8
   193          7
   194         31
   195        114
   196         13
   208         18
   209        138
   210        277
   211         44