##TITLE=Library Entry 34945
##JCAMP-DX=Revision 4.10 
##DATA TYPE=MASS SPECTRUM
##SAMPLE DESCRIPTION=Japan AIST/NIMC Database- Spectrum MS-IW-1519
##NAMES=HP
##CAS NAME=1-Nitrododecane
##MOLFORM=C12H25NO2
##CAS REGISTRY NO=16891-99-9
##MP= -300
##BP= -300
##MW= 215
##$RETENTION INDEX=0
##$CONDENSED SPECTRUM=NO
##NPOINTS= 117
##XYDATA=(XY..XY) 1 
    15          1
    26          3
    27         71
    28         19
    29        174
    30         25
    31          3
    36          3
    38          1
    39         64
    40         13
    41        463
    42        100
    43        717
    44         28
    45         19
    46         28
    50          1
    51          3
    52          2
    53         27
    54         37
    55        943
    56        150
    57        562
    58         28
    59         35
    60          4
    61          1
    62         41
    63          1
    65          5
    66          4
    67         59
    68         33
    69        999
    70        118
    71        221
    72         20
    73         10
    74          1
    75          6
    77          3
    78          1
    79          9
    80          5
    81         41
    82         34
    83        580
    84         62
    85        137
    86         68
    87          8
    88          3
    89          1
    91          2
    93          7
    94          4
    95         29
    96         30
    97        360
    98         45
    99         51
   100         38
   101          5
   102         16
   103          1
   107          5
   108          3
   109         13
   110         23
   111         95
   112         48
   113         33
   114         12
   115          5
   116          3
   117          1
   121          4
   122          2
   123          6
   124         15
   125          9
   126         22
   127         11
   128          4
   129          3
   130          4
   135          1
   136          1
   137          2
   138         10
   139          2
   140         13
   141          3
   142          1
   143          2
   144          4
   150          1
   151          1
   152         11
   153          1
   154          9
   155          2
   156          1
   158          1
   163          2
   166          1
   168          6
   169          2
   180         49
   181          7
   182          3
   183          1
   196          3
   198         10
   199          1