##TITLE=Library Entry 66044
##JCAMP-DX=Revision 4.10 
##DATA TYPE=MASS SPECTRUM
##SAMPLE DESCRIPTION=NIST Mass Spectrometry Data Center, 1994
##NAMES=HP
##CAS NAME=Phenol, 4-(phenylazo)-
##MOLFORM=C12H10N2O
##CAS REGISTRY NO=1689-82-3
##MP= -300
##BP= -300
##MW= 198
##$RETENTION INDEX=0
##$CONDENSED SPECTRUM=NO
##NPOINTS= 82
##XYDATA=(XY..XY) 1 
    12          0
    14          2
    17          2
    18          5
    26         31
    27         60
    28         26
    32          0
    37         35
    38        116
    39        539
    40         27
    41          1
    42          4
    43          2
    46          3
    50        143
    51        501
    52        132
    53         91
    54         12
    55         18
    61         14
    62         46
    63        143
    64        114
    65        594
    66         48
    67          8
    68          3
    73          5
    74         22
    75         29
    76          3
    77        783
    78         62
    79          9
    80         14
    81          3
    86          1
    87          3
    88          3
    89         10
    90          6
    91         11
    92          1
    93        999
    94         72
    95          4
   102          5
   103          3
   105         47
   106          4
   107          2
   109          1
   113          1
   115         77
   116          9
   118          1
   119          1
   121        442
   122         29
   123          1
   126          2
   127          3
   128          2
   131          3
   139         13
   141         52
   142          8
   144          2
   150          1
   151          8
   152          9
   153          2
   167          1
   168          5
   169          6
   170          4
   198        434
   199         59
   200          4