##TITLE=Library Entry 39737
##JCAMP-DX=Revision 4.10 
##DATA TYPE=MASS SPECTRUM
##SAMPLE DESCRIPTION=A.A.Kutin, Moscow, Russia
##NAMES=HP
##CAS NAME=1-(1,4-Benzodioxan-2-yl)-2-(isopropylamino)-1-ethanol
##MOLFORM=C13H19NO3
##CAS REGISTRY NO=1689-24-3
##MP= -300
##BP= -300
##MW= 237
##$RETENTION INDEX=0
##$CONDENSED SPECTRUM=NO
##NPOINTS= 86
##XYDATA=(XY..XY) 1 
    33         56
    34         21
    36          2
    37          4
    38         31
    39        228
    40         56
    41        203
    42        112
    43        256
    44        317
    45         10
    50         33
    51         60
    52         69
    53         45
    54         21
    55         81
    56         84
    57         67
    58         49
    59          5
    60         32
    62          1
    63         19
    64         14
    65         27
    66          7
    67          8
    68         13
    69         60
    70         61
    71        225
    72        999
    73         49
    76          7
    77         57
    78         29
    79         28
    80         28
    81         44
    82          3
    83          7
    84          9
    85          2
    91         72
    92         11
    93          2
    94          2
    95          5
    96          4
    97          1
    98         14
   100          2
   101          1
   102         26
   103          4
   104          5
   105          6
   106          1
   107         13
   108          0
   109         22
   110         48
   111         13
   112          1
   115          2
   117         14
   118         10
   121         13
   128          3
   130          0
   131          4
   133          4
   134          8
   135         49
   136          7
   149          3
   151         10
   181         74
   182          9
   194          7
   222          7
   236          4
   237         53
   238          1