##TITLE=Library Entry 17039
##JCAMP-DX=Revision 4.10 
##DATA TYPE=MASS SPECTRUM
##SAMPLE DESCRIPTION=V.Zaikin,Topchiev Inst.Petrochem.Synth.,Moscow
##NAMES=HP
##CAS NAME=Methoxyacetic acid, heptyl ester
##MOLFORM=C10H20O3
##CAS REGISTRY NO=168920-36-3
##MP= -300
##BP= -300
##MW= 188
##$RETENTION INDEX=0
##$CONDENSED SPECTRUM=NO
##NPOINTS= 47
##XYDATA=(XY..XY) 1 
    27         89
    28         25
    29        205
    30          8
    31         18
    36          5
    39         52
    40         13
    41        286
    42        105
    43        402
    44         56
    45        999
    46         18
    47          7
    50          5
    51          4
    53         10
    54         21
    55        173
    56        162
    57        846
    58         41
    59          7
    60         44
    61        109
    63         43
    66          4
    67          9
    68         28
    69         58
    70        125
    71         24
    72          6
    73          3
    75         10
    82          7
    83         13
    84          8
    85          4
    87          2
    89          4
    91         66
    97          9
    98        129
    99         10
   143         13