##TITLE=Library Entry 26523
##JCAMP-DX=Revision 4.10 
##DATA TYPE=MASS SPECTRUM
##SAMPLE DESCRIPTION=NIST Mass Spectrometry Data Center
##NAMES=HP
##CAS NAME=sec-Butyl isobutyl sulfide
##MOLFORM=C8H18S
##CAS REGISTRY NO=16900-02-0
##MP= -300
##BP= -300
##MW= 146
##$RETENTION INDEX=991
##$CONDENSED SPECTRUM=NO
##NPOINTS= 68
##XYDATA=(XY..XY) 1 
    15          8
    26          9
    27        164
    29        360
    30          7
    34          1
    35          9
    37          2
    38          8
    39        200
    40         20
    41        596
    42         37
    43        122
    44          4
    45         93
    46         41
    47        144
    48         28
    49         17
    50          7
    51         10
    52          2
    53         35
    54         10
    55        202
    56        439
    57        999
    58         59
    59         69
    60         51
    61        327
    62         12
    63         15
    67          2
    69        149
    70         11
    71         12
    72          2
    73         15
    74         13
    75        110
    76          5
    77          5
    83          2
    85          2
    87          3
    88         24
    89         79
    90         69
    91         63
    92          6
    93          2
   101          1
   103        186
   104         14
   105          8
   117        810
   118         58
   119         38
   120          2
   131         55
   132          4
   133          2
   146        505
   147         49
   148         25
   149          2