##TITLE=Library Entry 22470
##JCAMP-DX=Revision 4.10 
##DATA TYPE=MASS SPECTRUM
##SAMPLE DESCRIPTION=GAZ DE FRANCE D.E.T.N., B.P. 33, LA PLAINE ST. DENIS, F
RANCE
##NAMES=HP
##CAS NAME=Octane, 1-(butylthio)-
##MOLFORM=C12H26S
##CAS REGISTRY NO=16900-07-5
##MP= -300
##BP= -300
##MW= 202
##$RETENTION INDEX=1477
##$CONDENSED SPECTRUM=NO
##NPOINTS= 105
##XYDATA=(XY..XY) 1 
    26         13
    27        214
    28        122
    29        600
    30         14
    32         14
    33          1
    34          7
    35         13
    36          1
    37          2
    38          2
    39        125
    40         23
    41        714
    42        162
    43        400
    44         23
    45         62
    46         40
    47        134
    48         17
    49         16
    50          4
    51          7
    52          3
    53         40
    54         42
    55        571
    56        999
    57        514
    58         28
    59         27
    60         76
    61        742
    62         34
    63         37
    64          2
    65          5
    66          4
    67         44
    68         61
    69        571
    70         90
    71        100
    72          7
    73         18
    74          9
    75         58
    76         11
    77          9
    78          1
    79          7
    80          1
    81         15
    82         57
    83        185
    84        257
    85         20
    86          2
    87         43
    88         30
    89        100
    90        222
    91         91
    92         17
    93          6
    95          3
    96          1
    97         22
    98          4
   101         18
   102          3
   103         95
   104         18
   105          5
   106          1
   110          5
   111         21
   112        177
   113         17
   115          3
   117         72
   118          7
   119          3
   122         13
   131         16
   132          1
   143          1
   144         11
   145        714
   146         91
   147         45
   148          4
   159         64
   160          8
   161          3
   173         36
   174          4
   175          1
   187         11
   201         17
   202        271
   203         42
   204         16