##TITLE=Library Entry 75802
##JCAMP-DX=Revision 4.10 
##DATA TYPE=MASS SPECTRUM
##SAMPLE DESCRIPTION=Exported from NIST MS Search
##NAMES=HP
##CAS NAME=Asparagine, N-(2-acetamido-2-deoxy-.beta.-D-glucopyranosyl)-N2-(t
rifluoroacetyl)-, ethyl ester, 3',4',6'-triacetate, L-
##MOLFORM=C22H30F3N3O12
##CAS REGISTRY NO=16907-93-0
##MP= -300
##BP= -300
##MW= 585
##$RETENTION INDEX=0
##$CONDENSED SPECTRUM=NO
##NPOINTS= 116
##XYDATA=(XY..XY) 1 
    45         79
    46         59
    47         66
    48         47
    49        222
    50        131
    69         66
    70        104
    71         49
    72        143
    73         54
    80         99
    81         79
    82         52
    83        106
    84        198
    85         74
    86         49
    87         49
    88        101
    96        203
    97        185
    98        222
    99        104
   100         54
   101        999
   102        136
   103         44
   108         99
   109         49
   111         59
   112        138
   114        356
   115        123
   122        113
   123         44
   124         44
   125         74
   126        106
   127         69
   128         66
   129         47
   130         47
   138        143
   139        405
   140        346
   141         79
   142         37
   143        247
   144         54
   149         44
   150        212
   151         32
   154         34
   156        173
   157        106
   158         42
   163         29
   166         61
   167        101
   168        118
   169         34
   170         49
   181        212
   182         54
   198        123
   199        279
   200         49
   209         49
   210         74
   211         24
   212         94
   228         69
   229         42
   240         44
   241        470
   242         81
   269         99
   270         99
   285         44
   286         19
   287         42
   305         79
   306         22
   317         59
   318         24
   329         81
   330        123
   331         32
   347         42
   352        111
   353         19
   360         89
   361         14
   364         34
   393        247
   394         61
   406         81
   407         24
   466        279
   467         69
   497         19
   498          5
   512         32
   513          9
   514          2
   516          9
   517          2
   525          9
   526         14
   527          5
   540         27
   541          7
   542          2
   584          2
   585          5