##TITLE=Library Entry 14446
##JCAMP-DX=Revision 4.10 
##DATA TYPE=MASS SPECTRUM
##SAMPLE DESCRIPTION=Japan AIST/NIMC Database- Spectrum MS-NW-5558
##NAMES=HP
##CAS NAME=Tin(IV)chloride bis(2,4-pentanedionate)
##MOLFORM=C10H14Cl2O4Sn
##CAS REGISTRY NO=16919-46-3
##MP= -300
##BP= -300
##MW= 388
##$RETENTION INDEX=0
##$CONDENSED SPECTRUM=NO
##NPOINTS= 257
##XYDATA=(XY..XY) 1 
    14          4
    15         50
    17          1
    18          2
    26          9
    27         48
    28         26
    29          9
    35          2
    36         10
    37          2
    38          5
    39         20
    40          6
    41         12
    42         27
    43        999
    44         22
    45          3
    50          1
    51          2
    53          6
    54          2
    55         45
    56          5
    57         11
    58          4
    67          3
    68          3
    69         30
    70          5
    71         14
    72          4
    81          2
    82          2
    83          1
    84          8
    85         49
    86          3
    95          2
    96          1
    97          3
    98          8
    99         45
   100         37
   101          3
   102          2
   111          2
   113          2
   116          9
   117          6
   118         13
   119          8
   120         20
   121          3
   122          3
   124          4
   129          2
   130          1
   131         11
   132          7
   133         34
   134         17
   135         51
   136         12
   137         48
   139          9
   141          9
   143          2
   144          2
   145          3
   147          5
   149          5
   150          2
   151         74
   152         39
   153        143
   154         54
   155        191
   156         13
   157         80
   158          5
   159         44
   160          5
   161         23
   163          3
   165          3
   167          2
   168          2
   169          4
   170          2
   171          1
   172          2
   173          3
   174          3
   175          6
   176          7
   177          9
   178          3
   179          8
   180          2
   181          2
   183          2
   186          3
   187          3
   188          5
   189          3
   190          6
   191          1
   192          2
   193          1
   194          2
   195          1
   196          1
   197          4
   198          3
   199          8
   200          4
   201         11
   202          3
   203          6
   204          1
   205          3
   206          1
   207          5
   208          2
   209          3
   210          2
   211          9
   212          2
   213          6
   214         13
   215         96
   216         67
   217        149
   218         80
   219        191
   220         14
   221         32
   222          7
   223         39
   224          5
   225         15
   226          4
   227         17
   228          7
   229         21
   230          4
   231         16
   232          2
   233          8
   234          1
   235         22
   236         11
   237         39
   238         16
   239         55
   240          7
   241         22
   242          2
   243         22
   244          8
   245         39
   246         20
   247         67
   248         22
   249         70
   250         21
   251         47
   252         28
   253         29
   254         37
   255         11
   256         14
   257          4
   258          6
   259          1
   260          2
   265          1
   266          1
   267          9
   268          6
   269         16
   270          8
   271         23
   272          3
   273          9
   274          1
   275          5
   277          2
   281         12
   282          1
   283         14
   284          7
   285        168
   286        102
   287        381
   288        176
   289        559
   290        104
   291        310
   292         31
   293        136
   294          9
   295         49
   296          4
   297          9
   299          1
   307          1
   309          2
   310          2
   311          5
   312          2
   313          4
   314          1
   315          3
   317          2
   318          1
   319          1
   321          1
   331          1
   333          2
   335          2
   337          1
   345          8
   346          2
   347          9
   348          9
   349        122
   350         84
   351        250
   352        132
   353        333
   354         66
   355        120
   356         16
   357         59
   358          8
   359         15
   360          2
   371          1
   372          1
   373          2
   375          1
   380          1
   382          2
   384         11
   385          9
   386         30
   387         14
   388         42
   389          9
   390         23
   391          4
   392          9
   393          1
   394          4