##TITLE=Library Entry 42791
##JCAMP-DX=Revision 4.10 
##DATA TYPE=MASS SPECTRUM
##SAMPLE DESCRIPTION=Chemical Concepts
##NAMES=HP
##CAS NAME=Octane, 1,8-bis[4-(trimethylsilylcarbonyl)phenyl]-
##MOLFORM=C28H42O2Si2
##CAS REGISTRY NO=169129-01-5
##MP= -300
##BP= -300
##MW= 466
##$RETENTION INDEX=0
##$CONDENSED SPECTRUM=NO
##NPOINTS= 250
##XYDATA=(XY..XY) 1 
    27          2
    28          1
    29          4
    39          2
    40          3
    41         12
    43         14
    44         14
    45         83
    46          5
    47          4
    55         16
    57          3
    58          7
    59         21
    60          0
    61          3
    65          3
    67          5
    69          7
    70          1
    71          2
    72         20
    73        999
    74         86
    75         86
    76          5
    77          7
    78          3
    79          3
    81          2
    82          1
    85          1
    89          9
    90         26
    91         51
    92          5
    97          0
    99          1
   101          3
   102          0
   103         10
   104         10
   105         16
   106          1
   107          2
   109          0
   115         18
   116          5
   117         34
   118         25
   119         18
   120          4
   121          6
   128          7
   129         18
   130          5
   131         39
   132          8
   133         82
   134         13
   135         22
   136          2
   137          0
   141          3
   142          0
   143          7
   144          2
   145         13
   146          6
   147        450
   148         87
   149         60
   150          8
   151          2
   152          0
   155          1
   157          4
   159         25
   160          5
   161         18
   162          4
   163         12
   164          1
   165          8
   166          7
   167          7
   169          0
   171          2
   173          5
   174          2
   175         11
   176          4
   177         94
   178         24
   179         21
   180         16
   181          4
   185          1
   187          2
   189          5
   190          9
   191         12
   192         12
   193         18
   194          5
   195          5
   201          3
   202          0
   203          9
   204          7
   205         46
   206         11
   207         35
   208          8
   209          6
   210          2
   215          1
   217          6
   218          6
   219         15
   220          5
   221          6
   222          2
   223          5
   224          2
   225          1
   231          4
   232          1
   233          7
   234          2
   235          4
   236          3
   237          3
   238          0
   245          2
   246          1
   247          4
   248          1
   249         48
   250         15
   251         14
   252          4
   253          2
   259          2
   261          1
   263          4
   264          4
   265          9
   266          3
   267          2
   268         10
   269          3
   275          3
   276         13
   277         16
   278          6
   279          5
   280          2
   281         13
   282          5
   283          3
   284          0
   289          1
   291          6
   292          3
   293          3
   294          8
   295          5
   296          6
   297          3
   298          0
   301          1
   302          2
   303         54
   304         18
   305          7
   306          2
   307         14
   308          4
   309          3
   310          1
   311          2
   319          2
   320          2
   321          5
   322          2
   323          2
   324          1
   333          2
   334         18
   335          8
   336          2
   337          2
   340         13
   341          4
   342          1
   347          1
   348          2
   349          4
   350          2
   351          4
   352          1
   353         17
   354         10
   355          4
   363          1
   365         65
   366         27
   367         17
   368         11
   369          3
   370          1
   376          3
   377          3
   378          8
   379          6
   380          2
   381         20
   382         15
   383          6
   384          2
   391          1
   392          3
   393         13
   394          7
   395         34
   396         15
   397          5
   398          0
   407          0
   409          8
   410          3
   423          8
   424          5
   425          1
   437          5
   438          3
   439          2
   450          1
   451         15
   452          5
   453          1
   454          0
   465         50
   466        405
   467        165
   468         64
   469         14
   470          3