##TITLE=Library Entry 38817
##JCAMP-DX=Revision 4.10 
##DATA TYPE=MASS SPECTRUM
##SAMPLE DESCRIPTION=Chemical Concepts
##NAMES=HP
##CAS NAME=3-Pentanol, 2,2,4,4-tetramethyl-3-(tetrahydo-2-furyl)-
##MOLFORM=C13H26O2
##CAS REGISTRY NO=169258-19-9
##MP= -300
##BP= -300
##MW= 214
##$RETENTION INDEX=0
##$CONDENSED SPECTRUM=NO
##NPOINTS= 102
##XYDATA=(XY..XY) 1 
    26          0
    27         37
    29         87
    30          2
    31         10
    38          0
    39         22
    41        153
    42         14
    43         95
    44          5
    45          9
    46          0
    50          0
    51          1
    52          0
    53          6
    54          2
    55         28
    56          5
    57        775
    58         30
    59         20
    60          1
    61          0
    65          1
    66          0
    67          7
    68          1
    69         34
    70          5
    71        999
    72         39
    73         36
    74          1
    77          1
    78          0
    79          2
    80          0
    81          4
    82          1
    83         12
    84          2
    85         41
    86          1
    87        433
    88         23
    89          1
    91          1
    92          0
    93          2
    94          0
    95          5
    96          0
    97         29
    98          2
    99          9
   100          2
   101        145
   102          8
   103          1
   105          0
   107          1
   109          1
   110          0
   111         12
   112          1
   113          3
   114          0
   115          1
   116          3
   117          0
   119          0
   121          0
   123          3
   125         15
   126          1
   127          1
   128          0
   129          0
   130          0
   137          0
   139          8
   140          1
   141          6
   142          2
   143        170
   144         17
   145          1
   153          0
   155          0
   156          1
   157        159
   158         17
   159          1
   160          0
   171          0
   172          1
   181          0
   186          0
   199          0
   214          0