##TITLE=Library Entry 17787
##JCAMP-DX=Revision 4.10 
##DATA TYPE=MASS SPECTRUM
##SAMPLE DESCRIPTION=A.A.Kutin, Moscow, Russia
##NAMES=HP
##CAS NAME=Acetic acid, 2-(2,4,6-trichlorophenylthio)-
##MOLFORM=C8H5Cl3O2S
##CAS REGISTRY NO=16928-88-4
##MP= -300
##BP= -300
##MW= 270
##$RETENTION INDEX=0
##$CONDENSED SPECTRUM=NO
##NPOINTS= 209
##XYDATA=(XY..XY) 1 
    33          3
    35         19
    36         63
    37         35
    38         30
    39          6
    40         18
    41         10
    42         50
    43         12
    44         82
    45        999
    46         85
    47         74
    48          7
    49         17
    50         22
    51          7
    53         12
    54          1
    55          3
    56          3
    57          8
    58          5
    59         10
    60         17
    61         55
    62         61
    63         14
    64          2
    65          3
    66          1
    67          2
    68         12
    69        102
    70         13
    71         18
    72         19
    73         62
    74        114
    75         39
    76          8
    77         11
    79         49
    80          7
    81         50
    82          9
    83         14
    84         36
    85         18
    86         13
    87          8
    88         10
    89          8
    90          3
    91         26
    92         17
    93         27
    94          9
    95         15
    96         22
    97         68
    98          9
    99         23
   100          2
   101          1
   103         34
   104          7
   105         50
   106         67
   107         34
   108         44
   109         74
   110         20
   111         35
   112          7
   113          8
   114          4
   115         10
   116         15
   117          7
   118         12
   119         17
   120         11
   121          6
   122          2
   123          5
   124          0
   125          1
   126          2
   127          2
   128          2
   129          6
   130          2
   131         11
   132          2
   133         10
   134          1
   135          4
   136          0
   137          1
   138          0
   139          5
   140         15
   141         67
   142         21
   143         54
   144         25
   145         32
   146         27
   147         14
   148         12
   149          3
   150          2
   151          0
   152          1
   153          5
   154         18
   155         35
   156         10
   157         19
   158          4
   159          5
   160          2
   161          1
   162          2
   163          1
   164          1
   165          4
   166          1
   167         21
   168          2
   169         18
   170          1
   171          7
   172          1
   173          2
   174          3
   176        225
   177         30
   178        145
   179         23
   180         46
   181         10
   182         18
   183          4
   184          5
   185          0
   186          1
   187          0
   188          4
   189         50
   190         76
   191         44
   192         51
   193         64
   194         15
   195         51
   196         21
   197         18
   198         17
   199          3
   200          5
   201          1
   202          1
   203          0
   204          0
   205          1
   206          2
   207          4
   208          2
   209          3
   211         79
   212         15
   213         76
   214         12
   215         25
   216          4
   217          4
   218          1
   219          0
   220          1
   221          0
   223         12
   225        436
   226         54
   227        415
   228         44
   229        148
   230         15
   231         19
   232          2
   234          6
   235         62
   236         10
   237         42
   238          5
   239          8
   240          0
   268          1
   270        281
   271         34
   272        263
   273         28
   274         93
   275          9
   276         12
   277          1
   278          0