##TITLE=Library Entry 85536
##JCAMP-DX=Revision 4.10 
##DATA TYPE=MASS SPECTRUM
##SAMPLE DESCRIPTION=R.E.Ardrey ET AL.Pharmaceutical Mass Spectra,L.,1985
##NAMES=HP
##CAS NAME=Parapropamol
##MOLFORM=C9H11NO2
##CAS REGISTRY NO=1693-37-4
##MP= -300
##BP= -300
##MW= 165
##$RETENTION INDEX=0
##$CONDENSED SPECTRUM=NO
##NPOINTS= 32
##XYDATA=(XY..XY) 1 
    26         40
    27        170
    29        660
    30         10
    39         40
    40         10
    44         10
    50         10
    51         40
    52         90
    53         50
    54         10
    55         30
    56         10
    57        630
    58         20
    63         20
    64         10
    65         20
    78         20
    79         20
    80         60
    81         60
   106         20
   107         20
   108         80
   109        999
   110         70
   134         30
   135         20
   165        130
   166         10