##TITLE=Library Entry 109122
##JCAMP-DX=Revision 4.10 
##DATA TYPE=MASS SPECTRUM
##SAMPLE DESCRIPTION=V.G.Zaikin,TIPS,Russian Acad.Sci.Moscow
##NAMES=HP
##CAS NAME=Octanoic acid, 4-chlorobenzyl ester
##MOLFORM=C15H21ClO2
##CAS REGISTRY NO=16932-29-9
##MP= -300
##BP= -300
##MW= 268
##$RETENTION INDEX=0
##$CONDENSED SPECTRUM=NO
##NPOINTS= 89
##XYDATA=(XY..XY) 1 
    25          2
    26         29
    27        238
    28         48
    29        317
    30          8
    31          6
    35          1
    36          8
    37          2
    38         19
    39        149
    40         33
    41        368
    42        127
    43        376
    44         47
    45         20
    49          3
    50         38
    51         59
    52          9
    53         22
    54         17
    55        335
    56         45
    57        559
    58         35
    59         24
    60         21
    61          6
    62         17
    63         65
    64         19
    65         25
    67         31
    68          6
    69         47
    70          9
    71         19
    73         29
    74          9
    75         33
    76         12
    77         85
    78         12
    79         18
    80          3
    81         22
    82         19
    83        208
    84         25
    85         15
    86          2
    87         11
    88          2
    89        185
    90         59
    91         37
    92          7
    96          9
    97        159
    98         19
    99         41
   101         29
   105          6
   106          2
   107         59
   108          9
   109         25
   111         22
   112          7
   113         15
   115          2
   123         11
   124         89
   125        999
   126        252
   127        484
   128         87
   139         15
   141         41
   142         73
   143        105
   144         36
   268         18
   269          3
   270          6
   271          1