##TITLE=Library Entry 53386
##JCAMP-DX=Revision 4.10 
##DATA TYPE=MASS SPECTRUM
##SAMPLE DESCRIPTION=Chemical Concepts
##NAMES=HP
##CAS NAME=N,N-Dicyclohexyl-2-(3-[(dicyclohexylcarbamoyl)-methoxy]-cyclohexy
loxy)-acetamide
##MOLFORM=C34H58N2O4
##CAS REGISTRY NO=169393-37-7
##MP= -300
##BP= -300
##MW= 558
##$RETENTION INDEX=0
##$CONDENSED SPECTRUM=NO
##NPOINTS= 203
##XYDATA=(XY..XY) 1 
    26          5
    27         41
    28          7
    29         63
    30         89
    31         14
    35          3
    36         12
    38          2
    39         62
    40         10
    41        362
    42         48
    43         88
    44         48
    45          9
    46          2
    47          4
    48          3
    49         32
    50          3
    51         11
    52          5
    53         40
    54        122
    55        538
    56        139
    57         57
    58         61
    59          6
    60         63
    61          5
    65          6
    66          6
    67        164
    68         31
    69         46
    70         22
    71         22
    72          4
    73          6
    74         24
    75          3
    76         75
    77         11
    78          2
    79         29
    80         23
    81        293
    82        108
    83        999
    84         87
    85         15
    86         16
    87          5
    88          6
    91          7
    92          2
    93          4
    94          9
    95         21
    96         28
    97         54
    98        234
    99         31
   100         25
   101          4
   102          8
   105          3
   106          3
   107          2
   108          8
   109          7
   110         34
   111         16
   112         34
   113          8
   114         16
   115          5
   119          2
   120          2
   121          2
   122          6
   123          5
   124         14
   125         10
   126        323
   127         29
   128         14
   129          3
   134          3
   135          2
   136         14
   137          5
   138         51
   139         21
   140        230
   141         78
   142         63
   143          8
   149          5
   150          8
   151          3
   152          5
   153          3
   154         15
   155          5
   156        127
   157         25
   158        161
   159         17
   160          2
   164          5
   165          3
   166         15
   167          3
   168          7
   169          2
   170          3
   178         40
   179         14
   180        182
   181         33
   182         12
   183          2
   192          7
   193          4
   194         41
   195          6
   196          6
   197         10
   198         11
   206          6
   207          2
   208        156
   209         27
   210         12
   211          3
   220          6
   221         23
   222         19
   223        105
   224         28
   225          3
   236         15
   237          7
   238        873
   239        175
   240        606
   241        100
   242          9
   252         17
   253          3
   254          3
   255          1
   256          3
   268          5
   269          2
   270          4
   278          2
   279          2
   280          2
   290          2
   291          3
   292          3
   293          3
   294          3
   295          2
   296          3
   297          1
   298          4
   313          3
   314          1
   318          9
   319          5
   320        200
   321        237
   322         59
   323          6
   335          6
   336        476
   337        109
   338         26
   339          5
   350         75
   351         24
   352          5
   376          1
   377          1
   378          1
   392          5
   393          4
   394          5
   395          2
   475         22
   476         10
   477          7
   478          1
   557          6
   558         98
   559         38
   560          9
   561          1