##TITLE=Library Entry 85528
##JCAMP-DX=Revision 4.10 
##DATA TYPE=MASS SPECTRUM
##SAMPLE DESCRIPTION=NIST Mass Spectrometry Data Center, 1994
##NAMES=HP
##CAS NAME=Ethyl 2-heptynoate
##MOLFORM=C9H14O2
##CAS REGISTRY NO=16930-95-3
##MP= -300
##BP= -300
##MW= 154
##$RETENTION INDEX=0
##$CONDENSED SPECTRUM=NO
##NPOINTS= 87
##XYDATA=(XY..XY) 1 
    12          1
    13          5
    14         20
    15        126
    16          6
    17          0
    18          4
    19          8
    25          7
    26        114
    27        892
    28        128
    29        782
    30         33
    31         12
    37         48
    38        168
    39        483
    40        100
    41        591
    42         80
    43        413
    44         21
    45         93
    46          3
    49         13
    50         99
    51        161
    52        127
    53        457
    54         58
    55        180
    56         42
    57         12
    58          2
    60          2
    61          7
    62         17
    63         28
    64          9
    65         84
    66        393
    67        320
    68        161
    69         80
    70         11
    71         29
    73         10
    74          2
    75          3
    76          2
    77         87
    78          2
    79        548
    80        120
    81        341
    82         50
    83         47
    84        281
    85         58
    86         27
    87          3
    91          8
    92          4
    93         33
    94         25
    95         21
    96          3
    97        113
    98         41
    99         34
   100          9
   101          2
   107         21
   109        999
   110         82
   111        162
   112        192
   113         33
   114          2
   121          6
   125        186
   126         47
   127         20
   139         23
   140          1
   153          8