##TITLE=Library Entry 66507
##JCAMP-DX=Revision 4.10 
##DATA TYPE=MASS SPECTRUM
##SAMPLE DESCRIPTION=NIST Mass Spectrometry Data Center
##NAMES=HP
##CAS NAME=3-((3R)-2,3-Dimethyltricyclo[2.2.1.02,6]heptan-3-yl)propanal
##MOLFORM=C12H18O
##CAS REGISTRY NO=16933-18-9
##MP= -300
##BP= -300
##MW= 178
##$RETENTION INDEX=1343
##$CONDENSED SPECTRUM=NO
##NPOINTS= 105
##XYDATA=(XY..XY) 1 
    26          3
    27         46
    29         76
    30          2
    31          3
    37          1
    38          6
    39        134
    40         24
    41        208
    42         14
    43         92
    44         14
    45          3
    49          1
    50         15
    51         58
    52         25
    53        104
    54         12
    55        143
    56         17
    57         22
    58         13
    61          1
    62          5
    63         22
    64          9
    65        111
    66         86
    67        155
    68         42
    69         46
    70         11
    71         18
    72         24
    74          3
    75          3
    76          4
    77        311
    78         67
    79        325
    80         83
    81        100
    82         35
    83         24
    84         14
    85        100
    86          7
    87          2
    89          6
    90          2
    91        461
    92        263
    93        999
    94        201
    95         79
    96         17
    97         39
    98          6
   102          5
   103         42
   104         25
   105        241
   106        109
   107        180
   108        141
   109         86
   110         32
   111        241
   112         61
   113          7
   115         31
   116          9
   117         81
   118         51
   119        415
   120        342
   121        466
   122        101
   123         26
   124         13
   128          7
   129          8
   130         11
   131         30
   132         34
   133         25
   134         69
   135        100
   136         27
   137         34
   138          3
   143          4
   145         99
   146         13
   147          7
   149         18
   150         15
   159          3
   160         25
   163         54
   164          5
   178         39
   179          6