##TITLE=Library Entry 26317
##JCAMP-DX=Revision 4.10 
##DATA TYPE=MASS SPECTRUM
##SAMPLE DESCRIPTION=H. Fales, LC, NHLBI, NIH, Bethesda, MD 20892
##NAMES=HP
##CAS NAME=Stearic acid, 3-hydroxy-2-[[N-[N-boc]amino-N-boc]amino]-
##MOLFORM=C30H58N2O7
##CAS REGISTRY NO=169324-77-0
##MP= -300
##BP= -300
##MW= 558
##$RETENTION INDEX=0
##$CONDENSED SPECTRUM=NO
##NPOINTS= 232
##XYDATA=(XY..XY) 1 
    41        157
    42         20
    43        126
    44         17
    45         44
    46          2
    47         10
    49         15
    51          6
    53          3
    54          6
    55         64
    56         37
    57        999
    58          6
    59         24
    60          3
    61          3
    62         37
    67         18
    68          8
    69         41
    70         12
    71         84
    72         20
    73         19
    74         12
    75          4
    76          3
    77          2
    79          4
    80          2
    81         18
    82          9
    83         26
    84         21
    85         13
    86         27
    87         14
    88         10
    89         73
    90          3
    91          1
    93          3
    94          2
    95         17
    96          7
    97         23
    98          7
    99         14
   100         10
   102        626
   103         30
   104          4
   105          1
   107          2
   108          1
   109          8
   110          2
   111          7
   112          2
   113          5
   115         39
   116         28
   117        162
   118         93
   119         10
   120          2
   121          3
   123          4
   124          1
   125          3
   127         13
   128          8
   129          5
   130         14
   131          9
   132          5
   133          7
   135          4
   137          1
   139          1
   141          2
   142          8
   143         17
   144         15
   145         13
   146          8
   147          4
   148          3
   149          2
   151          1
   154          1
   155          2
   157         36
   158         10
   159          2
   161         51
   162        601
   163         39
   164          6
   169          1
   170          2
   171          2
   172         14
   173         11
   174          5
   176          7
   184          1
   185          2
   188          6
   189         18
   190          3
   191          3
   192          2
   197          1
   199          2
   201          4
   202          3
   203          1
   206        422
   207         30
   208          5
   209          1
   216         10
   218         68
   219         11
   220          2
   222          1
   232          1
   233          1
   235         72
   236          6
   237          2
   239          3
   240          1
   241          5
   245          3
   248          3
   249          1
   250          1
   255          1
   262        275
   263         31
   264          7
   265         18
   266          6
   267         31
   268          9
   269          2
   270          2
   281          1
   283          9
   284          3
   285         11
   286          2
   287          1
   291         30
   292          4
   293          4
   294          1
   295          1
   297          1
   299          2
   300          1
   301          1
   307          1
   309          5
   311         35
   312          7
   313          1
   315          1
   316          1
   318        117
   319         16
   320          2
   322          5
   323          2
   324          2
   325          1
   327         25
   328          7
   329         47
   330          9
   331          1
   338          1
   339         10
   340         16
   341         17
   342          6
   343          2
   344          1
   347          3
   355          1
   356          2
   357         26
   358         51
   359         14
   360          1
   365          2
   373          2
   382          1
   383          6
   384         15
   385         24
   386          7
   387          2
   399          3
   400          2
   401         27
   402         31
   403          9
   404          1
   414          5
   415          1
   429         64
   430         14
   431          2
   443         10
   444          2
   445          2
   446          5
   447         35
   448          8
   449          1
   457          2
   458          9
   459          4
   503         12
   504          3
   558         14
   559          4