##TITLE=Library Entry 6994
##JCAMP-DX=Revision 4.10 
##DATA TYPE=MASS SPECTRUM
##SAMPLE DESCRIPTION=Japan AIST/NIMC Database- Spectrum MS-IW-2185
##NAMES=HP
##CAS NAME=trans-2-Heptenyl acetate
##MOLFORM=C9H16O2
##CAS REGISTRY NO=16939-73-4
##MP= -300
##BP= -300
##MW= 156
##$RETENTION INDEX=1427
##$CONDENSED SPECTRUM=NO
##NPOINTS= 74
##XYDATA=(XY..XY) 1 
    14          3
    15         29
    26          5
    27         97
    28         20
    29         65
    30          1
    31          6
    37          1
    38          5
    39        116
    40         17
    41        220
    42         68
    43        999
    44         45
    45         11
    50          4
    51         10
    52          7
    53         55
    54        449
    55        336
    56         50
    57        158
    58         33
    59          7
    60          2
    61         38
    62          1
    63          2
    65         11
    66         12
    67        202
    68         98
    69         48
    70         61
    71         87
    72         54
    73         19
    74          1
    77          5
    78          1
    79         13
    80          3
    81        257
    82         18
    83         12
    84          5
    85         33
    86         21
    87          6
    91          1
    93          2
    94          1
    95         46
    96        273
    97         51
    98         10
    99         36
   100         30
   101          8
   110          1
   111          3
   112          4
   113         54
   114        180
   115         15
   116          1
   127          4
   128          3
   141          2
   156          9
   157          1