##TITLE=Library Entry 71325
##JCAMP-DX=Revision 4.10 
##DATA TYPE=MASS SPECTRUM
##SAMPLE DESCRIPTION=Japan AIST/NIMC Database- Spectrum MS-IW-3658
##NAMES=HP
##CAS NAME=3-Hexylthiophene
##MOLFORM=C10H16S
##CAS REGISTRY NO=1693-86-3
##MP= -300
##BP= -300
##MW= 168
##$RETENTION INDEX=0
##$CONDENSED SPECTRUM=NO
##NPOINTS= 93
##XYDATA=(XY..XY) 1 
    15          1
    26          2
    27         38
    28          7
    29         34
    32          2
    38          4
    39         52
    40          4
    41         56
    42          5
    43         34
    44          3
    45         97
    46          3
    47          7
    50          4
    51         14
    52          5
    53         56
    54          3
    55         16
    56          3
    57          3
    58         11
    59          5
    60          1
    61          1
    62          1
    63          6
    64          1
    65         15
    66          6
    67         16
    68          1
    69         13
    70          6
    71         13
    72          1
    73          1
    77         23
    78          9
    79          9
    80          1
    81          2
    82          4
    83          2
    84         27
    85         47
    86          4
    87          3
    89          1
    91          8
    92          1
    93          4
    94          1
    95          3
    97        860
    98        999
    99        110
   100         50
   101          3
   105          3
   106          1
   107          2
   108          1
   109          9
   110         14
   111        205
   112         26
   113         12
   114          1
   119          1
   121          4
   122          1
   123          7
   124          2
   125         29
   126         16
   127          3
   128          1
   134          1
   135          2
   139         17
   140          5
   141          1
   153          1
   166          1
   167          1
   168        254
   169         29
   170         12
   171          1