##TITLE=Library Entry 14828
##JCAMP-DX=Revision 4.10 
##DATA TYPE=MASS SPECTRUM
##SAMPLE DESCRIPTION=LAC, NIDDK, NIH, Bethesda, MD 20892
##NAMES=HP
##CAS NAME=Pregn-5-en-20-one, 3,21-bis(acetyloxy)-, (3.beta.)-
##MOLFORM=C25H36O5
##CAS REGISTRY NO=1693-63-6
##MP= -300
##BP= -300
##MW= 416
##$RETENTION INDEX=0
##$CONDENSED SPECTRUM=NO
##NPOINTS= 108
##XYDATA=(XY..XY) 1 
    41         76
    43        999
    44         19
    47          3
    53         27
    55        139
    57         19
    65         14
    67         96
    68          4
    69         33
    71          6
    73         58
    77         46
    78          3
    79        116
    80          4
    81        193
    82          3
    83         21
    84         14
    86         16
    87          7
    91        130
    92         15
    93         93
    94          8
    95         66
    97          5
   101         27
   103         13
   104          4
   105        136
   106         22
   107        116
   108         17
   109         36
   115         16
   116          3
   117         51
   118         11
   119         72
   120         31
   121         73
   122          8
   123         11
   124          4
   128         25
   129         33
   130          9
   131         57
   132         13
   133         84
   134          9
   135         55
   137         11
   141         12
   142         13
   143         38
   144         17
   145        106
   146         14
   147         70
   148          4
   149         32
   151          3
   153          4
   155          9
   157         29
   158         13
   159         67
   160         23
   161         35
   163          3
   169          9
   171         22
   172          6
   173         22
   175         17
   183         11
   185         17
   187         13
   188          3
   189         15
   193         10
   197          8
   199         16
   211          9
   213         26
   226          3
   227          4
   235          3
   239          7
   253          8
   255        116
   256         26
   257          8
   263          7
   281         10
   283         47
   284          8
   296          6
   298          3
   341         27
   342          6
   356        285
   357         77
   358         11