##TITLE=Library Entry 11532
##JCAMP-DX=Revision 4.10 
##DATA TYPE=MASS SPECTRUM
##SAMPLE DESCRIPTION=Japan AIST/NIMC Database- Spectrum MS-IW-2352
##NAMES=HP
##CAS NAME=3-Chloro-2,4-pentanedione
##MOLFORM=C5H7ClO2
##CAS REGISTRY NO=1694-29-7
##MP= -300
##BP= -300
##MW= 134
##$RETENTION INDEX=0
##$CONDENSED SPECTRUM=NO
##NPOINTS= 85
##XYDATA=(XY..XY) 1 
    13          2
    14         13
    15        101
    16          1
    25          5
    26         28
    27        121
    28         33
    29         36
    30          1
    31          9
    35          3
    36         22
    37         16
    38         22
    39         50
    40          6
    41         20
    42         60
    43        999
    44         41
    45          8
    47          9
    48          8
    49         15
    50         10
    51         11
    52          3
    53         20
    54          8
    55        101
    56         27
    57         40
    58          3
    60          6
    61         19
    62          6
    63         30
    64          3
    65         10
    66          4
    67         12
    68          2
    69         21
    70          2
    71          3
    72          3
    73          8
    74          6
    75          9
    76         10
    77          5
    78          3
    79          1
    81          1
    82          1
    83         12
    84          5
    85         14
    87          5
    89          7
    91         35
    92        225
    93         18
    94         73
    95          2
    97          1
    98          2
    99         39
   100         11
   101          2
   103          2
   105          1
   116          5
   118          4
   119        933
   120         42
   121        303
   122         13
   123          1
   134        634
   135         36
   136        208
   137         11
   138          1