##TITLE=Library Entry 36338
##JCAMP-DX=Revision 4.10 
##DATA TYPE=MASS SPECTRUM
##SAMPLE DESCRIPTION=A.Pleshkova, Nesmeyanov Inst.Org.Elem.Cpds, Moscow
##NAMES=HP
##CAS NAME=1,1,1,5,5,5-Hexafluoro-2,4-pentanedione
##MOLFORM=C5H2F6O2
##CAS REGISTRY NO=1694-30-0
##MP= -300
##BP= -300
##MW= 208
##$RETENTION INDEX=0
##$CONDENSED SPECTRUM=NO
##NPOINTS= 20
##XYDATA=(XY..XY) 1 
    40         29
    41         29
    42         29
    43         29
    69        999
    70         11
    89         19
    91        118
    92          1
   119         88
   120         44
   121          2
   139        858
   140         49
   141          4
   149         44
   150          2
   208        176
   209         10
   210          1