##TITLE=Library Entry 40839
##JCAMP-DX=Revision 4.10 
##DATA TYPE=MASS SPECTRUM
##SAMPLE DESCRIPTION=NIST Mass Spectrometry Data Center, 2009
##NAMES=HP
##CAS NAME=(2-Ethoxyethoxy)acetic acid, TMS derivative
##MOLFORM=C9H20O4Si
##CAS REGISTRY NO=169597-16-4
##MP= -300
##BP= -300
##MW= 220
##$RETENTION INDEX=0
##$CONDENSED SPECTRUM=NO
##NPOINTS= 80
##XYDATA=(XY..XY) 1 
    15          7
    19          4
    26          4
    27         33
    28         25
    29         96
    30          7
    31         87
    33          1
    39          1
    41          9
    42         15
    43         83
    44         65
    45        581
    46         19
    47         39
    48          1
    49          2
    51          2
    53          2
    54          1
    55          7
    56          2
    57         14
    58         39
    59        135
    60         12
    61         26
    62          2
    66          1
    70          4
    72        213
    73        999
    74        101
    75        241
    76         18
    77         17
    78          1
    80         12
    85          3
    86         12
    87          6
    88         14
    89         23
    90          4
    91          5
    99          1
   101         27
   103        355
   104         37
   105         21
   106          2
   115         40
   116         26
   117         89
   118         13
   119          8
   130          9
   131         12
   132         10
   133         19
   134          2
   145          1
   146          7
   147         26
   148          6
   149          2
   159          1
   161         12
   162          2
   163          1
   174         37
   175         12
   176         11
   177          2
   178          1
   205          1
   220          3
   221          1