##TITLE=Library Entry 69534
##JCAMP-DX=Revision 4.10 
##DATA TYPE=MASS SPECTRUM
##SAMPLE DESCRIPTION=A. SAEED, DEP. CHEM., COLL. SCI., BASRAH UNIV., BASRAH,
 IRAQ
##NAMES=HP
##CAS NAME=N,N'-Bis[1-(ethoxycarbonyl)prop-1-en-2-yl]ethylenediamine
##MOLFORM=C14H24N2O4
##CAS REGISTRY NO=1695-79-0
##MP= -300
##BP= -300
##MW= 284
##$RETENTION INDEX=0
##$CONDENSED SPECTRUM=NO
##NPOINTS= 18
##XYDATA=(XY..XY) 1 
    40         50
    41        100
    42        120
    55         80
    68         80
    70         50
    71        190
    82        160
    84         50
    96        999
    97        150
   109         50
   130         80
   142        580
   143        200
   155        370
   239        100
   284         80