##TITLE=Library Entry 97085
##JCAMP-DX=Revision 4.10 
##DATA TYPE=MASS SPECTRUM
##SAMPLE DESCRIPTION=NIST Mass Spectrometry Data Center
##NAMES=HP
##CAS NAME=Trimethylsilyl tricosanoate
##MOLFORM=C26H54O2Si
##CAS REGISTRY NO=169597-18-6
##MP= -300
##BP= -300
##MW= 426
##$RETENTION INDEX=2732
##$CONDENSED SPECTRUM=NO
##NPOINTS= 135
##XYDATA=(XY..XY) 1 
    27          6
    29         26
    39         12
    41        126
    42         31
    43        304
    44         16
    45         25
    46          2
    47         12
    53          6
    54         16
    55        236
    56         60
    57        239
    58         19
    59         19
    61         25
    62          2
    67         52
    68         20
    69        161
    70         41
    71        102
    72         32
    73        919
    74         85
    75        539
    76         40
    77         23
    79         13
    81         51
    82         14
    83         99
    84         32
    85         47
    86          7
    87          7
    88          3
    89         18
    93         11
    95         40
    96         13
    97         65
    98         41
    99         16
   101          9
   105         13
   107          8
   108          3
   109         20
   110          6
   111         32
   112         18
   113          6
   114          3
   115          9
   116         56
   117        999
   118        101
   119         40
   120          3
   121         14
   123          9
   125         11
   126          3
   127          4
   128          4
   129        498
   130         64
   131         99
   132        658
   133        185
   134         38
   135         11
   137          4
   139          3
   140          3
   141          3
   143         29
   145        497
   146         63
   147         41
   149          6
   154          4
   155          3
   159         26
   160          4
   168          3
   171         24
   173          8
   174          8
   185         35
   186          7
   187         32
   188         11
   199          9
   201         79
   202         13
   213          8
   215          5
   227         13
   228          2
   241         14
   242          2
   243          9
   244          2
   255          9
   257          9
   258          2
   269         11
   270          3
   283         11
   285          5
   297          8
   311          8
   325          5
   327          7
   336          2
   342          4
   356          2
   367         28
   368         12
   369          9
   370          2
   383         27
   384          8
   385          3
   411        542
   412        165
   413         46
   414          7
   426        134
   427         43
   428         14