##TITLE=Library Entry 72224
##JCAMP-DX=Revision 4.10 
##DATA TYPE=MASS SPECTRUM
##SAMPLE DESCRIPTION=Patti Price, Georgia Bureau of Investigation, Decatur,
 Georgia
##NAMES=HP
##CAS NAME=Spectinomycin
##MOLFORM=C14H24N2O7
##CAS REGISTRY NO=1695-77-8
##MP= -300
##BP= -300
##MW= 332
##$RETENTION INDEX=0
##$CONDENSED SPECTRUM=NO
##NPOINTS= 116
##XYDATA=(XY..XY) 1 
    39         51
    40         17
    41        235
    42        345
    43        203
    44        365
    45        132
    46          6
    53         50
    54         33
    55        149
    56        128
    57        124
    58        336
    59        126
    60         45
    63         14
    67         29
    68        247
    69        183
    70        536
    71        157
    72        634
    73        996
    74        409
    75         24
    77          9
    80         35
    81         58
    82         83
    83         68
    84        218
    85        115
    86        936
    87        106
    88         18
    92         22
    94         96
    95         40
    96         54
    97         39
    98        712
    99        999
   100        657
   101         96
   102        142
   109         26
   110         76
   111         61
   112        131
   113         70
   114        286
   115         98
   116        460
   117         32
   120         27
   122         42
   123         34
   124         66
   125        215
   126         39
   127         83
   128        114
   129        224
   130         30
   132         44
   135         24
   138         38
   139         45
   140         75
   141        257
   142         37
   144         11
   151          6
   153         59
   154         16
   156         37
   157         19
   158         21
   159         17
   160         19
   162          9
   169         26
   170         43
   171         60
   172         11
   173         68
   174         18
   186         20
   187         74
   188         35
   190          6
   200         19
   202         13
   205          8
   212         22
   217         10
   228         76
   229          9
   230         74
   231         27
   232         14
   241        120
   242         53
   243         67
   244         15
   254         21
   259        104
   260         37
   283         12
   284         22
   285        247
   286         59
   287         23
   288         21
   332         19