##TITLE=Library Entry 97062
##JCAMP-DX=Revision 4.10 
##DATA TYPE=MASS SPECTRUM
##SAMPLE DESCRIPTION=NIST Mass Spectrometry Data Center
##NAMES=HP
##CAS NAME=Tridecanoic acid, TMS derivative
##MOLFORM=C16H34O2Si
##CAS REGISTRY NO=169597-14-2
##MP= -300
##BP= -300
##MW= 286
##$RETENTION INDEX=1750
##$CONDENSED SPECTRUM=NO
##NPOINTS= 171
##XYDATA=(XY..XY) 1 
    15          1
    26          1
    27         32
    28          8
    29         85
    30          3
    31          2
    39         32
    40          7
    41        230
    42         52
    43        255
    44         23
    45         93
    46          7
    47         42
    48          3
    49          2
    50          1
    51          2
    52          1
    53         18
    54         16
    55        252
    56         45
    57         87
    58         25
    59         35
    60         11
    61         65
    62          4
    63          2
    65          3
    66          1
    67         36
    68         10
    69         81
    70         18
    71         20
    72         41
    73        942
    74        101
    75        822
    76         57
    77         35
    78          2
    79         13
    80          2
    81         44
    82          7
    83         41
    84         23
    85         17
    86         13
    87         11
    88          9
    89         25
    90          5
    91          8
    92          1
    93         11
    94          2
    95         46
    96          6
    97         38
    98         34
    99         24
   100          3
   101         16
   102          3
   103          4
   105         26
   106          3
   107          6
   108          1
   109         13
   110          2
   111         15
   112          9
   113          4
   114          2
   115          9
   116         76
   117        999
   118         98
   119         41
   120          2
   121          5
   122          1
   123          3
   124          1
   125          5
   126          2
   127          3
   129        469
   130         57
   131        153
   132        377
   133         65
   134         18
   135          5
   137          1
   139          2
   140          4
   141          3
   142          2
   143         29
   145        206
   146         26
   147          9
   149          1
   151          1
   152          1
   153          4
   154          3
   155          2
   156          1
   157         12
   158          2
   159         23
   160          4
   161          1
   163          1
   167          2
   168          1
   169          1
   171         18
   172          3
   173          6
   174          3
   177          1
   178          1
   181          1
   185         23
   186          4
   187         21
   188          4
   189          1
   196          1
   197          1
   199          6
   200          2
   201         40
   202          6
   203          2
   213          3
   214          1
   215          4
   216          1
   227         29
   228          6
   229          6
   230          1
   241          3
   242          1
   243         23
   244          5
   245          1
   255          1
   257          7
   258          2
   268          1
   269          1
   271        617
   272        131
   273         35
   274          5
   285          3
   286         24
   287          5
   288          1