##TITLE=Library Entry 7634
##JCAMP-DX=Revision 4.10 
##DATA TYPE=MASS SPECTRUM
##SAMPLE DESCRIPTION=V.G.Zaikin, Petrochem. Synth. Inst., Moscow
##NAMES=HP
##CAS NAME=Acetic acid, trichloro-, octyl ester
##MOLFORM=C10H17Cl3O2
##CAS REGISTRY NO=16958-78-4
##MP= -300
##BP= -300
##MW= 274
##$RETENTION INDEX=1575
##$CONDENSED SPECTRUM=NO
##NPOINTS= 60
##XYDATA=(XY..XY) 1 
    25          9
    26         48
    27        239
    28         68
    29        385
    30         18
    31         13
    35         22
    36         79
    37         13
    38         46
    39        237
    40         61
    41        869
    42        409
    43        999
    44        159
    45          9
    47         41
    48         14
    49         19
    50         12
    51         19
    52         16
    53         47
    54         68
    55        699
    56        766
    57        969
    58         45
    63         19
    65          8
    66          7
    67         63
    68        182
    69        554
    70        667
    71        597
    72         38
    76          8
    77         12
    79         13
    81         18
    82         92
    83        405
    84        528
    85         46
    86          9
    87          7
    97         41
    98          6
   110         65
   111         25
   112         93
   113         10
   117         99
   118          7
   119        103
   120          7
   121         33