##TITLE=Library Entry 93752
##JCAMP-DX=Revision 4.10 
##DATA TYPE=MASS SPECTRUM
##SAMPLE DESCRIPTION=NIST Mass Spectrometry Data Center, 1990.
##NAMES=HP
##CAS NAME=1-Phenyl-1-octyne
##MOLFORM=C14H18
##CAS REGISTRY NO=16967-02-5
##MP= -300
##BP= -300
##MW= 186
##$RETENTION INDEX=0
##$CONDENSED SPECTRUM=NO
##NPOINTS= 77
##XYDATA=(XY..XY) 1 
    14          2
    26         10
    27        115
    28        107
    29        124
    32         24
    38          9
    39        121
    40         20
    41        160
    42         18
    43        109
    50         38
    51         75
    52         17
    53         20
    54          9
    55         35
    62         43
    63        139
    64         22
    65        109
    66         17
    67         55
    68         11
    69         19
    74         37
    75         48
    76         49
    77        105
    78         29
    79         53
    80          8
    81         10
    82         17
    86         18
    87         29
    88         46
    89        182
    90          8
    91        336
    92         27
    93         16
    94          8
    95         67
   101         21
   102        233
   103         50
   104         86
   105         24
   113         36
   115        999
   116        179
   117        622
   118         78
   119          6
   126         25
   127        127
   128        469
   129        503
   130        191
   131         36
   132          6
   139          8
   141         67
   142         76
   143        468
   144        192
   145         33
   152          8
   153          8
   155          9
   157        110
   158         23
   171          9
   186        215
   187         36