##TITLE=Library Entry 27237
##JCAMP-DX=Revision 4.10 
##DATA TYPE=MASS SPECTRUM
##SAMPLE DESCRIPTION=Japan AIST/NIMC Database- Spectrum MS-IW-2322
##NAMES=HP
##CAS NAME=tert-Butyl 2,4,5-trichlorophenyl carbonate
##MOLFORM=C11H11Cl3O3
##CAS REGISTRY NO=16965-08-5
##MP= -300
##BP= -300
##MW= 296
##$RETENTION INDEX=0
##$CONDENSED SPECTRUM=NO
##NPOINTS= 170
##XYDATA=(XY..XY) 1 
    12          2
    14          1
    15          8
    16          3
    18          1
    25          2
    26         10
    27         60
    28         58
    29        129
    30          3
    35          4
    36         16
    37         28
    38         28
    39        185
    40         44
    41        618
    42         31
    43         43
    44        362
    45         59
    46          2
    47          7
    48         34
    49         25
    50         32
    51         23
    52          6
    53         45
    54         10
    55        104
    56        261
    57        999
    58         61
    59         15
    60         14
    61         55
    62         85
    63         34
    64          2
    65          3
    66         21
    67         11
    68          2
    71          8
    72         28
    73         48
    74         27
    75         12
    76          2
    77          2
    80         12
    81          8
    82          2
    83         27
    84         13
    85         18
    86          5
    87          9
    89          4
    90          5
    91         12
    92          8
    94          1
    95          5
    96         24
    97        267
    98         45
    99        106
   100         14
   101          3
   102          1
   106          2
   107         47
   108         14
   109         44
   110          6
   111          9
   117          2
   118          2
   119          4
   120          2
   121          2
   123          1
   124          2
   125          6
   126          4
   127          2
   128          1
   131          9
   132        172
   133         94
   134        113
   135         57
   136         20
   137          9
   138          1
   140          1
   141          1
   142          1
   143         20
   144         16
   145         14
   146          9
   147          4
   148          2
   149          1
   160         33
   161         11
   162         32
   163          8
   164          9
   165          2
   166          1
   167         54
   168          5
   169         52
   170          5
   171         16
   172          1
   173          2
   174          1
   175          1
   177          1
   178          1
   179        119
   180          9
   181        113
   182          8
   183         35
   184          2
   185          4
   189          1
   192          1
   194          1
   195          9
   196        812
   197         67
   198        786
   199         57
   200        250
   201         17
   202         27
   203          2
   210          1
   212          1
   214          1
   223         89
   224          7
   225         85
   226          6
   227         26
   228          2
   229          3
   237          9
   238          1
   239          9
   240          1
   241          7
   242          1
   243          4
   245          1
   281         37
   282          4
   283         35
   284          4
   285         10
   286          1
   287          1