##TITLE=Library Entry 24144
##JCAMP-DX=Revision 4.10 
##DATA TYPE=MASS SPECTRUM
##SAMPLE DESCRIPTION=Japan AIST/NIMC Database- Spectrum MS-NW-6400
##NAMES=HP
##CAS NAME=Morpholine, 4-acetyl-
##MOLFORM=C6H11NO2
##CAS REGISTRY NO=1696-20-4
##MP= -300
##BP= -300
##MW= 129
##$RETENTION INDEX=1133
##$CONDENSED SPECTRUM=NO
##NPOINTS= 70
##XYDATA=(XY..XY) 1 
    12          2
    13          3
    14         20
    15        158
    16          3
    17          9
    18         36
    19          1
    25          2
    26         33
    27        100
    28        223
    29        205
    30        155
    31         25
    32          1
    36          4
    38          3
    39          7
    40         12
    41         49
    42        180
    43        828
    44         63
    45         27
    46          2
    51          2
    52          6
    53          2
    54         31
    55         57
    56        557
    57        999
    58         76
    59         23
    60          3
    64          3
    66          1
    67          1
    68          6
    69         16
    70         45
    71         33
    72         92
    73          7
    74          1
    83          2
    84          6
    85         21
    86        456
    87        145
    88          9
    89          1
    98         15
    99         57
   100         18
   101         19
   102          2
   105          1
   108          1
   110          1
   112          3
   114        204
   115         14
   116          2
   127          1
   128         13
   129        392
   130         31
   131          3