##TITLE=Library Entry 79519
##JCAMP-DX=Revision 4.10 
##DATA TYPE=MASS SPECTRUM
##SAMPLE DESCRIPTION=CARL DJERASSI DEPT OF CHEM STANFORD UNIV STANFORD CALIF
 94305
##NAMES=HP
##CAS NAME=Rebemide
##MOLFORM=C11H15NO
##CAS REGISTRY NO=1696-17-9
##MP= -300
##BP= -300
##MW= 177
##$RETENTION INDEX=1456
##$CONDENSED SPECTRUM=NO
##NPOINTS= 16
##XYDATA=(XY..XY) 1 
    42         20
    44         10
    50         20
    51         80
    56         10
    76         10
    77        340
    78         30
   105        999
   106         80
   134         20
   148         30
   162         10
   176        280
   177        130
   178         20