##TITLE=Library Entry 59373
##JCAMP-DX=Revision 4.10 
##DATA TYPE=MASS SPECTRUM
##SAMPLE DESCRIPTION=Exported from NIST MS Search
##NAMES=HP
##CAS NAME=3-Tridecanone, 7-methyl-13-phenyl-
##MOLFORM=C20H32O
##CAS REGISTRY NO=16964-45-7
##MP= -300
##BP= -300
##MW= 288
##$RETENTION INDEX=0
##$CONDENSED SPECTRUM=NO
##NPOINTS= 128
##XYDATA=(XY..XY) 1 
    41        200
    42         33
    43        209
    44         47
    52         19
    53         23
    54         28
    55        190
    56        109
    57        657
    58         47
    59         38
    60         23
    63         14
    64         14
    65         80
    66         19
    67         57
    68         23
    69         95
    70         33
    71         47
    72        333
    73        133
    74         23
    75         23
    76         23
    77         38
    78         19
    79         28
    80         28
    81         66
    82         38
    83         85
    84         47
    85        161
    86         38
    87          4
    88          9
    89         14
    90         19
    91        999
    92        176
    93         47
    94         38
    95         85
    96         33
    97         47
    98          9
    99          9
   100          9
   101          9
   102         14
   103         14
   104         19
   105        252
   106         57
   107         14
   108          9
   109         14
   110          9
   112          4
   113          9
   114         14
   115         19
   116         19
   117         61
   118         28
   119         61
   120          9
   121         14
   122         28
   123         80
   124         19
   125         19
   128         14
   129         19
   130         57
   131        114
   132         61
   133         38
   134         19
   137         28
   138         19
   139          9
   143         19
   144         19
   145         38
   146         14
   147         38
   148         14
   149         23
   157          4
   158         19
   159         38
   172          9
   173          9
   174         33
   175         19
   176         14
   177         14
   187          4
   188          9
   189          9
   190         33
   199         33
   200          9
   201          9
   214         71
   215         47
   216         85
   217         19
   218         19
   225          9
   226          9
   227         14
   228         23
   239         19
   240         23
   241         33
   259         33
   270         33
   271         19
   272         19
   273         14
   288         38
   289         28
   290         19