##TITLE=Library Entry 18934
##JCAMP-DX=Revision 4.10 
##DATA TYPE=MASS SPECTRUM
##SAMPLE DESCRIPTION=Humboldt-Universitat zu Berlin, Department of Chemistry
, Analytical Group
##NAMES=HP
##CAS NAME=N-Paratrimethylsilylbenzoyl-O-2-methylprop-2-en-1-yl-hydroxylamin
##MOLFORM=C14H21NO2Si
##CAS REGISTRY NO=169773-35-7
##MP= -300
##BP= -300
##MW= 263
##$RETENTION INDEX=0
##$CONDENSED SPECTRUM=NO
##NPOINTS= 172
##XYDATA=(XY..XY) 1 
    12          2
    13          2
    14          7
    15         30
    16          7
    17         35
    18        132
    19          2
    20          2
    26         14
    27        260
    28         79
    29        589
    30         30
    31         38
    32          3
    37          4
    39        279
    40         37
    41         83
    42         29
    43        223
    44         75
    45        116
    46         11
    47          8
    50         10
    51         25
    52         13
    53        124
    55        999
    56         54
    57         69
    58         28
    59         55
    60         11
    61         10
    62          2
    63         12
    64          8
    65         22
    66         14
    67         26
    68         12
    69         36
    70         59
    71         27
    72        108
    73        214
    74         36
    75         64
    76         11
    77         35
    78         12
    79         20
    80          8
    81         20
    82          7
    83         28
    84         18
    85         10
    86          8
    87          4
    89          9
    90          7
    91         69
    92         14
    93         30
    94          9
    95         15
    96         16
    97         13
    98          8
    99          3
   100         11
   101          2
   102          3
   103         10
   104          9
   105         32
   106         28
   107         40
   108         14
   109         10
   110          7
   111          3
   112          3
   113          3
   114          2
   115          5
   116          4
   117          7
   118          9
   119         28
   120         23
   121         29
   122         96
   123         15
   124          6
   125          2
   126          2
   127          2
   128          4
   129          5
   130          9
   131         12
   132         36
   133         21
   134         61
   135         19
   136          8
   137          4
   138          2
   139          1
   143          2
   144         10
   145          7
   146         17
   147         12
   148         60
   149        127
   150         48
   151         11
   152          2
   156          1
   158          1
   159          2
   160          9
   161          3
   162         18
   163          8
   164         38
   165          9
   166          2
   171          1
   172          1
   173          1
   174          3
   176        144
   177         38
   178         31
   179          8
   180          2
   187          1
   188          2
   189          1
   190          2
   191          4
   192          7
   193          2
   194         12
   195          2
   202          1
   204        124
   205         24
   206          8
   207          3
   208          1
   217          2
   218          1
   219          1
   232          1
   233          1
   234          1
   248        282
   249         57
   250         16
   251          2
   263        121
   264         27
   265          8
   266          2