##TITLE=Library Entry 29631
##JCAMP-DX=Revision 4.10 
##DATA TYPE=MASS SPECTRUM
##SAMPLE DESCRIPTION=J. Klune, Insect Chem. Ecol. Lab., USDA, Beltsville, MD
 20705
##NAMES=HP
##CAS NAME=Ethyl decyl ether
##MOLFORM=C12H26O
##CAS REGISTRY NO=16979-29-6
##MP= -300
##BP= -300
##MW= 186
##$RETENTION INDEX=0
##$CONDENSED SPECTRUM=NO
##NPOINTS= 86
##XYDATA=(XY..XY) 1 
    41        507
    42        153
    43        446
    44         35
    45         56
    47        367
    48          8
    49          1
    51          3
    52          1
    53         28
    54         41
    55        372
    56        332
    57        318
    58         26
    59        999
    60         41
    61         13
    63          2
    65          4
    66          4
    67         51
    68        214
    69        294
    70        404
    71        146
    72         14
    73          9
    74          7
    75          5
    77          3
    78          0
    79          5
    80          1
    81         20
    82        242
    83        413
    84        250
    85        115
    86          8
    87          3
    88         11
    89          1
    91          5
    93          1
    95          7
    96         54
    97        234
    98        103
    99         22
   100          1
   101         20
   102          1
   108          1
   109          2
   110         20
   111        137
   112        187
   113         17
   114          0
   115          4
   125          6
   126          5
   127          1
   129          2
   138          3
   139          4
   140        278
   141         38
   142          2
   143          8
   144          0
   154          1
   155          7
   157          3
   168          6
   169          1
   171          3
   172          2
   173          3
   184          3
   185         15
   186         91
   187         11
   188          0