##TITLE=Library Entry 83984
##JCAMP-DX=Revision 4.10 
##DATA TYPE=MASS SPECTRUM
##SAMPLE DESCRIPTION=James Little,Eastman Chem.Co.,Kingsport,TN
##NAMES=HP
##CAS NAME=1H-Imidazole, 1-methyl-2-vinyl-
##MOLFORM=C6H8N2
##CAS REGISTRY NO=16975-71-6
##MP= -300
##BP= -300
##MW= 108
##$RETENTION INDEX=0
##$CONDENSED SPECTRUM=NO
##NPOINTS= 32
##XYDATA=(XY..XY) 1 
    27        329
    37         79
    38        120
    39        282
    40        270
    41        162
    42        277
    51         70
    52        166
    53        143
    54        348
    55        105
    56         28
    65         28
    66        127
    67         56
    68         42
    69         11
    78          7
    79         25
    80         92
    81        112
    82         93
    83          5
    92         13
    93         33
    95          8
    96          9
   106         38
   107        999
   108        871
   109         61