##TITLE=Library Entry 34249
##JCAMP-DX=Revision 4.10 
##DATA TYPE=MASS SPECTRUM
##SAMPLE DESCRIPTION=JIM LAWLESS AMES RESEARCH CTR NASA MOFFETT FIELD, CALIF
 94035
##NAMES=HP
##CAS NAME=Isoleucine, N-(trifluoroacetyl)-, sec-butyl ester, L-
##MOLFORM=C12H20F3NO3
##CAS REGISTRY NO=16974-97-3
##MP= -300
##BP= -300
##MW= 283
##$RETENTION INDEX=0
##$CONDENSED SPECTRUM=NO
##NPOINTS= 88
##XYDATA=(XY..XY) 1 
    40         23
    41        718
    42         29
    43         28
    44         13
    45         16
    46          1
    47          4
    49          5
    50         15
    51          5
    52          7
    53         44
    54         19
    55         93
    56        209
    57        662
    58         34
    59          8
    62          3
    63         10
    65          2
    66          1
    67         13
    68         19
    69        999
    70         72
    71          9
    72          1
    73         13
    74         10
    75          1
    76          1
    77          2
    78         16
    79          4
    81          4
    82          1
    83          2
    84         20
    86          1
    91          1
    92          2
    94          1
    95          4
    96         17
    97         10
    98          6
    99          6
   101          1
   106          1
   112          4
   113          8
   114         99
   115          9
   119          0
   125         16
   126         82
   127          1
   130         13
   138          3
   140         19
   141          6
   149          4
   152          9
   153        238
   154        121
   155         16
   158          7
   166          6
   168         26
   169          1
   170          6
   171        212
   172          8
   173          1
   180         10
   181          4
   182        538
   183         95
   184         10
   198          2
   208          2
   210         24
   211          2
   212          2
   227          2
   228          1