##TITLE=Library Entry 8438
##JCAMP-DX=Revision 4.10 
##DATA TYPE=MASS SPECTRUM
##SAMPLE DESCRIPTION=Vladimir Zaikin, TIPS RAS, Moscow, Russia
##NAMES=HP
##CAS NAME=9-Dodecen-1-ol, acetate, (Z)-
##MOLFORM=C14H26O2
##CAS REGISTRY NO=16974-11-1
##MP= -300
##BP= -300
##MW= 226
##$RETENTION INDEX=1611
##$CONDENSED SPECTRUM=NO
##NPOINTS= 74
##XYDATA=(XY..XY) 1 
    30         20
    31         21
    37         35
    38         50
    39        400
    40        100
    41        441
    42        235
    43        999
    44         80
    45         81
    49         10
    50         41
    51         60
    52         40
    53        155
    54        335
    55        661
    56        165
    57         65
    58         20
    60         60
    61        110
    62         15
    63         25
    64         11
    65         55
    66        105
    67        765
    68        845
    69        365
    70         73
    71         35
    73         25
    77         45
    78         31
    79        105
    80         65
    81        540
    82        805
    83        161
    84         35
    85         21
    91         30
    92         15
    93         31
    94         35
    95        361
    96        341
    97        109
    98         25
    99         10
   101         10
   105         10
   107         20
   108         20
   109        151
   110        181
   111         63
   112         15
   115         11
   121         15
   122         10
   123         85
   124         75
   125         21
   137         50
   138         35
   152         10
   165         15
   166        150
   167         35
   226         65
   227         10