##TITLE=Library Entry 35136
##JCAMP-DX=Revision 4.10 
##DATA TYPE=MASS SPECTRUM
##SAMPLE DESCRIPTION=JIM LAWLESS AMES RESEARCH CTR NASA MOFFETT FIELD, CALIF
 94035
##NAMES=HP
##CAS NAME=L-Leucine, N-(trifluoroacetyl)-, 1-methylpropyl ester
##MOLFORM=C12H20F3NO3
##CAS REGISTRY NO=16974-96-2
##MP= -300
##BP= -300
##MW= 283
##$RETENTION INDEX=0
##$CONDENSED SPECTRUM=NO
##NPOINTS= 96
##XYDATA=(XY..XY) 1 
    40         14
    41        617
    42         37
    43        397
    44         38
    45         27
    46          7
    47          7
    49          0
    50         11
    51         16
    52          9
    53         42
    54         17
    55        100
    56        208
    57        763
    58         26
    59         10
    62          6
    63         12
    64          2
    65         13
    66          7
    67         15
    68         27
    69        999
    70         97
    71         14
    72          5
    73         13
    74         11
    76          2
    77          2
    78         10
    79          3
    81          7
    82          6
    83          1
    86          1
    91          4
    92          5
    93          5
    95          7
    96          9
    97         11
    98         12
    99         15
   110          1
   112          9
   113         14
   114         78
   115          5
   121          5
   125         10
   126         54
   127          3
   130         13
   138          5
   139         37
   140        639
   141         36
   142          3
   148          0
   149          5
   150          1
   151          2
   152          7
   153         70
   154          7
   158          7
   164          3
   165          2
   166         54
   167          7
   168        102
   169          6
   170          8
   171         62
   172          5
   173          2
   180         15
   181          6
   182        499
   183        392
   184         32
   185          4
   208         19
   209          6
   210        112
   211         13
   212         44
   213          2
   226          6
   227         13
   228          7