##TITLE=Library Entry 8388
##JCAMP-DX=Revision 4.10 
##DATA TYPE=MASS SPECTRUM
##SAMPLE DESCRIPTION=NIST Mass Spectrometry Data Center, 1998.
##NAMES=HP
##CAS NAME=cis-7-Tetradecen-1-yl acetate
##MOLFORM=C16H30O2
##CAS REGISTRY NO=16974-10-0
##MP= -300
##BP= -300
##MW= 254
##$RETENTION INDEX=1792
##$CONDENSED SPECTRUM=NO
##NPOINTS= 116
##XYDATA=(XY..XY) 1 
    14          1
    15         10
    26          3
    27         60
    28         14
    29        123
    30          4
    31          6
    37          1
    38          2
    39        110
    40         22
    41        531
    42        110
    43        999
    44         31
    45          7
    50          2
    51          9
    52          8
    53         98
    54        478
    55        717
    56        129
    57        103
    58          8
    59          2
    60          2
    61         80
    62          2
    63          2
    64          1
    65         35
    66         74
    67        868
    68        433
    69        412
    70         72
    71         39
    72          4
    73         25
    74          1
    77         32
    78          9
    79        116
    80         68
    81        789
    82        833
    83        273
    84         32
    85         12
    86          3
    87          3
    88          1
    91         18
    92          3
    93         31
    94         32
    95        555
    96        647
    97        149
    98         17
    99          4
   100          1
   101          2
   103          1
   105          3
   106          1
   107         10
   108         13
   109        318
   110        249
   111         47
   112         14
   113          3
   114          1
   115          1
   116          1
   119          1
   121          5
   122          9
   123        114
   124        112
   125         17
   126          5
   127          2
   128          2
   129          1
   135          2
   136          5
   137         70
   138         82
   139          9
   140          1
   141          1
   142          3
   143          1
   149          1
   150          1
   151         20
   152         18
   153          3
   155          1
   156          1
   165          8
   166         35
   167          6
   168          1
   169          1
   179          1
   181          1
   183          1
   194        136
   195         21
   196          2
   211          1