##TITLE=Library Entry 30899
##JCAMP-DX=Revision 4.10 
##DATA TYPE=MASS SPECTRUM
##SAMPLE DESCRIPTION=A. SELVA POLITECNICO DI MILANO, MILAN, ITALY
##NAMES=HP
##CAS NAME=2H-Pyran-2-acetamide, N-[[6-(2,3-dimethoxypropyl)tetrahydro-5,5-d
imethyl-4-oxo-2H-pyran-2-yl]methoxymethyl]tetrahydro-.alpha.-hydroxy-2-metho
xy-5,6-dimethyl-4-methylene-
##MOLFORM=C25H43NO9
##CAS REGISTRY NO=16982-79-9
##MP= -300
##BP= -300
##MW= 501
##$RETENTION INDEX=0
##$CONDENSED SPECTRUM=NO
##NPOINTS= 180
##XYDATA=(XY..XY) 1 
    31        450
    38         10
    39        110
    40         30
    41        540
    42        110
    43        540
    44         40
    45        650
    46         20
    47         10
    50         20
    51         40
    52         20
    53        120
    54         50
    55        300
    56        250
    57        150
    58         70
    59        360
    60        999
    61         20
    62         10
    63         30
    64         10
    65         40
    66         20
    67        160
    68         50
    69        350
    70        120
    71        650
    72         80
    73         40
    74         20
    75         30
    77         70
    78         10
    79        120
    80         30
    81        280
    82         70
    83         80
    84         40
    85         70
    86        150
    87         50
    88         30
    89        430
    90         10
    91         70
    92         20
    93        120
    94         40
    95        600
    96        100
    97         70
    98         40
    99         50
   100        110
   101         70
   102         15
   103         20
   105         20
   107         80
   108         30
   109        170
   110         40
   111         80
   112         50
   113         80
   114         30
   115        240
   116         20
   117         10
   119         15
   121         60
   122         20
   123        270
   124         80
   125        150
   126         70
   127         70
   128         10
   129         10
   131         10
   132         70
   133         40
   134         10
   135         50
   136         40
   137        150
   138        110
   139         50
   140         70
   141         30
   142         30
   143         20
   144         10
   145         10
   147         20
   149         60
   150         20
   151         50
   152         80
   153        230
   154        200
   155        650
   156         70
   157         10
   158         10
   159         10
   163         70
   164        180
   165        200
   166         20
   167         40
   168         10
   169         20
   171         20
   177         10
   178         20
   179         10
   180        110
   181         80
   182         10
   183          5
   184          5
   185         20
   186          5
   192         60
   193         10
   194         70
   195         20
   196         30
   197         30
   207         10
   208        320
   209         70
   210         20
   211          5
   212         20
   222        110
   223         20
   224         10
   227         30
   228         10
   229         30
   240        280
   241         70
   242         20
   257         40
   258         70
   259         15
   262         10
   272         20
   273         80
   274         10
   294         20
   295          5
   305         10
   312         25
   313          5
   334          5
   342          5
   360         10
   366         10
   374         40
   375         10
   392         20
   393         10
   406          5
   424          5
   425         15
   437        130
   438         50
   439         10
   452          0
   469          0