##TITLE=Library Entry 30934
##JCAMP-DX=Revision 4.10 
##DATA TYPE=MASS SPECTRUM
##SAMPLE DESCRIPTION=T.-C.Huang ET AL.J.Agr.Food Chem.,46,224(1998)
##NAMES=HP
##CAS NAME=Thiazole, 2-ethyl-4,5-dihydro-
##MOLFORM=C5H9NS
##CAS REGISTRY NO=16982-46-0
##MP= -300
##BP= -300
##MW= 115
##$RETENTION INDEX=941
##$CONDENSED SPECTRUM=NO
##NPOINTS= 32
##XYDATA=(XY..XY) 1 
    40        132
    41        148
    42         22
    43        177
    44         69
    45        565
    46        220
    47         45
    50         10
    51         24
    52         57
    54        220
    56        144
    57         65
    58        189
    59        612
    60        999
    61        103
    62         29
    68         43
    69        249
    71         24
    83         62
    84         22
    87         31
    88         67
    89        213
    90         19
   114         50
   115        495
   116         50
   117         72