##TITLE=Library Entry 47767
##JCAMP-DX=Revision 4.10 
##DATA TYPE=MASS SPECTRUM
##SAMPLE DESCRIPTION=Japan AIST/NIMC Database- Spectrum MS-NW-6723
##NAMES=HP
##CAS NAME=3(2H)-Pyridazinone, 4,5-dichloro-2-phenyl-
##MOLFORM=C10H6Cl2N2O
##CAS REGISTRY NO=1698-53-9
##MP= -300
##BP= -300
##MW= 240
##$RETENTION INDEX=0
##$CONDENSED SPECTRUM=NO
##NPOINTS= 123
##XYDATA=(XY..XY) 1 
    24          1
    25          1
    26          4
    27         20
    28          9
    35          3
    36          7
    37         37
    38         32
    39         45
    40          6
    41          8
    44          1
    47          7
    49          4
    50         48
    51        208
    52         20
    53          3
    59          5
    60          3
    61          5
    62         11
    63         45
    64         62
    65         29
    66          2
    71          4
    72         47
    73          7
    74         21
    75         11
    76         11
    77        999
    78         67
    79          2
    82          1
    84          1
    85          7
    86         10
    87         26
    88          6
    89          8
    90          9
    91         69
    92          7
    93          2
    94         13
    95          1
    96          9
    97          2
    98          2
    99          2
   100          8
   101          1
   102          3
   103          1
   104          4
   105        115
   106          9
   107         97
   108          4
   109         66
   110          3
   111         11
   112          4
   113          6
   114         17
   115          5
   116          9
   117          1
   118          1
   119          9
   120          9
   121          5
   122          4
   123          7
   124          6
   125          3
   126          2
   135          5
   137          3
   138          2
   140          1
   141          5
   142         30
   143          3
   145          3
   148          2
   149         34
   150         33
   151         17
   152         10
   153          2
   169          2
   176          5
   177         21
   178          7
   179          6
   180          2
   183          1
   185          2
   186          6
   187          1
   188          3
   205         20
   206          3
   207          6
   208          1
   211          1
   212         22
   213          3
   214         14
   215          2
   216          2
   238          3
   239        206
   240        361
   241        171
   242        230
   243         48
   244         38
   245          4