##TITLE=Library Entry 7462
##JCAMP-DX=Revision 4.10 
##DATA TYPE=MASS SPECTRUM
##SAMPLE DESCRIPTION=A. SELVA POLYTECNICO DI MILANO, MILAN, ITALY
##NAMES=HP
##CAS NAME=2-Cyclohexene-1-carboxylic acid, 1,3-dimethyl-2-(3-methyl-7-oxo-1
,3-octadienyl)-4-oxo-, methyl ester, (+)-
##MOLFORM=C19H26O4
##CAS REGISTRY NO=16981-58-1
##MP= -300
##BP= -300
##MW= 318
##$RETENTION INDEX=0
##$CONDENSED SPECTRUM=NO
##NPOINTS= 214
##XYDATA=(XY..XY) 1 
    15         80
    17         10
    18         50
    26          5
    27         70
    28         37
    29         80
    30          5
    31         40
    32          3
    39         80
    40         20
    41        160
    42         30
    43        999
    44         40
    45         35
    51         20
    52         10
    53         80
    54         20
    55        220
    56         15
    57         40
    58         30
    59        110
    60          5
    63         10
    64          5
    65         45
    66         10
    67         60
    68         20
    69         60
    70         10
    71         30
    72         40
    73          5
    74         20
    75          5
    77         90
    78         20
    79         80
    80         25
    81         60
    82         25
    83         30
    84         35
    85         50
    86          5
    87         30
    88          5
    89          5
    91        120
    92         20
    93         90
    94         20
    95         70
    96         20
    97         10
    98          5
    99         35
   100          5
   101         20
   102          5
   103         20
   104         10
   105         80
   106         15
   107         40
   108         20
   109         30
   110          5
   111         10
   112          5
   113         10
   114         15
   115         50
   116         20
   117         40
   118         10
   119         80
   120         10
   121         50
   122         90
   123         50
   124         10
   125         10
   126          5
   127         10
   128         25
   129         30
   130         15
   131         50
   132         20
   133         50
   134         20
   135         80
   136         30
   137         30
   138         10
   139         10
   140          5
   141         15
   142         10
   143         30
   144         15
   145         70
   146         20
   147         90
   148         30
   149         60
   150         25
   151         20
   152         10
   153          5
   154         10
   155         10
   156         10
   157         35
   158         20
   159         80
   160         30
   161         45
   162         20
   163        190
   164         25
   165         10
   166          5
   167         10
   168          5
   169          5
   170          5
   171         25
   172         15
   173         80
   174         20
   175         40
   176         20
   177         20
   178         10
   179         20
   180          5
   181         15
   182         15
   183         40
   184          5
   185         30
   186         10
   187         35
   188         10
   189         15
   190          5
   191         30
   192         25
   193         15
   194         35
   195         10
   196          5
   197         50
   198         15
   199         15
   200         20
   201         60
   202         10
   203         10
   207         70
   208         10
   209          5
   213         10
   214          5
   215         60
   216         15
   217         10
   218          5
   219          5
   221         10
   222         10
   223          5
   225         10
   227          5
   228          5
   229          5
   230          5
   231          5
   232          5
   233          5
   234          5
   235          5
   236         10
   241         10
   242          5
   243         15
   244          5
   245          5
   247         10
   249          5
   250         30
   251         10
   252          5
   257          5
   258         10
   259         10
   260         15
   261         10
   262          5
   275         30
   276         10
   287         10
   288          5
   303          5
   318        120
   319         30
   320         10