##TITLE=Library Entry 47748
##JCAMP-DX=Revision 4.10 
##DATA TYPE=MASS SPECTRUM
##SAMPLE DESCRIPTION=A.A.Kutin, Moscow, Russia
##NAMES=HP
##CAS NAME=Pyridazin-3(2H)-one, 4-chloro-5-methylamino-2-phenyl-
##MOLFORM=C11H10ClN3O
##CAS REGISTRY NO=1698-62-0
##MP= -300
##BP= -300
##MW= 235
##$RETENTION INDEX=0
##$CONDENSED SPECTRUM=NO
##NPOINTS= 101
##XYDATA=(XY..XY) 1 
    37          0
    38         10
    39         44
    40         13
    41          7
    42         54
    43         22
    44          9
    47          0
    49          0
    50          7
    51        214
    52        144
    53         15
    54          0
    55          2
    57          0
    58          2
    60          0
    61         11
    62          3
    63         32
    64         45
    65         24
    66         23
    67         35
    68          4
    69          1
    72          6
    73         22
    74          8
    75         17
    76         39
    77        999
    78        243
    79          3
    81          2
    82         10
    83          0
    86          4
    87         11
    88         77
    89         27
    90         16
    91         56
    92         17
    93          2
    94          0
    97          0
    98          0
   100          3
   101          0
   102        466
   103        118
   104        220
   105        374
   106         71
   108          1
   109          0
   114          0
   115         32
   116         48
   117         15
   118         21
   119          5
   124          0
   127          0
   129          2
   130          7
   131         62
   132          1
   133          1
   134          0
   137          0
   138         10
   141          0
   143          3
   144         17
   145          0
   149          0
   154          0
   156          0
   157          1
   165          2
   166          0
   170          0
   172          0
   180          0
   181          0
   185          0
   192          0
   200          0
   207          2
   208          0
   210          0
   233          0
   234        245
   235        867
   236        282
   237        256
   238         38