##TITLE=Library Entry 87884
##JCAMP-DX=Revision 4.10 
##DATA TYPE=MASS SPECTRUM
##SAMPLE DESCRIPTION=Exported from NIST MS Search
##NAMES=HP
##CAS NAME=3-Penten-2-one, 3,4-dimethyl-, semicarbazone
##MOLFORM=C8H15N3O
##CAS REGISTRY NO=16983-60-1
##MP= -300
##BP= -300
##MW= 169
##$RETENTION INDEX=0
##$CONDENSED SPECTRUM=NO
##NPOINTS= 22
##XYDATA=(XY..XY) 1 
    39        220
    40         60
    41        739
    42        180
    43         50
    44        180
    53        220
    67        280
    68        160
    69         60
    81         90
    94         90
    95        160
   108        110
   109        150
   110        290
   111        999
   112         80
   125        110
   126         70
   154         60
   169         90