##TITLE=Library Entry 47705
##JCAMP-DX=Revision 4.10 
##DATA TYPE=MASS SPECTRUM
##SAMPLE DESCRIPTION=NIST Mass Spectrometry Data Center, 1995
##NAMES=HP
##CAS NAME=Pyrazon
##MOLFORM=C10H8ClN3O
##CAS REGISTRY NO=1698-60-8
##MP= -300
##BP= -300
##MW= 221
##$RETENTION INDEX=2353
##$CONDENSED SPECTRUM=NO
##NPOINTS= 52
##XYDATA=(XY..XY) 1 
    26          4
    27         37
    28          4
    37         20
    38         73
    39        117
    40         71
    41         19
    44         43
    47          1
    48          2
    49          0
    50         83
    51        243
    52        154
    53         80
    61         17
    62         11
    63        100
    64        118
    65         84
    66         15
    67          0
    68         44
    73          4
    74         52
    75         85
    76         13
    77        999
    78         90
    88        347
    89          8
    90        124
    91         79
    92          4
   102         27
   103         60
   104         79
   105        223
   110          0
   119          0
   130         77
   131         31
   138          1
   158         13
   193          1
   220        442
   221        776
   222        244
   223        270
   224         28
   225          1