##TITLE=Library Entry 5257
##JCAMP-DX=Revision 4.10 
##DATA TYPE=MASS SPECTRUM
##SAMPLE DESCRIPTION=Div. of Experiment Therapeutics WRAIR, WRAMC, Washingto
n DC 20307
##NAMES=HP
##CAS NAME=1,2,4-Triazin-5(2H)-one, tetrahydro-6,6-dimethyl-3-thioxo-
##MOLFORM=C5H9N3OS
##CAS REGISTRY NO=16992-40-8
##MP= -300
##BP= -300
##MW= 159
##$RETENTION INDEX=0
##$CONDENSED SPECTRUM=NO
##NPOINTS= 79
##XYDATA=(XY..XY) 1 
    42        999
    43        149
    44         44
    45         20
    46         14
    47         19
    48         11
    49          9
    51          3
    52          7
    54         96
    55        119
    56        113
    57        141
    58         93
    59         93
    60        100
    61          8
    62          6
    64          6
    66          1
    67          2
    69         45
    70         29
    72        185
    73          9
    74         16
    75        132
    76          7
    77          7
    78          0
    79          0
    81          4
    82          1
    84          9
    85         10
    86         15
    87          2
    88          2
    89         35
    90          4
    91          1
    95          1
    96          2
    98         34
    99          9
   100          8
   101          7
   102         13
   103          6
   104          1
   105          0
   111          1
   112          1
   114         18
   116        381
   117         20
   118         11
   123          0
   125          1
   126          4
   127          2
   128          0
   129          1
   130          0
   131          4
   132         38
   133          2
   134          1
   142          0
   143          6
   144        619
   145         28
   146         20
   147          1
   159          7
   160         63
   161         11
   162          3