##TITLE=Library Entry 3470
##JCAMP-DX=Revision 4.10 
##DATA TYPE=MASS SPECTRUM
##SAMPLE DESCRIPTION=NIST Mass Spectrometry Data Center
##NAMES=HP
##CAS NAME=Oxiranecarboxaldehyde, 3-methyl-3-(4-methyl-3-pentenyl)-
##MOLFORM=C10H16O2
##CAS REGISTRY NO=16996-12-6
##MP= -300
##BP= -300
##MW= 168
##$RETENTION INDEX=1234
##$CONDENSED SPECTRUM=NO
##NPOINTS= 63
##XYDATA=(XY..XY) 1 
    26          7
    27         83
    29        100
    30          6
    38         14
    39        263
    40         49
    41        999
    42         74
    43        503
    45          9
    50         13
    51         45
    52         16
    53        155
    54         37
    55        278
    56         30
    57         39
    58         12
    59         76
    60        105
    61          5
    62          7
    63          9
    65         42
    66         17
    67        460
    68         96
    69        908
    70         76
    71         90
    72         10
    77         56
    78         12
    79         85
    80         30
    81        153
    82        427
    83         92
    85        220
    86         12
    87         11
    91         43
    93         43
    94         20
    95         97
    96         15
    97        100
    98         18
   100         13
   105         19
   107         43
   108         16
   109        604
   110         75
   111         20
   121         26
   122          8
   125         14
   135         24
   139         11
   150         11