##TITLE=Library Entry 59694
##JCAMP-DX=Revision 4.10 
##DATA TYPE=MASS SPECTRUM
##SAMPLE DESCRIPTION=J.E. WILKINSON S-CUBED, SAN DIEGO, CA.
##NAMES=HP
##CAS NAME=Benzene, 4-(chloromethyl)-1,2-bis(phenylmethoxy)-
##MOLFORM=C21H19ClO2
##CAS REGISTRY NO=1699-59-8
##MP= -300
##BP= -300
##MW= 338
##$RETENTION INDEX=0
##$CONDENSED SPECTRUM=NO
##NPOINTS= 31
##XYDATA=(XY..XY) 1 
    41          7
    50          0
    51         18
    52          1
    63         13
    64          4
    65        117
    66          3
    77         11
    78          0
    89         14
    90          9
    91        999
    92         69
    93          5
   100          1
   105          4
   106          0
   125          0
   128          1
   165          0
   181         47
   182          5
   211          2
   212          1
   247         10
   249          1
   303          1
   338         26
   339          3
   340          7