##TITLE=Library Entry 59691
##JCAMP-DX=Revision 4.10 
##DATA TYPE=MASS SPECTRUM
##SAMPLE DESCRIPTION=K. Kirk, LBC, NIDDK, NIH, Bethesda, MD 20892
##NAMES=HP
##CAS NAME=Benzenemethanol, 3,4-bis(phenylmethoxy)-
##MOLFORM=C21H20O3
##CAS REGISTRY NO=1699-58-7
##MP= -300
##BP= -300
##MW= 320
##$RETENTION INDEX=0
##$CONDENSED SPECTRUM=NO
##NPOINTS= 140
##XYDATA=(XY..XY) 1 
    41         33
    42          7
    43         19
    44         13
    45          6
    46          2
    48          0
    49          0
    50         10
    51         32
    52         11
    53         10
    54          3
    55         17
    56          4
    57          8
    58          0
    59          0
    60          4
    61          1
    62          6
    63         34
    64         12
    65        207
    66         17
    67          6
    68          3
    69         11
    70          2
    71          3
    72          0
    73          3
    74          1
    75          2
    76          2
    77         16
    78         14
    79          5
    80          1
    81          5
    82          4
    83          4
    84          6
    85          2
    86          0
    87          1
    88          0
    89         26
    90         15
    91        999
    92        111
    93          5
    94          2
    95          3
    96          1
    97          3
    98          1
    99          0
   100          0
   101          0
   102          0
   103          1
   104          0
   105          4
   106          5
   107          1
   108          0
   109          1
   110          1
   111          1
   112          0
   113          0
   115          5
   116          1
   117          1
   119          0
   120          0
   121          1
   122          2
   123          4
   124          5
   125          2
   126          0
   127          2
   128          3
   129          3
   130          0
   131          2
   132          0
   134          0
   137          0
   138          2
   139          1
   140          6
   141          3
   142          1
   143          1
   144          0
   145          1
   149          0
   151          2
   152          4
   153          5
   154          1
   155          3
   156          0
   157          0
   161          0
   165          3
   166          1
   167          2
   168          1
   169          1
   170          0
   171          2
   178          0
   179          7
   180         25
   181         55
   182         11
   183          4
   184          0
   197          0
   199          1
   200          0
   210          1
   211          9
   212          1
   213          0
   221          0
   227          0
   228          0
   229          4
   230          2
   231          0
   289          4
   290          0
   320         25
   321          6
   322          0