##TITLE=Library Entry 46746
##JCAMP-DX=Revision 4.10 
##DATA TYPE=MASS SPECTRUM
##SAMPLE DESCRIPTION=A. Brossi, LC, NIDDK, NIH, Bethesda, MD 20892
##NAMES=HP
##CAS NAME=Phenylethylene, 3'-methoxy-2,2'-dinitro-
##MOLFORM=C9H8N2O5
##CAS REGISTRY NO=16990-40-2
##MP= -300
##BP= -300
##MW= 224
##$RETENTION INDEX=0
##$CONDENSED SPECTRUM=NO
##NPOINTS= 174
##XYDATA=(XY..XY) 1 
    41        208
    43         53
    44         42
    45         38
    46        125
    47         27
    48         15
    49        153
    50        338
    51        733
    52        330
    53        243
    54         56
    55        107
    56         12
    57         10
    58          4
    59         73
    60          6
    61         67
    62        378
    63        761
    64        281
    65        774
    66        139
    67        199
    68         54
    69         26
    70         10
    71         10
    72          2
    73         20
    74        209
    75        309
    76        485
    77        999
    78        307
    79        324
    80        103
    81         74
    82         24
    83         14
    84        100
    85         21
    86        113
    87        100
    88        173
    89        499
    90        337
    91        256
    92        459
    93        298
    94        453
    95        591
    96         45
    97          9
    98         28
    99         15
   100         14
   101         78
   102        172
   103        122
   104        239
   105        349
   106        375
   107        424
   108         83
   109         20
   110          5
   111          4
   112          2
   113          2
   114         10
   115         31
   116        179
   117         79
   118        132
   119        229
   120        163
   121         80
   122        101
   123        167
   124         15
   125          3
   126          0
   127          1
   128          1
   129          5
   130         36
   131         26
   132         80
   133        162
   134         56
   135        352
   136         44
   137          6
   138          3
   139          1
   140          1
   141          1
   142          1
   143          1
   144          5
   145          6
   146         28
   147         19
   148        112
   149         46
   150        120
   151         18
   152          4
   153          1
   154          1
   155          1
   156          0
   157          0
   158          3
   159          1
   160         32
   161         92
   162         26
   163         16
   164          7
   165          6
   166         10
   167          2
   168          1
   169          2
   170          1
   171          1
   172          0
   173          1
   174          0
   175          1
   176          3
   177          6
   178        302
   179         34
   180         14
   181         10
   182          4
   183          1
   184          1
   185          1
   186          0
   191          0
   192          3
   193          1
   194          1
   195          1
   196          2
   197          2
   198          4
   199          4
   200          3
   201          1
   202          0
   203          0
   208          1
   209          1
   210          1
   211          0
   212          0
   213          1
   214          1
   215          1
   216          0
   219          0
   220          0
   221          0
   224        355
   225         42
   226          6
   227          1