##TITLE=Library Entry 37322
##JCAMP-DX=Revision 4.10 
##DATA TYPE=MASS SPECTRUM
##SAMPLE DESCRIPTION=D.HENNEBERG, MAX-PLANCK INSTITUTE, MULHEIM, WEST GERMAN
Y
##NAMES=HP
##CAS NAME=2-Nonene, 3-methyl-, (E)-
##MOLFORM=C10H20
##CAS REGISTRY NO=17003-99-5
##MP= -300
##BP= -300
##MW= 140
##$RETENTION INDEX=984
##$CONDENSED SPECTRUM=NO
##NPOINTS= 60
##XYDATA=(XY..XY) 1 
    21          1
    22          1
    23          0
    26          9
    27        166
    28         10
    29        183
    30          3
    36          1
    37          6
    38          4
    39        134
    40         19
    41        631
    42        219
    43        255
    44          3
    45          1
    46          0
    50          3
    51         10
    52          5
    53         57
    54         29
    55        678
    56        154
    57         45
    58          0
    63          1
    65         10
    66          6
    67         59
    68         34
    69        386
    70        999
    71        167
    72          3
    77          5
    78          0
    79          7
    80          0
    81         11
    82         11
    83         91
    84         20
    85          2
    88          1
    91          1
    93          0
    95          3
    96          1
    97          5
    98          2
   109          0
   110          9
   111         49
   112          7
   113          0
   140         78
   141          6