##TITLE=Library Entry 14759
##JCAMP-DX=Revision 4.10 
##DATA TYPE=MASS SPECTRUM
##SAMPLE DESCRIPTION=V.G.Zaikin, TIPS, Russian Acad. Sci.
##NAMES=HP
##CAS NAME=3-Methoxy-D-homoestra-1,3,5(10),8,14-pentaen-17beta-ol, acetate
##MOLFORM=C22H26O3
##CAS REGISTRY NO=17004-98-7
##MP= -300
##BP= -300
##MW= 338
##$RETENTION INDEX=0
##$CONDENSED SPECTRUM=NO
##NPOINTS= 136
##XYDATA=(XY..XY) 1 
    39        105
    40         22
    41        110
    42         75
    43        999
    44         93
    45        109
    50         28
    51         53
    52         23
    53         32
    54          6
    55         55
    60         40
    61         15
    62         19
    63         46
    64         15
    65         30
    66         15
    67         36
    68         10
    69         18
    71         25
    73          5
    74         21
    75         18
    76         30
    77         70
    78         29
    79         45
    80         20
    81         34
    82         14
    83         25
    84          7
    85         12
    89         22
    90         12
    91        116
    92         30
    93         35
    95         22
    97         14
   101         27
   102         28
   103         35
   104         19
   105         85
   115         94
   116         43
   117        128
   118         37
   119         28
   120         13
   121         58
   126         15
   127         28
   128         94
   129         59
   130         28
   131         48
   132         26
   133         28
   134         17
   135         22
   139         37
   140         35
   141         54
   142         20
   143         55
   144         30
   146         27
   147        182
   148         34
   151         25
   152         91
   153         56
   159         56
   160        156
   161         46
   164         26
   165        112
   166         62
   167         42
   168         25
   169         26
   170         26
   171        126
   172         58
   173         61
   177         45
   178         77
   179         75
   180         42
   181         45
   190         30
   191         54
   192         40
   201         25
   202         61
   203         62
   204         38
   208         54
   209         68
   210         53
   211         56
   221         64
   222         65
   223         75
   224         54
   225         59
   234         35
   235         70
   236         54
   237         65
   238         32
   248         84
   249         88
   250         85
   251         52
   252         33
   262         69
   263        294
   264         93
   265         48
   277         68
   278        275
   279         84
   280         33
   323         16
   337         91
   338        959
   339        230
   340         27
   341          2