##TITLE=Library Entry 59526
##JCAMP-DX=Revision 4.10 
##DATA TYPE=MASS SPECTRUM
##SAMPLE DESCRIPTION=NIST Mass Spectrometry Data Center, 1992
##NAMES=HP
##CAS NAME=Benzaldehyde, 3-(phenylmethoxy)-
##MOLFORM=C14H12O2
##CAS REGISTRY NO=1700-37-4
##MP= -300
##BP= -300
##MW= 212
##$RETENTION INDEX=0
##$CONDENSED SPECTRUM=NO
##NPOINTS= 99
##XYDATA=(XY..XY) 1 
    12          0
    15          0
    17          0
    18          4
    25          0
    26          3
    27         11
    28          0
    29         11
    30          0
    31          0
    37          6
    38         31
    39        138
    40          7
    41         19
    42          1
    43          0
    46          0
    50         32
    51         64
    52         11
    53          4
    54          0
    55          1
    61          4
    62         21
    63         79
    64         44
    65        251
    66         16
    67          0
    73          1
    74          7
    75          6
    76         12
    77         23
    78          3
    79          1
    80          0
    82          0
    83          0
    85          0
    86          1
    87          1
    89         33
    91        999
    92        111
    93          7
    94          0
    96          0
    97          1
    98          0
   101          0
   102          0
   103          0
   104          0
   105          4
   106          0
   107          0
   113          0
   115          2
   116          0
   119          0
   120          2
   121          5
   122          1
   125          0
   126          0
   127          1
   128          1
   129          1
   130          0
   139          0
   140          0
   141          0
   150          0
   151          1
   152          4
   153          3
   154          1
   155          2
   156          0
   165          2
   166          0
   168          0
   169          0
   181          1
   182          0
   183          1
   184          1
   185          0
   193          0
   194          0
   195          0
   209          0
   212         67
   213         10
   214          1