##TITLE=Library Entry 59751
##JCAMP-DX=Revision 4.10 
##DATA TYPE=MASS SPECTRUM
##SAMPLE DESCRIPTION=NIST Mass Spectrometry Data Center, 1994
##NAMES=HP
##CAS NAME=4-Benzyloxy-3-methoxyphenylacetonitrile
##MOLFORM=C16H15NO2
##CAS REGISTRY NO=1700-29-4
##MP= -300
##BP= -300
##MW= 253
##$RETENTION INDEX=0
##$CONDENSED SPECTRUM=NO
##NPOINTS= 74
##XYDATA=(XY..XY) 1 
     4          1
    14          2
    15          8
    18          1
    26          3
    27          8
    28          2
    29          4
    31          3
    37          4
    38         15
    39         78
    40          7
    41         20
    42          1
    43          0
    46          1
    50         22
    51         53
    52         14
    53          9
    54          1
    55          2
    61          3
    62         13
    63         50
    64         42
    65        160
    66         13
    67          1
    69          0
    74          3
    75          6
    76         15
    77         40
    78         12
    79         17
    80          1
    86          0
    87          1
    89         31
    91        999
    92         83
    93          5
    94         15
    95          1
   102          4
   103          5
   104          5
   105         13
   106          6
   107         18
   108          1
   115          2
   116          6
   117          0
   119          5
   120          1
   130          3
   131          1
   132          1
   133          1
   134          3
   135          1
   141          1
   148          0
   152          1
   160          2
   161          1
   162          5
   163          0
   181          0
   253         38
   254          6