##TITLE=Library Entry 52835
##JCAMP-DX=Revision 4.10 
##DATA TYPE=MASS SPECTRUM
##SAMPLE DESCRIPTION=Exported from NIST MS Search
##NAMES=HP
##CAS NAME=2-Pyrazoline-1-carboxamide, 3-methyl-
##MOLFORM=C5H9N3O
##CAS REGISTRY NO=17014-30-1
##MP= -300
##BP= -300
##MW= 127
##$RETENTION INDEX=0
##$CONDENSED SPECTRUM=NO
##NPOINTS= 10
##XYDATA=(XY..XY) 1 
    42        360
    43        320
    54        110
    55        120
    56        240
    83        999
    84        980
    85         50
   127        260
   128         10