##TITLE=Library Entry 98588
##JCAMP-DX=Revision 4.10 
##DATA TYPE=MASS SPECTRUM
##SAMPLE DESCRIPTION=ORMSBG,10(11)992(1975); H. BUDZIKIEWICZ
##NAMES=HP
##CAS NAME=1H-1-Benzazepine, 2,3,4,5-tetrahydro-
##MOLFORM=C10H13N
##CAS REGISTRY NO=1701-57-1
##MP= -300
##BP= -300
##MW= 147
##$RETENTION INDEX=0
##$CONDENSED SPECTRUM=NO
##NPOINTS= 50
##XYDATA=(XY..XY) 1 
    41         10
    42         40
    43         30
    44         10
    45         10
    50         50
    51         90
    52         40
    53         20
    54         10
    62         20
    63         70
    64         30
    65        100
    66         20
    74         10
    75         10
    76         20
    77        100
    78         50
    79         20
    89         70
    90         60
    91        230
    92         30
    93         10
   102         10
   103         20
   104         60
   105         20
   106         40
   115         50
   116         20
   117        180
   118        999
   119        390
   120         50
   128         10
   129         10
   130        130
   131         70
   132        350
   133         40
   143         10
   144         40
   145         30
   146        430
   147        740
   148        100
   149         10