##TITLE=Library Entry 53290
##JCAMP-DX=Revision 4.10 
##DATA TYPE=MASS SPECTRUM
##SAMPLE DESCRIPTION=Exported from NIST MS Search
##NAMES=HP
##CAS NAME=3-Buten-2-one, 4-phenyl-, 4-phenylsemicarbazone
##MOLFORM=C17H17N3O
##CAS REGISTRY NO=17014-34-5
##MP= -300
##BP= -300
##MW= 279
##$RETENTION INDEX=0
##$CONDENSED SPECTRUM=NO
##NPOINTS= 27
##XYDATA=(XY..XY) 1 
    39        130
    42        100
    50         50
    51        160
    63         70
    64         60
    65        140
    66         70
    77        360
    78         60
    83        999
    84         60
    91        150
    92        110
    93        290
   102         70
   103         90
   115        180
   127         50
   128        120
   129        130
   143         70
   144        480
   145         80
   159        669
   160        150
   279         70