##TITLE=Library Entry 80732
##JCAMP-DX=Revision 4.10 
##DATA TYPE=MASS SPECTRUM
##SAMPLE DESCRIPTION=F.DARLING INST. PAPER CHEM., APPLETON, WIS., USA
##NAMES=HP
##CAS NAME=Populin, tetraacetate
##MOLFORM=C28H30O12
##CAS REGISTRY NO=17019-76-0
##MP= -300
##BP= -300
##MW= 558
##$RETENTION INDEX=0
##$CONDENSED SPECTRUM=NO
##NPOINTS= 23
##XYDATA=(XY..XY) 1 
    43        450
    44         14
    51         12
    77         88
    78         39
    81         29
    97         27
   105        999
   106        148
   107        490
   109         91
   115          8
   127         39
   139          8
   169         57
   177         12
   231        205
   232         32
   333          2
   393        135
   394         27
   498          2
   558          0