##TITLE=Library Entry 52951
##JCAMP-DX=Revision 4.10 
##DATA TYPE=MASS SPECTRUM
##SAMPLE DESCRIPTION=Exported from NIST MS Search
##NAMES=HP
##CAS NAME=2-Pyrazoline-1-carboxamide, 3,5-dimethyl-
##MOLFORM=C6H11N3O
##CAS REGISTRY NO=17014-31-2
##MP= -300
##BP= -300
##MW= 141
##$RETENTION INDEX=0
##$CONDENSED SPECTRUM=NO
##NPOINTS= 26
##XYDATA=(XY..XY) 1 
    40         45
    41        117
    42        271
    43        106
    44         77
    53         20
    54         41
    55         18
    56        156
    57         27
    67         20
    68         18
    69         16
    70         16
    81         25
    82         27
    83        999
    84         63
    95         23
    96         25
    97         65
    98        379
    99         27
   100         18
   141        192
   142         23