##TITLE=Library Entry 9281
##JCAMP-DX=Revision 4.10 
##DATA TYPE=MASS SPECTRUM
##SAMPLE DESCRIPTION=A.A.Kutin, Moscow, Russia
##NAMES=HP
##CAS NAME=Propanoic acid, 2-acetylamino-3-(3-nitrophenyl)-
##MOLFORM=C11H12N2O5
##CAS REGISTRY NO=170157-49-0
##MP= -300
##BP= -300
##MW= 252
##$RETENTION INDEX=0
##$CONDENSED SPECTRUM=NO
##NPOINTS= 154
##XYDATA=(XY..XY) 1 
    33          4
    34          2
    35         10
    36         36
    37          7
    38         22
    39         53
    40         50
    41         27
    43        999
    44        106
    45         30
    46         31
    47          1
    48          1
    49          1
    50         24
    51         41
    52         14
    53          9
    54          5
    55         10
    56          5
    57          6
    58          3
    59         14
    60        103
    61          6
    62         14
    63         50
    64         27
    65         44
    66          7
    67          5
    68          3
    69          6
    70          3
    71          3
    72          6
    74        407
    75         21
    76         17
    77         41
    78         20
    79         13
    80          6
    81          3
    82          1
    83          3
    84          1
    85          2
    86          2
    87          7
    88         58
    89        103
    90        107
    91         87
    92         14
    93          6
    94          2
    95          1
    96          0
    97          1
    98          1
    99          1
   101          7
   102         11
   103         14
   104         10
   105          7
   106         43
   107         21
   108          4
   109          1
   110          0
   111          0
   112          0
   114          1
   116         82
   117         62
   118         37
   119         36
   120         26
   121          9
   122          1
   123          0
   124          0
   126          0
   127          2
   128          1
   129          7
   130         10
   131         11
   132          7
   133          9
   134          5
   135          8
   136         25
   137         12
   138          1
   139          0
   143          1
   144          1
   145          4
   146         17
   147         15
   148         12
   149         32
   150          4
   151          1
   152          1
   153          0
   158          0
   159          0
   160          1
   161          2
   162          7
   163         51
   164         15
   165         65
   166          7
   167          0
   174          0
   175          5
   176         20
   177          7
   178          1
   179          2
   180          0
   181          1
   189          0
   190          1
   191          3
   192          8
   193         43
   194          6
   195          1
   204          1
   205          1
   206          2
   207          5
   208          2
   209          1
   210          1
   217          0
   221          0
   222          7
   223          1
   233          0
   235         44
   236          6
   237          1
   252          3
   253          0