##TITLE=Library Entry 36661
##JCAMP-DX=Revision 4.10 
##DATA TYPE=MASS SPECTRUM
##SAMPLE DESCRIPTION=H.Maurer,J.Chromatogr.,530,307(1990)
##NAMES=HP
##CAS NAME=Barbituric acid, 5-ethyl-5-(1-methyl-2-butenyl)-
##MOLFORM=C11H16N2O3
##CAS REGISTRY NO=17013-35-3
##MP= -300
##BP= -300
##MW= 224
##$RETENTION INDEX=1890
##$CONDENSED SPECTRUM=NO
##NPOINTS= 44
##XYDATA=(XY..XY) 1 
    52          4
    53         40
    54         11
    55         69
    56         11
    57          7
    61         29
    65          4
    66          4
    67         47
    68         55
    69        999
    70         88
    79          7
    80         15
    81         15
    83         11
    84          4
    85         15
    86          4
    87         11
    98         36
   112          7
   123          4
   124          7
   127          7
   129         47
   135          7
   136          4
   141        292
   142         11
   152         15
   153          7
   154          4
   155         26
   156        292
   157        172
   158         11
   159          7
   180          4
   195        307
   196         36
   198          4
   224          7