##TITLE=Library Entry 53170
##JCAMP-DX=Revision 4.10 
##DATA TYPE=MASS SPECTRUM
##SAMPLE DESCRIPTION=Exported from NIST MS Search
##NAMES=HP
##CAS NAME=3-Buten-2-one, 4-(o-bromophenyl)-, semicarbazone
##MOLFORM=C11H12BrN3O
##CAS REGISTRY NO=17014-27-6
##MP= -300
##BP= -300
##MW= 281
##$RETENTION INDEX=0
##$CONDENSED SPECTRUM=NO
##NPOINTS= 38
##XYDATA=(XY..XY) 1 
    39         60
    42         70
    44        200
    50         60
    51        120
    63         80
    75        100
    76         50
    77        100
    83        999
    84         60
    89         60
   101        110
   102        140
   115        120
   116         50
   117         60
   127        130
   128        310
   129        140
   130         50
   142        130
   143        120
   144         90
   158        110
   159        140
   185        140
   202         80
   221        150
   222         80
   223        150
   224         80
   237        130
   238         50
   239        130
   240         50
   281         50
   283         50