##TITLE=Library Entry 90251
##JCAMP-DX=Revision 4.10 
##DATA TYPE=MASS SPECTRUM
##SAMPLE DESCRIPTION=Japan AIST/NIMC Database- Spectrum MS-IW-6024
##NAMES=HP
##CAS NAME=1,2-Cyclopropanedicarboxylic acid, 3,3-dimethyl-, trans-(.+/-.)-
##MOLFORM=C7H10O4
##CAS REGISTRY NO=1701-81-1
##MP= -300
##BP= -300
##MW= 158
##$RETENTION INDEX=0
##$CONDENSED SPECTRUM=NO
##NPOINTS= 81
##XYDATA=(XY..XY) 1 
    15          5
    17          9
    18         41
    26          9
    27         70
    28         16
    29         33
    30          1
    31         12
    32          1
    37          3
    38          9
    39        118
    40         27
    41        205
    42         42
    43        158
    44         18
    45         50
    46          3
    47          2
    49          1
    50          9
    51         20
    52          8
    53         56
    54         11
    55         63
    56         15
    57         18
    58          5
    59        118
    60          6
    61          1
    62          2
    63          4
    64          1
    65         25
    66         21
    67        304
    68         38
    69         63
    70          8
    71         42
    72         19
    73         10
    77          1
    79          3
    80          1
    81         26
    82         21
    83         16
    84         17
    85         21
    86          2
    87          1
    93          1
    94         15
    95        326
    96         43
    97         58
    98          6
    99         54
   100        108
   101          5
   102          1
   109          1
   110          1
   111         51
   112        132
   113        999
   114         78
   115          8
   117          9
   122         33
   123          3
   125          2
   140         43
   141         18
   142          2
   143          1