##TITLE=Library Entry 92817
##JCAMP-DX=Revision 4.10 
##DATA TYPE=MASS SPECTRUM
##SAMPLE DESCRIPTION=Exported from NIST MS Search
##NAMES=HP
##CAS NAME=2-Pentanone, 5-(trimethylsilyl)-
##MOLFORM=C8H18OSi
##CAS REGISTRY NO=17012-93-0
##MP= -300
##BP= -300
##MW= 158
##$RETENTION INDEX=0
##$CONDENSED SPECTRUM=NO
##NPOINTS= 18
##XYDATA=(XY..XY) 1 
    67         17
    69         11
    70         17
    71         28
    72        179
    73        815
    74         78
    75        151
    76         16
    77         22
    85         28
    99         28
   115        999
   116         95
   117         28
   143        145
   144         11
   145          5