##TITLE=Library Entry 63928
##JCAMP-DX=Revision 4.10 
##DATA TYPE=MASS SPECTRUM
##SAMPLE DESCRIPTION=V.A. KOPTYUG, VOL.4, ATLAS OF MASS SPECTRA OF ORGANIC C
OMPOUNDS
##NAMES=HP
##CAS NAME=2,3-Dimethyl-1-benzylindole
##MOLFORM=C17H17N
##CAS REGISTRY NO=17017-60-6
##MP= -300
##BP= -300
##MW= 235
##$RETENTION INDEX=0
##$CONDENSED SPECTRUM=NO
##NPOINTS= 39
##XYDATA=(XY..XY) 1 
    27         11
    39         24
    41         15
    51         20
    63         14
    65        116
    76         15
    77         92
    78         15
    89         21
    90         10
    91        999
    92         87
   101         11
   102         36
   103         36
   115         52
   116         22
   117         17
   127         10
   128         48
   129         15
   130         14
   142         21
   143         86
   144        188
   145         32
   157         11
   158         30
   217         21
   218         26
   219         12
   220         49
   221         11
   232         15
   234         82
   235        800
   236        152
   237         14