##TITLE=Library Entry 12980
##JCAMP-DX=Revision 4.10 
##DATA TYPE=MASS SPECTRUM
##SAMPLE DESCRIPTION=Institute of Organic Chemistry, Novosibirsk, USSR 1988
##NAMES=HP
##CAS NAME=o-Acetoxyphenyl 2,3,4,6-tetra-O-acetyl-.beta.-D-glucopyranoside
##MOLFORM=C22H26O12
##CAS REGISTRY NO=17019-75-9
##MP= -300
##BP= -300
##MW= 482
##$RETENTION INDEX=0
##$CONDENSED SPECTRUM=NO
##NPOINTS= 76
##XYDATA=(XY..XY) 1 
    41         17
    42          8
    43        999
    44         62
    45         17
    50          2
    51          3
    52          8
    54          3
    55         17
    56          8
    57         12
    60         12
    61         17
    64         12
    65         12
    69         30
    70          8
    71         12
    73         30
    80          8
    81        109
    82         12
    83          8
    85         53
    92          3
    93          3
    94          4
    95          3
    96          2
    97         94
    98         26
    99         35
   101          3
   102          8
   103         71
   109        859
   110        249
   111         35
   113         12
   114         49
   121         44
   125          8
   126         17
   127        299
   128         21
   135          3
   139         67
   140          8
   141         12
   145         58
   151          8
   152         26
   153          8
   155          3
   157          8
   169        999
   170         80
   171         12
   181          3
   187         30
   193          1
   201          2
   205          2
   207          2
   211         30
   212          1
   219          2
   229         21
   247          3
   261          0
   271         30
   288          0
   289          1
   331         94
   332         17