##TITLE=Library Entry 31939
##JCAMP-DX=Revision 4.10 
##DATA TYPE=MASS SPECTRUM
##SAMPLE DESCRIPTION=Pu Leung, NIH, Bethesda, MD
##NAMES=HP
##CAS NAME=4-Nitrophenanthrene
##MOLFORM=C14H9NO2
##CAS REGISTRY NO=17024-17-8
##MP= -300
##BP= -300
##MW= 223
##$RETENTION INDEX=2115
##$CONDENSED SPECTRUM=NO
##NPOINTS= 62
##XYDATA=(XY..XY) 1 
    41        128
    43        103
    44         26
    45        139
    46        110
    49         60
    50        397
    51        488
    52        140
    53         56
    55         84
    56         37
    57        132
    61        115
    62        232
    63        534
    64        133
    65        999
    66        123
    67         21
    69         67
    73         29
    74        151
    75        129
    76         69
    77        169
    78         22
    81         25
    82         26
    83         67
    84         24
    85         73
    86         76
    87         71
    88        103
    89        239
    90        128
    91         65
    92         50
    93         34
    97         22
   105         30
   106         47
   111         49
   139         29
   149         20
   150         85
   151         84
   163         59
   164         71
   165        582
   166        101
   167         48
   174         47
   175         56
   176        278
   177         83
   192         47
   193        273
   194         63
   223        159
   224         21