##TITLE=Library Entry 54062
##JCAMP-DX=Revision 4.10 
##DATA TYPE=MASS SPECTRUM
##SAMPLE DESCRIPTION=P. Vainiotalo, Dep. Chem., Joensuu Univ., Joensuu, Finl
and
##NAMES=HP
##CAS NAME=Oxazolidine, 2-ethyl-2-methyl-
##MOLFORM=C6H13NO
##CAS REGISTRY NO=17026-89-0
##MP= -300
##BP= -300
##MW= 115
##$RETENTION INDEX=0
##$CONDENSED SPECTRUM=NO
##NPOINTS= 40
##XYDATA=(XY..XY) 1 
    15         66
    26         30
    27        185
    29        188
    30        178
    31         27
    39         85
    40         27
    41        153
    42        691
    43        225
    44        710
    45        387
    46         10
    51         14
    52         17
    53         35
    54         64
    55        252
    56        537
    57        134
    58         15
    67         11
    68         29
    69         17
    70         67
    71         57
    72         42
    82         26
    84        999
    85        154
    86        955
    87         49
    97         23
    98         13
   100        137
   101          8
   114         23
   115         99
   116         20