##TITLE=Library Entry 79120
##JCAMP-DX=Revision 4.10 
##DATA TYPE=MASS SPECTRUM
##SAMPLE DESCRIPTION=Insect Chem. Ecol. Lab., USDA, Beltsville, MD 20705
##NAMES=HP
##CAS NAME=Butanedioic acid, 2,3-bis(benzoyloxy)-, [S-(R*,R*)]-
##MOLFORM=C18H14O8
##CAS REGISTRY NO=17026-42-5
##MP= -300
##BP= -300
##MW= 358
##$RETENTION INDEX=0
##$CONDENSED SPECTRUM=NO
##NPOINTS= 148
##XYDATA=(XY..XY) 1 
    41         12
    42          5
    43         20
    44         12
    45         12
    47          1
    48          0
    49          6
    50         21
    51         70
    52          5
    53          4
    54          1
    55         14
    56          4
    57         11
    58          0
    59          1
    60          6
    63          0
    65          2
    67          4
    68          1
    69         11
    70          4
    71          8
    73          6
    74          6
    75          6
    76         14
    77        237
    78         18
    79          3
    80          1
    81          5
    82          4
    83          7
    84          6
    85          5
    86          1
    87          1
    88          0
    89          0
    91          2
    93          1
    94          2
    95          4
    96          2
    97          5
    98          3
    99          3
   101          0
   103          0
   104         10
   105        999
   106         75
   107          6
   108          0
   109          3
   110          1
   111          4
   112          1
   113          1
   115          1
   118          0
   119          1
   121          1
   122         45
   123          6
   124          1
   125          2
   126          0
   127          0
   129          3
   133          0
   135          0
   137          0
   138          0
   139          1
   141          1
   147          1
   149          2
   151          0
   152          1
   153          2
   154          0
   155          1
   157          0
   161          0
   162         11
   163          2
   165          0
   167          0
   169          0
   178          0
   179          0
   180          0
   181          2
   183          3
   185          3
   189          0
   191          2
   192          5
   193          0
   194          0
   195          0
   197          0
   205          0
   207          0
   209          0
   210          0
   211          0
   219          1
   221          0
   223          0
   224          0
   225          0
   226          0
   227         33
   228          6
   229          0
   234          0
   235          0
   236          0
   237          0
   238          0
   239          0
   240          0
   248          0
   250          0
   251          0
   252          0
   253          0
   254          0
   256          0
   261          0
   262          0
   263          0
   264          0
   266          0
   268          8
   269          0
   276          0
   278          0
   280          0
   284          0
   340          9
   341          1