##TITLE=Library Entry 10218
##JCAMP-DX=Revision 4.10 
##DATA TYPE=MASS SPECTRUM
##SAMPLE DESCRIPTION=Drug Lab
##NAMES=HP
##CAS NAME=Calusterone
##MOLFORM=C21H32O2
##CAS REGISTRY NO=17021-26-0
##MP= -300
##BP= -300
##MW= 316
##$RETENTION INDEX=2750
##$CONDENSED SPECTRUM=NO
##NPOINTS= 251
##XYDATA=(XY..XY) 1 
    37          1
    38          2
    39        112
    40         29
    41        414
    42         34
    43        999
    44         25
    45         35
    46          1
    50          4
    51         35
    52         27
    53        230
    54         33
    55        641
    56         35
    57        164
    58        128
    59         33
    60          2
    61          1
    62          1
    63         11
    64          7
    65        151
    66         60
    67        499
    68        118
    69        178
    70         15
    71        537
    72         99
    73          9
    74          3
    75          2
    76          7
    77        441
    78         96
    79        670
    80         95
    81        510
    82         58
    83        116
    84         12
    85         51
    86          7
    87          3
    88          2
    89         11
    90          7
    91        742
    92        116
    93        610
    94        133
    95        461
    96         66
    97        207
    98         20
    99         18
   100          4
   101          4
   102         10
   103         74
   104         36
   105        606
   106        124
   107        542
   108        187
   109        272
   110         58
   111         72
   112          8
   113         13
   114          4
   115        132
   116         54
   117        172
   118         59
   119        473
   120        167
   121        457
   122        400
   123        616
   124        651
   125         95
   126          9
   127         28
   128         95
   129        106
   130         43
   131        208
   132         76
   133        478
   134        274
   135        624
   136        136
   137         91
   138         14
   139          8
   140          2
   141         46
   142         42
   143         87
   144         41
   145        247
   146        100
   147        328
   148        200
   149        250
   150        139
   151        419
   152         76
   153         26
   154         11
   155         37
   156         23
   157         99
   158         43
   159        206
   160         79
   161        217
   162        157
   163        269
   164         71
   165         68
   166         16
   167         12
   168          6
   169         28
   170         18
   171         85
   172         42
   173        152
   174        117
   175        532
   176        124
   177        138
   178         23
   179          8
   180          3
   181          8
   182          5
   183         28
   184         14
   185         67
   186         26
   187         94
   188         73
   189         76
   190         35
   191         41
   192        101
   193        237
   194         35
   195         15
   196          4
   197         18
   198         19
   199         56
   200         29
   201        124
   202         44
   203        108
   204         53
   205         10
   206          3
   207          1
   208          1
   209          9
   210          4
   211         19
   212          8
   213         44
   214         35
   215         46
   216         60
   217         39
   218          8
   219          1
   220          1
   221          2
   223          8
   224          4
   225         33
   226         10
   227        103
   228         29
   229         22
   230         11
   231        117
   232         21
   233          2
   234          1
   237          3
   238          2
   239         10
   240         24
   241         67
   242         32
   243        259
   244         56
   245         60
   246         66
   247         12
   248          1
   251          2
   252          1
   253          1
   254          8
   255         45
   256         28
   257          9
   258         61
   259        409
   260         80
   261          8
   265         13
   266          2
   267          1
   269          3
   270          3
   271          1
   272          1
   273         10
   274         23
   275          4
   280          7
   281          4
   282          2
   283         97
   284         21
   285          3
   287          1
   288         49
   289         10
   290          1
   296          1
   297          2
   298         96
   299         24
   300          4
   301        278
   302         60
   303          7
   314          1
   315          2
   316        545
   317        130
   318         17
   319          1