##TITLE=Library Entry 540
##JCAMP-DX=Revision 4.10 
##DATA TYPE=MASS SPECTRUM
##SAMPLE DESCRIPTION=Humboldt-Universitat zu Berlin, Department of Chemistry
, Analytical Group
##NAMES=HP
##CAS NAME=3-[2-(tert-Butyl-dimethylsiloxylmethyl)-pyrrolidin-1-yl]-3-(4,5-d
iphenyl-oxazol-2-yl)propanoic acid, ethyl ester
##MOLFORM=C31H42N2O4Si
##CAS REGISTRY NO=170305-85-8
##MP= -300
##BP= -300
##MW= 534
##$RETENTION INDEX=0
##$CONDENSED SPECTRUM=NO
##NPOINTS= 318
##XYDATA=(XY..XY) 1 
    12          6
    13          4
    14         21
    15         77
    16          5
    17         10
    18         34
    19          6
    24          0
    25          3
    26         46
    27        303
    28        119
    29        999
    30         49
    31         49
    32          2
    33          1
    35         10
    36          6
    37         10
    38         21
    39        155
    40         29
    41        347
    42        123
    43        305
    44         56
    45         95
    46          5
    47         35
    48          5
    49         17
    50         41
    51        107
    52         14
    53         40
    54         48
    55        364
    56         92
    57        253
    58         52
    59        112
    60         18
    61         19
    62          7
    63         14
    64          4
    65         18
    66          8
    67         48
    68         31
    69        103
    70        129
    71         85
    73        353
    74         42
    75        173
    76         34
    77        233
    78         23
    79         23
    80         26
    81         41
    82         63
    83         93
    84         58
    85         65
    86         25
    87         52
    88         67
    89         64
    90         11
    91         31
    92          7
    93         20
    94         27
    95         34
    96         46
    97         44
    98         17
    99         30
   100         35
   101         72
   102         16
   103         52
   104         46
   105        268
   106         34
   107         12
   108         17
   109         17
   110         30
   111         26
   112         17
   113         64
   114         17
   115        121
   116         86
   117         46
   118         10
   119         19
   120         12
   121         23
   122         15
   123         21
   124         11
   125         11
   126         12
   127         19
   128         90
   129         65
   130         16
   131         15
   132         12
   133         37
   134          7
   135         37
   136         15
   137          7
   138          6
   139         11
   140         15
   141         18
   142         21
   143         72
   144         10
   145         12
   146          5
   147         11
   149         62
   150         10
   151          7
   152         10
   153          7
   154         13
   155         12
   156        233
   157         75
   158         36
   159          9
   160          4
   161         36
   162          6
   163          9
   164         13
   165        101
   166         25
   167         20
   168         21
   169          8
   170         12
   171          5
   172         10
   173          5
   174          9
   175          4
   176          4
   177          6
   178         10
   179          6
   180          5
   181          5
   182          7
   183          5
   184         11
   185          4
   186          4
   187          2
   188          3
   189         16
   190          7
   191          7
   192         13
   193         22
   195         17
   196          5
   197          3
   198          5
   199          2
   200          3
   201          2
   202          3
   203          4
   204          5
   205          6
   206          5
   207          2
   208          2
   209          2
   210          9
   211          4
   212          2
   213          1
   214         14
   215          3
   216          5
   217          4
   218         11
   219         32
   220          9
   221          7
   222          8
   223          6
   224          4
   225          1
   226          3
   227          1
   228         10
   229          2
   230          2
   231          1
   232          1
   233          1
   234          4
   235          3
   236          1
   237          1
   238          1
   239          0
   240          1
   241          0
   242          3
   243          2
   244          2
   245          2
   246          5
   247         44
   248         53
   249         15
   250         19
   251          7
   252          1
   256          4
   257          1
   258          1
   259          1
   260          1
   261          1
   262          2
   263          1
   264          3
   265          1
   266          0
   268          1
   270          1
   271          0
   272          2
   273          3
   274         30
   275          6
   276         36
   277          8
   278         21
   279          4
   280          1
   285          1
   286          1
   287          1
   288          1
   289          0
   290          0
   291          0
   292          4
   293          1
   294          0
   298          2
   299          1
   300          0
   301          1
   302          2
   303          1
   304          1
   305          0
   306          1
   307          0
   308          0
   313          0
   314          3
   315          5
   316          2
   317          0
   318          0
   320        312
   321         99
   322         15
   323          2
   329          1
   332          0
   333          0
   334          0
   335          0
   347          0
   348          1
   357          0
   387          0
   389        202
   390         53
   391          7
   392          1
   402          6
   403          1
   404          0
   431          0
   447         10
   448          4
   449          1
   461          0
   477          4
   478          1
   489          5
   490          2
   519          2
   520          1
   533          1
   534          1
   535          2
   536          0