##TITLE=Library Entry 68448
##JCAMP-DX=Revision 4.10 
##DATA TYPE=MASS SPECTRUM
##SAMPLE DESCRIPTION=TNO Volatile Compounds in Food - Chemical Concepts
##NAMES=HP
##CAS NAME=Furan, 2-ethyl-5-methyl-
##MOLFORM=C7H10O
##CAS REGISTRY NO=1703-52-2
##MP= -300
##BP= -300
##MW= 110
##$RETENTION INDEX=802
##$CONDENSED SPECTRUM=NO
##NPOINTS= 53
##XYDATA=(XY..XY) 1 
    24          4
    26          8
    27         13
    28          4
    29         24
    30          8
    31         35
    33          2
    35          2
    38          5
    39         19
    40          2
    41         27
    42          2
    43         59
    44         16
    45          2
    47          2
    49          2
    50          9
    51         21
    52         10
    53         17
    54          2
    55          7
    56          3
    57          2
    60          2
    61          3
    62          3
    63          3
    65         12
    66          6
    67         27
    70          2
    75          2
    76          2
    77          4
    79          5
    80          2
    81         12
    82          2
    88          2
    91          2
    94         10
    95        999
    96         39
    97          2
   107          6
   108          5
   109         28
   110        165
   111         13