##TITLE=Library Entry 59994
##JCAMP-DX=Revision 4.10 
##DATA TYPE=MASS SPECTRUM
##SAMPLE DESCRIPTION=K.G. DAS
##NAMES=HP
##CAS NAME=7-Azabicyclo[2.2.1]heptane-2-carboxylic acid, 3-acetyl-7-(p-tolyl
sulfonyl)-, methyl ester, endo-2,exo-3-
##MOLFORM=C17H21NO5S
##CAS REGISTRY NO=17037-48-8
##MP= -300
##BP= -300
##MW= 351
##$RETENTION INDEX=0
##$CONDENSED SPECTRUM=NO
##NPOINTS= 88
##XYDATA=(XY..XY) 1 
    62         24
    63         77
    64         29
    65        207
    66         51
    67        142
    68        585
    69         95
    77         43
    78         24
    79         37
    80         43
    81         22
    82         34
    87         75
    89         75
    90         54
    91        999
    92        155
    93         41
    94        155
    95         62
    96         13
    97         26
    98         28
   105         16
   106         25
   107         17
   108         15
   110         13
   111         27
   113         15
   118         15
   119         13
   120         32
   121         24
   122        123
   123         26
   124         15
   126        127
   127         13
   129         13
   130        278
   131         26
   133         15
   136         80
   137         22
   138         99
   139         38
   140         15
   148         15
   149         11
   152         13
   153         26
   154         53
   155        339
   156         43
   157         26
   158         19
   159         67
   164         82
   165         13
   168         15
   176         12
   178         45
   180         18
   196        229
   197         33
   221         49
   222        259
   223        244
   224         41
   225         14
   236         43
   248         15
   250         56
   280         90
   281         15
   290         28
   292         64
   293         13
   306         15
   307         39
   308        216
   320         37
   322         14
   351        108
   352         24