##TITLE=Library Entry 85533
##JCAMP-DX=Revision 4.10 
##DATA TYPE=MASS SPECTRUM
##SAMPLE DESCRIPTION=Chemical Concepts
##NAMES=HP
##CAS NAME=Trifluoroacetamide,(4-fluorobenzyl)
##MOLFORM=C9H7F4NO
##CAS REGISTRY NO=170374-90-0
##MP= -300
##BP= -300
##MW= 221
##$RETENTION INDEX=0
##$CONDENSED SPECTRUM=NO
##NPOINTS= 94
##XYDATA=(XY..XY) 1 
    26         16
    28        359
    29         20
    31         41
    33         10
    36          4
    37          9
    38         21
    39         73
    40          3
    41          4
    43         51
    44         17
    45         17
    46          4
    50        107
    51         80
    52         14
    53          2
    54          2
    55          4
    56         26
    57         99
    58          8
    59         26
    61         11
    62         29
    63         64
    64          7
    65          2
    69        349
    70         34
    71          4
    73          5
    74         28
    75        104
    76         58
    77         53
    78         31
    79          7
    80          3
    81         31
    82         10
    83        187
    84          9
    85          2
    86          3
    87          5
    88          4
    89         29
    90          2
    92          1
    93          4
    94         15
    95        105
    96         97
    97        171
    98         10
   101          2
   102          4
   104          5
   105          4
   106          3
   107        117
   108        146
   109        999
   110         79
   111          2
   121          2
   122         72
   123         29
   124         22
   125        125
   126         25
   127          3
   132         44
   133          5
   134          9
   135          2
   145          8
   150         22
   151         18
   152         72
   153          6
   158          9
   172          1
   183          2
   202          8
   203          2
   204          3
   220         71
   221        257
   222         25
   223          1