##TITLE=Library Entry 23112
##JCAMP-DX=Revision 4.10 
##DATA TYPE=MASS SPECTRUM
##SAMPLE DESCRIPTION=A.QUAYLE, SHELL LTD., THORNTON RES. CENT., CHESTER, CHE
S., UK
##NAMES=HP
##CAS NAME=3-Hexanone, 4-methyl-
##MOLFORM=C7H14O
##CAS REGISTRY NO=17042-16-9
##MP= -300
##BP= -300
##MW= 114
##$RETENTION INDEX=843
##$CONDENSED SPECTRUM=NO
##NPOINTS= 18
##XYDATA=(XY..XY) 1 
    26         16
    27        100
    29        498
    30         15
    39         41
    41        157
    42          9
    43         23
    53         12
    55         27
    56         57
    57        999
    58         44
    85         93
    86         69
    99         10
   114         89
   115         10