##TITLE=Library Entry 25013
##JCAMP-DX=Revision 4.10 
##DATA TYPE=MASS SPECTRUM
##SAMPLE DESCRIPTION=NIST Mass Spectrometry Data Center, 1994
##NAMES=HP
##CAS NAME=tert-Butyl N-(1-hydroxy-2,2,2-trifluoroethyl)carbamate
##MOLFORM=C7H12F3NO3
##CAS REGISTRY NO=17049-74-0
##MP= -300
##BP= -300
##MW= 215
##$RETENTION INDEX=0
##$CONDENSED SPECTRUM=NO
##NPOINTS= 54
##XYDATA=(XY..XY) 1 
    12         17
    13         11
    14         22
    15        115
    16         43
    17         26
    18         31
    25          6
    26         26
    27        166
    28        152
    29        602
    30         21
    31        258
    32         28
    37          9
    38         25
    39        251
    40         50
    41        693
    42         61
    43        276
    44        176
    45         51
    46         26
    47         11
    48         11
    49         28
    50        141
    51        314
    52          9
    53         20
    54          9
    55         61
    56        177
    57        999
    58         74
    59        944
    60         33
    61          9
    62        102
    63          8
    69        143
    74         14
    78         16
    79         48
    90         28
    98         89
    99         15
   102         14
   124         14
   142         19
   146         32
   160         32