##TITLE=Library Entry 44948
##JCAMP-DX=Revision 4.10 
##DATA TYPE=MASS SPECTRUM
##SAMPLE DESCRIPTION=Chemical Concepts
##NAMES=HP
##CAS NAME=Amine, N,N-bis[2-(methylphosphino)ethyl]-
##MOLFORM=C6H17NP2
##CAS REGISTRY NO=170471-27-9
##MP= -300
##BP= -300
##MW= 165
##$RETENTION INDEX=0
##$CONDENSED SPECTRUM=NO
##NPOINTS= 124
##XYDATA=(XY..XY) 1 
    25          0
    26          9
    27         84
    28        136
    29         81
    30        648
    31         12
    33          5
    34          2
    35          4
    36          0
    38          1
    39         10
    40         88
    41        244
    42         94
    43        102
    44        382
    45        216
    46        107
    47        240
    48         54
    49          6
    50          0
    51          0
    52          1
    53          1
    54          9
    55          8
    56         95
    57         90
    58         41
    59         93
    60         22
    61         61
    62         88
    63         56
    64          9
    65          2
    66          0
    67          1
    68         11
    69          8
    70         17
    71         15
    72         18
    73         78
    74        112
    75        999
    76         92
    77          6
    78          5
    79          3
    80          0
    81          1
    82          0
    83          0
    84          1
    85          3
    86          6
    87          3
    88         33
    89         55
    90         37
    91          6
    92         10
    93         11
    94         14
    95          1
    97          0
    98          1
    99          0
   100          3
   101          3
   102         51
   103          7
   104        199
   105         15
   106          4
   107          3
   108          6
   109          0
   110          0
   111          0
   112          0
   113          0
   115          1
   116         15
   117         65
   118         81
   119          7
   120          3
   121          2
   122         16
   123          1
   127          0
   129          0
   130          0
   131          0
   132          5
   133          0
   134          1
   135          1
   136          2
   137          0
   139          0
   140          0
   141          0
   142          1
   143          0
   147          0
   148          0
   150        391
   151         21
   152          0
   155          0
   158          0
   160          0
   161          0
   163          1
   164         12
   165          1
   166          2
   168          0