##TITLE=Library Entry 27805
##JCAMP-DX=Revision 4.10 
##DATA TYPE=MASS SPECTRUM
##SAMPLE DESCRIPTION=Dennis Rohrbaugh, CBDCOM/ERDEC, Edgewood, MD
##NAMES=HP
##CAS NAME=S,S'-Bis(2-dimethylaminoethyl) methylphosphonotrithioate
##MOLFORM=C9H23N2PS3
##CAS REGISTRY NO=170425-22-6
##MP= -300
##BP= -300
##MW= 286
##$RETENTION INDEX=0
##$CONDENSED SPECTRUM=NO
##NPOINTS= 25
##XYDATA=(XY..XY) 1 
    30        117
    42        261
    43         71
    44        119
    45         13
    46          3
    56         82
    57          8
    58        999
    59         37
    61         10
    63         11
    70         35
    71        115
    72        116
    73         20
   102         19
   104          5
   105         15
   182          4
   183         83
   184          3
   185          5
   215         22
   217          2