##TITLE=Library Entry 98573
##JCAMP-DX=Revision 4.10 
##DATA TYPE=MASS SPECTRUM
##SAMPLE DESCRIPTION=Humboldt-Universitat zu Berlin, Department of Chemistry
, Analytical Group
##NAMES=HP
##CAS NAME=2-Hydroxyzimtsaeureethylester
##MOLFORM=C11H12O3
##CAS REGISTRY NO=17041-46-2
##MP= -300
##BP= -300
##MW= 192
##$RETENTION INDEX=0
##$CONDENSED SPECTRUM=NO
##NPOINTS= 139
##XYDATA=(XY..XY) 1 
    12          1
    13          1
    14          6
    15         26
    16          5
    17         23
    18         68
    19          3
    25          1
    26         23
    27        114
    28         35
    29        186
    30          8
    31         12
    32          2
    37          7
    38         27
    39        152
    40         15
    41         35
    42          9
    43         35
    44          9
    45         25
    49          2
    50         33
    51         79
    52         18
    53         28
    54          5
    55         17
    56          5
    57         12
    58          1
    59         15
    61          8
    62         29
    63        109
    64         44
    65        182
    66         18
    67          4
    68          3
    69          8
    70          5
    71          7
    72          0
    74         17
    75         48
    76          9
    77         42
    78          9
    79         11
    80          1
    81          2
    82          2
    83          4
    84          3
    85          3
    86          4
    87          6
    88          4
    89        126
    90        133
    91        336
    92         39
    93          4
    94          2
    95          2
    96          1
    97          4
    98          3
    99          2
   100          1
   101         30
   102         11
   103        214
   104         21
   105          7
   106          1
   107          7
   108          1
   109          1
   110          1
   111          2
   112          4
   113          2
   115          1
   116          1
   118        999
   119        122
   120         19
   121          8
   122          2
   123          1
   124          0
   125          1
   126          0
   127          1
   128          1
   129          2
   130          1
   131          9
   132          2
   133          3
   134          2
   135          2
   136          0
   137          0
   139          0
   140          1
   141          0
   143          0
   144          0
   146        658
   147        268
   148         27
   149          4
   150          0
   152          0
   155          0
   157          0
   159          1
   162          2
   163          2
   164          0
   167          0
   171          3
   172          0
   173          0
   175          1
   183          0
   185          0
   189          0
   192        129
   193         15
   194          2
   195          0