##TITLE=Library Entry 84274
##JCAMP-DX=Revision 4.10 
##DATA TYPE=MASS SPECTRUM
##SAMPLE DESCRIPTION=Japan AIST/NIMC Database- Spectrum MS-NW-4455
##NAMES=HP
##CAS NAME=Diazene, bis(4-butoxyphenyl)-, 1-oxide
##MOLFORM=C20H26N2O3
##CAS REGISTRY NO=17051-01-3
##MP= -300
##BP= -300
##MW= 342
##$RETENTION INDEX=0
##$CONDENSED SPECTRUM=NO
##NPOINTS= 209
##XYDATA=(XY..XY) 1 
    15          3
    18          2
    26         10
    27         98
    28         25
    29        659
    30         15
    31          1
    37          2
    38         10
    39        115
    40          8
    41        453
    42         18
    43         13
    44          3
    45          1
    50         24
    51         21
    52         80
    53         33
    54          8
    55         90
    56         22
    57        656
    58         33
    61          1
    62          6
    63         47
    64         66
    65        263
    66         20
    67          6
    68          8
    69          5
    70          1
    71          2
    72          2
    74          2
    75         11
    76         66
    77         29
    78         21
    79        137
    80         61
    81         48
    82          4
    83          1
    84          1
    85          1
    87          1
    88          1
    89          4
    90         13
    91         25
    92         20
    93        440
    94         77
    95         15
    96          7
    97          4
    98          1
   101          1
   102          3
   103          6
   104          5
   105         11
   106         43
   107        999
   108        225
   109         85
   110         15
   111          2
   113          1
   114          2
   115          6
   116          4
   117          6
   118          3
   119          9
   120         12
   121         55
   122         25
   123        311
   124        191
   125         14
   126          2
   127          9
   128          9
   129          5
   130          3
   131         13
   132          8
   133         10
   134         14
   135          7
   136          9
   137         10
   138          1
   139          7
   140          3
   141          2
   142          1
   143          2
   144          5
   145          8
   146          6
   147         13
   148          6
   149        775
   150         88
   151          7
   152          1
   153          2
   154          2
   155          5
   156          3
   157         10
   158          5
   159          3
   160          3
   161          5
   162          2
   163        170
   164         41
   165          9
   166          3
   167          2
   168          4
   169          1
   170          3
   171          3
   172          3
   173         14
   174          9
   175          3
   176          7
   177         89
   178         18
   179         66
   180         28
   181          4
   182          2
   183          5
   184          8
   185         17
   186         13
   187          8
   188          2
   189          1
   191          1
   193          3
   195          1
   196          2
   197          2
   198          3
   199          5
   200          6
   201         89
   202         43
   203          6
   204          1
   211          1
   212          5
   213         34
   214          7
   215          1
   217          3
   225          1
   226          1
   229         36
   230         22
   231          3
   237          1
   239          1
   240          2
   241          5
   242          2
   243          1
   253          1
   255          1
   256          2
   257         13
   258         38
   259          7
   260          1
   269          5
   270          5
   271          1
   284          1
   285         26
   286         48
   287          8
   288          1
   299          3
   300          1
   313          1
   314          2
   315          1
   324          2
   326         28
   327          9
   328          2
   338          1
   340          1
   341          6
   342        172
   343         40
   344          5