##TITLE=Library Entry 47567
##JCAMP-DX=Revision 4.10 
##DATA TYPE=MASS SPECTRUM
##SAMPLE DESCRIPTION=Exported from NIST MS Search
##NAMES=HP
##CAS NAME=Benzenamine, N-[(2-nitrophenyl)methylene]-
##MOLFORM=C13H10N2O2
##CAS REGISTRY NO=17064-77-6
##MP= -300
##BP= -300
##MW= 226
##$RETENTION INDEX=0
##$CONDENSED SPECTRUM=NO
##NPOINTS= 16
##XYDATA=(XY..XY) 1 
    51        520
    52         50
    77        999
    78         80
   152        160
   153         15
   168        190
   169         20
   179        989
   180        100
   181         10
   209        970
   210        120
   211         10
   226        650
   227         80