##TITLE=Library Entry 46386
##JCAMP-DX=Revision 4.10 
##DATA TYPE=MASS SPECTRUM
##SAMPLE DESCRIPTION=ASES Database, Dalian Institute, P.R. China
##NAMES=HP
##CAS NAME=N-(2-Nitro)benzyliene-4-bromoaniline
##MOLFORM=C13H9BrN2O2
##CAS REGISTRY NO=17064-89-0
##MP= -300
##BP= -300
##MW= 304
##$RETENTION INDEX=0
##$CONDENSED SPECTRUM=NO
##NPOINTS= 40
##XYDATA=(XY..XY) 1 
    65        110
    75        398
    76        999
    77        380
    89        118
    90        140
    91        119
    92        118
   102        100
   104        276
   105        120
   134        139
   137        121
   139        119
   151        330
   152        756
   153        128
   154        118
   155        478
   156        128
   157        477
   167         99
   170        169
   172        170
   177        168
   178        416
   179        170
   180        608
   181        138
   183        148
   185        149
   195        100
   257        357
   259        347
   287        597
   288        148
   289        598
   290        119
   304        309
   306        310