##TITLE=Library Entry 98703
##JCAMP-DX=Revision 4.10 
##DATA TYPE=MASS SPECTRUM
##SAMPLE DESCRIPTION=Asinex Ltd, Moscow, Russia
##NAMES=HP
##CAS NAME=N-(3-Nitrobenzylidene)-O-toluidine
##MOLFORM=C14H12N2O2
##CAS REGISTRY NO=17064-93-6
##MP= -300
##BP= -300
##MW= 240
##$RETENTION INDEX=0
##$CONDENSED SPECTRUM=NO
##NPOINTS= 152
##XYDATA=(XY..XY) 1 
    35          2
    36          0
    37          2
    38         11
    39         93
    40         10
    41         27
    42          4
    43          3
    44         12
    45          1
    46          3
    47          4
    48          2
    50         39
    51         71
    52         19
    53          6
    54          2
    55          2
    56          1
    57          3
    59          1
    61          3
    62         20
    63         78
    64         28
    65        242
    66         20
    67          3
    69          4
    70          7
    71          4
    73          1
    74          9
    75         17
    76         35
    77         71
    78         16
    79          5
    80          1
    81          3
    82         12
    83         26
    84         40
    85          8
    86          4
    87          9
    88          7
    89         76
    90         51
    91        354
    92         34
    93         22
    94          3
    96         72
    97         11
    98          1
    99          2
   100          1
   101          4
   102          8
   103         13
   104         15
   105          8
   106          3
   107          8
   111          1
   112          1
   113          3
   114          4
   115         13
   116         20
   117        120
   118        999
   119         95
   120          7
   121          0
   125          2
   126          4
   127          9
   128          9
   129          4
   130          4
   131          2
   132          2
   133          5
   134          0
   137          0
   138          2
   139         13
   140          8
   141          5
   142          3
   143          2
   144          1
   149          7
   150          5
   151         13
   152         24
   153         10
   154         12
   155          3
   156          2
   162          1
   163          8
   164         12
   165         72
   166         30
   167         40
   168         12
   169          3
   170          1
   171          0
   176          7
   177         12
   178         21
   179         19
   180         24
   181         13
   182          8
   183          3
   188          1
   189          1
   190         12
   191         40
   192        100
   193        217
   194         84
   195         22
   196          6
   197          0
   205          4
   206          4
   207         11
   208         12
   209         90
   210        104
   211         17
   212          1
   221          2
   222          5
   223          9
   224         32
   225          9
   226          5
   237          1
   239        227
   240        694
   241        112
   242         12
   243          0