##TITLE=Library Entry 3895
##JCAMP-DX=Revision 4.10 
##DATA TYPE=MASS SPECTRUM
##SAMPLE DESCRIPTION=N.W. DAVIES, UNIV. OF TASMANIA, HOBART, TASMANIA, AUSTR
ALIA
##NAMES=HP
##CAS NAME=Naphthalene, decahydro-4a-methyl-1-methylene-7-(1-methylethenyl)-
, [4aR-(4a.alpha.,7.alpha.,8a.beta.)]-
##MOLFORM=C15H24
##CAS REGISTRY NO=17066-67-0
##MP= -300
##BP= -300
##MW= 204
##$RETENTION INDEX=1486
##$CONDENSED SPECTRUM=NO
##NPOINTS= 97
##XYDATA=(XY..XY) 1 
    26         17
    27        249
    29        307
    30          7
    38         12
    39        357
    41        999
    42         70
    43        184
    50         15
    51         70
    52         49
    53        397
    54         61
    55        617
    56         38
    57         41
    59          8
    63         22
    64         12
    65        153
    66         70
    67        634
    68        273
    69        272
    70         19
    71         20
    73         11
    77        345
    78         95
    79        682
    80        368
    81        783
    82        342
    83         67
    84          7
    87         15
    89          8
    91        524
    92        157
    93        861
    94        363
    95        513
    96         75
    97         97
    98          8
   103         33
   104         25
   105        901
   106        242
   107        887
   108        575
   109        268
   110         44
   111          8
   115         33
   116         12
   117         48
   118         67
   119        363
   120        153
   121        690
   122        294
   123        253
   124         30
   128         13
   129         15
   130          8
   131         35
   132         17
   133        399
   134        161
   135        313
   136        100
   137         20
   145         31
   146         13
   147        370
   148        219
   149        137
   150         57
   151          5
   159          7
   160         12
   161        532
   162        185
   163         52
   175        181
   176         73
   177          9
   189        430
   190         67
   202          7
   203          7
   204        885
   205        147
   206         11