##TITLE=Library Entry 52777
##JCAMP-DX=Revision 4.10 
##DATA TYPE=MASS SPECTRUM
##SAMPLE DESCRIPTION=C.E.A., C.E.N., GRENOBLE, FRANCE
##NAMES=HP
##CAS NAME=1,1':3',1''-Tercyclohexane
##MOLFORM=C18H32
##CAS REGISTRY NO=1706-50-9
##MP= -300
##BP= -300
##MW= 248
##$RETENTION INDEX=0
##$CONDENSED SPECTRUM=NO
##NPOINTS= 102
##XYDATA=(XY..XY) 1 
    17          2
    18         10
    24          1
    26          3
    27         24
    28          9
    29         44
    30          1
    31          1
    37          8
    38          1
    39         34
    40          7
    41        288
    42         16
    43         29
    44          1
    50          1
    51          3
    52          3
    53         35
    54         63
    55        446
    56         25
    57          8
    63          1
    65         11
    66         10
    67        256
    68         36
    69        117
    70          7
    71          3
    72          8
    73          1
    75          1
    77         17
    78          6
    79         44
    80         33
    81        196
    82        547
    83        999
    84         64
    85          2
    89          1
    91         12
    92          3
    93         14
    94         11
    95        191
    96         50
    97        154
    98         12
    99          1
   103          1
   104          1
   105          3
   106          1
   107          9
   108         14
   109        300
   110         33
   111          4
   115          1
   117          1
   119          1
   120          1
   121         12
   122         28
   123         58
   124          7
   125          1
   128          1
   135         14
   136          4
   137          3
   138          2
   139          1
   141          1
   142          1
   149          5
   150          1
   151          3
   152          2
   153          1
   161          1
   162          1
   163          6
   164        285
   165        421
   166         46
   167          4
   198          1
   200          1
   204          1
   205          1
   246          1
   247          1
   248        130
   249         27
   250          2