##TITLE=Library Entry 73779
##JCAMP-DX=Revision 4.10 
##DATA TYPE=MASS SPECTRUM
##SAMPLE DESCRIPTION=D.HENNEBERG, MAX-PLANCK INSTITUTE, MULHEIM, WEST GERMAN
Y
##NAMES=HP
##CAS NAME=D-Mannitol, 1,2:5,6-bis-O-(1-methylethylidene)-
##MOLFORM=C12H22O6
##CAS REGISTRY NO=1707-77-3
##MP= -300
##BP= -300
##MW= 262
##$RETENTION INDEX=0
##$CONDENSED SPECTRUM=NO
##NPOINTS= 117
##XYDATA=(XY..XY) 1 
    26          9
    27         49
    28         20
    29         56
    30          2
    31         81
    32          2
    38          1
    39         32
    40         10
    41        100
    42         60
    43        864
    44         27
    45         71
    46          1
    47         11
    50          2
    51          1
    52          1
    53         10
    54          1
    55         72
    56         26
    57        162
    58         23
    59        454
    60         30
    61        107
    62          2
    63          2
    65          1
    67          3
    68          3
    69         95
    70          7
    71         22
    72        136
    73        159
    74         35
    75          7
    77          2
    78          1
    81         12
    82          2
    83         81
    84          7
    85         78
    86         20
    87         14
    88          1
    89          1
    91          2
    93          1
    95          1
    97          8
    98          5
    99         31
   100         10
   101        999
   102         61
   103         83
   104          4
   105          1
   107          0
   108          1
   109          0
   110          1
   111        141
   112          9
   113         16
   114         12
   115         32
   116         23
   117          3
   119         15
   126          3
   127          2
   128          3
   129         76
   130          6
   131         81
   132         11
   133          4
   141          1
   143         33
   144         30
   145         14
   146          2
   147         81
   148          5
   149          1
   153          1
   154          0
   157          0
   159          3
   160          0
   161         22
   162          2
   171         19
   172          2
   173          1
   183          1
   185          1
   186          2
   187          0
   189        122
   190         11
   191          2
   213          1
   229         18
   230          2
   231          1
   247        171
   248         19
   249          3
   262          1