##TITLE=Library Entry 77109
##JCAMP-DX=Revision 4.10 
##DATA TYPE=MASS SPECTRUM
##SAMPLE DESCRIPTION=A.A.Kutin, Moscow, Russia
##NAMES=HP
##CAS NAME=Phosphonic acid, (2-phenylethenyl)-
##MOLFORM=C8H9O3P
##CAS REGISTRY NO=1707-08-0
##MP= -300
##BP= -300
##MW= 184
##$RETENTION INDEX=0
##$CONDENSED SPECTRUM=NO
##NPOINTS= 41
##XYDATA=(XY..XY) 1 
    37         53
    38         96
    39        239
    49         15
    50        239
    51        414
    52        134
    53         13
    61         14
    62         54
    63        109
    64         24
    65         55
    66         29
    74         81
    75         52
    76         59
    77        221
    78        341
    79          9
    88          0
    89         28
    90          3
    91         37
    92         12
    93         59
    94         14
   101          4
   102        206
   103        449
   104        999
   105         59
   106          1
   115         15
   118          8
   120         30
   182          2
   183         68
   184        138
   185         12
   186          2