##TITLE=Library Entry 66752
##JCAMP-DX=Revision 4.10 
##DATA TYPE=MASS SPECTRUM
##SAMPLE DESCRIPTION=MASS SPECTROMETRY CENTER, UNIV. OF UTAH ALDRICH 14048-1
##NAMES=HP
##CAS NAME=Thiourea, N-(2-hydroxyphenyl)-N'-phenyl-
##MOLFORM=C13H12N2OS
##CAS REGISTRY NO=17073-34-6
##MP= -300
##BP= -300
##MW= 244
##$RETENTION INDEX=0
##$CONDENSED SPECTRUM=NO
##NPOINTS= 127
##XYDATA=(XY..XY) 1 
    15         16
    16          7
    17         37
    18         10
    26         43
    27        122
    28         24
    29         43
    30          3
    32         16
    33         58
    34        122
    35          5
    36         35
    37         60
    38        135
    39        252
    40         99
    41        105
    42         39
    43         42
    44         49
    45         73
    46         19
    47         51
    48          4
    49         24
    50        136
    51        338
    52        181
    53         97
    54         61
    55         51
    56          2
    57          9
    58          8
    59          9
    60         22
    61         47
    62         81
    63        196
    64        255
    65        273
    66        348
    67         50
    68         25
    69         27
    70         24
    71          4
    73         17
    74         34
    75         37
    76        139
    77        526
    78        175
    79        120
    80        166
    81         41
    82          8
    83          6
    84         14
    88          6
    89          9
    90         32
    91        296
    92        164
    93        999
    94         82
    95         11
    96         44
    97          3
   102          8
   103         70
   104        104
   105        104
   106         40
   107         36
   108         98
   109        421
   110         40
   115          6
   118         13
   119         47
   120         13
   121          9
   122         35
   123         18
   124          5
   125          2
   126          4
   129          1
   130          1
   132         11
   133          7
   134         22
   135        345
   136         58
   137         34
   138          7
   139         17
   140          3
   150         12
   151        438
   152         75
   153         31
   154         21
   155          5
   166         27
   167         38
   168          4
   169         12
   170         11
   181         53
   182         19
   183         16
   187         18
   194         18
   205         18
   208         37
   209        163
   210        870
   211        150
   212         20
   227         10
   228          6
   244         35
   245          1