##TITLE=Library Entry 62199
##JCAMP-DX=Revision 4.10 
##DATA TYPE=MASS SPECTRUM
##SAMPLE DESCRIPTION=Japan AIST/NIMC Database- Spectrum MS-IW-6617
##NAMES=HP
##CAS NAME=N-(Phenylacetyl)-dl-aspartic acid
##MOLFORM=C12H13NO5
##CAS REGISTRY NO=17079-41-3
##MP= -300
##BP= -300
##MW= 251
##$RETENTION INDEX=0
##$CONDENSED SPECTRUM=NO
##NPOINTS= 110
##XYDATA=(XY..XY) 1 
    15          4
    16          1
    17          2
    18          1
    26          3
    27         10
    28         19
    29          2
    37          3
    38          9
    39         51
    40          7
    41         16
    42          7
    43         49
    44         31
    45         15
    46          2
    49          1
    50         13
    51         28
    52          8
    53          4
    54          2
    55          4
    57          1
    58          5
    59          3
    60          1
    61          4
    62         11
    63         35
    64         10
    65        127
    66          8
    68          1
    69          1
    70         11
    71         25
    72          9
    73          1
    74          4
    75          3
    76          3
    77         13
    78         15
    79          4
    80          1
    83          2
    85          1
    86          3
    87          3
    88         38
    89         57
    90         66
    91        999
    92        301
    93         20
    94          5
    96         13
    97          1
    98          3
    99         12
   100          1
   102          2
   103          3
   104          2
   105          2
   106          1
   107          3
   108          1
   114         21
   115          5
   116         10
   117         19
   118        283
   119         31
   120          2
   128          1
   129          1
   130          2
   132          4
   133          4
   134          1
   135          2
   136        307
   137         26
   138          2
   142         15
   143          5
   144          2
   145          1
   146          2
   159          1
   160          6
   161         46
   162          6
   170          1
   187          7
   188          3
   189          2
   205          2
   206          4
   207         15
   208          2
   231          3
   233        117
   234         16
   235          2
   251          2