##TITLE=Library Entry 60845
##JCAMP-DX=Revision 4.10 
##DATA TYPE=MASS SPECTRUM
##SAMPLE DESCRIPTION=Chemical Concepts
##NAMES=HP
##CAS NAME=3-Oxo-5-phenylpentanoic acid, ethyl ester
##MOLFORM=C13H16O3
##CAS REGISTRY NO=17071-29-3
##MP= -300
##BP= -300
##MW= 220
##$RETENTION INDEX=0
##$CONDENSED SPECTRUM=NO
##NPOINTS= 172
##XYDATA=(XY..XY) 1 
    20          3
    25          2
    26         21
    27        176
    28         60
    29        448
    30         16
    31         61
    32          7
    36          2
    37          2
    38          7
    39         96
    40         11
    41         67
    42         64
    43        290
    44         29
    45         46
    46         13
    47          2
    49          1
    50         27
    51        117
    52         30
    53         27
    54          4
    55         65
    56         15
    57         23
    58          9
    59         28
    60         78
    61         51
    62          8
    63         36
    64         12
    65        143
    66         12
    67          8
    68          4
    69         68
    70         29
    71         16
    72          4
    73         11
    74         11
    75         12
    76         13
    77        204
    78        100
    79        112
    80         10
    81         11
    82          7
    83         21
    84         16
    85         24
    86         30
    87        153
    88         57
    89         30
    90         13
    91        999
    92         83
    93          6
    94          3
    95          8
    96          8
    97         13
    98          4
    99          3
   100          6
   101         15
   102         21
   103        109
   104        917
   105        582
   106         56
   107         19
   108          3
   109          5
   110          4
   111          8
   112          2
   113          2
   114          5
   115        101
   116         18
   117         19
   118         10
   119          6
   120          2
   121          4
   122          2
   123          4
   124          2
   125          4
   126          4
   127         17
   128        123
   129         45
   130         24
   131        178
   132        175
   133        318
   134         31
   135          4
   136          1
   137          6
   138          2
   139          2
   140          1
   141          2
   142          5
   143          9
   144          7
   145         32
   146         67
   147         15
   148         31
   149          7
   150          3
   151          2
   153          2
   154          1
   155          4
   156         17
   157          5
   158          1
   159          1
   163          1
   164          1
   165          2
   166          1
   167          3
   168          1
   172          1
   173         11
   174        103
   175         39
   176          5
   177          3
   178          1
   179          1
   180          1
   181          2
   182          1
   187          2
   188          1
   189          1
   190          1
   191          4
   192          1
   193          2
   194          1
   195          1
   196          1
   197          1
   200          2
   201          2
   202         47
   203          7
   204          1
   206          5
   207          1
   209          2
   219          1
   220        172
   221         27
   222          3
   223          1