##TITLE=Library Entry 40797
##JCAMP-DX=Revision 4.10 
##DATA TYPE=MASS SPECTRUM
##SAMPLE DESCRIPTION=W.Jennings, T.Shibamoto
##NAMES=HP
##CAS NAME=1,3-Dioxolane, 2-hexyl-
##MOLFORM=C9H18O2
##CAS REGISTRY NO=1708-34-5
##MP= -300
##BP= -300
##MW= 158
##$RETENTION INDEX=1144
##$CONDENSED SPECTRUM=NO
##NPOINTS= 17
##XYDATA=(XY..XY) 1 
    41          7
    43         99
    44         79
    45        519
    46          7
    55         19
    57         39
    58         28
    71          7
    73        999
    74        169
    75         28
    81          7
    85         19
    88          7
   101          7
   157        109