##TITLE=Library Entry 19366
##JCAMP-DX=Revision 4.10 
##DATA TYPE=MASS SPECTRUM
##SAMPLE DESCRIPTION=FOOD RESEARCH REPORT 118, K.E. MURRAY & COLLEAGUES, DIV
. OF FOOD RESEARCH, CSIRO, AUSTRALIA
##NAMES=HP
##CAS NAME=3-Hepten-1-ol, (Z)-
##MOLFORM=C7H14O
##CAS REGISTRY NO=1708-81-2
##MP= -300
##BP= -300
##MW= 114
##$RETENTION INDEX=988
##$CONDENSED SPECTRUM=NO
##NPOINTS= 56
##XYDATA=(XY..XY) 1 
    26         25
    27        309
    28         89
    29        236
    30         13
    31        273
    32          4
    37          7
    38         25
    39        364
    40         53
    41        818
    42        218
    43        158
    44        118
    45         22
    50         27
    51         55
    52         27
    53        142
    54        327
    55        999
    56        169
    57        142
    58         15
    62          5
    63         13
    64          4
    65         38
    66         27
    67        309
    68        200
    69        100
    70         51
    71         35
    72         11
    77         31
    78          9
    79         64
    80          9
    81        727
    82         58
    83         67
    84         25
    85          9
    86         24
    91         13
    92          5
    93          4
    94          7
    95         29
    96        218
    97         18
   108          4
   110          4
   114         35