##TITLE=Library Entry 3520
##JCAMP-DX=Revision 4.10 
##DATA TYPE=MASS SPECTRUM
##SAMPLE DESCRIPTION=Japan AIST/NIMC Database- Spectrum MS-NW-5071
##NAMES=HP
##CAS NAME=Furan, 2,5-dihydro-
##MOLFORM=C4H6O
##CAS REGISTRY NO=1708-29-8
##MP= -300
##BP= -300
##MW= 70
##$RETENTION INDEX=0
##$CONDENSED SPECTRUM=NO
##NPOINTS= 43
##XYDATA=(XY..XY) 1 
    12          3
    13          7
    14         17
    15         34
    16          2
    17          1
    18          3
    24          2
    25          9
    26         42
    27        121
    28         36
    29        187
    30          8
    31         26
    32          7
    33          2
    34          6
    35          1
    36          8
    37         58
    38        113
    39        836
    40        264
    41        999
    42        769
    43         35
    44         24
    45          2
    48          2
    49          7
    50         16
    51         12
    52          6
    53          4
    54          3
    55          8
    66          1
    68         34
    69        261
    70        912
    71         55
    72         16