##TITLE=Library Entry 457
##JCAMP-DX=Revision 4.10 
##DATA TYPE=MASS SPECTRUM
##SAMPLE DESCRIPTION=J.VOTH UNIV. OF CALIFORNIA, DAVIS, CALIFORNIA, 95616, U
SA
##NAMES=HP
##CAS NAME=Furan, 2,5-dihydro-3-methyl-
##MOLFORM=C5H8O
##CAS REGISTRY NO=1708-31-2
##MP= -300
##BP= -300
##MW= 84
##$RETENTION INDEX=0
##$CONDENSED SPECTRUM=NO
##NPOINTS= 62
##XYDATA=(XY..XY) 1 
     2         17
    12         15
    13         26
    14         61
    15        127
    16          6
    17         10
    18         35
    19          1
    20          0
    24          4
    25         29
    26        211
    27        885
    28        351
    29        999
    30         47
    31         30
    32          2
    36          9
    37         77
    38        125
    39        855
    40        104
    41        936
    42         50
    43        134
    44         50
    45         13
    48          5
    49         38
    50        174
    51        180
    52         74
    53        355
    54        151
    55         99
    56        446
    57         34
    58          2
    59          1
    60          1
    61          3
    62          3
    63          3
    64          0
    65         12
    66          3
    67          2
    68         11
    69        512
    70         23
    71          1
    73          0
    77          0
    79          0
    81         13
    82         17
    83        223
    84        684
    85         37
    86          2