##TITLE=Library Entry 8094
##JCAMP-DX=Revision 4.10 
##DATA TYPE=MASS SPECTRUM
##SAMPLE DESCRIPTION=Robert B. Cody, JEOL USA, Inc
##NAMES=HP
##CAS NAME=TATP
##MOLFORM=C9H18O6
##CAS REGISTRY NO=17088-37-8
##MP= -300
##BP= -300
##MW= 222
##$RETENTION INDEX=1118
##$CONDENSED SPECTRUM=NO
##NPOINTS= 32
##XYDATA=(XY..XY) 1 
    29         39
    30          1
    31         15
    32          8
    33          1
    36          1
    37          6
    38          6
    39         15
    40          9
    41         22
    42         43
    43        999
    44         38
    45         20
    47          3
    53          2
    55          5
    57         52
    58        273
    59        168
    60          8
    73         33
    74         25
    75        124
    76          3
    77          0
    89          1
    91          0
   101          7
   117          5
   222          0