##TITLE=Library Entry 44886
##JCAMP-DX=Revision 4.10 
##DATA TYPE=MASS SPECTRUM
##SAMPLE DESCRIPTION=R.IKAN, THE HEBREW UNIV. OF JERUSALEM, JERUSALEM, ISRAE
L
##NAMES=HP
##CAS NAME=Stigmast-7-en-26-oic acid, 2,3,14,20,22,28-hexahydroxy-6-oxo-, .g
amma.-lactone, (2.beta.,3.beta.,5.beta.,22R,24S,25S,28R)-
##MOLFORM=C29H44O8
##CAS REGISTRY NO=17086-76-9
##MP= -300
##BP= -300
##MW= 520
##$RETENTION INDEX=0
##$CONDENSED SPECTRUM=NO
##NPOINTS= 68
##XYDATA=(XY..XY) 1 
    15        150
    16         10
    17         40
    18         60
    19         60
    20         30
    26         30
    27        180
    28         90
    29        320
    30         10
    31         30
    32         20
    39        110
    40         20
    41        290
    42         80
    43        460
    44         50
    45         50
    46         60
    50         10
    52         10
    53         20
    55        150
    56         80
    57        370
    58         20
    59        220
    60         70
    61         50
    73         40
    74        999
    75         50
    83         10
    84         10
    85        350
    86         30
    87        280
    88         40
   101         20
   117         10
   157        999
   183        290
   201        120
   299        240
   300        470
   301        290
   309        180
   310        180
   311        180
   327        290
   344        320
   345        200
   363         10
   365         60
   398         90
   415         10
   426         60
   430         10
   433         10
   448         10
   451         10
   466         60
   484         90
   502         10
   505         10
   520         10