##TITLE=Library Entry 47579
##JCAMP-DX=Revision 4.10 
##DATA TYPE=MASS SPECTRUM
##SAMPLE DESCRIPTION=GAZ DE FRANCE, DELORME, PARIS, FRANCE
##NAMES=HP
##CAS NAME=Azobenzene, (E)-
##MOLFORM=C12H10N2
##CAS REGISTRY NO=17082-12-1
##MP= -300
##BP= -300
##MW= 182
##$RETENTION INDEX=0
##$CONDENSED SPECTRUM=NO
##NPOINTS= 38
##XYDATA=(XY..XY) 1 
    26          2
    27         26
    37          5
    38         14
    39         24
    40          2
    41          2
    49          1
    50         19
    51        207
    52          7
    61          1
    62          4
    63         17
    64         20
    65          8
    74          6
    75          6
    76          3
    77        999
    78         62
    89          1
    90          1
    91          4
    93          2
   102          4
   105         18
   106         13
   115         10
   127          3
   128          8
   139          3
   151         12
   152         48
   153         41
   154          9
   182        273
   183         34