##TITLE=Library Entry 34396
##JCAMP-DX=Revision 4.10 
##DATA TYPE=MASS SPECTRUM
##SAMPLE DESCRIPTION=C.BOTTEGHI ZURICH TECHNICAL COLLEGE, ZURICH, SWITZERLAN
D
##NAMES=HP
##CAS NAME=Furan, 2,3-dihydro-3-methyl-
##MOLFORM=C5H8O
##CAS REGISTRY NO=1708-27-6
##MP= -300
##BP= -300
##MW= 84
##$RETENTION INDEX=1392
##$CONDENSED SPECTRUM=NO
##NPOINTS= 40
##XYDATA=(XY..XY) 1 
    14         10
    15         20
    17         10
    18         50
    26         35
    27        210
    28        100
    29        170
    30          5
    31         10
    32         10
    37         15
    38         40
    39        390
    40         45
    41        670
    42         30
    43         30
    44         10
    45          5
    49          5
    50         35
    51         45
    52         20
    53        130
    54         40
    55        205
    56         50
    57         10
    65          5
    66          5
    67          5
    68         15
    69        999
    70         50
    81          5
    82          5
    83         65
    84        540
    85         40