##TITLE=Library Entry 55222
##JCAMP-DX=Revision 4.10 
##DATA TYPE=MASS SPECTRUM
##SAMPLE DESCRIPTION=Chemical Concepts
##NAMES=HP
##CAS NAME=Thiophene, 2,5-dihydro-
##MOLFORM=C4H6S
##CAS REGISTRY NO=1708-32-3
##MP= -300
##BP= -300
##MW= 86
##$RETENTION INDEX=0
##$CONDENSED SPECTRUM=NO
##NPOINTS= 56
##XYDATA=(XY..XY) 1 
    25          4
    26         22
    27         52
    29          1
    31          0
    33          3
    34          2
    35          0
    36          1
    37         11
    38         19
    39         68
    40          5
    41         30
    42          3
    43          5
    44          3
    45        219
    46         25
    47         18
    48          2
    49          9
    50         29
    51         33
    52         14
    53         59
    54          5
    55          3
    56          3
    57         27
    58         66
    59         45
    60         19
    61          2
    62          0
    65          0
    67          1
    68          2
    69         13
    70          3
    71         53
    72          2
    73          2
    77          0
    78          0
    79          0
    80          1
    81          8
    82          6
    83          5
    84         25
    85        999
    86        817
    87         77
    88         34
    89          1