##TITLE=Library Entry 87961
##JCAMP-DX=Revision 4.10 
##DATA TYPE=MASS SPECTRUM
##SAMPLE DESCRIPTION=Philip Morris R&D
##NAMES=HP
##CAS NAME=2(4H)-Benzofuranone, 5,6,7,7a-tetrahydro-4,4,7a-trimethyl-, (R)-
##MOLFORM=C11H16O2
##CAS REGISTRY NO=17092-92-1
##MP= -300
##BP= -300
##MW= 180
##$RETENTION INDEX=1532
##$CONDENSED SPECTRUM=NO
##NPOINTS= 94
##XYDATA=(XY..XY) 1 
    37          0
    38          3
    39         59
    40         19
    41        106
    42          9
    43        418
    44         15
    45          7
    46          4
    47          0
    50          7
    51         23
    52         12
    53         34
    54          4
    55         55
    56          7
    57          3
    58          3
    59          1
    61          2
    62          2
    63          5
    64          1
    65         24
    66         18
    67        181
    68         17
    69         83
    70         15
    71          5
    72          0
    73          0
    75          0
    77         35
    78          6
    79         42
    80          8
    81         53
    82         14
    83         47
    84          4
    85          2
    89          0
    91         23
    92          3
    93         39
    94         17
    95         77
    96         27
    97          7
    98          2
   102          0
   103          1
   104          0
   105          7
   106          2
   107         14
   108         11
   109        268
   110        184
   111        999
   112         85
   113          7
   117          1
   119         11
   120          3
   121         13
   122         22
   123         28
   124        119
   125         10
   126          0
   133          1
   134          3
   135          6
   136          0
   137        353
   138         40
   139          3
   147          5
   148          0
   150          1
   151          1
   152         78
   153          7
   162          2
   164          1
   165         49
   166          4
   180        259
   181         30
   182          2