##TITLE=Library Entry 82613
##JCAMP-DX=Revision 4.10 
##DATA TYPE=MASS SPECTRUM
##SAMPLE DESCRIPTION=A.A.Kutin, Moscow, Russia
##NAMES=HP
##CAS NAME=Pyridine-4-carboxamide, N-(4,4-dimethyl-2,6-dioxocyclohexylidenme
thyl)-
##MOLFORM=C15H16N2O3
##CAS REGISTRY NO=170944-57-7
##MP= -300
##BP= -300
##MW= 272
##$RETENTION INDEX=0
##$CONDENSED SPECTRUM=NO
##NPOINTS= 161
##XYDATA=(XY..XY) 1 
    36          0
    37          6
    38         12
    39         82
    40         33
    41        122
    42         36
    43         48
    44         19
    45         13
    48          0
    49         12
    50        108
    51        369
    52         81
    53         62
    54         24
    55        168
    56         42
    57         14
    58          0
    59          5
    60          0
    61          0
    62          1
    63          7
    64          7
    65         11
    66         12
    67         21
    68         62
    69         88
    70         49
    71          6
    72          0
    73          0
    74          1
    75          8
    76         17
    77         46
    78        797
    79        487
    80         37
    81          9
    82         18
    83         49
    84         15
    85          7
    86          0
    89          1
    90          3
    91         11
    92          6
    93         11
    94         18
    95         10
    96         11
    97          6
    98          4
    99          0
   101          0
   102          1
   103          4
   104         10
   105         63
   106        999
   107        326
   108         26
   109          7
   110         53
   111         62
   112         12
   113          1
   115          1
   116          1
   117          3
   118         10
   119          7
   120         10
   121          4
   122         90
   123        191
   124         27
   125          5
   126          0
   128          0
   129          1
   130          0
   131         22
   132          7
   133          8
   134          2
   135         23
   136          4
   137          1
   138         29
   139         10
   140         12
   141          1
   142          0
   143          0
   144          1
   145          6
   146         55
   147         12
   148          7
   149          2
   150          3
   151          2
   152          8
   153          1
   154          0
   156          0
   157          0
   158          1
   159         16
   160        250
   161         30
   162          2
   163          0
   164          2
   166        607
   167        101
   168         14
   169          0
   171          3
   172          1
   173         15
   174          5
   175         11
   176          4
   177          0
   178          0
   186          0
   187          3
   188        124
   189         31
   190          4
   191          0
   193          0
   194         15
   195          1
   201          6
   202          1
   215          1
   216         11
   217          1
   227          1
   228          0
   229          4
   230          0
   243         29
   244         13
   245          1
   257         13
   258          1
   269          0
   270          0
   272        228
   273         39
   274          4