##TITLE=Library Entry 78309
##JCAMP-DX=Revision 4.10 
##DATA TYPE=MASS SPECTRUM
##SAMPLE DESCRIPTION=A.A.Kutin, Moscow, Russia
##NAMES=HP
##CAS NAME=Oxazol-4(5H)-one, 2-phenyl-5-(3-phenyl-2-propenylideno)-
##MOLFORM=C18H13NO2
##CAS REGISTRY NO=170948-92-2
##MP= -300
##BP= -300
##MW= 275
##$RETENTION INDEX=0
##$CONDENSED SPECTRUM=NO
##NPOINTS= 109
##XYDATA=(XY..XY) 1 
    29          6
    30          0
    32        159
    34          0
    37          1
    38          5
    39         23
    40         13
    41          1
    42          0
    43          0
    44          3
    45          0
    50         33
    51        115
    52         13
    53          2
    54          0
    55          0
    57          0
    61          1
    62          8
    63         19
    64          5
    65          9
    66          0
    69          0
    71          0
    74         10
    75         13
    77        522
    78         37
    80          0
    82          0
    83          0
    86          1
    87          4
    88          5
    89         16
    90          3
    91          3
    92          0
    94          0
    95          0
    98          0
    99          0
   100          1
   101          2
   102         15
   105        999
   106         75
   107          4
   108          0
   109          0
   111          0
   113          7
   114         12
   115         64
   116         17
   117          2
   118          0
   124          0
   126          3
   127          6
   128          3
   129          0
   132          1
   138          4
   140         18
   141         10
   142         16
   143          2
   144          1
   151          0
   152          0
   153          0
   154          0
   155          1
   156          0
   165          0
   170          1
   172          6
   173          0
   181          0
   189          0
   191          0
   198          0
   202          0
   203          0
   216          0
   217          0
   218          0
   219          0
   228          0
   229          0
   230          1
   231          0
   245          0
   246          2
   247          9
   248          1
   270          0
   271          0
   272          1
   273          2
   274          5
   275         60
   276         11
   277          1