##TITLE=Library Entry 9584
##JCAMP-DX=Revision 4.10 
##DATA TYPE=MASS SPECTRUM
##SAMPLE DESCRIPTION=Chemical Concepts
##NAMES=HP
##CAS NAME=N-Cyclooct-4-enylacetamide
##MOLFORM=C10H17NO
##CAS REGISTRY NO=170952-69-9
##MP= -300
##BP= -300
##MW= 167
##$RETENTION INDEX=0
##$CONDENSED SPECTRUM=NO
##NPOINTS= 132
##XYDATA=(XY..XY) 1 
    26         13
    27        171
    28        251
    29        161
    30        195
    31         21
    36          6
    37          8
    38         17
    39        347
    40         70
    41        391
    42        171
    43        999
    44        220
    45         20
    46          2
    49          2
    50          9
    51         33
    52         27
    53        141
    54        271
    55        300
    56        633
    57        366
    58        100
    59         21
    60        759
    61         36
    62          6
    63         11
    64          6
    65         66
    66         86
    67        397
    68        736
    69        514
    70        302
    71        132
    72         69
    73         71
    74         10
    75          7
    76          6
    77        113
    78         71
    79        399
    80        493
    81        259
    82        835
    83        318
    84        152
    85        141
    86        122
    87         54
    88          7
    89          5
    90          3
    91        102
    92         27
    93        251
    94         88
    95        118
    96        390
    97        299
    98        326
    99         94
   100         27
   101         14
   102          5
   103          7
   104          8
   105         28
   106         30
   107         68
   108        608
   109        128
   110        223
   111        110
   112         93
   113         28
   114         25
   115          9
   116          4
   117          5
   118          4
   119         11
   120          9
   121         15
   122         31
   123         32
   124        427
   125        370
   126         75
   127          8
   128          3
   129          4
   130          2
   131          3
   132          2
   133          5
   134         14
   135          8
   136         18
   137         14
   138        105
   139        150
   140         29
   141          8
   142         16
   143          4
   144          3
   145          5
   146          2
   147          4
   148          5
   149         15
   150         17
   151          6
   152        257
   153         32
   154         20
   155          6
   156          2
   163          5
   164          7
   165         14
   166         19
   167        636
   168         95
   169         11