##TITLE=Library Entry 86580
##JCAMP-DX=Revision 4.10 
##DATA TYPE=MASS SPECTRUM
##SAMPLE DESCRIPTION=NIST Mass Spectrometry Data Center, 1998.
##NAMES=HP
##CAS NAME=Edifenphos
##MOLFORM=C14H15O2PS2
##CAS REGISTRY NO=17109-49-8
##MP= -300
##BP= -300
##MW= 310
##$RETENTION INDEX=2330
##$CONDENSED SPECTRUM=NO
##NPOINTS= 147
##XYDATA=(XY..XY) 1 
    15          1
    26          4
    27         26
    28          3
    29         48
    30          1
    37          1
    38          8
    39         99
    40          4
    41          1
    43          5
    44          1
    45         36
    46          1
    47         23
    48          1
    49          1
    50         23
    51         79
    52          7
    53          2
    57          9
    58         15
    59         10
    60          2
    61          2
    62          7
    63         47
    64          1
    65        311
    66         54
    67          2
    68          2
    69         99
    70          7
    71          9
    72          1
    73          1
    74          7
    75          9
    76          7
    77         74
    78         15
    79          3
    80          1
    81          9
    82         28
    83         21
    84         17
    85          2
    86          1
    89          1
    91          3
    92          1
    93          4
    94          9
    95          3
    96          4
    97         10
    98          1
    99          1
   102          1
   103          1
   104          2
   105          5
   106          2
   107          4
   108         69
   109        999
   110        230
   111         66
   112         10
   113          1
   115          2
   121          2
   122          1
   123         14
   124          1
   125          3
   126          1
   127          1
   128          1
   134          1
   135          2
   136          1
   137          6
   138          7
   139          6
   140         10
   141         29
   142          3
   143          2
   151          1
   152          6
   153          5
   154         22
   155         30
   156          7
   157          7
   158          1
   159          1
   165          1
   167          1
   169          7
   170          1
   171          7
   172          1
   173        680
   174         56
   175         37
   176          2
   181          1
   183          9
   184         22
   185         24
   186         54
   187         12
   188          3
   189          6
   190          1
   191          1
   201        226
   202         22
   203         12
   204          1
   205          2
   206          1
   216          1
   217         11
   218         97
   219         15
   220          9
   221          1
   233          2
   263          1
   265          8
   266          2
   267          1
   281          2
   282          2
   283          1
   310        309
   311         54
   312         33
   313          5
   314          1