##TITLE=Library Entry 56658
##JCAMP-DX=Revision 4.10 
##DATA TYPE=MASS SPECTRUM
##SAMPLE DESCRIPTION=B.J.MILLARD SCHOOL OF PHARMACY, UNIV. OF LONDON, LONDON
, UK
##NAMES=HP
##CAS NAME=5-Isothiazolemethanol
##MOLFORM=C4H5NOS
##CAS REGISTRY NO=1710-66-3
##MP= -300
##BP= -300
##MW= 115
##$RETENTION INDEX=0
##$CONDENSED SPECTRUM=NO
##NPOINTS= 14
##XYDATA=(XY..XY) 1 
    44         80
    45        160
    54        100
    55        200
    57        240
    58        160
    59        320
    82        400
    86        999
    87        320
    98         80
   112         80
   114        240
   115        980