##TITLE=Library Entry 10518
##JCAMP-DX=Revision 4.10 
##DATA TYPE=MASS SPECTRUM
##SAMPLE DESCRIPTION=D.HENNEBERG, MAX-PLANCK INSTITUTE, MULHEIM, WEST GERMAN
Y
##NAMES=HP
##CAS NAME=Furan, 2,3-dihydro-2,5-dimethyl-
##MOLFORM=C6H10O
##CAS REGISTRY NO=17108-52-0
##MP= -300
##BP= -300
##MW= 98
##$RETENTION INDEX=0
##$CONDENSED SPECTRUM=NO
##NPOINTS= 62
##XYDATA=(XY..XY) 1 
    24          0
    25          1
    26         18
    27        125
    28          6
    29         85
    30          2
    31          3
    33          0
    35          0
    36          0
    37          5
    38          8
    39        190
    40         10
    41         62
    42         23
    43        999
    44         22
    45         49
    46          1
    47          1
    48          2
    49          2
    50         15
    51         21
    52         12
    53         82
    54        145
    55        217
    56         24
    57          4
    58          3
    59          1
    61          2
    62          0
    63          0
    64          0
    65          3
    66          0
    67          3
    68          1
    69         11
    70          5
    71         11
    72          0
    75          0
    77          5
    78          0
    79         22
    80          2
    81          8
    82          9
    83        210
    84         12
    85          0
    95          4
    96          3
    97         58
    98        283
    99         20
   100          1