##TITLE=Library Entry 9166
##JCAMP-DX=Revision 4.10 
##DATA TYPE=MASS SPECTRUM
##SAMPLE DESCRIPTION=NIST Mass Spectrometry Data Center, 2010
##NAMES=HP
##CAS NAME=N-(2-Chloroethyl)diacetamide
##MOLFORM=C6H10ClNO2
##CAS REGISTRY NO=17101-83-6
##MP= -300
##BP= -300
##MW= 163
##$RETENTION INDEX=0
##$CONDENSED SPECTRUM=NO
##NPOINTS= 78
##XYDATA=(XY..XY) 1 
    14          6
    15         45
    16          1
    18          1
    25          1
    26          8
    27         38
    28         23
    29          7
    30        180
    31          4
    35          1
    36          2
    37          1
    38          2
    39          4
    40         11
    41         19
    42        101
    43        999
    44        106
    45          6
    48          2
    49         19
    50          2
    51          6
    52          3
    53          1
    54          6
    55          6
    56         13
    57          3
    58          4
    59          7
    60          5
    61          4
    62          5
    63         25
    65          8
    68         41
    69          3
    70          5
    72        529
    73         30
    74          2
    76          1
    77          3
    78         28
    80         15
    84        256
    85         70
    86        151
    87          8
    88          1
    92          2
   100         24
   101         48
   102          3
   103         60
   104         18
   105         20
   106          7
   114         87
   115          5
   120          9
   121        208
   122        114
   123         74
   124         37
   125          2
   128        299
   129         22
   135         59
   136          4
   137         19
   163         21
   164          2
   165          6