##TITLE=Library Entry 68557
##JCAMP-DX=Revision 4.10 
##DATA TYPE=MASS SPECTRUM
##SAMPLE DESCRIPTION=Japan AIST/NIMC Database- Spectrum MS-NW-6964
##NAMES=HP
##CAS NAME=3-Hydroxymandelic acid
##MOLFORM=C8H8O4
##CAS REGISTRY NO=17119-15-2
##MP= -300
##BP= -300
##MW= 168
##$RETENTION INDEX=0
##$CONDENSED SPECTRUM=NO
##NPOINTS= 87
##XYDATA=(XY..XY) 1 
    14          1
    15          3
    17          3
    18         10
    25          1
    26          7
    27         28
    28         14
    29         11
    30          1
    31          5
    37         13
    38         40
    39        174
    40         34
    41         71
    42          7
    43          9
    44         12
    45         31
    46          5
    47          6
    49          5
    50         37
    51         87
    52         18
    53         33
    54          4
    55         42
    56          2
    57          1
    60          3
    61         13
    62         23
    63         52
    64         21
    65        169
    66         73
    67         61
    68          6
    69          2
    73          4
    74         14
    75         11
    76          9
    77        583
    78         70
    79          9
    80          1
    81          2
    82          1
    83          1
    85          1
    86          2
    87          1
    89          1
    90          2
    91          2
    92          7
    93         71
    94         67
    95        999
    96         69
    97          5
   105         30
   106         26
   107         10
   108          2
   110          1
   111          3
   119          1
   120          1
   121         96
   122         54
   123        996
   124         93
   125          8
   134          3
   139          1
   140          2
   149          3
   150          1
   151          2
   152          3
   168        496
   169         47
   170          6