##TITLE=Library Entry 91119
##JCAMP-DX=Revision 4.10 
##DATA TYPE=MASS SPECTRUM
##SAMPLE DESCRIPTION=H-F. GRUTZMACHER UNIVERSITY OF HAMBURG, W. GERMANY
##NAMES=HP
##CAS NAME=2-Pentenoic acid, 5-(decahydro-5,5,8a-trimethyl-2-methylene-1-nap
hthalenyl)-3-methyl-, methyl ester, [1R-[1.alpha.(E),4a.beta.,8a.alpha.]]-
##MOLFORM=C21H34O2
##CAS REGISTRY NO=17110-88-2
##MP= -300
##BP= -300
##MW= 318
##$RETENTION INDEX=2319
##$CONDENSED SPECTRUM=NO
##NPOINTS= 186
##XYDATA=(XY..XY) 1 
    39        115
    40         26
    41        220
    42         46
    43        231
    44         44
    45         22
    51         14
    52         11
    53        199
    54         54
    55        592
    56         46
    57        130
    58          8
    59         48
    65         67
    66         28
    67        408
    68        103
    69        730
    70         51
    71         31
    73         14
    74         42
    75         12
    77        153
    78         33
    79        320
    80         70
    81        811
    82        272
    83        262
    84         21
    85         36
    87         20
    91        231
    92         52
    93        367
    94         92
    95        668
    96         94
    97        126
    98        138
    99         24
   100          8
   101         24
   102          7
   103         23
   104         12
   105        179
   106         64
   107        312
   108        113
   109        531
   110         65
   111         60
   112         19
   113          8
   114        999
   115         86
   116         20
   117         34
   118         15
   119        126
   120         79
   121        320
   122        158
   123        460
   124        127
   125         57
   126         12
   127         46
   128         15
   129         19
   130          9
   131         31
   132         12
   133         94
   134         59
   135        248
   136        239
   137        842
   138        108
   139         64
   140         27
   141         17
   142         10
   143         10
   144          6
   145         32
   146         11
   147         82
   148         35
   149        207
   150         73
   151         22
   152         13
   153         14
   155          6
   157          9
   158          5
   159         33
   160         11
   161         66
   162         29
   163         79
   164         21
   165         22
   166         17
   167         24
   169          8
   171          7
   173         34
   174         12
   175         59
   176         34
   177        231
   178         42
   179         21
   180         29
   181         19
   182         16
   183          7
   187         22
   188         10
   189         78
   190         25
   191         59
   192         32
   193         14
   195         25
   196         18
   197          6
   199          7
   201         17
   202          8
   203         21
   204         51
   205        174
   206         30
   207         25
   208         11
   215         15
   216          6
   217         17
   218          6
   219          6
   221         22
   222          6
   227          5
   229         34
   230         12
   231         10
   232         10
   233         25
   234         10
   235          9
   236          6
   242         11
   243         49
   244        119
   245         47
   246          7
   247         12
   248          9
   249         16
   253          8
   258         28
   259         16
   262          8
   269         12
   271         38
   272          9
   275         16
   286         23
   287         38
   288          9
   289         17
   290          5
   303        347
   304         76
   305         26
   318        116
   319         32
   320         15