##TITLE=Library Entry 99269
##JCAMP-DX=Revision 4.10 
##DATA TYPE=MASS SPECTRUM
##SAMPLE DESCRIPTION=Japan AIST/NIMC Database- Spectrum MS-NW-2821
##NAMES=HP
##CAS NAME=Benzoyl chloride, 3-methyl-
##MOLFORM=C8H7ClO
##CAS REGISTRY NO=1711-06-4
##MP= -300
##BP= -300
##MW= 154
##$RETENTION INDEX=0
##$CONDENSED SPECTRUM=NO
##NPOINTS= 65
##XYDATA=(XY..XY) 1 
    15          1
    26          4
    27          9
    28          8
    35          2
    36          5
    37          9
    38         16
    39         79
    40          7
    41         21
    43          9
    44          5
    45          6
    46          1
    49          5
    50         37
    51         39
    52         10
    53          4
    59         18
    60          3
    61         11
    62         28
    63         74
    64         22
    65        180
    66          9
    73          4
    74         10
    75          9
    76          8
    77          6
    80          1
    82          1
    84          1
    85          4
    86          7
    87          5
    88          2
    89         68
    90         41
    91        614
    92         47
    93          2
    99          2
   101          1
   105          6
   116          1
   117          3
   118          6
   119        999
   120         88
   121          6
   124          1
   125          5
   126          1
   127          1
   136          2
   138          1
   153          1
   154         73
   155          7
   156         22
   157          2