##TITLE=Library Entry 13704
##JCAMP-DX=Revision 4.10 
##DATA TYPE=MASS SPECTRUM
##SAMPLE DESCRIPTION=Chemical Concepts
##NAMES=HP
##CAS NAME=5-Acetyl-4-(2-furyl)-4,5,6,7-tetrahydro-6-hydroxy-3,6-dimethylant
hranil
##MOLFORM=C15H17NO4
##CAS REGISTRY NO=171199-36-3
##MP= -300
##BP= -300
##MW= 275
##$RETENTION INDEX=0
##$CONDENSED SPECTRUM=NO
##NPOINTS= 159
##XYDATA=(XY..XY) 1 
    33          5
    34          4
    36          2
    39        168
    41         48
    43        999
    50         14
    51         47
    52         18
    53         35
    55         44
    57         19
    58          8
    59          1
    60          2
    61          4
    62          8
    63         33
    65         52
    66          9
    67          8
    68         10
    69          9
    70          5
    71          9
    72          2
    73          1
    74          3
    75          8
    77         60
    78         19
    79         14
    80          5
    81         15
    82          4
    83          4
    84          4
    85          9
    87          3
    88          2
    89          9
    90          8
    91         25
    92         10
    93          7
    94          7
    95          6
    96          3
    97          3
    98          2
    99          2
   100          1
   101          3
   102          6
   103          9
   104         10
   105         13
   106          7
   107          7
   108          5
   109          3
   110          2
   112          3
   113          1
   115         14
   117         24
   118         12
   119         11
   120         15
   121         11
   122          4
   124          3
   125          1
   127          6
   128          5
   129          3
   130          8
   131         10
   132         21
   133         11
   134          8
   135          4
   136          2
   137          2
   138          1
   139          1
   140          1
   141          2
   142          3
   143          9
   144         23
   145         42
   146         21
   147          9
   148         21
   149          9
   150          3
   151          1
   152          1
   153          2
   154          3
   155          2
   156          4
   157          4
   158          9
   159          6
   160          9
   161          7
   162          9
   163          2
   164          1
   166          1
   167          1
   168          4
   169          2
   170          5
   171          9
   172         59
   173         38
   174         13
   175          7
   176          6
   177          2
   183          1
   184          2
   185          3
   186         11
   187          5
   188          4
   189          5
   190         34
   191          6
   192          1
   196          2
   197          1
   198          1
   199          2
   200          5
   201          1
   202          1
   203          1
   204          2
   214        428
   215         59
   216         13
   217          3
   218          6
   219          1
   228          1
   230          1
   232         22
   233          4
   234          1
   242          1
   255          1
   257          6
   258          3
   260          1
   275          4