##TITLE=Library Entry 70008
##JCAMP-DX=Revision 4.10 
##DATA TYPE=MASS SPECTRUM
##SAMPLE DESCRIPTION=A.Pleshkova, Nesmeyanov Inst.Org.Elem.Cpds, Moscow
##NAMES=HP
##CAS NAME=Octafluoromethanetetramine
##MOLFORM=CF8N4
##CAS REGISTRY NO=17125-65-4
##MP= -300
##BP= -300
##MW= 220
##$RETENTION INDEX=0
##$CONDENSED SPECTRUM=NO
##NPOINTS= 32
##XYDATA=(XY..XY) 1 
    14         53
    19         19
    26         75
    27          1
    28         38
    31        569
    32          7
    33        411
    34          2
    40         78
    41          1
    45         55
    46          1
    47         23
    50        169
    51          2
    52        612
    53          2
    54         11
    55          1
    59         79
    60          2
    64        798
    65         12
    78        120
    79          2
    83         11
    97        999
    98         19
   116          8
   168        383
   169          9