##TITLE=Library Entry 71417
##JCAMP-DX=Revision 4.10 
##DATA TYPE=MASS SPECTRUM
##SAMPLE DESCRIPTION=A.S.Moskovkin,I.M.Karnaukh, Russian Center on Disaster
 Medicine
##NAMES=HP
##CAS NAME=1-Benzoylamino-5-piperidinyl-1-(4-methylphenyl)pentane
##MOLFORM=C24H32N2O
##CAS REGISTRY NO=171203-88-6
##MP= -300
##BP= -300
##MW= 364
##$RETENTION INDEX=0
##$CONDENSED SPECTRUM=NO
##NPOINTS= 140
##XYDATA=(XY..XY) 1 
    38          6
    39         31
    40         14
    41        150
    42        110
    43         70
    44         66
    45          7
    50         13
    51         37
    52          8
    53         12
    54         17
    55        130
    56         42
    57         42
    58          8
    59          2
    62          2
    63          5
    64          2
    65         13
    66          3
    67         18
    68         18
    69         66
    70         41
    71         18
    72          3
    73          6
    74          3
    75          3
    76          9
    77        180
    78         22
    79         12
    80          5
    81         18
    82         17
    83         28
    84         81
    85         31
    86         15
    87          2
    89          4
    90          3
    91         33
    92          7
    93          7
    94          5
    95         10
    96         32
    97         23
    98        999
    99         90
   100          4
   102          2
   103          6
   104          8
   105        290
   106         26
   107          5
   108          3
   109          6
   110         16
   111         11
   112          8
   113          5
   115         12
   116          8
   117         15
   118         30
   119          9
   120          4
   121         12
   122         10
   123          6
   124         57
   125         11
   126          3
   127         12
   128          6
   129          8
   130          5
   131         14
   132          4
   133          5
   134          2
   135          2
   136          3
   137          5
   138          7
   139          2
   140         51
   141          9
   142          2
   143          3
   144          4
   145          5
   146          4
   147          2
   149          8
   150          2
   151          3
   152          2
   153          2
   155          3
   157          2
   158          2
   159          5
   160          2
   161          1
   172          2
   174          7
   175          2
   181          2
   183         13
   184          2
   197          5
   225          4
   226          1
   236          4
   237          2
   238          1
   241          1
   242          6
   243          4
   244          8
   245          2
   259          8
   260          2
   279          1
   280          8
   281          2
   295          2
   362          1
   363          3
   364         72
   365         19
   366          3