##TITLE=Library Entry 71418
##JCAMP-DX=Revision 4.10 
##DATA TYPE=MASS SPECTRUM
##SAMPLE DESCRIPTION=A.S.Moskovkin,I.M.Karnaukh, Russian Center on Disaster
 Medicine
##NAMES=HP
##CAS NAME=1-Benzoylamino-5-piperidinyl-1-(4-chlorophenyl)pentane
##MOLFORM=C23H29ClN2O
##CAS REGISTRY NO=171203-89-7
##MP= -300
##BP= -300
##MW= 384
##$RETENTION INDEX=0
##$CONDENSED SPECTRUM=NO
##NPOINTS= 139
##XYDATA=(XY..XY) 1 
    38          9
    39         43
    40         40
    41         81
    42         68
    43         59
    44         63
    45          5
    49          5
    50         43
    51         81
    52         26
    53         13
    54         17
    55         81
    56         37
    57         26
    58          6
    60          5
    61          3
    62          4
    63         11
    64          4
    65         11
    66          5
    67         13
    68         15
    69         44
    70         27
    71          7
    73          7
    74         14
    75         16
    76         22
    77        220
    78         58
    79         17
    80          9
    81          9
    82         15
    83         21
    84         66
    85         33
    86          8
    89          6
    90          4
    91         26
    92         10
    93          6
    94          6
    95          6
    96         33
    97         15
    98        999
    99         73
   100          4
   101          4
   102          8
   103         24
   104         25
   105        310
   106         39
   107          5
   108          8
   109          5
   110         15
   111         11
   112         10
   113          4
   114          2
   115         13
   116          7
   117          9
   118          4
   119          7
   120          7
   121         38
   122         15
   123          7
   124         38
   125         21
   126          3
   127         11
   128          6
   129          7
   130          6
   131          6
   132          4
   133          2
   134          4
   135          5
   136          8
   137          9
   138         28
   139          9
   140         44
   141          8
   142          2
   143          3
   144          2
   145          2
   147          2
   149          3
   150          2
   151          6
   152          2
   153          5
   154          2
   155          2
   160          2
   164          2
   165          3
   166          3
   167          1
   178          1
   179          2
   180          2
   181          2
   183          2
   194          3
   197          2
   206          1
   207          2
   210          3
   211          3
   236          3
   237          2
   244          3
   262          2
   263          2
   264          4
   279          2
   281          2
   350          4
   360          2
   384         26
   385          7
   386          9
   387          2