##TITLE=Library Entry 3127
##JCAMP-DX=Revision 4.10 
##DATA TYPE=MASS SPECTRUM
##SAMPLE DESCRIPTION=NIST Mass Spectrometry Data Center, 1994
##NAMES=HP
##CAS NAME=Ethyl 4-isothiocyanatobutyrate
##MOLFORM=C7H11NO2S
##CAS REGISTRY NO=17126-65-7
##MP= -300
##BP= -300
##MW= 173
##$RETENTION INDEX=1347
##$CONDENSED SPECTRUM=NO
##NPOINTS= 65
##XYDATA=(XY..XY) 1 
    15         92
    18          3
    26        101
    27        564
    28        199
    29        901
    30         45
    31         49
    32          4
    37         16
    38         43
    39        388
    40        116
    41        999
    42        394
    43        326
    44         63
    45        521
    46         32
    47         14
    50         20
    52         13
    54         27
    55        115
    56         37
    57         50
    58         84
    59        168
    60        926
    61        481
    62         19
    63         13
    64         39
    66         11
    67        102
    68         61
    69        292
    70        443
    71         11
    72        890
    73        136
    74         54
    75          6
    83          6
    85        362
    86        220
    87        125
    88        673
    89         26
    96         22
    98        189
    99         62
   100        570
   101         49
   102         33
   115         68
   127        402
   128        597
   129        520
   130        137
   131         40
   145          7
   173        263
   174         20
   175         14