##TITLE=Library Entry 55120
##JCAMP-DX=Revision 4.10 
##DATA TYPE=MASS SPECTRUM
##SAMPLE DESCRIPTION=NIST Mass Spectrometry Data Center
##NAMES=HP
##CAS NAME=Ethyl 3-isothiocyanatopropionate
##MOLFORM=C6H9NO2S
##CAS REGISTRY NO=17126-62-4
##MP= -300
##BP= -300
##MW= 159
##$RETENTION INDEX=1229
##$CONDENSED SPECTRUM=NO
##NPOINTS= 62
##XYDATA=(XY..XY) 1 
    12          3
    15         67
    17          5
    19          9
    26        156
    27        592
    28         88
    29        616
    30         56
    31         43
    33          8
    34          5
    37          4
    38         10
    39         12
    40         19
    41         26
    42         93
    43        119
    44         53
    45        202
    46         18
    47          6
    51          8
    52         17
    53         10
    54         40
    55        118
    56         34
    57         32
    58        110
    59        263
    60        226
    61         18
    62         11
    70         29
    71        211
    72        921
    73        101
    74         38
    82         34
    83          9
    85        999
    86        245
    87        111
    88        214
    89         14
    90          9
    98          9
   101          4
   102          5
   103          7
   112         11
   114        497
   115        328
   116         57
   117         16
   130         23
   131         23
   159        493
   160         37
   161         29