##TITLE=Library Entry 24808
##JCAMP-DX=Revision 4.10 
##DATA TYPE=MASS SPECTRUM
##SAMPLE DESCRIPTION=NIST Mass Spectrometry Data Center, 1992
##NAMES=HP
##CAS NAME=5-Methyl-1,5-hexadien-3-ol
##MOLFORM=C7H12O
##CAS REGISTRY NO=17123-61-4
##MP= -300
##BP= -300
##MW= 112
##$RETENTION INDEX=0
##$CONDENSED SPECTRUM=NO
##NPOINTS= 68
##XYDATA=(XY..XY) 1 
    15         23
    17          2
    18          5
    24          0
    26         51
    27        302
    28        137
    29        545
    30         16
    31        101
    32          5
    36          1
    37         12
    38         41
    39        282
    40         71
    41        346
    42         30
    43         54
    44         11
    45          5
    49          5
    50         33
    51         47
    52         20
    53         60
    54         33
    55        200
    56        680
    57        999
    58         38
    59          4
    61          2
    62          4
    63          8
    64          2
    65         14
    66          7
    67         21
    68         11
    69         23
    70         31
    71          5
    72          0
    73          0
    74          3
    75          0
    77         43
    78         10
    79         73
    80          8
    81         42
    82          5
    83         16
    84         21
    85          4
    86          1
    91         15
    92          3
    93          8
    94         58
    95          9
    96          1
    97         53
    98          3
   110          0
   111          1
   112          2