##TITLE=Library Entry 97605
##JCAMP-DX=Revision 4.10 
##DATA TYPE=MASS SPECTRUM
##SAMPLE DESCRIPTION=NIST Mass Spectrometry Data Center, 1990.
##NAMES=HP
##CAS NAME=Benzene, 1-chloro-4-(1-methylethenyl)-
##MOLFORM=C9H9Cl
##CAS REGISTRY NO=1712-70-5
##MP= -300
##BP= -300
##MW= 152
##$RETENTION INDEX=1146
##$CONDENSED SPECTRUM=NO
##NPOINTS= 76
##XYDATA=(XY..XY) 1 
    15         11
    26         12
    27         33
    28          8
    32          2
    36          2
    37         22
    38         43
    39        178
    40         16
    41         18
    43          7
    44          4
    48          3
    49         27
    50        173
    51        180
    52         21
    53          6
    55          7
    57         74
    58         75
    60          6
    61         29
    62         65
    63        137
    64         19
    65         51
    66          4
    68          4
    69          2
    73         53
    74        116
    75        255
    76         78
    77         72
    78         10
    84          9
    85         30
    86         34
    87         37
    88         19
    89        114
    90         26
    91        131
    92         11
    97         12
    98         17
    99         26
   100         29
   101        294
   102        383
   103         36
   109          5
   110          7
   111         29
   112        165
   113         39
   114        102
   115        535
   116        214
   117        999
   118         99
   119          6
   123          6
   125         68
   126         10
   127         18
   137        452
   138         60
   139        161
   140         14
   152        886
   153        115
   154        254
   155         23