##TITLE=Library Entry 33046
##JCAMP-DX=Revision 4.10 
##DATA TYPE=MASS SPECTRUM
##SAMPLE DESCRIPTION=J. CRANDALL INDIANA UNIV., BLOOMINGTON, IND, USA
##NAMES=HP
##CAS NAME=Oxonin, 4,5,6,7-tetrahydro-, (Z,Z)-
##MOLFORM=C8H12O
##CAS REGISTRY NO=17123-56-7
##MP= -300
##BP= -300
##MW= 124
##$RETENTION INDEX=0
##$CONDENSED SPECTRUM=NO
##NPOINTS= 53
##XYDATA=(XY..XY) 1 
    15         24
    18         21
    26         47
    27        384
    28         93
    29        239
    31         44
    37         13
    38         50
    39        711
    40        256
    41        596
    42        127
    43         64
    44         10
    50         31
    51         69
    52         37
    53        300
    54        165
    55        321
    56         22
    57        401
    58         23
    63         19
    65         85
    66        123
    67        999
    68        335
    69        148
    70        117
    77         74
    78         71
    79        169
    80        269
    81        765
    82        331
    83        152
    84         10
    91         96
    92         22
    93        105
    94         22
    95        978
    96        112
    97          9
   104          7
   105         18
   106         33
   109         50
   123         29
   124         82
   125         10