##TITLE=Library Entry 70788
##JCAMP-DX=Revision 4.10 
##DATA TYPE=MASS SPECTRUM
##SAMPLE DESCRIPTION=A.S.Moskovkin,I.M.Karnaukh, Russian Center on Disaster
 Medicine
##NAMES=HP
##CAS NAME=1-Benzoylamino-5-piperidinyl-1-phenylpentane
##MOLFORM=C23H30N2O
##CAS REGISTRY NO=171203-85-3
##MP= -300
##BP= -300
##MW= 350
##$RETENTION INDEX=0
##$CONDENSED SPECTRUM=NO
##NPOINTS= 143
##XYDATA=(XY..XY) 1 
    39         38
    40         21
    41        180
    42        100
    43        110
    44         89
    45         16
    46          4
    49          5
    50         17
    51         41
    52         10
    53         17
    54         18
    55        150
    56         49
    57         75
    58         24
    59          6
    62          2
    63          4
    65          9
    66          4
    67         30
    68         27
    69        120
    70         48
    71         37
    72          5
    73         15
    74          5
    75          4
    76         10
    77        150
    78         26
    79         17
    80          7
    81         43
    82         23
    83         65
    84         72
    85         57
    86         13
    87          7
    89          3
    91         37
    92          7
    93         11
    94          7
    95         22
    96         31
    97         31
    98        999
    99         83
   100          4
   101          2
   102          3
   103         12
   104         27
   105        180
   106         21
   107          8
   108          4
   109         12
   110         16
   111         15
   112          9
   113          7
   114          2
   115         11
   116          5
   117         14
   118          4
   119          7
   120          3
   121         11
   122          9
   123         11
   124         38
   125         12
   126          4
   127         11
   128          6
   129          7
   130          5
   131          5
   132          4
   133          3
   134          2
   135          5
   136          6
   137         10
   138          7
   139          4
   140         44
   141         12
   142          2
   143          3
   144          2
   145          4
   146          2
   147          4
   148          2
   149         20
   150          4
   151          4
   152          3
   153          3
   154          2
   155          3
   157          2
   158          2
   159          2
   160          5
   161          2
   163          2
   165          3
   166          2
   167          5
   168          2
   179          2
   181          2
   182          2
   183          9
   184          2
   196          2
   197          6
   210          5
   211          4
   222          3
   229          4
   230          7
   231          2
   245          6
   246          2
   256          2
   266          7
   267          2
   279          2
   349          3
   350         67
   351         17
   352          2