##TITLE=Library Entry 28369
##JCAMP-DX=Revision 4.10 
##DATA TYPE=MASS SPECTRUM
##SAMPLE DESCRIPTION=James Little,Eastman Chem.Co.,Kingsport,TN
##NAMES=HP
##CAS NAME=2-(Dimethylaminoethyl) iminoaminomethyl sulfide
##MOLFORM=C5H13N3S
##CAS REGISTRY NO=17124-82-2
##MP= -300
##BP= -300
##MW= 147
##$RETENTION INDEX=0
##$CONDENSED SPECTRUM=NO
##NPOINTS= 18
##XYDATA=(XY..XY) 1 
    27         55
    29         16
    30         65
    41         29
    42        209
    43        152
    44         86
    45         19
    55         18
    56         72
    57         26
    58        999
    59         39
    61         22
    70         27
    71        285
    72         48
   105         96