##TITLE=Library Entry 19526
##JCAMP-DX=Revision 4.10 
##DATA TYPE=MASS SPECTRUM
##SAMPLE DESCRIPTION=V.Zaikin,Topchiev Inst.Petrochem.Synth.,Moscow
##NAMES=HP
##CAS NAME=3-Bromobenzoic acid, dodecyl ester
##MOLFORM=C19H29BrO2
##CAS REGISTRY NO=171368-74-4
##MP= -300
##BP= -300
##MW= 368
##$RETENTION INDEX=0
##$CONDENSED SPECTRUM=NO
##NPOINTS= 172
##XYDATA=(XY..XY) 1 
    27        143
    28         25
    29        230
    30         15
    31          6
    35         12
    36         55
    37         39
    38         70
    39        277
    40         74
    41        937
    42        268
    43        919
    44         91
    45         22
    48          5
    49         27
    50        265
    51        125
    52         30
    53        115
    54        199
    55        999
    56        579
    57        522
    58         21
    60          5
    61         15
    62         18
    63         24
    64          4
    65         77
    66         33
    67        219
    68        257
    69        656
    70        492
    71        173
    72         12
    73         35
    74        126
    75        306
    76        495
    77        216
    78         63
    79         34
    80         27
    81        105
    82        240
    83        520
    84        339
    85        108
    86          8
    87          4
    89          7
    90         12
    91         57
    92         16
    93         22
    94         10
    95         40
    96        126
    97        408
    98        241
    99         25
   100          5
   101          2
   102          3
   103         23
   104        127
   105        139
   106         18
   107         10
   108          2
   109         16
   110         53
   111        203
   112        120
   113         21
   114          3
   115         10
   116          3
   117          9
   118          6
   119          5
   120          5
   121         12
   122         32
   123         44
   124         25
   125         84
   126         74
   127         11
   128          6
   129         14
   130          3
   131         21
   132         10
   133         10
   134          6
   135          8
   136          5
   137          5
   138         15
   139         41
   140        200
   141         30
   142          3
   143          3
   145          3
   147          3
   148          9
   149          3
   150         13
   151          5
   152          6
   153          6
   154         14
   155        408
   156         56
   157        411
   158         63
   159         39
   160          2
   162          4
   165          4
   166         11
   167         12
   168        372
   169         58
   170          5
   171          5
   172          8
   173          6
   174          2
   181          4
   182         18
   183        931
   184        104
   185        927
   186         76
   187          6
   192          3
   196          2
   197          4
   198         13
   199         22
   200        890
   201        680
   202        902
   203        624
   204         59
   205          6
   207          3
   211          3
   213          3
   215          4
   228          5
   239          2
   241          4
   242          3
   253          2
   256          8
   257          3
   258          8
   272          4
   281          3
   368         18
   369          5
   370         17
   371          5