##TITLE=Library Entry 4683
##JCAMP-DX=Revision 4.10 
##DATA TYPE=MASS SPECTRUM
##SAMPLE DESCRIPTION=Exported from NIST MS Search
##NAMES=HP
##CAS NAME=Cholest-7-en-3-ol, 4,4-dimethyl-, acetate, (3.beta.)-
##MOLFORM=C31H52O2
##CAS REGISTRY NO=17137-72-3
##MP= -300
##BP= -300
##MW= 456
##$RETENTION INDEX=0
##$CONDENSED SPECTRUM=NO
##NPOINTS= 200
##XYDATA=(XY..XY) 1 
    40        368
    41         56
    42        999
    43         42
    44         85
    50         21
    51         21
    52         14
    53         56
    54         14
    55        418
    56         56
    57        319
    58         28
    60         56
    65         28
    66         14
    67        177
    68         35
    69        333
    70         35
    71        141
    72         21
    73         28
    77         78
    78         56
    79        177
    80         35
    81        262
    82         49
    83        163
    84         28
    85         42
    91        212
    92         42
    93        212
    94         49
    95        319
    96         42
    97         88
    98         28
    99         14
   103         28
   104         28
   105        304
   106         78
   107        265
   108         63
   109        248
   110         35
   111         56
   112         14
   113         14
   115         21
   116         21
   117         70
   118         42
   119        248
   120         70
   121        184
   122        141
   123        141
   124         28
   125         28
   127         28
   128         35
   129         42
   130         21
   131        134
   132         42
   133        177
   134        113
   135        290
   136        120
   137         63
   138         17
   139         28
   141         21
   142         21
   143         63
   144         35
   145        141
   146         42
   147        234
   148         70
   149        141
   150         35
   151         28
   152          7
   153         14
   154         14
   155         21
   156         21
   157         85
   158         35
   159        124
   160         42
   161        191
   162         42
   163         35
   164         14
   165         21
   169         28
   170         14
   171         63
   172         42
   173        124
   174         42
   175         63
   176         21
   177         21
   179         14
   181         14
   183         28
   184         14
   185         42
   186         28
   187         70
   188         35
   189         53
   190         28
   191         14
   193         14
   195         14
   198         14
   199         56
   200         21
   201         42
   202         14
   203         35
   205         28
   206         17
   211         14
   213         42
   214         14
   215         35
   219         14
   220         14
   221         14
   227         28
   228         14
   229         49
   233         14
   239         14
   240         14
   241        141
   242         35
   243         28
   245         28
   246         17
   247         35
   248         17
   255         28
   256         35
   257         63
   258         28
   260         28
   261         56
   262         14
   267         14
   269         14
   274         49
   275         14
   281         28
   282         14
   283        234
   284         63
   285         14
   286         14
   287         14
   301         35
   311         63
   312         35
   313         35
   314         35
   315         14
   316         14
   325         14
   326         14
   327         14
   339         14
   341         14
   343         35
   344         14
   353         78
   354         21
   379         21
   380        120
   381         42
   382         14
   394         21
   396        219
   397         99
   398         28
   441         35
   442         21
   454          7
   456        283
   457        113
   458         21