##TITLE=Library Entry 5983
##JCAMP-DX=Revision 4.10 
##DATA TYPE=MASS SPECTRUM
##SAMPLE DESCRIPTION=Exported from NIST MS Search
##NAMES=HP
##CAS NAME=Cholest-8-en-3.beta.-ol, acetate
##MOLFORM=C29H48O2
##CAS REGISTRY NO=17137-74-5
##MP= -300
##BP= -300
##MW= 428
##$RETENTION INDEX=0
##$CONDENSED SPECTRUM=NO
##NPOINTS= 197
##XYDATA=(XY..XY) 1 
    41        448
    42         69
    43        999
    44        103
    50         34
    51         51
    52         27
    53         62
    54         20
    55        448
    56         62
    57        344
    58         20
    60         34
    61         27
    63          6
    64         34
    65         41
    67        172
    68         41
    69        289
    70         41
    71        158
    72          6
    73         41
    74          6
    75         20
    76         34
    77        131
    78         41
    79        234
    80         34
    81        379
    82         62
    83        172
    84         20
    85        117
    91        248
    92         62
    93        241
    94         62
    95        268
    96         51
    97         89
    98         20
    99         20
   103         27
   104         20
   105        344
   106        103
   107        331
   108         96
   109        268
   110         34
   111         62
   113         20
   115         41
   116         20
   117        103
   118         41
   119        213
   120         75
   121        158
   122         69
   123        103
   124         20
   125         20
   127         27
   129         62
   130         27
   131        137
   132         48
   133        224
   134         89
   135         82
   136         55
   137         41
   141         34
   142         20
   143         69
   144         34
   145        165
   146         62
   147        248
   148         41
   149         96
   150         20
   151         13
   152         20
   153         13
   154         20
   155         41
   156          6
   157         62
   158         34
   159        103
   160         34
   161        110
   162         20
   163         20
   165         20
   166         13
   167         27
   168         13
   169         27
   170         13
   171         41
   172         20
   173         62
   174         20
   175         34
   176         13
   177         20
   179         20
   180         13
   181         27
   182         13
   183         27
   184         13
   185         41
   186         27
   187         34
   188         13
   189         20
   190         13
   191         27
   193         13
   194         13
   195         13
   197         20
   198         13
   199         41
   200         20
   201         62
   202         20
   203         20
   205         27
   206          6
   207         20
   208          6
   209          6
   210          6
   211         20
   212          6
   213        206
   214         48
   215         34
   216          6
   217         20
   227         27
   228         62
   229        206
   230         48
   231         27
   233         20
   239         20
   241         20
   243          6
   247         20
   251          6
   253         27
   255        117
   256         34
   257         20
   259         27
   260         34
   261         13
   267          6
   271         20
   273         34
   274         20
   283          6
   287          6
   288         34
   289          6
   299         20
   300          6
   311          6
   313         41
   314         20
   315         55
   316          6
   351         20
   353         89
   354         20
   366          6
   367          6
   368        117
   369         34
   370          6
   411          6
   413         75
   414         20
   427         20
   428        241
   429        110
   430         27