##TITLE=Library Entry 84425
##JCAMP-DX=Revision 4.10 
##DATA TYPE=MASS SPECTRUM
##SAMPLE DESCRIPTION=R.SELF AGRICULTURAL RES., FOOD RES. INSTITUTE, NORWICH,
 U.K.
##NAMES=HP
##CAS NAME=Benzeneacetic acid, 4-hydroxy-, ethyl ester
##MOLFORM=C10H12O3
##CAS REGISTRY NO=17138-28-2
##MP= -300
##BP= -300
##MW= 180
##$RETENTION INDEX=1559
##$CONDENSED SPECTRUM=NO
##NPOINTS= 18
##XYDATA=(XY..XY) 1 
    27         43
    29         89
    39         24
    41         18
    43         24
    44         35
    45         32
    51         30
    52         18
    53         18
    55         21
    77         73
    78         31
   107        999
   108         87
   119         12
   180        273
   181         27