##TITLE=Library Entry 15009
##JCAMP-DX=Revision 4.10 
##DATA TYPE=MASS SPECTRUM
##SAMPLE DESCRIPTION=LAC, NIDDK, NIH, Bethesda, MD 20892
##NAMES=HP
##CAS NAME=Cholest-7-en-3-ol, acetate, (3.beta.)-
##MOLFORM=C29H48O2
##CAS REGISTRY NO=17137-70-1
##MP= -300
##BP= -300
##MW= 428
##$RETENTION INDEX=3228
##$CONDENSED SPECTRUM=NO
##NPOINTS= 134
##XYDATA=(XY..XY) 1 
    41        198
    42         17
    43        999
    44         30
    49          9
    51          3
    53         22
    54          4
    55        193
    56         13
    57        111
    58          6
    59          8
    61         21
    65          8
    67         85
    68         16
    69        104
    70         10
    71         64
    77         31
    78         10
    79        115
    80         15
    81        182
    82         20
    83         48
    84          3
    85         11
    91        114
    92         19
    93         80
    94         35
    95        138
    96         17
    97         31
   103          6
   104          7
   105        136
   106         35
   107        135
   108         27
   109         60
   110          3
   111         14
   115         12
   116          7
   117         43
   118         18
   119         71
   120         29
   121         52
   122         26
   123         36
   124          8
   125          3
   128          7
   129         16
   130         10
   131         53
   132         19
   133         82
   134         36
   135         44
   136         17
   137          9
   141         10
   142          8
   143         32
   144         12
   145         62
   146         14
   147         58
   148         14
   149         25
   150          3
   151          7
   152          7
   155          6
   157         23
   158         11
   159         46
   160         19
   161         50
   162          9
   163          9
   169          6
   171         22
   173         20
   175         10
   177          7
   185         19
   186          8
   187         17
   189          7
   197          8
   199         19
   200          4
   201         23
   203          9
   205          3
   213        106
   214         22
   215         16
   220          7
   227         11
   228         16
   229         64
   230         12
   241          9
   245          6
   247         10
   255        154
   256         36
   257          7
   259          9
   260         15
   261          7
   273         22
   274         11
   288         13
   313          8
   314          6
   315         29
   316          3
   353         21
   354          7
   368         13
   369         10
   413         52
   414         13
   428        257
   429         75
   430         15