##TITLE=Library Entry 61111
##JCAMP-DX=Revision 4.10 
##DATA TYPE=MASS SPECTRUM
##SAMPLE DESCRIPTION=LAC, NIDDK, NIH, Bethesda, MD 20892
##NAMES=HP
##CAS NAME=Glycine, N-(phenylmethyl)-
##MOLFORM=C9H11NO2
##CAS REGISTRY NO=17136-36-6
##MP= -300
##BP= -300
##MW= 165
##$RETENTION INDEX=0
##$CONDENSED SPECTRUM=NO
##NPOINTS= 69
##XYDATA=(XY..XY) 1 
    42        104
    43         14
    44         11
    45         57
    46          1
    47          0
    49          1
    50         29
    51         59
    52         16
    53          4
    54          0
    55          0
    56          0
    57          1
    58         10
    59          8
    60         40
    61          3
    62         16
    63         47
    64         16
    65        148
    66          9
    67          0
    68          0
    69          0
    70          0
    73          0
    74         10
    75          6
    76          7
    77         38
    78         16
    79         24
    80          2
    84          0
    85          1
    86          5
    87          2
    88         12
    89         56
    90          7
    91        999
    92         98
    93          5
    99          0
   102          0
   103          1
   104         15
   105          6
   106        546
   107         48
   108          2
   116          1
   117         14
   118         52
   119          8
   120        392
   121         37
   122          1
   124          0
   147          1
   148          3
   149          0
   164          1
   165         48
   166          9
   167          2