##TITLE=Library Entry 85117
##JCAMP-DX=Revision 4.10 
##DATA TYPE=MASS SPECTRUM
##SAMPLE DESCRIPTION=Chemical Concepts
##NAMES=HP
##CAS NAME=1,2-Propanediol, 3-(p-tolyloxy)-
##MOLFORM=C10H14O3
##CAS REGISTRY NO=17131-24-7
##MP= -300
##BP= -300
##MW= 182
##$RETENTION INDEX=0
##$CONDENSED SPECTRUM=NO
##NPOINTS= 74
##XYDATA=(XY..XY) 1 
    25          8
    26         77
    27         10
    28         47
    29          3
    30        126
    31          1
    38          8
    39         78
    40          7
    41         19
    42          8
    43         56
    44         11
    45         32
    47          1
    49          0
    50         27
    51         63
    52         40
    53         36
    54          2
    55         13
    56          2
    57         47
    58          2
    59          0
    60          1
    61         19
    62          9
    63         34
    64         10
    65         87
    66          6
    67          2
    69          1
    71          0
    73          1
    74         15
    75          8
    76          3
    77        119
    78         37
    79         75
    80         32
    81          7
    82          1
    87          1
    89         16
    90         39
    91        174
    92         31
    93         21
    94          3
    95          1
   103          0
   105         20
   106          3
   107        302
   108        999
   109        104
   110          6
   119          0
   121         36
   122         20
   123          2
   133         39
   134          2
   135          1
   150          3
   151         10
   182        171
   183         20
   184          2