##TITLE=Library Entry 23478
##JCAMP-DX=Revision 4.10 
##DATA TYPE=MASS SPECTRUM
##SAMPLE DESCRIPTION=J. SHAW, BORRISTON RESEARCH, ROCKVILLE, MD, USA
##NAMES=HP
##CAS NAME=Acetic acid, (2,4-dichlorophenoxy)-, 2-methylpropyl ester
##MOLFORM=C12H14Cl2O3
##CAS REGISTRY NO=1713-15-1
##MP= -300
##BP= -300
##MW= 276
##$RETENTION INDEX=1823
##$CONDENSED SPECTRUM=NO
##NPOINTS= 130
##XYDATA=(XY..XY) 1 
    33          2
    34          4
    35          3
    36         11
    37         12
    38         23
    39        161
    40         76
    41        775
    42        258
    43        287
    44         24
    45          9
    47          4
    48          1
    49          8
    50         38
    51         23
    52          3
    53         16
    55         78
    56         98
    57        999
    58         87
    59          8
    60          4
    61         16
    62         35
    63        100
    64          6
    65          7
    66          1
    67          3
    68          1
    69          6
    70          8
    71         27
    72         16
    73         58
    74         75
    75        115
    76         12
    77         22
    78          2
    79          3
    81          3
    83         17
    84         18
    85         26
    86          7
    87         16
    89          5
    90          1
    91          4
    92          1
    93          3
    94          1
    95          2
    96          4
    97         21
    98         23
    99         16
   100          9
   101          4
   105          2
   107         11
   109        133
   110         37
   111        141
   112         34
   113         35
   114          8
   115          3
   119          2
   120          1
   121          2
   123          1
   125          3
   126         11
   127          5
   128          8
   129          2
   130          1
   133         55
   135         38
   136          2
   137          5
   138          1
   139          8
   140          3
   141          7
   142          1
   143          5
   145        112
   147        104
   148          8
   149         29
   150          2
   151          3
   155          2
   156          3
   157          1
   158          1
   159          1
   161         33
   162        154
   163         28
   164         95
   165          9
   166         15
   167          2
   173          4
   175        152
   176         29
   177         93
   178         17
   179         14
   180          3
   185         87
   186          9
   187         25
   188          2
   205          1
   220         72
   222         52
   223          4
   224          7
   276         68
   278         50
   280         11