##TITLE=Library Entry 308
##JCAMP-DX=Revision 4.10 
##DATA TYPE=MASS SPECTRUM
##SAMPLE DESCRIPTION=Exported from NIST MS Search
##NAMES=HP
##CAS NAME=Butanoic acid, 2-(diethoxyphosphinyl)-, ethyl ester
##MOLFORM=C10H21O5P
##CAS REGISTRY NO=17145-91-4
##MP= -300
##BP= -300
##MW= 252
##$RETENTION INDEX=0
##$CONDENSED SPECTRUM=NO
##NPOINTS= 65
##XYDATA=(XY..XY) 1 
    26        511
    27        162
    28        999
    30         81
    39        174
    40         46
    41        283
    42        151
    43        193
    45        193
    47         93
    63        400
    65         23
    66        395
    67        181
    69         97
    81        662
    82        197
    83        100
    87         97
    88        174
    91        232
    93         72
    96         55
    97         55
    99        325
   101         88
   105        244
   106         81
   109        665
   110        153
   111        404
   114         97
   115         97
   121         74
   122        139
   123        686
   124         83
   125        162
   127        220
   133         48
   134         65
   135         69
   137        162
   138        674
   139         93
   149         39
   150         34
   151        511
   152        465
   153         41
   155        755
   163         76
   165        162
   169        116
   179        790
   180        209
   197        441
   198         46
   207        883
   208         81
   209         34
   224        837
   225        116
   237        255