##TITLE=Library Entry 92848
##JCAMP-DX=Revision 4.10 
##DATA TYPE=MASS SPECTRUM
##SAMPLE DESCRIPTION=CARL DJERASSI DEPT OF CHEM STANFORD UNIV STANFORD CALIF
 94305
##NAMES=HP
##CAS NAME=Carbonic acid, 1-naphthyl phenyl ester
##MOLFORM=C17H12O3
##CAS REGISTRY NO=17145-98-1
##MP= -300
##BP= -300
##MW= 264
##$RETENTION INDEX=0
##$CONDENSED SPECTRUM=NO
##NPOINTS= 71
##XYDATA=(XY..XY) 1 
    41         39
    43          9
    44         59
    47          9
    49         19
    50        188
    51        465
    52        158
    53         39
    55         19
    57          9
    58          9
    61         19
    62         79
    63        217
    64         59
    65        326
    66         49
    72          9
    74         49
    75         79
    76         49
    77        861
    78         79
    79        148
    80          9
    86         19
    87         39
    88         39
    89        128
    90          9
    93         19
    94         89
    95          9
    98          9
    99          9
   100          9
   101         49
   102          9
   105          9
   109          9
   113         39
   114         69
   115        999
   116        158
   117          9
   121          9
   123          9
   124          9
   126         69
   127        376
   128         39
   141         19
   142         19
   143        316
   144         63
   145          6
   146          1
   201          9
   202         19
   203         29
   205         19
   214         19
   218         99
   219        445
   220        514
   221         79
   222          9
   264        742
   265        138
   266         19