##TITLE=Library Entry 74428
##JCAMP-DX=Revision 4.10 
##DATA TYPE=MASS SPECTRUM
##SAMPLE DESCRIPTION=Exported from NIST MS Search
##NAMES=HP
##CAS NAME=Galactoseptanoside, methyl 2,3,4,5-tetra-O-methyl-, .alpha.-D-
##MOLFORM=C11H22O6
##CAS REGISTRY NO=17152-59-9
##MP= -300
##BP= -300
##MW= 250
##$RETENTION INDEX=0
##$CONDENSED SPECTRUM=NO
##NPOINTS= 78
##XYDATA=(XY..XY) 1 
    41         20
    42         22
    43         36
    44         42
    45        138
    46         14
    47         20
    50          6
    51          8
    52         10
    53         12
    54         10
    55         20
    56         16
    57         20
    58         24
    59         46
    60         12
    61         12
    65         10
    66         10
    67          8
    68         14
    69         20
    70         12
    71        102
    72         20
    73         58
    74         20
    75        180
    76         10
    77         10
    78         10
    79         10
    80          8
    81         16
    82         10
    83         16
    84         12
    85         28
    86         14
    87         38
    88        102
    89         40
    90         14
    91         12
    94         10
    95         12
    96         10
    97         16
    98         16
    99         18
   100         18
   101        999
   102         82
   103         16
   104         12
   105         14
   111         16
   112         12
   113         12
   114         10
   115         14
   116         14
   117         20
   118         10
   119         10
   120         12
   121          8
   122          8
   127         33
   131         26
   143         16
   145          5
   149         40
   158          8
   187          6
   219          2