##TITLE=Library Entry 44122
##JCAMP-DX=Revision 4.10 
##DATA TYPE=MASS SPECTRUM
##SAMPLE DESCRIPTION=F. TURECEK,HEYROVSKY INST PHYS CHEM & ELECTROCHEM,PRAGU
E,CZECH
##NAMES=HP
##CAS NAME=1,2,4,5-Tetrakis(trimethylsilyl)benzene
##MOLFORM=C18H38Si4
##CAS REGISTRY NO=17156-61-5
##MP= -300
##BP= -300
##MW= 366
##$RETENTION INDEX=0
##$CONDENSED SPECTRUM=NO
##NPOINTS= 113
##XYDATA=(XY..XY) 1 
    31         10
    41          7
    43         24
    44         10
    45        183
    46         10
    47          5
    55          5
    57         10
    58          5
    59         57
    60          5
    67         10
    69          7
    71          5
    72          7
    73        999
    74         89
    75         37
    83         38
    85          5
    93          7
    95          5
    97         43
    98          5
    99          7
   107         10
   109          7
   111          7
   113          7
   115          7
   121          7
   123          5
   125         10
   129         14
   131         10
   133          5
   135          5
   138          7
   139          5
   141         10
   144         10
   145         36
   146          5
   149          5
   152        133
   153         33
   155         52
   156         10
   157          7
   159         10
   160         29
   161         14
   163         14
   165         21
   168         33
   169          7
   173          7
   175         27
   176          7
   177         17
   179          7
   187         10
   189         29
   190         10
   191         33
   192          7
   201         10
   203         17
   204         17
   205         48
   206         12
   207          5
   215          5
   217         14
   219          5
   231         14
   233         21
   235          7
   245         13
   247         76
   248         21
   249         19
   261         45
   262         14
   263        438
   264        131
   265         60
   266         12
   277         29
   278         19
   279         12
   280          5
   290          5
   293         14
   294          7
   305         10
   319         26
   320         10
   335        466
   336        192
   337        105
   338         24
   339         10
   351        904
   352        356
   353        192
   354         55
   355         14
   366        438
   367        181
   368         93
   369         24