##TITLE=Library Entry 57410
##JCAMP-DX=Revision 4.10 
##DATA TYPE=MASS SPECTRUM
##SAMPLE DESCRIPTION=A.Mazepa, Phys.-Chem.Institute, Odessa, Ukraine
##NAMES=HP
##CAS NAME=2-(1,3-Dimethyl-2,6-dioxo-1,2,3,6-tetrahydro-purin-7-ylmethyl)-1,
4,7,10,13-pentaoxacyclopentadecane
##MOLFORM=C18H28N4O7
##CAS REGISTRY NO=171524-72-4
##MP= -300
##BP= -300
##MW= 412
##$RETENTION INDEX=0
##$CONDENSED SPECTRUM=NO
##NPOINTS= 151
##XYDATA=(XY..XY) 1 
    52          3
    53         13
    54         34
    55         73
    56         34
    57        159
    58         61
    59        217
    60          4
    61          3
    66         14
    67         85
    68         62
    69         73
    70         23
    71         86
    72         22
    73        199
    74          3
    75          6
    79          5
    80         12
    81         94
    82         34
    83         64
    84          9
    85         26
    86         24
    87        999
    88         58
    89        662
    90         23
    91         21
    92          2
    93         22
    94         44
    95         88
    96         16
    97         13
    98          1
    99         31
   100         43
   101         58
   102          2
   103         28
   104          1
   105          2
   106          3
   107         29
   108         33
   109         97
   110         31
   111          4
   112          1
   113         24
   114          2
   115         22
   119          2
   120          3
   121          5
   122         26
   123         40
   124         11
   125         10
   126         25
   127         12
   131        100
   132         11
   133        213
   134         37
   135         17
   136         37
   137         22
   138          3
   144          1
   145         21
   147         11
   148          3
   149          4
   150          5
   151         10
   152          7
   162         18
   163          9
   164          8
   165          4
   166         10
   167          2
   175          4
   177        199
   178         24
   179          6
   180        259
   181         69
   182          4
   189         28
   190          1
   191          2
   192         13
   193        118
   194        215
   195         23
   203          2
   205          6
   206         14
   207         34
   208         15
   209          2
   218         35
   219        171
   220        117
   221         63
   222         33
   223        104
   224          9
   232          3
   233        159
   234         21
   235         48
   236        108
   237         49
   238          5
   247          2
   249         19
   250          7
   251          3
   261          1
   262        124
   263         41
   264          6
   265          4
   266          6
   267          2
   279          2
   280         27
   281         10
   294          3
   306          3
   307          2
   323          1
   324         38
   325          7
   350          3
   351          1
   368          3
   369         10
   382          3
   411          4
   412        458
   413         97
   414         11