##TITLE=Library Entry 51151
##JCAMP-DX=Revision 4.10 
##DATA TYPE=MASS SPECTRUM
##SAMPLE DESCRIPTION=V.A.Korolev, Moscow, Russia
##NAMES=HP
##CAS NAME=3-Methyl-1,2-oxazole-4-carboxylic acid
##MOLFORM=C5H5NO3
##CAS REGISTRY NO=17153-20-7
##MP= -300
##BP= -300
##MW= 127
##$RETENTION INDEX=0
##$CONDENSED SPECTRUM=NO
##NPOINTS= 41
##XYDATA=(XY..XY) 1 
    35          5
    36         59
    37         43
    38         85
    39        146
    40        109
    41        170
    42        156
    43         21
    44        114
    45        281
    46          2
    48          2
    49         19
    50         64
    51         92
    52        133
    53         84
    54        453
    55        191
    56          8
    57          5
    62          1
    66          3
    67         38
    68         13
    69         10
    70          1
    77          3
    78          2
    79          1
    80          6
    82        999
    83         52
    84         25
    85          1
   110          8
   118          1
   127        416
   128         24
   129          4