##TITLE=Library Entry 16057
##JCAMP-DX=Revision 4.10 
##DATA TYPE=MASS SPECTRUM
##SAMPLE DESCRIPTION=Drug Lab
##NAMES=HP
##CAS NAME=Phenethylamine, o-fluoro-.alpha.-methyl-
##MOLFORM=C9H12FN
##CAS REGISTRY NO=1716-60-5
##MP= -300
##BP= -300
##MW= 153
##$RETENTION INDEX=1228
##$CONDENSED SPECTRUM=NO
##NPOINTS= 79
##XYDATA=(XY..XY) 1 
    38          3
    39         16
    40          3
    41          8
    42         51
    43         19
    44        999
    45         28
    50         10
    51         15
    52          3
    53          1
    54          2
    56          5
    57         32
    59         10
    61          2
    62         11
    63         27
    64          4
    65          7
    66          1
    69         13
    70          5
    74          5
    75         12
    76          3
    77          5
    78          2
    79          1
    80          1
    81         11
    82          3
    83         83
    84          5
    85          1
    86          2
    87          3
    88          1
    89         19
    90          5
    91         15
    92          2
    93          1
    94          2
    95          4
    96          6
    97          1
   101         10
   102          3
   103          2
   104          1
   105          1
   106          1
   107         27
   108          8
   109        162
   110         21
   111          2
   115          9
   116          3
   117         14
   118         15
   119          1
   120          2
   121          4
   122          4
   124          1
   130          2
   131          1
   132          1
   133         10
   134          2
   135         11
   136          7
   137          6
   138         33
   139          3
   152         10