##TITLE=Library Entry 76007
##JCAMP-DX=Revision 4.10 
##DATA TYPE=MASS SPECTRUM
##SAMPLE DESCRIPTION=NIST Mass Spectrometry Data Center
##NAMES=HP
##CAS NAME=Ethanolamine, 2TMS derivative
##MOLFORM=C8H23NOSi2
##CAS REGISTRY NO=17165-52-5
##MP= -300
##BP= -300
##MW= 205
##$RETENTION INDEX=1021
##$CONDENSED SPECTRUM=NO
##NPOINTS= 80
##XYDATA=(XY..XY) 1 
    15          1
    27          1
    28          3
    29          5
    30          3
    31          4
    41          1
    42          5
    43         25
    44         23
    45         68
    46          6
    47          8
    51          1
    52          4
    53          1
    54          1
    55          4
    56          5
    57          7
    58         21
    59         61
    60          8
    61         14
    62          1
    66         12
    69          1
    70          4
    71          4
    72         16
    73        455
    74         44
    75         33
    76          3
    77          1
    79          1
    84          2
    85          2
    86         14
    87         11
    89          4
    90          1
    98          1
    99          1
   100         20
   101         13
   102        999
   103        109
   104         39
   105          5
   106          1
   113          2
   114          2
   115         10
   116         28
   117          8
   118          3
   119          3
   130          4
   131         16
   132          8
   133         18
   134          3
   135          1
   144          1
   145          1
   147        260
   148         41
   149         20
   150          2
   174          3
   175          1
   188          1
   190         30
   191          5
   192          2
   204          1
   205          8
   206          2
   207          1