##TITLE=Library Entry 5231
##JCAMP-DX=Revision 4.10 
##DATA TYPE=MASS SPECTRUM
##SAMPLE DESCRIPTION=A.A.Kutin, Moscow, Russia
##NAMES=HP
##CAS NAME=3-(Dimethylamino)-1-(2-furyl)prop-2-en-1-one
##MOLFORM=C9H11NO2
##CAS REGISTRY NO=17168-45-5
##MP= -300
##BP= -300
##MW= 165
##$RETENTION INDEX=0
##$CONDENSED SPECTRUM=NO
##NPOINTS= 103
##XYDATA=(XY..XY) 1 
    33          9
    34         10
    35          3
    36          7
    37         56
    38        144
    39        509
    40        115
    41        203
    42        999
    43        188
    44        201
    45         13
    46         27
    48          1
    49          8
    50         28
    51         57
    52         59
    53        181
    54        127
    55        469
    56         33
    57         21
    58         40
    59          3
    60          7
    61         11
    62         16
    63         38
    64         23
    65         77
    66         76
    67         91
    68        146
    69        162
    70        310
    71         24
    72         24
    73          6
    74         11
    75          7
    76          8
    77         30
    78         24
    79         39
    80         46
    81        422
    82        213
    83         24
    84         17
    85          3
    87          1
    89          1
    90          3
    91         11
    92         29
    93         84
    94        127
    95        586
    96         48
    98        577
    99         34
   100          3
   103          4
   104         12
   105         12
   106         24
   107         35
   108         52
   109         53
   110         40
   111          5
   112          3
   117          4
   118         17
   119         18
   120        106
   121         25
   122         38
   123         20
   124          7
   125          2
   129          1
   130          9
   131          6
   132         11
   133         63
   134        111
   136        709
   137        126
   138         11
   139          1
   145          1
   148        546
   149         62
   150         82
   151          7
   152          1
   163          7
   165        615
   166         59
   167          6