##TITLE=Library Entry 3326
##JCAMP-DX=Revision 4.10 
##DATA TYPE=MASS SPECTRUM
##SAMPLE DESCRIPTION=NIST Mass Spectrometry Data Center
##NAMES=HP
##CAS NAME=Butanoic acid, heptafluoro-, 2-propenyl ester
##MOLFORM=C7H5F7O2
##CAS REGISTRY NO=17165-55-8
##MP= -300
##BP= -300
##MW= 254
##$RETENTION INDEX=724
##$CONDENSED SPECTRUM=NO
##NPOINTS= 92
##XYDATA=(XY..XY) 1 
    14          1
    15          9
    20          1
    25          2
    26         23
    27         78
    28         27
    29        141
    30          5
    31         38
    32          1
    33          2
    36          1
    37         16
    38         44
    39        476
    40        196
    41        999
    42         40
    43          2
    44          6
    45          6
    47          2
    50         25
    51          5
    53          3
    54          1
    55         22
    56          9
    57        178
    58          7
    59         31
    60         14
    62          4
    63          1
    67          2
    69        605
    70          7
    71          3
    74          2
    75          1
    77          1
    78          9
    79          1
    81         19
    82          1
    83          1
    85        189
    86          9
    87          2
    89          1
    90          2
    91          1
    93         10
    95          1
    97          1
   100        240
   101          6
   107         16
   109         50
   110          2
   112          2
   113          1
   115          4
   119        128
   120          3
   127          1
   129          1
   131         16
   132          1
   135         21
   136          1
   137          1
   138          1
   147          2
   150         32
   151          1
   159          1
   169        444
   170         15
   178          1
   195          1
   197          9
   199          1
   206          3
   215          2
   225         19
   226          5
   227          1
   254        104
   255          8
   256          1