##TITLE=Library Entry 50595
##JCAMP-DX=Revision 4.10 
##DATA TYPE=MASS SPECTRUM
##SAMPLE DESCRIPTION=J. M. PECHINE
##NAMES=HP
##CAS NAME=Cyclohexane, 1-bromo-2-fluoro-, trans-
##MOLFORM=C6H10BrF
##CAS REGISTRY NO=17170-96-6
##MP= -300
##BP= -300
##MW= 180
##$RETENTION INDEX=0
##$CONDENSED SPECTRUM=NO
##NPOINTS= 31
##XYDATA=(XY..XY) 1 
    27        103
    28         19
    29         38
    33         25
    38         11
    39        138
    40         19
    41        276
    42         25
    45         11
    46         24
    47         25
    51         40
    53         88
    54         35
    55        195
    59        232
    65         23
    67         15
    72         58
    73         69
    77         22
    79         80
    80         23
    81        999
    82         71
    85         32
   101        591
   102         39
   180        132
   182        123