##TITLE=Library Entry 2035
##JCAMP-DX=Revision 4.10 
##DATA TYPE=MASS SPECTRUM
##SAMPLE DESCRIPTION=Chemical Concepts
##NAMES=HP
##CAS NAME=Cyclopropanecarboxylic acid,-2,2,3,3,N-pentamethyl amide
##MOLFORM=C9H17NO
##CAS REGISTRY NO=171722-69-3
##MP= -300
##BP= -300
##MW= 155
##$RETENTION INDEX=0
##$CONDENSED SPECTRUM=NO
##NPOINTS= 57
##XYDATA=(XY..XY) 1 
    26         73
    27        690
    28        106
    29        152
    30        173
    37         67
    39        462
    41        999
    42        177
    43        131
    44         50
    45          5
    49          7
    50         25
    51         37
    52         26
    53        122
    54        160
    55        423
    56         91
    58        618
    59         22
    60          4
    62          1
    63          2
    65          9
    67         85
    68         60
    69        199
    70        334
    71         15
    72          9
    73          9
    77          1
    79          5
    81         54
    82          8
    83          7
    84         39
    86        262
    87          9
    94          4
    95         27
    96         60
    97        115
    98         13
    99          2
   108          3
   110          4
   111          7
   112         60
   113          2
   125          1
   126         44
   127        229
   128         27
   129          1