##TITLE=Library Entry 30314
##JCAMP-DX=Revision 4.10 
##DATA TYPE=MASS SPECTRUM
##SAMPLE DESCRIPTION=CARL DJERASSI DEPT OF CHEM STANFORD UNIV STANFORD CALIF
 94305
##NAMES=HP
##CAS NAME=Carbonic acid, methyl m-nitrophenyl ester
##MOLFORM=C8H7NO5
##CAS REGISTRY NO=17175-17-6
##MP= -300
##BP= -300
##MW= 197
##$RETENTION INDEX=0
##$CONDENSED SPECTRUM=NO
##NPOINTS= 41
##XYDATA=(XY..XY) 1 
    41         20
    42         10
    43         10
    44        260
    45         10
    50        120
    51         60
    52         40
    53         60
    54         10
    55         20
    59        999
    60         20
    61         10
    62         50
    63        310
    64        440
    65         50
    66         10
    67         10
    74         10
    75         70
    76         90
    77        580
    78         40
    79         30
    80         40
    91         10
    92        830
    93         80
    94         40
    95        160
   107        520
   108         30
   122         60
   123         30
   153        440
   154         20
   167         40
   181         30
   197        100