##TITLE=Library Entry 46681
##JCAMP-DX=Revision 4.10 
##DATA TYPE=MASS SPECTRUM
##SAMPLE DESCRIPTION=CARL DJERASSI DEPT OF CHEM STANFORD UNIV STANFORD CALIF
 94305
##NAMES=HP
##CAS NAME=Carbonic acid, phenyl ester, ester with p-hydroxybenzonitrile
##MOLFORM=C14H9NO3
##CAS REGISTRY NO=17175-15-4
##MP= -300
##BP= -300
##MW= 239
##$RETENTION INDEX=0
##$CONDENSED SPECTRUM=NO
##NPOINTS= 41
##XYDATA=(XY..XY) 1 
    41         10
    43         10
    44         50
    50         70
    51        230
    52         20
    53         10
    55         10
    61         10
    62         30
    63         90
    64         80
    65        170
    66         30
    74         20
    75         50
    76         40
    77        999
    78         70
    90         50
    91         10
    93         20
    94         90
    95         10
   102        100
   103         10
   118         10
   119         30
   121         70
   139         10
   140         20
   141         10
   166         70
   167        180
   168         30
   169         10
   194         50
   195        140
   196         10
   239        200
   240         40