##TITLE=Library Entry 34839
##JCAMP-DX=Revision 4.10 
##DATA TYPE=MASS SPECTRUM
##SAMPLE DESCRIPTION=L.R.ANDERSON, ALLIED CHEM. CORP., MORRISTOWN, N.J., USA
##NAMES=HP
##CAS NAME=Trioxide, bis(trifluoromethyl)
##MOLFORM=C2F6O3
##CAS REGISTRY NO=1718-18-9
##MP= -300
##BP= -300
##MW= 186
##$RETENTION INDEX=0
##$CONDENSED SPECTRUM=NO
##NPOINTS= 12
##XYDATA=(XY..XY) 1 
    31         22
    32         27
    44         23
    47        145
    50         33
    66         73
    69        999
    70         10
    82          3
    85         11
   101          1
   151          2