##TITLE=Library Entry 60276
##JCAMP-DX=Revision 4.10 
##DATA TYPE=MASS SPECTRUM
##SAMPLE DESCRIPTION=Chemical Concepts
##NAMES=HP
##CAS NAME=N-[N-(Benzyloxycarbonyl)-3-phenylalanyl]glycinamide
##MOLFORM=C19H21N3O4
##CAS REGISTRY NO=17187-05-2
##MP= -300
##BP= -300
##MW= 355
##$RETENTION INDEX=0
##$CONDENSED SPECTRUM=NO
##NPOINTS= 122
##XYDATA=(XY..XY) 1 
    37          6
    38          9
    39         47
    40         10
    41         17
    42          4
    43          5
    44         19
    45          2
    48          1
    49          3
    50         25
    51         57
    52         15
    53         12
    54          4
    55          5
    56         26
    57          5
    58          2
    60          1
    61          3
    62          9
    63         23
    64          8
    65         91
    66          6
    67          1
    69          1
    70          1
    71          3
    73          2
    74         10
    75          4
    77        113
    78         24
    79        122
    80         11
    81          1
    83          5
    84          4
    85         12
    86          3
    87          1
    89         27
    91        999
    92         79
    93          3
   100          2
   101          1
   102          5
   103         11
   104         17
   105         17
   106          6
   107         69
   108         82
   109          5
   112          9
   113          3
   114          1
   115          2
   116          2
   117          7
   118          8
   119          5
   120         14
   121          2
   128         22
   129          3
   131         30
   132         11
   133          1
   140          3
   141          1
   145          1
   146         35
   147          5
   148          1
   158         12
   159          1
   160          4
   161          8
   162          1
   163          2
   164          2
   165          1
   166          1
   171          1
   174          1
   175         13
   176          2
   178          1
   179          1
   180          2
   181         20
   182          3
   186          1
   188          2
   191          1
   192          1
   193          2
   201          1
   203         11
   204         48
   205          7
   206          1
   210         23
   211          2
   231          9
   232          2
   247          1
   249          1
   254          6
   255          1
   294          4
   295         13
   296         11
   297          2
   311          2
   338         12
   339          3