##TITLE=Library Entry 83530
##JCAMP-DX=Revision 4.10 
##DATA TYPE=MASS SPECTRUM
##SAMPLE DESCRIPTION=NIST Mass Spectrometry Data Center
##NAMES=HP
##CAS NAME=4-Hydroxyphenylacetamide
##MOLFORM=C8H9NO2
##CAS REGISTRY NO=17194-82-0
##MP= -300
##BP= -300
##MW= 151
##$RETENTION INDEX=1746
##$CONDENSED SPECTRUM=NO
##NPOINTS= 63
##XYDATA=(XY..XY) 1 
    16          1
    26          4
    27         17
    29          5
    37          3
    38          9
    39         39
    40          3
    41          4
    42          4
    43          7
    44         69
    45          1
    49          4
    50         39
    51         81
    52         47
    53         60
    54          5
    55         21
    61          4
    62         12
    63         25
    64          5
    65          8
    66          5
    67          4
    68          2
    73          1
    74          7
    75          4
    76          6
    77        228
    78         68
    79         43
    80         11
    81          9
    85          1
    86          2
    87          2
    89         13
    90         35
    91          6
    92          1
    93          1
    94          1
    95          2
   104          1
   105         14
   106         13
   107        999
   108        170
   109         12
   110          1
   120          1
   121          1
   122          2
   132          1
   133          1
   134          2
   151        222
   152         21
   153          2