##TITLE=Library Entry 77081
##JCAMP-DX=Revision 4.10 
##DATA TYPE=MASS SPECTRUM
##SAMPLE DESCRIPTION=R.C. DOUGHERTY
##NAMES=HP
##CAS NAME=7-Azabicyclo[4.2.2]deca-2,4,9-trien-8-one
##MOLFORM=C9H9NO
##CAS REGISTRY NO=17198-06-0
##MP= -300
##BP= -300
##MW= 147
##$RETENTION INDEX=0
##$CONDENSED SPECTRUM=NO
##NPOINTS= 51
##XYDATA=(XY..XY) 1 
    38         80
    39        350
    40         80
    41        210
    42         90
    43        220
    44        110
    50        160
    51        320
    52        160
    53         60
    55        160
    56         80
    57        170
    62         30
    63        140
    64         30
    65        180
    66         30
    67        100
    68         30
    69        100
    70         50
    71        100
    76         60
    77        190
    78        550
    79         80
    80         70
    81         70
    82         30
    83         80
    89         90
    90         70
    91        720
    92        160
    93         70
    95         50
   102         80
   103        350
   104        999
   105        140
   117        140
   118        530
   119        190
   128        110
   129        160
   130         40
   145         60
   146        620
   147        150