##TITLE=Library Entry 40271
##JCAMP-DX=Revision 4.10 
##DATA TYPE=MASS SPECTRUM
##SAMPLE DESCRIPTION=Patti Price, Georgia Bureau of Investigation, Decatur,
 Georgia
##NAMES=HP
##CAS NAME=Betamethadol
##MOLFORM=C21H29NO
##CAS REGISTRY NO=17199-55-2
##MP= -300
##BP= -300
##MW= 311
##$RETENTION INDEX=0
##$CONDENSED SPECTRUM=NO
##NPOINTS= 121
##XYDATA=(XY..XY) 1 
    41         48
    42         64
    43         20
    44        115
    45         41
    46         29
    50          1
    51         12
    52          1
    53          1
    54          1
    55          5
    56         54
    57         30
    58         80
    59         90
    60          2
    63          5
    65          9
    70         37
    71          8
    72        999
    73         54
    74          3
    75          2
    76          5
    77         41
    78         11
    79         11
    82          1
    85          6
    86          6
    87          7
    88          2
    89         11
    90          3
    91        117
    92          9
   101          1
   102         11
   103         27
   104          6
   105         58
   106          4
   107          2
   113          2
   115        101
   116         15
   117          9
   118          2
   119          8
   127         21
   128         35
   129         44
   130         50
   131         18
   132          2
   134          1
   135          1
   139         13
   140          1
   141          5
   142          1
   143          2
   144          2
   145          1
   146          3
   147         39
   148          4
   150          2
   151         10
   152         45
   153          9
   154          2
   158          2
   159          1
   160          8
   163         10
   164         15
   165        139
   166         43
   167         49
   168          7
   176         11
   177         10
   178         90
   179         68
   180         15
   181          2
   189         11
   190          8
   191         21
   192         10
   193         58
   194         10
   195          3
   202          4
   203          4
   204          3
   205          2
   206          3
   207         20
   208         11
   209          1
   219          2
   222          2
   224          3
   225         16
   226          3
   236          7
   237         15
   238         15
   239          2
   251          3
   253         81
   254         20
   255          1
   282         17
   283          3
   296          6
   312          1