##TITLE=Library Entry 65501
##JCAMP-DX=Revision 4.10 
##DATA TYPE=MASS SPECTRUM
##SAMPLE DESCRIPTION=Japan AIST/NIMC Database- Spectrum MS-IW-1150
##NAMES=HP
##CAS NAME=1-(1-Naphthyl)-3,5-diphenylformazan
##MOLFORM=C23H18N4
##CAS REGISTRY NO=1719-72-8
##MP= -300
##BP= -300
##MW= 350
##$RETENTION INDEX=0
##$CONDENSED SPECTRUM=NO
##NPOINTS= 208
##XYDATA=(XY..XY) 1 
    26          2
    27          4
    28         29
    37          3
    38          9
    39         40
    40          5
    41          9
    42          1
    43          2
    46          2
    49          2
    50         26
    51         48
    52         17
    53          2
    54          2
    55          2
    57          3
    58          4
    61          3
    62          9
    63         39
    64         59
    65        192
    66         35
    67          3
    69          2
    70          7
    71          9
    72          1
    73          2
    74         12
    75         23
    76         65
    77        116
    78         26
    79          2
    81          2
    82          3
    83          5
    84          1
    85          4
    86          3
    87          7
    88         11
    89         29
    90          9
    91        210
    92        999
    93        139
    94          8
    95          2
    96          2
    97          6
    98          2
    99          4
   100          4
   101         13
   102         13
   103        164
   104         56
   105         17
   106          4
   107          2
   108          7
   109          3
   110          1
   111          2
   112          1
   113         19
   114         44
   115        508
   116         85
   117          9
   118          4
   119          1
   120          3
   121          4
   122          5
   123          1
   125          3
   126         37
   127        115
   128        125
   129         13
   130          1
   133          2
   134          1
   135          1
   138          1
   139          6
   140         61
   141        108
   142        648
   143        254
   144         25
   145          1
   147          1
   148          8
   149          4
   150          1
   151          2
   152          2
   153          3
   154          2
   155          4
   156          2
   157          1
   158          1
   163          5
   164          5
   165         21
   166         23
   167         20
   168          8
   169          2
   175         14
   176          1
   177          1
   178          2
   179          2
   180          4
   181          1
   187          1
   188          1
   189          5
   190          3
   191          4
   192          5
   193         32
   194        268
   195        570
   196         85
   197          6
   200          1
   201          3
   202          6
   203          5
   204          6
   205          1
   208          1
   210          1
   211         15
   212          3
   213          3
   214          2
   215          8
   216         11
   217         34
   218         39
   219         49
   220          8
   221          1
   223         16
   224          3
   225          1
   226          1
   227          1
   228          4
   229         14
   230         18
   231          5
   232          5
   233          2
   234          2
   235          1
   239          1
   242          4
   243         10
   244         84
   245         49
   246         10
   247          2
   250          4
   251          1
   252         10
   253          7
   254          5
   255          1
   257          1
   258          1
   261          7
   262          1
   266          2
   267          6
   268          8
   269         13
   270          3
   273          6
   274          1
   278          2
   279          1
   280          1
   282          2
   300          2
   319          2
   320          4
   321          3
   322         19
   323          5
   334          2
   335          1
   336          1
   349          3
   350        297
   351         78
   352          9