##TITLE=Library Entry 39877
##JCAMP-DX=Revision 4.10 
##DATA TYPE=MASS SPECTRUM
##SAMPLE DESCRIPTION=Patti Price, Georgia Bureau of Investigation, Decatur,
 Georgia
##NAMES=HP
##CAS NAME=Alphamethadol
##MOLFORM=C21H29NO
##CAS REGISTRY NO=17199-54-1
##MP= -300
##BP= -300
##MW= 311
##$RETENTION INDEX=2180
##$CONDENSED SPECTRUM=NO
##NPOINTS= 87
##XYDATA=(XY..XY) 1 
    41          4
    42         30
    43          5
    44         44
    45         16
    51          8
    55          5
    56         27
    57         31
    58        107
    59         25
    64          1
    65          9
    70         24
    71         30
    72        999
    73         53
    76          8
    77         25
    78          7
    79          6
    85          3
    86         10
    87          3
    89          7
    90          3
    91         77
    92          9
   102          6
   103         16
   105         33
   115         55
   116         11
   127          7
   128         22
   129         21
   130         26
   131         14
   134         13
   135          2
   139          8
   141          4
   144          4
   146          6
   147         30
   148          2
   150          2
   151          7
   152         29
   155          1
   160          7
   161          1
   163          9
   164         11
   165         78
   166         24
   167         32
   168          4
   176          9
   177          7
   178         60
   179         32
   180         14
   181          3
   188          1
   189         11
   191         16
   192          9
   193         40
   194          8
   195          2
   203          3
   204          1
   206          2
   207         23
   208         14
   209          1
   224          3
   225         15
   236          6
   238         10
   239          8
   253         58
   254         13
   282          8
   296          8
   297          2