##TITLE=Library Entry 53565
##JCAMP-DX=Revision 4.10 
##DATA TYPE=MASS SPECTRUM
##SAMPLE DESCRIPTION=K. Jacobson, LBC, NIDDK, NIH, Bethesda, MD 20892
##NAMES=HP
##CAS NAME=Acetamide, N-methyl-N-[4-(1-hexahydropyridyl)-2-butynyl]-
##MOLFORM=C12H20N2O
##CAS REGISTRY NO=17191-61-6
##MP= -300
##BP= -300
##MW= 208
##$RETENTION INDEX=0
##$CONDENSED SPECTRUM=NO
##NPOINTS= 138
##XYDATA=(XY..XY) 1 
    42        684
    43        660
    44        248
    45         13
    46          1
    47          2
    49          2
    50         16
    51         68
    52         95
    53        139
    54         85
    55        256
    56        498
    57         45
    58         17
    59          1
    60          3
    61          1
    62          1
    63          2
    64          7
    65         36
    66         66
    67         92
    68         72
    69         46
    70         28
    71          6
    72          4
    73          9
    74         16
    75          1
    76          2
    77         15
    78         11
    79         48
    80        216
    81        372
    82        259
    83        194
    84        999
    85         75
    86         56
    87          3
    88          0
    89          1
    90          0
    91         11
    92         11
    93         29
    94         50
    95         19
    96         38
    97         33
    98         90
    99          7
   100          1
   101          0
   102          0
   103          2
   104          2
   105          4
   106         58
   107         40
   108         42
   109         15
   110         36
   111          7
   112          5
   113          2
   114          2
   115          2
   116          0
   117          3
   118          4
   119          5
   120         31
   121         10
   122        310
   123        114
   124        303
   125        134
   126         44
   127          5
   128          1
   129          1
   130          1
   131          1
   132          5
   133          5
   134        333
   135        157
   136        156
   137        104
   138         27
   139          3
   140          0
   141          1
   143          0
   145          0
   146          0
   147          1
   148          1
   149          7
   150          5
   151          6
   152          9
   153         88
   154          9
   155          1
   161          0
   162          0
   163          4
   164          5
   165         30
   166          4
   167          1
   170          0
   174          0
   175          0
   176          0
   177          1
   178          0
   179          2
   180          1
   191          1
   192          0
   193          3
   194          0
   198          0
   204          0
   205          1
   206          1
   207         11
   208         20
   209         10
   210          1