##TITLE=Library Entry 83619
##JCAMP-DX=Revision 4.10 
##DATA TYPE=MASS SPECTRUM
##SAMPLE DESCRIPTION=Japan AIST/NIMC Database- Spectrum MS-NW-2168
##NAMES=HP
##CAS NAME=Benzeneacetic acid, .alpha.-hydroxy-, (S)-
##MOLFORM=C8H8O3
##CAS REGISTRY NO=17199-29-0
##MP= -300
##BP= -300
##MW= 152
##$RETENTION INDEX=0
##$CONDENSED SPECTRUM=NO
##NPOINTS= 68
##XYDATA=(XY..XY) 1 
    12          1
    16          3
    17          3
    18         10
    19          1
    26          8
    27         40
    28         29
    29         53
    30          2
    31          1
    36          1
    37         11
    38         19
    39         55
    40          5
    41          2
    42          2
    43          3
    44         40
    45         23
    46          1
    49          7
    50         69
    51        172
    52         42
    53         26
    54          2
    55          3
    60          1
    61          6
    62         13
    63         27
    64          7
    65          6
    66          1
    73          4
    74         16
    75         10
    76         11
    77        481
    78         84
    79        728
    80         48
    81          2
    85          1
    86          2
    87          2
    89         26
    90         48
    91         29
    92          6
    95          1
   104          1
   105        175
   106         98
   107        999
   108         83
   109          5
   118         10
   119          1
   122          3
   134          1
   135          2
   136          9
   137          1
   152         92
   153          8