##TITLE=Library Entry 48366
##JCAMP-DX=Revision 4.10 
##DATA TYPE=MASS SPECTRUM
##SAMPLE DESCRIPTION=NIST Mass Spectrometry Data Center, 1994
##NAMES=HP
##CAS NAME=Bicyclo[2.2.2]-7-octene-2,3,5,6-tetracarboxylic acid dianhydride
##MOLFORM=C12H8O6
##CAS REGISTRY NO=1719-83-1
##MP= -300
##BP= -300
##MW= 248
##$RETENTION INDEX=0
##$CONDENSED SPECTRUM=NO
##NPOINTS= 57
##XYDATA=(XY..XY) 1 
    15          8
    17          9
    25          2
    26         68
    27         41
    30          1
    35          2
    37         12
    38         32
    39         99
    41          1
    42          1
    48          2
    50         94
    51        236
    52        106
    53         16
    54         20
    55          7
    61          5
    62         15
    63         48
    64          7
    65         16
    66          5
    73          6
    74         13
    75         12
    76         34
    77        132
    78        999
    79         63
    80          4
    82          2
    85          1
    87          4
    89         14
    90          2
    91         18
    98          2
   101          3
   102         21
   103         86
   104        154
   105         19
   106          3
   131        200
   132         22
   147          5
   148         21
   161          1
   176        340
   177         40
   178          2
   204         19
   205          2
   248          3