##TITLE=Library Entry 66298
##JCAMP-DX=Revision 4.10 
##DATA TYPE=MASS SPECTRUM
##SAMPLE DESCRIPTION=RADIAN CORP
##NAMES=HP
##CAS NAME=Silane, chloro(chloromethyl)dimethyl-
##MOLFORM=C3H8Cl2Si
##CAS REGISTRY NO=1719-57-9
##MP= -300
##BP= -300
##MW= 142
##$RETENTION INDEX=721
##$CONDENSED SPECTRUM=NO
##NPOINTS= 90
##XYDATA=(XY..XY) 1 
    14          3
    15          6
    26          2
    27          8
    29         17
    30          2
    38          2
    39          4
    40          1
    41         13
    42         19
    43         39
    44          4
    45          6
    47          4
    48          3
    49         23
    50          4
    51          7
    52          3
    53         18
    54          3
    55         11
    56          2
    57          6
    58          5
    59         44
    60          1
    61          3
    62          1
    63        181
    64         18
    65        192
    66         16
    67         54
    68          2
    69          4
    71          2
    72          2
    73          4
    74          3
    75         11
    76         11
    77         28
    78         36
    79        171
    80         23
    81         55
    82          3
    83          4
    84          1
    85          1
    88          2
    89         87
    90          9
    91         20
    92         19
    93        999
    94         76
    95        376
    96         25
    97         17
    98         22
    99         19
   100         24
   101         12
   102          8
   103         24
   105          5
   106          1
   107         45
   108          4
   109         24
   110          3
   111          7
   112          5
   113          3
   114          4
   115          2
   117          6
   119          3
   123          3
   125          4
   127         23
   128          2
   129         17
   141          2
   142         24
   144         12
   146          2