##TITLE=Library Entry 96538
##JCAMP-DX=Revision 4.10 
##DATA TYPE=MASS SPECTRUM
##SAMPLE DESCRIPTION=Japan AIST/NIMC Database- Spectrum MS-IW-7460
##NAMES=HP
##CAS NAME=.alpha.-Bromo-p-tolunitrile
##MOLFORM=C8H6BrN
##CAS REGISTRY NO=17201-43-3
##MP= -300
##BP= -300
##MW= 195
##$RETENTION INDEX=0
##$CONDENSED SPECTRUM=NO
##NPOINTS= 53
##XYDATA=(XY..XY) 1 
    26          2
    27          3
    28          2
    37          8
    38         11
    39         30
    40          2
    41          1
    43          2
    44          3
    49          3
    50         19
    51         17
    52          7
    53          1
    56          1
    57         17
    58         15
    60          1
    61          9
    62         24
    63         46
    64         18
    65          9
    66          1
    73          1
    74          3
    75          7
    76          7
    77          2
    79          3
    81          3
    84          1
    85          2
    86          4
    87          9
    88         22
    89        141
    90         31
    91          2
    97          8
    98          7
    99          1
   114         12
   115         15
   116        999
   117         93
   118          4
   194          1
   195         69
   196          8
   197         67
   198          6