##TITLE=Library Entry 101
##JCAMP-DX=Revision 4.10 
##DATA TYPE=MASS SPECTRUM
##SAMPLE DESCRIPTION=D.HENNEBERG, MAX-PLANCK INSTITUTE, MULHEIM, WEST GERMAN
Y
##NAMES=HP
##CAS NAME=Spirohexane-1-carboxylic acid, ethyl ester
##MOLFORM=C9H14O2
##CAS REGISTRY NO=17202-57-2
##MP= -300
##BP= -300
##MW= 154
##$RETENTION INDEX=0
##$CONDENSED SPECTRUM=NO
##NPOINTS= 91
##XYDATA=(XY..XY) 1 
    25          6
    26        126
    27        999
    28        119
    29        704
    30         34
    31         38
    32          3
    37         15
    38         54
    39        518
    40         72
    41        446
    42        176
    43        145
    44         13
    45         47
    47          3
    49         13
    50        128
    51        234
    52        192
    53        695
    54        226
    55        402
    56         45
    57         26
    58          4
    59          5
    60         11
    61          6
    62          8
    63         27
    64          5
    65         87
    66        105
    67        213
    68         45
    69        122
    70        292
    71        133
    72          8
    73         70
    74          9
    75         14
    76          6
    77        135
    78         36
    79        661
    80        346
    81        983
    82        118
    83        114
    84         35
    85         12
    86         35
    87          4
    88         13
    89          3
    91          6
    93          8
    94          3
    95         13
    96          9
    97        541
    98        841
    99        210
   100         16
   101          5
   102          1
   103          6
   106          1
   107         48
   108        108
   109        353
   110         33
   111        101
   112          9
   114         16
   121          1
   123          2
   124          2
   125        263
   126        672
   127         58
   128          5
   139          6
   145          3
   153          4
   154         43
   155          4