##TITLE=Library Entry 25332
##JCAMP-DX=Revision 4.10 
##DATA TYPE=MASS SPECTRUM
##SAMPLE DESCRIPTION=NIST Mass Spectrometry Data Center
##NAMES=HP
##CAS NAME=Dotriacontane, 2-methyl-
##MOLFORM=C33H68
##CAS REGISTRY NO=1720-11-2
##MP= -300
##BP= -300
##MW= 464
##$RETENTION INDEX=3254
##$CONDENSED SPECTRUM=NO
##NPOINTS= 81
##XYDATA=(XY..XY) 1 
    29         25
    39         11
    41        165
    42         71
    43        607
    44         19
    54         20
    55        235
    56        174
    57        999
    58         39
    67         42
    68         36
    69        238
    70        126
    71        768
    72         37
    82         38
    83        193
    84         65
    85        506
    86         33
    97        162
    98         52
    99        200
   100         14
   110         11
   111        104
   112         39
   113        126
   114         12
   125         48
   126         32
   127        100
   139         18
   140         22
   141         71
   154         14
   155         48
   168         13
   169         35
   182         14
   183         33
   184          5
   196         13
   197         29
   208         11
   210          8
   211         24
   224          8
   225         14
   238          8
   239         18
   252          7
   253         17
   266          6
   294          6
   295         12
   308          5
   309         12
   323         10
   336          4
   337         11
   350          5
   351         11
   364          5
   365          9
   379          9
   380          4
   393          8
   407          7
   420         25
   421        107
   422         33
   423          4
   448          2
   449         38
   450         11
   451          3
   464          4
   465          1