##TITLE=Library Entry 5541
##JCAMP-DX=Revision 4.10 
##DATA TYPE=MASS SPECTRUM
##SAMPLE DESCRIPTION=F. TURECEK,HEYROVSKY INST PHYS CHEM & ELECTROCHEM,PRAGU
E,CZECH
##NAMES=HP
##CAS NAME=1,4-Diacetoxybicyclo[2.2.2]octane-2,3-dicarboxylic acid
##MOLFORM=C14H18O8
##CAS REGISTRY NO=17206-90-5
##MP= -300
##BP= -300
##MW= 314
##$RETENTION INDEX=0
##$CONDENSED SPECTRUM=NO
##NPOINTS= 92
##XYDATA=(XY..XY) 1 
    14         16
    15         51
    16         12
    26         10
    27         36
    28        406
    29         25
    38         10
    39         57
    40         12
    41         56
    42         16
    43        999
    44         40
    50         12
    51         32
    52         11
    53         21
    54         11
    55         43
    56         14
    57         32
    58         11
    63         16
    64         12
    65         28
    66         14
    67         24
    68         11
    69         30
    70         10
    71         21
    77         45
    78         20
    79         36
    80         14
    81         22
    82         43
    83         18
    85         11
    91         27
    92         16
    93         19
    94         28
    95         21
    96         27
    97         16
    98         13
   103         10
   105         16
   107         22
   109         13
   110         16
   111         10
   112         69
   113         18
   115         14
   117         10
   119         10
   120         16
   121         17
   122         52
   123         12
   128         10
   129         17
   131         10
   138         19
   139         10
   141         11
   142         17
   148         23
   149         26
   150         14
   154         19
   155         10
   157         10
   158         12
   166         45
   167         12
   168         10
   176         17
   182         11
   192         10
   194        123
   195         18
   208          9
   237         49
   238          7
   253          5
   254         12
   255          3
   296          4