##TITLE=Library Entry 31720
##JCAMP-DX=Revision 4.10 
##DATA TYPE=MASS SPECTRUM
##SAMPLE DESCRIPTION=Chemical Concepts
##NAMES=HP
##CAS NAME=3-(1,2-Dibromoethyl)-1,1,2,2-tetrafluorocyclobutane
##MOLFORM=C6H6Br2F4
##CAS REGISTRY NO=17215-13-3
##MP= -300
##BP= -300
##MW= 312
##$RETENTION INDEX=0
##$CONDENSED SPECTRUM=NO
##NPOINTS= 92
##XYDATA=(XY..XY) 1 
    33         57
    38        794
    40         22
    41          4
    44        188
    50        418
    51        292
    52        166
    53        152
    54        111
    57        152
    58         19
    59         16
    61         16
    64        999
    65         38
    66          2
    69        231
    70         33
    71          6
    75        185
    77        292
    79        199
    80        304
    82         70
    83        107
    84         15
    85          9
    89        606
    91         21
    93        135
    95        180
    96          3
   100        313
   101         56
   103         89
   105         86
   106        111
   108         45
   109          6
   111          4
   113         60
   114         18
   115          9
   117          9
   119         45
   121         41
   122          1
   124          5
   126         26
   127         14
   129         31
   131         36
   133        350
   134         51
   135         11
   137          9
   139         14
   142          4
   144          5
   149          1
   151          6
   153        226
   154         16
   155         17
   157         22
   158          5
   159         15
   161          9
   163          1
   169        290
   171        288
   172          8
   175          1
   184          8
   186         22
   188         13
   193          5
   195          6
   213        213
   215        226
   216         10
   231          2
   233        100
   235         96
   236          5
   248         11
   250         22
   252         10
   312          3
   314          6
   316          3