##TITLE=Library Entry 532
##JCAMP-DX=Revision 4.10 
##DATA TYPE=MASS SPECTRUM
##SAMPLE DESCRIPTION=NIST Mass Spectrometry Data Center
##NAMES=HP
##CAS NAME=Diethyl 2-(2-cyanoethyl)-malonate
##MOLFORM=C10H15NO4
##CAS REGISTRY NO=17216-62-5
##MP= -300
##BP= -300
##MW= 213
##$RETENTION INDEX=0
##$CONDENSED SPECTRUM=NO
##NPOINTS= 96
##XYDATA=(XY..XY) 1 
    13          1
    14          5
    15         45
    16          2
    17          2
    18          2
    19          7
    26         63
    27        495
    28        128
    29        999
    30         35
    37          8
    38         23
    39        106
    40         39
    41        318
    42         50
    43         43
    44         16
    45         60
    46          4
    47          5
    50          2
    51          3
    52         11
    53         13
    55        752
    56         37
    57          9
    58          7
    63          2
    64         12
    65          6
    66         37
    68        189
    69        406
    70         27
    71          6
    73        430
    75          2
    81          2
    82         13
    83          7
    84         16
    85         22
    86         43
    87          8
    88         18
    89          1
    93          8
    94         38
    95        111
    96        464
    97         29
    98          4
    99         23
   101        495
   102         30
   103          3
   104         10
   105          8
   110          1
   111          6
   112         35
   113         17
   114         26
   115          6
   122         21
   123          4
   124         21
   125          2
   127         21
   128          2
   129         15
   130          1
   132         18
   133         33
   134          1
   138          2
   140         71
   141        127
   142         12
   145         12
   158          7
   160         45
   161          3
   166          1
   168        285
   169         31
   170          4
   173         16
   174          1
   186         36
   187          3
   213          1