##TITLE=Library Entry 7151
##JCAMP-DX=Revision 4.10 
##DATA TYPE=MASS SPECTRUM
##SAMPLE DESCRIPTION=Chemical Concepts
##NAMES=HP
##CAS NAME=Cyclopropanemethanol, 2-isopropylidene-.alpha.-methyl-
##MOLFORM=C8H14O
##CAS REGISTRY NO=17219-01-1
##MP= -300
##BP= -300
##MW= 126
##$RETENTION INDEX=0
##$CONDENSED SPECTRUM=NO
##NPOINTS= 87
##XYDATA=(XY..XY) 1 
    22          0
    24          0
    26         20
    27        348
    28          9
    29         58
    30          9
    31         54
    32          1
    34          0
    35          0
    36          2
    37         14
    38         36
    39        463
    40        134
    41        710
    42         79
    43        999
    44         24
    45        200
    46          5
    47          1
    48          3
    49          4
    50         43
    51         82
    52         47
    53        323
    54         53
    55        749
    56         54
    57         95
    58        103
    59        484
    60         12
    61          5
    62         15
    63         36
    64          7
    65         98
    66         48
    67        529
    68        386
    69        134
    70         13
    71         33
    72          4
    73          1
    74          6
    75          3
    77        238
    78         33
    79        122
    80         22
    81         64
    82         31
    83        302
    84         63
    85          8
    86          0
    87          1
    89          3
    90          2
    91        180
    92         25
    93        543
    94         53
    95         41
    96         12
    97         55
    98          4
   101          0
   103          1
   104          0
   105         10
   106          2
   107         27
   108        102
   109         54
   110         12
   111        133
   112         13
   123          6
   124          8
   125          2
   126          6