##TITLE=Library Entry 69532
##JCAMP-DX=Revision 4.10 
##DATA TYPE=MASS SPECTRUM
##SAMPLE DESCRIPTION=Chemical Concepts
##NAMES=HP
##CAS NAME=3-(Methoxycarbonylmethylamino)but-2-enoic acid, ethyl ester
##MOLFORM=C9H15NO4
##CAS REGISTRY NO=17213-68-2
##MP= -300
##BP= -300
##MW= 201
##$RETENTION INDEX=0
##$CONDENSED SPECTRUM=NO
##NPOINTS= 114
##XYDATA=(XY..XY) 1 
    26          6
    27         55
    28        164
    29         95
    30        128
    31         26
    32         30
    33          4
    36          0
    37          1
    38          6
    39         84
    40         28
    41        141
    42         90
    43         72
    44         14
    45         28
    46          1
    48          1
    50          0
    51          2
    52          5
    53          9
    54         37
    55        173
    56         40
    57         25
    58          7
    59         27
    60          5
    61          1
    65          1
    66          4
    67         58
    68         68
    69         61
    70        117
    71         18
    72         16
    73         16
    74          4
    76          0
    77          3
    78          0
    79          1
    80          1
    81          4
    82          7
    83         16
    84         60
    85         32
    86         47
    87          3
    88          6
    89          5
    90          3
    91          1
    93          0
    94          1
    95         38
    96        999
    97        120
    98         18
    99         13
   100          6
   101          3
   102          1
   105          0
   109          1
   110          5
   111          2
   112         19
   113         42
   114         82
   115          5
   116          1
   117          0
   121          0
   122          0
   123         15
   124          5
   125          4
   126          7
   127         10
   128         15
   129         94
   130          7
   131          1
   140         10
   141         39
   142        267
   143         22
   144          2
   149          1
   152          1
   153          1
   154         17
   155         27
   156        167
   157         14
   158          1
   169         40
   170          4
   172          4
   173          2
   178          1
   179          0
   186          1
   187          1
   201        155
   202         17
   203          1
   207          0