##TITLE=Library Entry 508
##JCAMP-DX=Revision 4.10 
##DATA TYPE=MASS SPECTRUM
##SAMPLE DESCRIPTION=Japan AIST/NIMC Database- Spectrum MS-NW-5664
##NAMES=HP
##CAS NAME=4'-(4-Butoxybenzylideneamino)acetophenone
##MOLFORM=C19H21NO2
##CAS REGISTRY NO=17224-18-9
##MP= -300
##BP= -300
##MW= 295
##$RETENTION INDEX=0
##$CONDENSED SPECTRUM=NO
##NPOINTS= 177
##XYDATA=(XY..XY) 1 
    12          1
    14          4
    15         64
    16          1
    17          3
    18          1
    25          1
    26         16
    27        229
    28         50
    29        999
    30         20
    31          2
    37          5
    38         22
    39        214
    40         15
    41        506
    42         16
    43        600
    44         14
    45          1
    49          1
    50        104
    51        154
    52         26
    53         15
    54          3
    55         49
    56          9
    57        186
    58          8
    61          3
    62         22
    63         91
    64         43
    65        200
    66         21
    67          1
    69          1
    70          2
    74         16
    75         43
    76        153
    77        137
    78         25
    79         11
    80          1
    82          1
    83          2
    84          1
    86          4
    87          7
    88          9
    89         48
    90         35
    91        110
    92         12
    93         27
    94         11
    95          2
    97          2
    98          2
    99          2
   100          2
   101          8
   102         25
   103         17
   104         16
   105         12
   106          4
   107          6
   108          2
   111          3
   112          2
   113          7
   114         13
   115         47
   116         13
   117          8
   118          4
   119         24
   120         11
   121          2
   125          2
   126          6
   127         11
   128         11
   129          3
   130          7
   131          3
   132          3
   133          1
   135          2
   137          1
   138          3
   139         61
   140         49
   141         54
   142          9
   143          3
   144          7
   145          1
   146         16
   147          3
   150          6
   151         53
   152         31
   153         16
   154          8
   155          4
   156          2
   157          1
   163          1
   164          5
   165         10
   166         64
   167        132
   168         85
   169         35
   170          9
   171          1
   172          1
   176          3
   177         12
   178         28
   179         13
   180         11
   181          5
   182          2
   183          1
   190          1
   191          1
   192          3
   193          5
   194         19
   195         35
   196        104
   197         15
   198          3
   207          6
   208          4
   209          8
   210         20
   211          6
   212          1
   218          1
   220          1
   221         12
   222          9
   223         23
   224        566
   225         92
   226          9
   227          1
   236          4
   237          2
   238         45
   239        199
   240         36
   241          4
   250          4
   251          1
   252          6
   253          1
   266          4
   267          1
   278          1
   279          1
   280         86
   281         17
   282          2
   294          8
   295        503
   296        111
   297         15
   298          2