##TITLE=Library Entry 84611
##JCAMP-DX=Revision 4.10 
##DATA TYPE=MASS SPECTRUM
##SAMPLE DESCRIPTION=P.BEAK ROGER ADAMS LAB., ILLINOIS UNIV., URBANA, ILL.,
 USA
##NAMES=HP
##CAS NAME=2(1H)-Pyridinone, 6-chloro-1-methyl-
##MOLFORM=C6H6ClNO
##CAS REGISTRY NO=17228-63-6
##MP= -300
##BP= -300
##MW= 143
##$RETENTION INDEX=0
##$CONDENSED SPECTRUM=NO
##NPOINTS= 51
##XYDATA=(XY..XY) 1 
    26         29
    27         48
    28         46
    37         49
    38        115
    39        697
    40         75
    41         10
    42         27
    43          7
    49         35
    50         75
    51         90
    52         62
    53         61
    54         35
    55         11
    60         10
    61          7
    62          8
    63         16
    64         61
    65         41
    66         13
    73         28
    74         24
    75         17
    76         26
    78         42
    79         32
    80         73
    81         12
    85          8
    86          5
    87          7
    89          9
    93         45
   100         18
   102         31
   104          9
   108        999
   109         75
   114         25
   115        261
   116         24
   117         88
   118          6
   143        495
   144         39
   145        169
   146         12