##TITLE=Library Entry 48720
##JCAMP-DX=Revision 4.10 
##DATA TYPE=MASS SPECTRUM
##SAMPLE DESCRIPTION=NIST Mass Spectrometry Data Center, 1992
##NAMES=HP
##CAS NAME=Pyridazine, 3-chloro-6-methoxy-
##MOLFORM=C5H5ClN2O
##CAS REGISTRY NO=1722-10-7
##MP= -300
##BP= -300
##MW= 144
##$RETENTION INDEX=0
##$CONDENSED SPECTRUM=NO
##NPOINTS= 83
##XYDATA=(XY..XY) 1 
    12          6
    13          9
    14         15
    15        151
    24          6
    25         21
    26         74
    27         47
    28         14
    29         64
    30         15
    31          9
    35         12
    36         30
    37        139
    38        178
    39         40
    40         13
    41         14
    42         13
    43         13
    47         77
    48         10
    49         50
    50         49
    51        129
    52        174
    53         46
    54         38
    55         12
    56         46
    57          3
    58          1
    59          2
    60         14
    61          7
    62         21
    63          5
    64          8
    65          6
    66         24
    67         14
    68          3
    71         11
    72         74
    73        726
    74         48
    75        230
    76         19
    77         28
    78          3
    79        999
    80         62
    81         72
    82          5
    83          3
    84          6
    85          2
    86          6
    87          8
    88         12
    89          6
    90          5
    91          1
    93          2
    94          5
    99          3
   100          7
   101         12
   102          2
   103          4
   109        175
   110         11
   114         84
   115        116
   116         37
   117         36
   118          3
   143        391
   144        605
   145        158
   146        189
   147         12