##TITLE=Library Entry 91003
##JCAMP-DX=Revision 4.10 
##DATA TYPE=MASS SPECTRUM
##SAMPLE DESCRIPTION=Japan AIST/NIMC Database- Spectrum MS-NW-7543
##NAMES=HP
##CAS NAME=Pyrimidine, 2-chloro-
##MOLFORM=C4H3ClN2
##CAS REGISTRY NO=1722-12-9
##MP= -300
##BP= -300
##MW= 114
##$RETENTION INDEX=0
##$CONDENSED SPECTRUM=NO
##NPOINTS= 62
##XYDATA=(XY..XY) 1 
    12          5
    13          3
    14          2
    24          7
    25         21
    26        268
    27         33
    28         37
    29          2
    35         10
    36          9
    37         12
    38         26
    39         21
    40          7
    41          1
    42          1
    43          2
    44          8
    47         16
    48          2
    49          6
    50         13
    51        108
    52        181
    53        125
    54          5
    55          1
    56          1
    57          1
    58          1
    59          1
    60         71
    61         11
    62         60
    63          5
    64         12
    67          1
    68          1
    69          1
    73          2
    74          1
    75          1
    76          5
    77         17
    78          5
    79        577
    80         30
    81          1
    83          1
    85          2
    86         30
    87        169
    88         17
    89         54
    90          3
   113         23
   114        999
   115         59
   116        320
   117         18
   118          1