##TITLE=Library Entry 18052
##JCAMP-DX=Revision 4.10 
##DATA TYPE=MASS SPECTRUM
##SAMPLE DESCRIPTION=W.C.FIRTH, AMERICAN CYANAMID CO., STAMFORD, CONN., U.S.
A.
##NAMES=HP
##CAS NAME=Diaziridine, tetrafluoro-
##MOLFORM=CF4N2
##CAS REGISTRY NO=17224-09-8
##MP= -300
##BP= -300
##MW= 116
##$RETENTION INDEX=0
##$CONDENSED SPECTRUM=NO
##NPOINTS= 9
##XYDATA=(XY..XY) 1 
    19         30
    31        340
    33        110
    45         60
    50        999
    52         30
    64        170
    69        270
    83        180