##TITLE=Library Entry 60531
##JCAMP-DX=Revision 4.10 
##DATA TYPE=MASS SPECTRUM
##SAMPLE DESCRIPTION=Chemical Concepts
##NAMES=HP
##CAS NAME=Benzyl 2-chloroethyl ether
##MOLFORM=C9H11ClO
##CAS REGISTRY NO=17229-17-3
##MP= -300
##BP= -300
##MW= 170
##$RETENTION INDEX=0
##$CONDENSED SPECTRUM=NO
##NPOINTS= 58
##XYDATA=(XY..XY) 1 
    26         14
    27        105
    28         17
    29         31
    30         10
    31          6
    36          2
    37          6
    38         20
    39        111
    40          8
    41         23
    42          4
    43          6
    45          4
    48          3
    49         40
    50         62
    51        137
    52         34
    53         13
    55          2
    61          8
    62         22
    63         93
    64         19
    65        172
    66         10
    73          2
    74         13
    75         11
    76          9
    77        141
    78         42
    79        149
    80         12
    86          3
    87          3
    89         47
    90         27
    91        999
    92        293
    93         21
   103          2
   104          3
   105         45
   106          8
   107         42
   108         19
   109          2
   121          7
   140          4
   142          1
   169         41
   170        126
   171         13
   172         36
   173          2