##TITLE=Library Entry 28848
##JCAMP-DX=Revision 4.10 
##DATA TYPE=MASS SPECTRUM
##SAMPLE DESCRIPTION=Exported from NIST MS Search
##NAMES=HP
##CAS NAME=2-Hexadecenamide, N,N-bis[4-(dimethylamino)butyl]-, (E)-
##MOLFORM=C28H57N3O
##CAS REGISTRY NO=17232-86-9
##MP= -300
##BP= -300
##MW= 451
##$RETENTION INDEX=0
##$CONDENSED SPECTRUM=NO
##NPOINTS= 222
##XYDATA=(XY..XY) 1 
    41        195
    42        369
    43        286
    44        260
    45        239
    46         26
    50          8
    51          8
    52          8
    53         65
    54         78
    55        513
    56        182
    57        347
    58        999
    59        243
    65         17
    66         17
    67        130
    68        104
    69        252
    70        208
    71        434
    72        165
    73         69
    74          8
    77         26
    78          8
    79         34
    80         34
    81        152
    82        173
    83        191
    84        808
    85        226
    86         95
    87         17
    91         26
    92          8
    93         34
    94         34
    95         86
    96        108
    97        391
    98        521
    99         52
   100        999
   101         78
   105          8
   106          8
   107          8
   108         17
   109         26
   110         78
   111         60
   112         69
   113         34
   114          8
   115         34
   116         26
   119          8
   120          8
   121          8
   122         26
   123         26
   124        139
   125         34
   126         86
   127         26
   128          8
   129         69
   130          8
   131          8
   132          8
   133          8
   134          8
   135          8
   136          8
   137         21
   138         34
   139         21
   140         21
   141         21
   142         21
   143         43
   144          8
   145          8
   147          8
   148          8
   149          8
   150          8
   151          8
   152         34
   153         26
   154         26
   155         34
   156          8
   157          8
   158          8
   159          8
   163          8
   164          8
   165          8
   166         34
   167         17
   168         34
   169         95
   170         17
   171         17
   172          8
   178          8
   180         26
   181          8
   182          8
   183         86
   184        113
   185         17
   186          8
   194         26
   195          8
   196          8
   197        304
   198         86
   199         34
   200          8
   209          8
   210          8
   211        208
   212         69
   213         21
   214        191
   215         34
   216          8
   223          8
   224          8
   225        121
   226         21
   227         43
   237         26
   238          8
   239         69
   240         26
   241          8
   242         21
   250          8
   251          8
   252         17
   253         43
   254         43
   255          8
   257          8
   266          8
   267         60
   268        173
   269         34
   270          8
   279          8
   280          8
   281         34
   282         43
   283          8
   292          8
   293          8
   294          8
   295         34
   296         43
   297          8
   306          8
   307          8
   308          8
   309         26
   310          8
   320          8
   321          8
   322          8
   323         17
   324         26
   325          8
   334          8
   335          8
   336          8
   337         26
   338         26
   339          8
   348          8
   349         21
   350         21
   351         21
   352         21
   353          8
   362          8
   363          8
   364          8
   365         34
   366         26
   367          8
   379         95
   380         34
   381         17
   382          8
   391          8
   392          8
   393        121
   394         43
   395         34
   396          8
   405          8
   406          8
   407        130
   408         78
   409         21
   410          8
   433          8
   434          8
   436        478
   437        173
   438         43
   439         21
   450         69
   451        347
   452        121
   453         34