##TITLE=Library Entry 36208
##JCAMP-DX=Revision 4.10 
##DATA TYPE=MASS SPECTRUM
##SAMPLE DESCRIPTION=NIST Mass Spectrometry Data Center
##NAMES=HP
##CAS NAME=4-(1,5-Dimethylhex-4-enyl)cyclohex-2-enone
##MOLFORM=C14H22O
##CAS REGISTRY NO=1723-80-4
##MP= -300
##BP= -300
##MW= 206
##$RETENTION INDEX=1698
##$CONDENSED SPECTRUM=NO
##NPOINTS= 112
##XYDATA=(XY..XY) 1 
    26          2
    27         44
    28          8
    29         38
    30          1
    37          1
    38          5
    39        157
    40         40
    41        641
    42         43
    43         67
    44          2
    50          8
    51         32
    52         23
    53        137
    54         28
    55        339
    56         43
    57         21
    61          1
    62          2
    63         13
    64          5
    65        103
    66         96
    67        322
    68         76
    69        999
    70         67
    74          1
    75          1
    76          1
    77         82
    78         21
    79        219
    80         58
    81         86
    82        105
    83         40
    84          5
    89          2
    91         55
    92         11
    93        104
    94        215
    95        209
    96        272
    97         32
    98          5
    99          1
   102          1
   103          5
   104          2
   105         31
   106         19
   107        187
   108         56
   109        247
   110         38
   111          8
   112          1
   115          4
   117         15
   118          4
   120          9
   121        315
   122        618
   123        808
   124        101
   125         10
   126          1
   130          1
   131         16
   132         10
   133         15
   134          4
   135         88
   136        112
   137         23
   138          7
   143          1
   145         15
   146          7
   147         31
   148         18
   149         75
   150         35
   151          8
   152          1
   158          1
   159          6
   160          2
   162         73
   163         70
   164         46
   165          5
   173         16
   174          1
   177         14
   178          8
   179          1
   188         35
   189          6
   191         65
   192          9
   193          1
   205          6
   206        199
   207         27
   208          3