##TITLE=Library Entry 98484
##JCAMP-DX=Revision 4.10 
##DATA TYPE=MASS SPECTRUM
##SAMPLE DESCRIPTION=Japan AIST/NIMC Database- Spectrum MS-IW-1316
##NAMES=HP
##CAS NAME=3-Chlorothiophene
##MOLFORM=C4H3ClS
##CAS REGISTRY NO=17249-80-8
##MP= -300
##BP= -300
##MW= 118
##$RETENTION INDEX=0
##$CONDENSED SPECTRUM=NO
##NPOINTS= 56
##XYDATA=(XY..XY) 1 
    12          1
    25          2
    26          3
    32          3
    33          1
    35          1
    36          6
    37         22
    38         27
    39        106
    40          3
    41         22
    42          1
    44          9
    45        201
    46          4
    47         14
    48          4
    49         14
    50         20
    51          8
    56          5
    57         40
    58         72
    59         28
    60         14
    61          1
    68          3
    69         18
    70          1
    71          2
    72          4
    73         66
    74          5
    75         21
    76          2
    79         20
    80          4
    81         35
    82         40
    83        361
    84         21
    85         17
    86          1
    91          7
    92         21
    93          3
    94          8
   112          1
   116          1
   117          3
   118        999
   119         52
   120        364
   121         18
   122         14