##TITLE=Library Entry 53415
##JCAMP-DX=Revision 4.10 
##DATA TYPE=MASS SPECTRUM
##SAMPLE DESCRIPTION=Organic Synthesis Lab, MSU, Moscow.TRC 512
##NAMES=HP
##CAS NAME=17.beta.-Cyclohexylcarbonyloxy-3,3-dimethoxy-5.alpha.-androstane
##MOLFORM=C28H46O4
##CAS REGISTRY NO=17246-29-6
##MP= -300
##BP= -300
##MW= 446
##$RETENTION INDEX=0
##$CONDENSED SPECTRUM=NO
##NPOINTS= 200
##XYDATA=(XY..XY) 1 
    26          1
    27         17
    29         40
    31         13
    32         28
    39         19
    40          5
    41        139
    42         11
    43         62
    44          3
    45          7
    51          2
    52          1
    53         24
    54         17
    55        317
    56         17
    57         11
    58          2
    59          2
    60          3
    65          7
    66          4
    67         76
    68         22
    69         32
    70          3
    71          9
    72          1
    73          5
    77         24
    78          5
    79         63
    80         13
    81        100
    82         18
    83        999
    84         59
    85         96
    86          6
    87          1
    88          1
    91         45
    92          9
    93         65
    94        105
    95         70
    96          8
    97         15
    98          4
    99          2
   101         34
   102          3
   103          2
   104          2
   105         40
   106         14
   107         55
   108         19
   109         27
   110         16
   111        318
   112         23
   113          1
   115          2
   116          1
   117          8
   118          5
   119         25
   120         12
   121         30
   122         15
   123         34
   124         51
   125          9
   126          1
   127         10
   128          4
   129          6
   130          2
   131         16
   132          5
   133         21
   134          9
   135         21
   136          9
   137         27
   138          6
   139          2
   140          1
   143          4
   144          6
   145         18
   146         16
   147         31
   148         45
   149         99
   150         12
   151          4
   152          1
   155          1
   157          5
   158          4
   159         18
   160          9
   161         45
   162         14
   163         19
   164          3
   165          2
   169          1
   171          4
   172          2
   173         12
   174          7
   175          9
   176          4
   177          4
   178          2
   179          3
   183          1
   185          5
   186          2
   187         19
   188          4
   189          4
   190          2
   191          2
   197          3
   198          1
   199          6
   200         12
   201         26
   202         65
   203         15
   204          3
   205          1
   211          2
   212          1
   213         13
   214          9
   215         11
   216          6
   217         10
   218          3
   219          7
   220          1
   225          1
   227          2
   228          1
   229          8
   230          8
   231         14
   232          3
   233          2
   239          7
   240          1
   243          4
   244         30
   245          7
   246          4
   247          2
   253          5
   254         11
   255         17
   256          4
   257        121
   258         23
   259          2
   270          2
   271         39
   272        398
   273        110
   274         15
   275          2
   286          3
   287          3
   288          3
   289         13
   290          3
   303          1
   317          6
   318          1
   328          1
   329          2
   330          7
   331          1
   357          3
   382          2
   385         18
   386          4
   399          3
   400          6
   401          2
   413          1
   414         84
   415         25
   416          4
   446          1