##TITLE=Library Entry 51178
##JCAMP-DX=Revision 4.10 
##DATA TYPE=MASS SPECTRUM
##SAMPLE DESCRIPTION=Japan AIST/NIMC Database- Spectrum MS-NW-2780
##NAMES=HP
##CAS NAME=Cyclododecanol
##MOLFORM=C12H24O
##CAS REGISTRY NO=1724-39-6
##MP= -300
##BP= -300
##MW= 184
##$RETENTION INDEX=1570
##$CONDENSED SPECTRUM=NO
##NPOINTS= 98
##XYDATA=(XY..XY) 1 
    15          9
    17          3
    18         10
    26          6
    27        154
    28         39
    29        235
    30          9
    31         61
    32          3
    38          3
    39        140
    40         28
    41        641
    42        175
    43        350
    44        189
    45         85
    46          2
    50          3
    51          9
    52          6
    53         65
    54        358
    55        833
    56        281
    57        555
    58         74
    59         15
    63          2
    65         11
    66        106
    67        667
    68        681
    69        447
    70        199
    71        192
    72         59
    73         11
    77          9
    78          3
    79         33
    80         38
    81        516
    82        999
    83        358
    84        120
    85        117
    86         23
    87          3
    91          5
    92          1
    93         14
    94         29
    95        424
    96        557
    97        198
    98         98
    99         42
   100          8
   105          1
   107          5
   108         10
   109        226
   110        226
   111         82
   112         41
   113         14
   114          4
   121          5
   122          7
   123        103
   124         98
   125         18
   126          3
   127          8
   128          4
   135          3
   136          3
   137         52
   138        122
   139         16
   140        122
   141         19
   142          2
   149          1
   151          4
   153          1
   155          3
   156         17
   157          2
   164          1
   166         92
   167         11
   168          1
   182          5
   183          5
   184          7