##TITLE=Library Entry 34829
##JCAMP-DX=Revision 4.10 
##DATA TYPE=MASS SPECTRUM
##SAMPLE DESCRIPTION=LAC, NIDDK, NIH, Bethesda, MD 20892
##NAMES=HP
##CAS NAME=Glutaconic acid
##MOLFORM=C5H6O4
##CAS REGISTRY NO=1724-02-3
##MP= -300
##BP= -300
##MW= 130
##$RETENTION INDEX=0
##$CONDENSED SPECTRUM=NO
##NPOINTS= 71
##XYDATA=(XY..XY) 1 
    41        408
    42        296
    43        159
    44        110
    45        809
    46         11
    47         72
    48         43
    49         62
    50        250
    51        551
    52         21
    53         54
    54         14
    55         67
    56         31
    57        119
    58         51
    59         42
    60         64
    61         16
    63         22
    64         18
    65         51
    66         34
    67         56
    68        301
    69        999
    70         41
    71        135
    73         27
    75         11
    77         16
    78         43
    79         23
    80        146
    81         22
    82          4
    83          7
    84        534
    85        155
    86        117
    87         42
    88         32
    89         21
    90         10
    91         64
    92         22
    93         12
    94         14
    95         89
    96         13
    97         31
    98          5
    99          7
   100          9
   102          6
   105         14
   106         11
   107         21
   108         14
   109         13
   112        211
   113        578
   114         29
   115        195
   116         15
   117          7
   129          6
   130         43
   131          4