##TITLE=Library Entry 9788
##JCAMP-DX=Revision 4.10 
##DATA TYPE=MASS SPECTRUM
##SAMPLE DESCRIPTION=CARL DJERASSI DEPT OF CHEM STANFORD UNIV STANFORD CALIF
 94305
##NAMES=HP
##CAS NAME=Ethanone, 1-(3-methyloxiranyl)-
##MOLFORM=C5H8O2
##CAS REGISTRY NO=17257-79-3
##MP= -300
##BP= -300
##MW= 100
##$RETENTION INDEX=1263
##$CONDENSED SPECTRUM=NO
##NPOINTS= 19
##XYDATA=(XY..XY) 1 
    26         40
    27        110
    28         85
    29        170
    30         10
    31         15
    38          5
    39         40
    40         10
    41         40
    42         30
    43        999
    44         15
    45         25
    55         25
    57         55
    58         30
    69         25
    85        220