##TITLE=Library Entry 29177
##JCAMP-DX=Revision 4.10 
##DATA TYPE=MASS SPECTRUM
##SAMPLE DESCRIPTION=Drug Lab
##NAMES=HP
##CAS NAME=3-Methoxy-4,5-methylenedioxy-N-methylamphetamine
##MOLFORM=C12H17NO3
##CAS REGISTRY NO=172518-52-4
##MP= -300
##BP= -300
##MW= 223
##$RETENTION INDEX=0
##$CONDENSED SPECTRUM=NO
##NPOINTS= 111
##XYDATA=(XY..XY) 1 
    38          2
    39         15
    40          4
    41         16
    42         23
    43         32
    44         10
    45          1
    50          8
    51         15
    52          5
    53         15
    54          3
    55          8
    56         47
    57         21
    58        999
    59         38
    60          1
    61          1
    62          4
    63         13
    64         16
    65         14
    66          6
    67          5
    68          2
    69          3
    70          4
    71          6
    74          2
    75          3
    76          4
    77         29
    78          9
    79         10
    80          3
    81          5
    82          3
    83          2
    84          1
    85          3
    89          3
    90          1
    91         11
    92         17
    93          8
    94          4
    95          8
    96          2
    97          1
   104         10
   105          8
   106          3
   107         12
   108          4
   109          8
   110          2
   111          2
   112          1
   117          1
   118          2
   119          3
   120         15
   121          7
   122          8
   123          3
   124          1
   125          2
   126          1
   127          2
   131          2
   132          1
   133          5
   134          2
   135          8
   136          4
   137          3
   145          1
   146          1
   147          4
   148          2
   149          4
   150          9
   151          7
   152          2
   160          1
   161          1
   162          1
   163          2
   164          2
   165         53
   166         81
   167          9
   168          1
   175          3
   176          2
   177          1
   178          2
   179          2
   190          1
   191          1
   192          2
   193          2
   205          1
   206          1
   207          1
   208          2
   211          2
   221          3
   222          1