##TITLE=Library Entry 2641
##JCAMP-DX=Revision 4.10 
##DATA TYPE=MASS SPECTRUM
##SAMPLE DESCRIPTION=NIST Mass Spectrometry Data Center, 1994
##NAMES=HP
##CAS NAME=Oxacyclododecan-2-one
##MOLFORM=C11H20O2
##CAS REGISTRY NO=1725-03-7
##MP= -300
##BP= -300
##MW= 184
##$RETENTION INDEX=0
##$CONDENSED SPECTRUM=NO
##NPOINTS= 106
##XYDATA=(XY..XY) 1 
    14          4
    15         45
    16          4
    17          3
    18          5
    19          5
    26         38
    27        409
    28        248
    29        465
    30         29
    31         82
    37          3
    39        382
    40         91
    41        999
    42        371
    43        286
    44         21
    45         38
    46          2
    50          7
    51         16
    52         10
    53         89
    54        155
    55        764
    56        190
    57         99
    58         39
    59         21
    60         71
    61         16
    63          2
    65         15
    66         25
    67        224
    68        187
    69        337
    70        122
    71         59
    72         11
    73         94
    74         10
    77          8
    78          6
    79         48
    80         35
    81        139
    82        171
    83        227
    84        286
    85         41
    86          8
    87         32
    88          3
    91          8
    92          5
    93         27
    94         43
    95         96
    96        145
    97        144
    98        335
    99         43
   100         29
   101         24
   102          7
   105          5
   106          7
   107         13
   108         10
   109         40
   110         49
   111        102
   112        100
   113         35
   114         32
   115         11
   116         39
   119         13
   120          5
   121          5
   122         26
   123         49
   124         58
   125         33
   126         10
   127         28
   128          8
   129         10
   133          5
   135          2
   136          2
   137         34
   138         28
   139          7
   140          3
   141         17
   142          4
   148         15
   151          9
   155          5
   156          3
   166         14
   167          2