##TITLE=Library Entry 9864
##JCAMP-DX=Revision 4.10 
##DATA TYPE=MASS SPECTRUM
##SAMPLE DESCRIPTION=Exported from NIST MS Search
##NAMES=HP
##CAS NAME=Ethanone, 1-(3-ethyloxiranyl)-
##MOLFORM=C6H10O2
##CAS REGISTRY NO=17257-81-7
##MP= -300
##BP= -300
##MW= 114
##$RETENTION INDEX=0
##$CONDENSED SPECTRUM=NO
##NPOINTS= 23
##XYDATA=(XY..XY) 1 
    31         24
    32         24
    38         10
    39         78
    40         10
    41        141
    42         44
    43        999
    44         29
    45          7
    53         15
    55         46
    56         12
    57        146
    58         15
    69          7
    71         24
    72         24
    74          7
    83         24
    85        402
    86         17
   114          7