##TITLE=Library Entry 2824
##JCAMP-DX=Revision 4.10 
##DATA TYPE=MASS SPECTRUM
##SAMPLE DESCRIPTION=W. KELLY UNILEVER RESEARCH COLWORTH/WELWYN, BEDFORD U.K
.
##NAMES=HP
##CAS NAME=Oxacyclotetradecan-2-one
##MOLFORM=C13H24O2
##CAS REGISTRY NO=1725-04-8
##MP= -300
##BP= -300
##MW= 212
##$RETENTION INDEX=1632
##$CONDENSED SPECTRUM=NO
##NPOINTS= 62
##XYDATA=(XY..XY) 1 
    39        250
    40         90
    41        999
    42        300
    43        280
    44        220
    53         95
    54        130
    55        840
    56        220
    57        102
    58         41
    59         24
    60         67
    61         21
    65         21
    66         30
    67        240
    68        210
    69        393
    70        110
    71         65
    73         92
    79         21
    80         12
    81        186
    82        280
    83        250
    84        150
    85         36
    87         42
    95        110
    96        210
    97        200
    98        202
   109         72
   110        130
   111         92
   112         50
   113         74
   114         49
   123         64
   124         69
   125         40
   126         13
   127         27
   129         34
   133         12
   134         20
   137         34
   138         26
   139         20
   150         35
   151         31
   152         76
   153         20
   165         25
   166         12
   169         16
   176         25
   194         41
   212         39