##TITLE=Library Entry 73828
##JCAMP-DX=Revision 4.10 
##DATA TYPE=MASS SPECTRUM
##SAMPLE DESCRIPTION=Chemical Concepts
##NAMES=HP
##CAS NAME=3-Acetyl-4-oxoheptanedioic acid, diethyl ester
##MOLFORM=C13H20O6
##CAS REGISTRY NO=17266-68-1
##MP= -300
##BP= -300
##MW= 272
##$RETENTION INDEX=0
##$CONDENSED SPECTRUM=NO
##NPOINTS= 147
##XYDATA=(XY..XY) 1 
    26         41
    27        272
    28        173
    29        501
    30         33
    31         48
    38          2
    39         24
    40          6
    41         33
    42         47
    43        693
    44        119
    45        131
    46          7
    47          5
    50          2
    51          6
    52          5
    53         27
    54         24
    55        472
    56        124
    57         47
    58          4
    59         10
    60         13
    61          5
    63          2
    65          8
    66          3
    67         18
    68          8
    69         21
    70         31
    71         89
    72         65
    73        248
    74        111
    75         21
    77          3
    79          9
    81          9
    82         40
    83         64
    84         12
    85         12
    87          3
    88          3
    89          2
    91          2
    93          3
    95          5
    96          7
    97         56
    98         89
    99         63
   100        169
   101        999
   102        116
   103         13
   104          2
   105          2
   107         12
   108          3
   109         22
   110         65
   111        308
   112         40
   113         26
   114          4
   115         18
   116          4
   117          3
   118          3
   119          9
   121          2
   123          5
   124         14
   125        105
   126         13
   127         12
   128        103
   129        631
   130         51
   131          9
   134          2
   135          2
   136          3
   137          7
   138         68
   139         26
   140         15
   141         23
   142          4
   143         58
   144         36
   145         11
   146          9
   147         10
   148          2
   149          2
   151          6
   152         47
   153         52
   154          9
   155         22
   156        141
   157        103
   158         11
   159          2
   167          3
   168          2
   169          3
   171         14
   172          1
   174          5
   175          4
   179          2
   180         54
   181        156
   182         20
   183         16
   184        144
   185        183
   186         26
   187          7
   192          2
   193          2
   197          2
   199         13
   210          2
   211          5
   212         17
   213          3
   226         24
   227         82
   228         11
   229          7
   230        132
   231         18
   232          3
   254         10
   255          2
   272         12
   273         11
   274          2