##TITLE=Library Entry 70161
##JCAMP-DX=Revision 4.10 
##DATA TYPE=MASS SPECTRUM
##SAMPLE DESCRIPTION=Japan AIST/NIMC Database- Spectrum MS-IW-5269
##NAMES=HP
##CAS NAME=Lauraldehyde 2,4-dinitrophenylhydrazone
##MOLFORM=C18H28N4O4
##CAS REGISTRY NO=1726-78-9
##MP= -300
##BP= -300
##MW= 364
##$RETENTION INDEX=0
##$CONDENSED SPECTRUM=NO
##NPOINTS= 294
##XYDATA=(XY..XY) 1 
    14          1
    15          3
    16          2
    25          2
    26         18
    27        168
    28        183
    29        222
    30        121
    31          3
    32          1
    37          5
    38         13
    39         98
    40         22
    41        547
    42        105
    43        653
    44         57
    45         14
    46          1
    49          2
    50         18
    51         55
    52         45
    53         50
    54         76
    55        768
    56        178
    57        430
    58         27
    59          3
    60          1
    61          4
    62         19
    63         60
    64         51
    65         71
    66         36
    67        199
    68        107
    69        692
    70        129
    71        215
    72         19
    73          3
    74          7
    75         63
    76         53
    77        186
    78         99
    79        109
    80         48
    81        189
    82        161
    83        949
    84        106
    85        238
    86         18
    87          2
    88          6
    89         22
    90         46
    91         87
    92        117
    93         54
    94         22
    95        191
    96        110
    97        999
    98        102
    99         18
   100          3
   101          3
   102         39
   103        235
   104        187
   105         57
   106         29
   107         30
   108         22
   109         97
   110         64
   111        633
   112         69
   113          7
   114          2
   115         13
   116         16
   117         31
   118         34
   119         51
   120         32
   121         19
   122        168
   123         45
   124         38
   125        119
   126         17
   127          5
   128          9
   129         19
   130         36
   131         43
   132         40
   133         16
   134         15
   135         22
   136         18
   137         31
   138         59
   139          8
   140         24
   141          5
   142          7
   143         12
   144         19
   145         22
   146         12
   147         28
   148         17
   149        362
   150         48
   151         25
   152         95
   153         33
   154          9
   155          7
   156         11
   157         22
   158         10
   159         13
   160         18
   161         11
   162         11
   163         14
   164         84
   165         82
   166         25
   167         55
   168         28
   169          9
   170          9
   171         11
   172          8
   173         10
   174          7
   175         15
   176         25
   177         99
   178         26
   179         16
   180         66
   181         98
   182         21
   183         88
   184         40
   185         10
   186          5
   187          8
   188          7
   189         18
   190         38
   191         29
   192         11
   193         64
   194         12
   195          4
   196         38
   197          8
   198          5
   199          4
   200          3
   201         10
   202         10
   203         58
   204         24
   205         10
   206        940
   207        108
   208         14
   209          5
   210          4
   211          4
   212          2
   213          2
   214          3
   215         19
   216         10
   217         28
   218         21
   219          9
   220         10
   221          2
   222          2
   223         24
   224        359
   225         38
   226          6
   227          2
   228          2
   229          5
   230          3
   231         19
   232          9
   233         10
   234          9
   235         11
   236          3
   237          7
   238          1
   240          1
   241          2
   242          1
   243          2
   244          1
   245          5
   246          2
   247          6
   248          3
   249          3
   250          1
   251         10
   252          2
   255          1
   256          1
   257          2
   258          2
   259          5
   260          2
   261          5
   262          2
   263          1
   265          9
   266          2
   269          1
   270          1
   271          2
   272          2
   273          6
   274          2
   275          2
   276          1
   279          2
   282          1
   283          2
   284          1
   285          1
   286          2
   287          4
   288          2
   289          1
   290          1
   293          1
   298          1
   299          1
   300         11
   301         18
   302          8
   303          2
   304          5
   305          1
   312          1
   313          3
   314          1
   315          3
   316          2
   317          1
   318          4
   319          1
   320          1
   321          1
   327          2
   328          2
   329        102
   330         31
   331          7
   332          2
   334         13
   335          5
   336          2
   345          4
   346          2
   347          4
   348          9
   349          5
   350          4
   351          1
   362          5
   363         10
   364        227
   365         60
   366          9
   367          1