##TITLE=Library Entry 29603
##JCAMP-DX=Revision 4.10 
##DATA TYPE=MASS SPECTRUM
##SAMPLE DESCRIPTION=Exported from NIST MS Search
##NAMES=HP
##CAS NAME=L-Homoserine, O-ethyl-
##MOLFORM=C6H13NO3
##CAS REGISTRY NO=17268-93-8
##MP= -300
##BP= -300
##MW= 147
##$RETENTION INDEX=0
##$CONDENSED SPECTRUM=NO
##NPOINTS= 39
##XYDATA=(XY..XY) 1 
    15         67
    17         52
    18        270
    19         63
    26         63
    27        307
    28        622
    29        593
    30        404
    31        993
    39         70
    41        178
    42        207
    43        211
    44        252
    45        289
    46        126
    47         78
    54         63
    55        252
    56        581
    57        356
    58        722
    59        999
    60         78
    72        359
    73        456
    74        496
    75        315
    83        137
    84         67
    86         96
    88         44
   102        889
   103         81
   118         74
   129         52
   130         67
   131         22