##TITLE=Library Entry 34973
##JCAMP-DX=Revision 4.10 
##DATA TYPE=MASS SPECTRUM
##SAMPLE DESCRIPTION=TNO Volatile Compounds in Food - Chemical Concepts
##NAMES=HP
##CAS NAME=Octanal, (2,4-dinitrophenyl)hydrazone
##MOLFORM=C14H20N4O4
##CAS REGISTRY NO=1726-77-8
##MP= -300
##BP= -300
##MW= 308
##$RETENTION INDEX=2763
##$CONDENSED SPECTRUM=NO
##NPOINTS= 191
##XYDATA=(XY..XY) 1 
    41         96
    43          7
    45         11
    47          3
    50         42
    51        115
    52         47
    53         83
    54         46
    55        678
    56        120
    58        413
    59         11
    60         10
    61         20
    62         52
    63         56
    64         39
    65         67
    66         23
    67        152
    68         56
    69        999
    70         83
    71        123
    72         11
    73         13
    74         29
    75         74
    76         46
    77        149
    78         74
    79         88
    80         26
    81         93
    82         52
    83        128
    84         54
    85         86
    86          9
    87         10
    88         11
    89         11
    90         21
    91         72
    92         57
    93         28
    94         31
    95         68
    96         42
    97         76
    98         24
    99         36
   100          5
   101         13
   102         26
   103         73
   104         86
   105         61
   106         26
   107         24
   108         12
   109         56
   110         28
   111        228
   112         33
   113         25
   115         12
   116         14
   117         22
   118         13
   119         48
   120         11
   121         10
   122         58
   123         28
   124         17
   125         28
   126         28
   127         18
   128         15
   129         10
   130         13
   131         27
   132         14
   133         22
   134          9
   135         15
   136          5
   137         21
   138         12
   139         13
   140          4
   141          8
   142          6
   143          5
   144         10
   145         13
   146          5
   147         12
   148          7
   149        212
   150         18
   151         10
   152         62
   153         17
   154          4
   155         11
   156          5
   157          5
   158          5
   159         11
   160          9
   161          6
   162          7
   163          9
   164         32
   165         18
   166         10
   167         12
   168         14
   169         13
   170          8
   172          3
   173          6
   175          7
   176          9
   177         38
   178         14
   179         36
   180          7
   181         29
   182         10
   183         26
   184         10
   185          5
   186          4
   189          5
   190          9
   191         10
   192          5
   193         18
   195          6
   196         14
   197          6
   201          7
   202          3
   203         10
   204          5
   205          7
   206        156
   207         18
   208          4
   211          4
   215          4
   217         11
   218          6
   219          8
   220          4
   221          5
   222          4
   223         28
   224         47
   225          3
   226          5
   230          4
   234          6
   235         18
   239          5
   245         13
   246          4
   249          3
   250          9
   251          3
   252          3
   253          3
   256          5
   257          5
   262          8
   263          6
   265          5
   267          3
   273          7
   278         15
   279          4
   281          8
   292          4
   295          3
   308         54
   309         11
   310          3