##TITLE=Library Entry 67908
##JCAMP-DX=Revision 4.10 
##DATA TYPE=MASS SPECTRUM
##SAMPLE DESCRIPTION=NIST Mass Spectrometry Data Center, 1990.
##NAMES=HP
##CAS NAME=Cyclohexanemethanol, .alpha.-ethyl-
##MOLFORM=C9H18O
##CAS REGISTRY NO=17264-02-7
##MP= -300
##BP= -300
##MW= 142
##$RETENTION INDEX=0
##$CONDENSED SPECTRUM=NO
##NPOINTS= 47
##XYDATA=(XY..XY) 1 
    26         13
    27        122
    28         38
    29        158
    30         13
    31        145
    32          0
    39        184
    40         41
    41        381
    42         63
    43         95
    44         15
    45         17
    50         10
    51         28
    52         15
    53         96
    54         98
    55        443
    56        108
    57        139
    58        370
    59        965
    60         32
    65         31
    67        455
    68         65
    69        126
    70         32
    77         36
    78          9
    79         66
    80         24
    81        141
    82        267
    83        107
    84         32
    91         17
    93         42
    95        999
    96         90
   109         11
   111          7
   113        402
   114         31
   124         67