##TITLE=Library Entry 88193
##JCAMP-DX=Revision 4.10 
##DATA TYPE=MASS SPECTRUM
##SAMPLE DESCRIPTION=NIST Mass Spectrometry Data Center, 1994
##NAMES=HP
##CAS NAME=3-Chlorobenzenesulfonamide
##MOLFORM=C6H6ClNO2S
##CAS REGISTRY NO=17260-71-8
##MP= -300
##BP= -300
##MW= 191
##$RETENTION INDEX=0
##$CONDENSED SPECTRUM=NO
##NPOINTS= 86
##XYDATA=(XY..XY) 1 
    16         67
    17         10
    18          4
    26          5
    30          5
    32         26
    35          7
    36          6
    37         34
    38         55
    39         42
    44          5
    45          1
    46         32
    47         18
    48         63
    49         43
    50        382
    51        142
    52         15
    53          8
    54          3
    57          6
    60          9
    61         41
    62         32
    63         77
    64        164
    65         85
    66         17
    67          3
    69         24
    71          3
    72         11
    73         87
    74        214
    75        748
    76        141
    77         16
    79          5
    80         57
    81          9
    82          8
    83          3
    84         34
    85         88
    86         16
    87         32
    88          4
    90          8
    91         22
    92         74
    93         11
    95          8
    96          5
    97          3
    98          3
    99         48
   100         36
   101         19
   102         10
   107          5
   108         15
   109         12
   110          3
   111        999
   112         85
   113        324
   114         24
   127        748
   128        174
   129        231
   130         53
   131         17
   133          7
   159          6
   175        189
   176         15
   177         72
   178          5
   179          4
   191        419
   192         33
   193        155
   194         12
   195          5