##TITLE=Library Entry 61861
##JCAMP-DX=Revision 4.10 
##DATA TYPE=MASS SPECTRUM
##SAMPLE DESCRIPTION=Exported from NIST MS Search
##NAMES=HP
##CAS NAME=Acetic acid, [(phenylmethyl)thio]-, methyl ester
##MOLFORM=C10H12O2S
##CAS REGISTRY NO=17277-59-7
##MP= -300
##BP= -300
##MW= 196
##$RETENTION INDEX=0
##$CONDENSED SPECTRUM=NO
##NPOINTS= 15
##XYDATA=(XY..XY) 1 
    45        130
    65        140
    73         80
    89         50
    91        999
    92         90
    93         40
   122         60
   123        820
   124         90
   125         40
   137         80
   196        250
   197         30
   198         10