##TITLE=Library Entry 13637
##JCAMP-DX=Revision 4.10 
##DATA TYPE=MASS SPECTRUM
##SAMPLE DESCRIPTION=Philip Morris R&D
##NAMES=HP
##CAS NAME=3-Hydroxy-7,8-dihydro-.beta.-ionol
##MOLFORM=C13H20O2
##CAS REGISTRY NO=172705-13-4
##MP= -300
##BP= -300
##MW= 208
##$RETENTION INDEX=1700
##$CONDENSED SPECTRUM=NO
##NPOINTS= 113
##XYDATA=(XY..XY) 1 
    38         26
    39        120
    40        248
    41        222
    42         15
    43        999
    44         59
    45        123
    50         10
    51         59
    52         18
    53        140
    55        115
    56         31
    57         49
    59         30
    61          9
    62          7
    63         24
    64         12
    65         85
    66         18
    67         51
    68          9
    69        104
    70         15
    71         40
    72         13
    73         19
    76          7
    77        111
    78         22
    79        104
    80         46
    81         69
    82         23
    83         13
    84         26
    85         47
    87         20
    88          8
    91        216
    92         23
    93         94
    94         11
    95         64
    96         13
    97         18
    98         18
   101         10
   102         19
   103         53
   104         14
   105        218
   106         46
   107         67
   108         32
   109         64
   110         13
   111         50
   112         22
   115         39
   116         27
   117         27
   119        114
   121        114
   122         44
   123         26
   126          9
   127         17
   128         24
   129         26
   131        192
   132         40
   133         97
   134         33
   135         47
   136         31
   137          7
   140         18
   141         16
   142         24
   143         17
   145         36
   146         24
   147         70
   148         39
   149        110
   150         20
   151         15
   153          2
   156         12
   157         32
   159         13
   161         15
   163          9
   164         44
   165         14
   172          8
   173         22
   175        147
   176         17
   179         20
   180          8
   185         13
   188          7
   190          8
   191         21
   193        320
   194         48
   195         11
   208        350
   209         37