##TITLE=Library Entry 66504
##JCAMP-DX=Revision 4.10 
##DATA TYPE=MASS SPECTRUM
##SAMPLE DESCRIPTION=Chemical Concepts
##NAMES=HP
##CAS NAME=Cyclopentene, 4-ethenyl-1,5,5-trimethyl-
##MOLFORM=C10H16
##CAS REGISTRY NO=1727-69-1
##MP= -300
##BP= -300
##MW= 136
##$RETENTION INDEX=0
##$CONDENSED SPECTRUM=NO
##NPOINTS= 59
##XYDATA=(XY..XY) 1 
    27        220
    28          5
    29        144
    30          4
    38         20
    39        273
    40         33
    41        373
    42         24
    43        187
    44          3
    50         19
    51         81
    52         33
    53        144
    54         23
    55        164
    56         11
    57        100
    58          8
    61          1
    62          9
    63         27
    64          3
    65         80
    66         97
    67        167
    68         11
    69         16
    70         47
    71          3
    77        251
    78        169
    79        405
    80        136
    81         63
    82         24
    89          3
    90          1
    91        288
    92         84
    93        999
    94         93
    95         68
    96          4
   103         20
   104          7
   105        163
   106         47
   107         77
   108         32
   115          3
   117          3
   119         28
   120          3
   121        584
   122         57
   136        283
   137         29