##TITLE=Library Entry 86956
##JCAMP-DX=Revision 4.10 
##DATA TYPE=MASS SPECTRUM
##SAMPLE DESCRIPTION=ASES Database, Dalian Institute, P.R. China
##NAMES=HP
##CAS NAME=1-Methylimidazole-4-carboxaldehyde
##MOLFORM=C5H6N2O
##CAS REGISTRY NO=17289-26-8
##MP= -300
##BP= -300
##MW= 110
##$RETENTION INDEX=0
##$CONDENSED SPECTRUM=NO
##NPOINTS= 30
##XYDATA=(XY..XY) 1 
    25          9
    26         50
    27         68
    28        139
    29         39
    30          9
    32         50
    37         10
    38         19
    39         38
    40         78
    41         69
    42        845
    43         30
    45         29
    51         40
    52         49
    53         58
    54        128
    55         49
    66         29
    67         10
    68         80
    81        130
    82        469
    84         30
   109        827
   110        999
   111         70
   112         10