##TITLE=Library Entry 100098
##JCAMP-DX=Revision 4.10 
##DATA TYPE=MASS SPECTRUM
##SAMPLE DESCRIPTION=Div. of Experiment Therapeutics WRAIR, WRAMC, Washingto
n DC 20307
##NAMES=HP
##CAS NAME=3,4-Dimethylbenzenacetic acid
##MOLFORM=C10H12O2
##CAS REGISTRY NO=17283-16-8
##MP= -300
##BP= -300
##MW= 164
##$RETENTION INDEX=0
##$CONDENSED SPECTRUM=NO
##NPOINTS= 66
##XYDATA=(XY..XY) 1 
    41         76
    43         18
    45         91
    47          8
    49         17
    51        176
    53         80
    55         10
    57         17
    58          5
    59         19
    61          7
    62          8
    63         74
    65         72
    66          2
    67          4
    69          2
    70          0
    71          0
    74         14
    75         31
    77        172
    78         39
    79         74
    80          4
    81          3
    82          0
    84         17
    86         14
    87          4
    89         24
    91        221
    92          4
    93         16
    94          1
    95          0
    98          3
   101          0
   102          7
   103         91
   105        299
   106         15
   107         13
   109          0
   115         55
   117         76
   119        999
   120         70
   121          7
   122          7
   131          1
   133         99
   134         13
   135         23
   136          0
   147          0
   148          5
   149        213
   150         73
   151          2
   152          0
   163          4
   164        289
   165         18
   166          1