##TITLE=Library Entry 49723
##JCAMP-DX=Revision 4.10 
##DATA TYPE=MASS SPECTRUM
##SAMPLE DESCRIPTION=Chemical Concepts
##NAMES=HP
##CAS NAME=2-Cycloocten-1-one
##MOLFORM=C8H12O
##CAS REGISTRY NO=1728-25-2
##MP= -300
##BP= -300
##MW= 124
##$RETENTION INDEX=0
##$CONDENSED SPECTRUM=NO
##NPOINTS= 94
##XYDATA=(XY..XY) 1 
    21          2
    25          3
    26        112
    27        682
    28         42
    29        255
    30          6
    31         21
    33          3
    36          2
    37         21
    38         71
    39        849
    40        303
    41        438
    42        123
    43         94
    44          7
    45          4
    46          6
    47          7
    49          2
    50         56
    51        100
    52         51
    53        706
    54        403
    55        347
    56         36
    57         50
    58         14
    59         30
    60          2
    61          5
    62         10
    63         28
    64          5
    65         50
    66         54
    67        474
    68        490
    69         48
    70         80
    71          8
    72          3
    73          1
    74          3
    75          7
    76          1
    77         53
    78         35
    79        116
    80        806
    81        999
    82        300
    83         97
    84         13
    85          1
    86          0
    87          1
    89          1
    90          2
    91         34
    92          4
    93         24
    94         10
    95        114
    96         51
    97         10
    98         10
    99          1
   101          6
   102          0
   103          4
   104          2
   105          3
   106          9
   107          4
   108          9
   109         18
   110          3
   111          7
   112          0
   118          1
   119          1
   120          7
   121          1
   122          2
   123          7
   124        154
   125         19
   126          8
   127          1
   128          1