##TITLE=Library Entry 109342
##JCAMP-DX=Revision 4.10 
##DATA TYPE=MASS SPECTRUM
##SAMPLE DESCRIPTION=B. R. ANDERSON
##NAMES=HP
##CAS NAME=1,4-Dioxaspiro[4.6]undec-6-ene
##MOLFORM=C9H14O2
##CAS REGISTRY NO=1728-24-1
##MP= -300
##BP= -300
##MW= 154
##$RETENTION INDEX=0
##$CONDENSED SPECTRUM=NO
##NPOINTS= 99
##XYDATA=(XY..XY) 1 
    13          4
    14         27
    15        122
    16          7
    17         11
    18         38
    19         11
    25          2
    26         61
    27        384
    28        172
    29        153
    30         19
    31         24
    37         10
    38         40
    39        453
    40        116
    41        301
    42        124
    43         99
    44         10
    45         59
    46          2
    49          2
    50         30
    51        112
    52         67
    53        248
    54        225
    55        281
    56         39
    57         10
    58          2
    60          4
    61          6
    62         15
    63         38
    64         11
    65         77
    66        112
    67        237
    68        198
    69         45
    70         12
    71          7
    73         23
    74          5
    75          5
    76          3
    77        117
    78         33
    79        202
    80         50
    81        310
    82        183
    83         29
    84          6
    85          7
    86        116
    87         12
    88          2
    89          5
    90          3
    91         72
    92         20
    93         44
    94         11
    95         93
    96         23
    97         15
    98         22
    99        478
   100         73
   101          6
   102          4
   105          2
   107          4
   108         12
   109         65
   110         65
   111         36
   112         93
   113         81
   114          6
   122          2
   123          8
   124         20
   125        999
   126        200
   127         19
   128          2
   139         24
   140          2
   152          3
   153         78
   154        263
   155         27
   156          3