##TITLE=Library Entry 109429
##JCAMP-DX=Revision 4.10 
##DATA TYPE=MASS SPECTRUM
##SAMPLE DESCRIPTION=Japan AIST/NIMC Database- Spectrum MS-IW-7700
##NAMES=HP
##CAS NAME=2-(2-Cyanoethyl)-2,3-dihydro-6-hydroxy-3-oxopyridazine
##MOLFORM=C7H7N3O2
##CAS REGISTRY NO=17285-16-4
##MP= -300
##BP= -300
##MW= 165
##$RETENTION INDEX=0
##$CONDENSED SPECTRUM=NO
##NPOINTS= 82
##XYDATA=(XY..XY) 1 
    13          1
    14          3
    15          4
    16          1
    17          8
    18         41
    24          2
    25          9
    26        123
    27         86
    28         77
    29         42
    30          6
    31          8
    36          2
    37          6
    38         12
    39         10
    40         25
    41         42
    42         18
    43         18
    44         21
    45          5
    46          2
    50          7
    51         43
    52        112
    53        129
    54        163
    55        139
    56         13
    57          3
    58          3
    62          1
    65          1
    66          2
    67         20
    68          8
    69         19
    70          8
    71         10
    76          1
    77          4
    78         16
    79          4
    80        394
    81         20
    82        336
    83         21
    84         42
    85          3
    94          2
    95          7
    96          4
    97         38
    98         90
    99          5
   108          1
   109          2
   110          4
   111          3
   112        667
   113         46
   114          4
   120          1
   121          5
   122          1
   123          1
   125        999
   126         64
   127          6
   136          2
   137          3
   138          7
   139          1
   148          7
   149          2
   164         24
   165        619
   166         76
   167          7