##TITLE=Library Entry 9419
##JCAMP-DX=Revision 4.10 
##DATA TYPE=MASS SPECTRUM
##SAMPLE DESCRIPTION=Japan AIST/NIMC Database- Spectrum MS-NW-7170
##NAMES=HP
##CAS NAME=N-Acetonylpyridinium bromide
##MOLFORM=C8H10BrNO
##CAS REGISTRY NO=17282-41-6
##MP= -300
##BP= -300
##MW= 215
##$RETENTION INDEX=0
##$CONDENSED SPECTRUM=NO
##NPOINTS= 88
##XYDATA=(XY..XY) 1 
    12          2
    13          6
    14         19
    15         49
    24          3
    25         13
    26         87
    27         86
    28         23
    29         43
    30          1
    31          3
    36          8
    37         33
    38         38
    39         85
    40          9
    41         12
    42        116
    43        999
    44         23
    45          3
    48          6
    49         33
    50        149
    51        215
    52        488
    53         60
    54          2
    55          2
    57          2
    58          2
    60          1
    61          2
    62          3
    63          6
    64          6
    65         40
    66          5
    67          2
    69          3
    74          3
    75         14
    76         11
    77          7
    78         98
    79        798
    80         66
    81         37
    82         63
    83          1
    91          4
    92          9
    93         68
    94          8
    95         62
    96          1
    97          6
   104          1
   105          1
   106          3
   107          2
   108          1
   109          2
   112          3
   117          1
   118          1
   120         44
   121         15
   122          2
   123         15
   130          1
   133          1
   134         18
   135         56
   136         99
   137          9
   138         96
   139          3
   148          2
   150          2
   158          3
   160          2
   173          2
   175          1
   186          1
   190          1
   191          1