##TITLE=Library Entry 81782
##JCAMP-DX=Revision 4.10 
##DATA TYPE=MASS SPECTRUM
##SAMPLE DESCRIPTION=Japan AIST/NIMC Database- Spectrum MS-IW-6015
##NAMES=HP
##CAS NAME=2-Bromo-7-methoxytropone
##MOLFORM=C8H7BrO2
##CAS REGISTRY NO=1728-86-5
##MP= -300
##BP= -300
##MW= 214
##$RETENTION INDEX=0
##$CONDENSED SPECTRUM=NO
##NPOINTS= 130
##XYDATA=(XY..XY) 1 
    14          2
    15         16
    25          2
    26          9
    27          9
    28         14
    29          9
    30          2
    31         12
    32         26
    36          2
    37         35
    38         90
    39         62
    40          2
    41          3
    42          1
    43          4
    44          1
    45          4
    46        105
    48          1
    49         13
    50        108
    51        117
    52         10
    53         49
    54          3
    55          6
    56          1
    60          4
    61         26
    62         59
    63        227
    64        194
    65         25
    66          9
    67          4
    68          1
    69          1
    71         34
    72         34
    73          9
    74         39
    75         62
    76        103
    77        303
    78         39
    79         57
    80          7
    81          5
    82          7
    85          9
    86          9
    87          2
    88          1
    89        122
    90          9
    91          9
    92        202
    93         17
    94          1
    95          5
    99          1
   100          1
   104         35
   105        999
   106         93
   107        233
   108         22
   109          2
   116          4
   117         55
   118          6
   119         55
   120         19
   121          2
   128          2
   129          4
   130          2
   131          4
   133          6
   134         61
   135         71
   136          7
   140          1
   141          2
   142          3
   143        214
   144         14
   145        212
   146         11
   155         19
   156         14
   157         22
   158         14
   159          4
   160          1
   162          1
   167          1
   168         27
   169          4
   170         33
   171         82
   172         17
   173         80
   174         11
   175          2
   183         38
   184        191
   185        399
   186        252
   187        351
   188         61
   189          4
   190          1
   196         59
   197          6
   198         59
   199          7
   200         15
   201          3
   202         12
   203          1
   213         51
   214        755
   215        138
   216        747
   217         86
   218          7