##TITLE=Library Entry 70756
##JCAMP-DX=Revision 4.10 
##DATA TYPE=MASS SPECTRUM
##SAMPLE DESCRIPTION=NIST Mass Spectrometry Data Center
##NAMES=HP
##CAS NAME=2-tert-Butylcyclohexanone
##MOLFORM=C10H18O
##CAS REGISTRY NO=1728-46-7
##MP= -300
##BP= -300
##MW= 154
##$RETENTION INDEX=0
##$CONDENSED SPECTRUM=NO
##NPOINTS= 65
##XYDATA=(XY..XY) 1 
    12          2
    15         28
    16          3
    17          4
    18          5
    19          3
    27        161
    28         37
    29        164
    30          4
    32          1
    37          2
    39        192
    40         36
    41        432
    42        102
    43        120
    44          5
    45          3
    46          3
    47          4
    48          5
    50          8
    51         19
    52          9
    53         61
    55        317
    56         59
    57        285
    58         11
    59          3
    62          4
    63          3
    65         15
    66          7
    67         69
    69        251
    70        222
    71         31
    72          3
    77         14
    78          3
    79         30
    80         13
    81         28
    83        291
    84         25
    85          4
    91          5
    93         18
    95         93
    98        999
    99         68
   100          5
   105          2
   107          2
   109          4
   110         16
   111         17
   112          2
   121         13
   139         87
   140          8
   154         29
   155          3