##TITLE=Library Entry 40666
##JCAMP-DX=Revision 4.10 
##DATA TYPE=MASS SPECTRUM
##SAMPLE DESCRIPTION=Exported from NIST MS Search
##NAMES=HP
##CAS NAME=.alpha.-D-Galactopyranoside, methyl 2-(acetylamino)-2-deoxy-3-O-m
ethyl-
##MOLFORM=C10H19NO6
##CAS REGISTRY NO=17296-08-1
##MP= -300
##BP= -300
##MW= 249
##$RETENTION INDEX=0
##$CONDENSED SPECTRUM=NO
##NPOINTS= 67
##XYDATA=(XY..XY) 1 
    41         66
    42         93
    43        549
    44         83
    45        170
    46         10
    53          6
    54         13
    55         60
    56         96
    57         60
    58        210
    59        163
    60        136
    61         73
    68         30
    69         43
    70        110
    71         43
    72        113
    73        999
    74        240
    75        166
    80         10
    81         10
    82         13
    83         16
    84        126
    85         93
    86         83
    87         60
    88         26
    96         30
    97         60
    98        103
    99         26
   100         33
   101         73
   102         50
   103         30
   110         10
   111         43
   112        163
   113         26
   114        130
   115        426
   116         96
   117         60
   125         23
   126         60
   127         16
   128         70
   129         16
   138         26
   139        186
   140         33
   141         23
   142         13
   145         43
   153         10
   157         20
   158         26
   172         66
   185         60
   186         33
   217         14
   218         17