##TITLE=Library Entry 73225
##JCAMP-DX=Revision 4.10 
##DATA TYPE=MASS SPECTRUM
##SAMPLE DESCRIPTION=Chemical Concepts
##NAMES=HP
##CAS NAME=Naphthalene, 1,8-bis(N,N-diethylcarbamoyloxy)-
##MOLFORM=C20H26N2O4
##CAS REGISTRY NO=172915-60-5
##MP= -300
##BP= -300
##MW= 358
##$RETENTION INDEX=0
##$CONDENSED SPECTRUM=NO
##NPOINTS= 152
##XYDATA=(XY..XY) 1 
    26          0
    27         15
    29        169
    30          7
    31          0
    36          0
    38          0
    39          2
    40          0
    41          2
    42         17
    43          3
    44        127
    45          1
    50          1
    51          2
    52          1
    53          2
    54          0
    55          1
    56         21
    57          3
    58          5
    59          0
    60          0
    62          0
    63          3
    64          0
    65          1
    67          0
    68          0
    69          0
    70          9
    71          3
    72        566
    73         23
    74          4
    75          3
    76          4
    77         15
    78          1
    81          2
    83          1
    84          1
    85          1
    86          4
    87          2
    88          3
    89          2
    91          1
    94          0
    95          0
    96          1
    97          0
    98          6
    99          1
   100        999
   101         97
   102         18
   103         14
   104          1
   105          0
   107          0
   109          0
   110          0
   111          0
   112          0
   113          5
   114         29
   115         31
   116          4
   117          0
   118          0
   119          0
   120          0
   121          0
   125          1
   126          1
   127          3
   128          2
   129          2
   130          1
   131         19
   132          1
   135          0
   137          0
   139          0
   141          2
   142          7
   143          2
   144          1
   145          0
   147          1
   148          0
   149          0
   152          0
   154          1
   155          2
   156          0
   159          5
   160          5
   163          0
   164          0
   165          0
   168          1
   169          1
   170         26
   171          4
   172          1
   176          0
   177          1
   179          0
   185          1
   186         12
   187         15
   188          1
   191          1
   192          1
   193          1
   195          1
   196          1
   197          0
   198          1
   205          0
   207        103
   209          0
   211          0
   214          2
   215          5
   216          0
   221          1
   241          4
   242         37
   243         10
   244          0
   249          0
   251          0
   257          0
   258          0
   259          0
   268          0
   281         39
   284          0
   287          1
   339          0
   343          0
   356          0
   357          1
   358        197
   359         45
   360          6
   361          1