##TITLE=Library Entry 30128
##JCAMP-DX=Revision 4.10 
##DATA TYPE=MASS SPECTRUM
##SAMPLE DESCRIPTION=Japan AIST/NIMC Database- Spectrum MS-IW-4718
##NAMES=HP
##CAS NAME=cis-9,10-Epoxyoctadecanamide
##MOLFORM=C18H35NO2
##CAS REGISTRY NO=172995-07-2
##MP= -300
##BP= -300
##MW= 297
##$RETENTION INDEX=0
##$CONDENSED SPECTRUM=NO
##NPOINTS= 250
##XYDATA=(XY..XY) 1 
    15          2
    16          1
    17         14
    18          7
    25          1
    26         10
    27         98
    28         37
    29        206
    30         17
    31          9
    37          1
    38          4
    39         90
    40         19
    41        553
    42        121
    43        494
    44        188
    45         19
    46          3
    50          4
    51         11
    52         12
    53         61
    54        133
    55        698
    56        179
    57        435
    58         56
    59        999
    60        162
    61          6
    62          1
    63          4
    64          3
    65         24
    66         28
    67        396
    68        154
    69        430
    70        115
    71        232
    72        892
    73        123
    74          8
    75          2
    76          2
    77         39
    78         19
    79        132
    80         71
    81        333
    82        196
    83        348
    84         81
    85        106
    86        155
    87         20
    88          4
    89          2
    90          1
    91         65
    92         20
    93        103
    94         93
    95        334
    96        155
    97        262
    98        100
    99         43
   100        110
   101         25
   102          4
   103          6
   104          7
   105         38
   106         28
   107         79
   108         54
   109        230
   110         97
   111         84
   112        128
   113         44
   114        152
   115         55
   116          9
   117         20
   118          9
   119         36
   120         45
   121        110
   122         56
   123         58
   124         90
   125         84
   126         99
   127         39
   128        234
   129         45
   130         10
   131         21
   132         11
   133         19
   134         74
   135         66
   136         77
   137         56
   138         58
   139        149
   140         51
   141         48
   142        152
   143         76
   144         12
   145         15
   146          9
   147         19
   148         57
   149         46
   150         28
   151         19
   152         38
   153        447
   154        117
   155        492
   156        500
   157        145
   158         19
   159         10
   160          9
   161         10
   162         35
   163         26
   164         18
   165         15
   166         31
   167         72
   168         19
   169          9
   170        138
   171         20
   172        214
   173         28
   174         67
   175         11
   176         24
   177         16
   178         15
   179          9
   180         11
   181         20
   182         10
   183         23
   184         98
   185         26
   186          6
   187          3
   188          5
   189          3
   190         17
   191         10
   192          8
   193          4
   194          8
   195         10
   196          5
   197          5
   198         16
   199         17
   200          4
   201          2
   202          4
   203          2
   204         14
   205          7
   206          7
   207          3
   208          6
   209          7
   210          4
   211          2
   212         17
   213          3
   214          3
   215          1
   216          4
   217          1
   218         16
   219          6
   220         13
   221          9
   222          5
   223          7
   224          4
   225          3
   226          5
   227          2
   228          2
   229          1
   230          4
   231          1
   232         14
   233          5
   234          7
   235          3
   236          4
   237          6
   238          6
   239          9
   240          6
   241          3
   242          1
   243          1
   244          2
   245          1
   246          3
   247          1
   248          1
   249          1
   250          2
   251          3
   252          9
   253          2
   254          9
   255          4
   256          1
   257          5
   258          2
   259          9
   260          6
   261         54
   262         25
   263         10
   264          3
   265          1
   268          2
   269          4
   270          1
   277          1
   278          1
   279         15
   280         28
   281         12
   282          2
   283          1
   297          3
   298         16
   299          3