##TITLE=Library Entry 97359
##JCAMP-DX=Revision 4.10 
##DATA TYPE=MASS SPECTRUM
##SAMPLE DESCRIPTION=Div. of Experiment Therapeutics WRAIR, WRAMC, Washingto
n DC 20307
##NAMES=HP
##CAS NAME=Quinoline, 1,2,3,4-tetrahydro-1-((2-phenylcyclopropyl)sulfonyl)-,
 trans-
##MOLFORM=C18H19NO2S
##CAS REGISTRY NO=17299-24-0
##MP= -300
##BP= -300
##MW= 313
##$RETENTION INDEX=0
##$CONDENSED SPECTRUM=NO
##NPOINTS= 84
##XYDATA=(XY..XY) 1 
    41         12
    42          3
    45          4
    49          0
    50         13
    51         57
    52         15
    53          9
    54          5
    57          1
    58          3
    59          0
    62          3
    63         37
    64          9
    65         53
    66          4
    67          0
    74          3
    75          6
    76          8
    77         98
    78         27
    79         36
    80          3
    86          0
    87          2
    89         41
    91        215
    92         11
    93          2
   101          3
   102         18
   103         37
   104         15
   105         29
   106          7
   113          1
   115        348
   116         18
   117        999
   118         77
   119          3
   128          3
   130        110
   131          8
   132        236
   133         71
   134          7
   143          1
   144          4
   145          5
   146          3
   147          3
   156          0
   158         86
   159          9
   170          6
   171          0
   172         16
   173          1
   180          1
   181          1
   194          1
   206          1
   208          1
   209          3
   220          5
   221          3
   222         10
   223          9
   224          1
   234          5
   236          0
   246          1
   247          3
   248         19
   249         23
   250          3
   251          0
   313        205
   314         42
   315         14
   316          1