##TITLE=Library Entry 92822
##JCAMP-DX=Revision 4.10 
##DATA TYPE=MASS SPECTRUM
##SAMPLE DESCRIPTION=Exported from NIST MS Search
##NAMES=HP
##CAS NAME=Galactopyranoside, methyl 2-acetamido-2-deoxy-3,6-di-O-methyl-, 4
-acetate, .alpha.-d-
##MOLFORM=C13H23NO7
##CAS REGISTRY NO=17296-11-6
##MP= -300
##BP= -300
##MW= 305
##$RETENTION INDEX=0
##$CONDENSED SPECTRUM=NO
##NPOINTS= 135
##XYDATA=(XY..XY) 1 
    41         46
    42         53
    43        633
    44         50
    45        293
    46          6
    47          6
    51          3
    52          3
    53         20
    54         16
    55         40
    56         40
    57         33
    58        116
    59         70
    60         26
    61         20
    65          3
    66          3
    67          3
    68         33
    69         33
    70         40
    71         66
    72         63
    73        976
    74        156
    75        869
    76         33
    77          3
    78          3
    79          3
    80         40
    81         16
    82         30
    83         23
    84        100
    85         43
    86         36
    87         76
    88         60
    89          3
    90          3
    93          6
    94          6
    95         10
    96         40
    97         33
    98         93
    99         36
   100         23
   101         93
   102         40
   103         33
   104          3
   106          3
   108         30
   109         10
   110         33
   111         46
   112         73
   113         23
   114         76
   115        999
   116        133
   117         86
   118          3
   122         16
   123          6
   124         10
   125          6
   126         36
   127         16
   128         63
   129         40
   130         33
   131          3
   136          6
   138         30
   139         30
   140         40
   141         23
   142         20
   143         33
   144         23
   145         10
   146          3
   149          6
   150          6
   152          3
   153         23
   154         30
   155         20
   156         30
   157          6
   158         26
   159         23
   160          6
   166          3
   168         26
   169          3
   170         23
   171         23
   172         23
   181          3
   182         33
   183          6
   184          3
   185          6
   186         16
   187          3
   188          3
   198          1
   199          1
   200         11
   201          0
   202          3
   203          4
   213         28
   214         12
   215          2
   218          1
   230          1
   231         93
   232         12
   233          0
   241          6
   242          0
   243         33
   244          4
   260          6
   273          5
   274         13
   275          0