##TITLE=Library Entry 27584
##JCAMP-DX=Revision 4.10 
##DATA TYPE=MASS SPECTRUM
##SAMPLE DESCRIPTION=A.Mazepa, Phys.-Chem.Institute, Odessa, Ukraine
##NAMES=HP
##CAS NAME=1,4-Benzodiazepin-3-ol, 7-bromo-2,3(1H)-dihydro-5-(2-chlorophenyl
)-2-oxo-, propanoate
##MOLFORM=C18H14BrClN2O3
##CAS REGISTRY NO=172986-26-4
##MP= -300
##BP= -300
##MW= 420
##$RETENTION INDEX=0
##$CONDENSED SPECTRUM=NO
##NPOINTS= 154
##XYDATA=(XY..XY) 1 
    50          7
    51         20
    52          7
    55         12
    56         10
    57        999
    58         12
    62          4
    63         29
    64          4
    65          8
    71          2
    73         20
    74         57
    75         80
    76         15
    77         19
    87          2
    88          6
    89         17
    90         18
    91         25
    92          4
    99          2
   100          8
   101          3
   102         99
   103         13
   109          2
   110          1
   111         19
   112          2
   113          5
   114          2
   115          2
   116          4
   117          2
   136          2
   137          3
   138         67
   139         14
   140         12
   141          3
   142          1
   148          1
   149          5
   150         16
   151         31
   152          3
   153          2
   163          2
   164         13
   165          3
   166          9
   167          2
   173          2
   175          3
   176         11
   177         78
   178         15
   179          3
   180          5
   181          2
   191          9
   192         24
   193         16
   194         10
   195          5
   196          1
   197          6
   202          1
   203          5
   204          9
   205          8
   206          4
   207          3
   208          1
   220          2
   221          9
   222          1
   223          6
   225         10
   226          1
   227          2
   228         10
   229          1
   237          1
   238          2
   239         54
   240          9
   241          9
   242          3
   255          3
   256          6
   257          2
   258          4
   272          1
   273          3
   275          4
   276          1
   283         16
   284          3
   285         24
   286         11
   287          3
   288          1
   291          1
   292          2
   293          2
   294          4
   299          6
   300          2
   301         16
   302          2
   303          6
   307         13
   308          5
   309         18
   310          2
   311          3
   315          3
   317         23
   318          8
   319        132
   320         48
   321        201
   322         43
   323         90
   324          7
   325          5
   329         39
   330          2
   331         44
   332          1
   335        548
   336         93
   337        714
   338        130
   339        167
   340         16
   347          8
   348          9
   349         13
   350         15
   351          3
   363         10
   364        431
   365        103
   366        547
   367        103
   368        120
   369          9
   420          3
   422          4