##TITLE=Library Entry 10740
##JCAMP-DX=Revision 4.10 
##DATA TYPE=MASS SPECTRUM
##SAMPLE DESCRIPTION=H-F. GRUTZMACHER UNIVERSITY OF HAMBURG, W. GERMANY
##NAMES=HP
##CAS NAME=Galactopyranose, 2-acetamido-2-deoxy-4-O-methyl-, 1,3,6-triacetat
e, .alpha.-D-
##MOLFORM=C15H23NO9
##CAS REGISTRY NO=17296-15-0
##MP= -300
##BP= -300
##MW= 361
##$RETENTION INDEX=0
##$CONDENSED SPECTRUM=NO
##NPOINTS= 114
##XYDATA=(XY..XY) 1 
    40          8
    41        117
    42         72
    43        999
    44         49
    45         67
    46          3
    52          3
    53         18
    54         15
    55         30
    56         39
    57         28
    58         49
    59        307
    60         76
    61         14
    67          7
    68          4
    69         40
    70         54
    71        334
    72         49
    73         14
    74         35
    75          5
    80        221
    81         36
    82         32
    83         35
    84         54
    85         32
    86        149
    87         54
    88        140
    89          1
    94          5
    95         15
    96         54
    97         33
    98         67
    99         28
   100         18
   101        452
   102         54
   103          8
   108          1
   109          2
   110         37
   111         58
   112        113
   113         17
   114         35
   115         10
   116          9
   117          4
   122         19
   123          4
   124          4
   125          3
   126         15
   127         12
   128        303
   129         23
   130          7
   131          1
   132          0
   138         17
   139         19
   140         27
   141          5
   142         12
   143         72
   144         13
   145          3
   151          1
   152         14
   153         72
   154         31
   155          5
   156         15
   157          7
   158          8
   159          1
   160          1
   167          5
   168          6
   169          2
   170          5
   171          6
   172          2
   174          2
   181          2
   182         18
   183          9
   184          0
   185         13
   186          2
   198          2
   199         22
   200         14
   201          1
   202          2
   213          3
   214          9
   216          4
   217          1
   227          1
   228          1
   230          1
   244          0
   259          1
   261          1
   302          0