##TITLE=Library Entry 26251
##JCAMP-DX=Revision 4.10 
##DATA TYPE=MASS SPECTRUM
##SAMPLE DESCRIPTION=A.Mazepa, Phys.-Chem.Institute, Odessa, Ukraine
##NAMES=HP
##CAS NAME=2-Propyl-pentanoic acid 7-bromo-5-(2-chlorophenyl)-2-oxo-2,3-dihy
dro-1H-benzo[e][1,4]diazepin-3-yl ester
##MOLFORM=C23H24BrClN2O3
##CAS REGISTRY NO=172986-28-6
##MP= -300
##BP= -300
##MW= 490
##$RETENTION INDEX=0
##$CONDENSED SPECTRUM=NO
##NPOINTS= 90
##XYDATA=(XY..XY) 1 
    55         68
    56          6
    57        999
    58         40
    63          2
    69          9
    71          6
    73         27
    75          5
    76          1
    77          2
    83          3
    84          2
    90          2
    91          3
    97          6
    99        223
   100         13
   101          1
   102         25
   103          1
   111          3
   123          2
   126          1
   127        112
   128          8
   135          2
   138         10
   139          2
   140          2
   150          2
   151          6
   166          1
   176          2
   177         15
   178          5
   191          2
   192          5
   193          2
   194          1
   204          3
   205          5
   221          2
   225          2
   228          3
   239         11
   240          6
   241          3
   256          3
   283          3
   285          5
   286          1
   299          1
   301          3
   307          3
   309          3
   317          2
   318          1
   319         38
   320         11
   321         50
   322         11
   323         19
   324          2
   329          3
   331          3
   335         62
   336         10
   337         80
   338         13
   339         16
   347         22
   348          4
   349         27
   350          5
   351          5
   363          9
   364        120
   365         39
   366        157
   367         32
   368         37
   369          4
   448         12
   449          2
   450         17
   451          2
   452          2
   490          1
   492          3