##TITLE=Library Entry 39355
##JCAMP-DX=Revision 4.10 
##DATA TYPE=MASS SPECTRUM
##SAMPLE DESCRIPTION=Exported from NIST MS Search
##NAMES=HP
##CAS NAME=.alpha.-D-Galactopyranoside, methyl 2-(acetylamino)-2-deoxy-4,6-d
i-O-methyl-
##MOLFORM=C11H21NO6
##CAS REGISTRY NO=17296-06-9
##MP= -300
##BP= -300
##MW= 263
##$RETENTION INDEX=0
##$CONDENSED SPECTRUM=NO
##NPOINTS= 68
##XYDATA=(XY..XY) 1 
    41        103
    42         66
    43        363
    44         43
    45        363
    46          6
    54         10
    55         30
    56         46
    57         36
    58        106
    59        536
    60        100
    61         30
    68         16
    69         36
    70         36
    71        999
    72        170
    73        223
    74        123
    75         53
    80         10
    81         10
    82         10
    83         10
    84         46
    85         33
    86         70
    87         56
    88         40
    89          6
    96         26
    97         16
    98         63
    99         33
   100         20
   101        403
   102        270
   103         36
   110         10
   111         36
   112         63
   113         10
   114         43
   115        106
   116         36
   126         26
   128        596
   129        166
   130         53
   138         26
   139         10
   140         30
   142          6
   144        143
   145          6
   155         26
   162        143
   163          6
   172         13
   182         13
   185         70
   186         10
   204         10
   214         17
   231         20
   232         20