##TITLE=Library Entry 69180
##JCAMP-DX=Revision 4.10 
##DATA TYPE=MASS SPECTRUM
##SAMPLE DESCRIPTION=A.A.Kutin, Moscow, Russia
##NAMES=HP
##CAS NAME=Furazan-3-amine, 4-(1-methyl-1-nitroethylazo)-
##MOLFORM=C5H8N6O3
##CAS REGISTRY NO=172985-64-7
##MP= -300
##BP= -300
##MW= 200
##$RETENTION INDEX=0
##$CONDENSED SPECTRUM=NO
##NPOINTS= 73
##XYDATA=(XY..XY) 1 
    33          2
    34          0
    37         14
    38         52
    39        358
    40        139
    41        457
    42        336
    43         79
    44          5
    46         51
    48          1
    49          0
    50          1
    51          7
    53        362
    54        496
    55         81
    56        291
    57         24
    58         14
    59         19
    60          0
    64          0
    67         55
    68         63
    69         41
    70         13
    71          8
    72         40
    73          1
    74          0
    75          0
    76          0
    77          1
    78          1
    79          1
    81        114
    82         10
    83          8
    84         25
    85          2
    86          0
    87          0
    88          0
    89          0
    91          0
    92          0
    96        999
    97         56
    98          8
    99          0
   104          0
   105          0
   108          1
   109          4
   112        412
   113         15
   114          1
   123          1
   124          1
   125          1
   126          0
   138          0
   149          1
   150          0
   154        380
   155         30
   156          2
   157          0
   165          0
   200          2
   201          0