##TITLE=Library Entry 8351
##JCAMP-DX=Revision 4.10 
##DATA TYPE=MASS SPECTRUM
##SAMPLE DESCRIPTION=NIST Mass Spectrometry Data Center, 1994
##NAMES=HP
##CAS NAME=Diacetoxynorbornane
##MOLFORM=C11H16O4
##CAS REGISTRY NO=17290-00-5
##MP= -300
##BP= -300
##MW= 212
##$RETENTION INDEX=0
##$CONDENSED SPECTRUM=NO
##NPOINTS= 99
##XYDATA=(XY..XY) 1 
     5          2
     6          2
     8          1
     9          1
    10          1
    11          1
    12          0
    13          3
    14         16
    15         98
    16          4
    17          0
    19          1
    21          2
    22          1
    24          1
    25          1
    26          5
    27         43
    28         13
    29         35
    31          9
    32          2
    36          1
    37          1
    38          4
    39         61
    40         15
    41         70
    42          1
    43        999
    44         27
    45          6
    50          5
    51          9
    52          6
    53         27
    54         19
    55         30
    56          4
    57         14
    58          3
    60          1
    61         15
    62          1
    63          3
    66        331
    67         96
    68         22
    69         11
    70          5
    71          6
    72          2
    77         23
    78         10
    79         63
    80         18
    81        115
    82         36
    83          9
    84          3
    85          2
    86          3
    87          2
    89          1
    91         34
    92         62
    93         29
    94          1
    95         49
    96          4
    97          1
    98          1
   100          2
   103          8
   104          2
   105          1
   106          1
   107          1
   108         12
   109         50
   110        254
   111         25
   112         11
   113          2
   123          7
   124         15
   125          3
   126          5
   127          3
   134          2
   137          1
   147          2
   152         45
   153          9
   154          2
   155          3
   169          6
   170          1