##TITLE=Library Entry 22075
##JCAMP-DX=Revision 4.10 
##DATA TYPE=MASS SPECTRUM
##SAMPLE DESCRIPTION=Chemical Concepts
##NAMES=HP
##CAS NAME=1,6-Dioxacyclodecane-4-9-dione, 2,2,7,7-tetramethyl
##MOLFORM=C12H20O4
##CAS REGISTRY NO=172985-62-5
##MP= -300
##BP= -300
##MW= 228
##$RETENTION INDEX=0
##$CONDENSED SPECTRUM=NO
##NPOINTS= 48
##XYDATA=(XY..XY) 1 
    31         50
    32         12
    36         12
    38          9
    39        122
    40         43
    41        383
    42        119
    43        213
    44         11
    45          8
    53         30
    54         12
    55        179
    56        999
    57        205
    58         37
    59         74
    67          9
    69         37
    70         61
    71         88
    72         49
    73         27
    81          9
    82         15
    83        281
    84         38
    85         49
    86         16
    95         14
    96         13
    97         37
    98         24
    99        109
   100          8
   110          9
   111          8
   112         10
   113         10
   114        142
   115         53
   124          9
   127         25
   144         27
   168         23
   198         11
   213          7