##TITLE=Library Entry 39565
##JCAMP-DX=Revision 4.10 
##DATA TYPE=MASS SPECTRUM
##SAMPLE DESCRIPTION=A.Mazepa, Phys.-Chem.Institute, Odessa, Ukraine
##NAMES=HP
##CAS NAME=Isobutyric acid 7-bromo-5-(2-chloro-phenyl)-2-oxo-2,3-dihydro-1H-
benzo[e][1,4]diazepin-3-yl ester
##MOLFORM=C19H16BrClN2O3
##CAS REGISTRY NO=172986-27-5
##MP= -300
##BP= -300
##MW= 434
##$RETENTION INDEX=0
##$CONDENSED SPECTRUM=NO
##NPOINTS= 185
##XYDATA=(XY..XY) 1 
    50         68
    51         34
    52          6
    60         15
    61         14
    62         66
    63         65
    64         28
    65         16
    69         34
    70         27
    71        999
    72         47
    73         69
    74         37
    75        169
    76         59
    77         66
    78         10
    79         12
    82         25
    83         49
    84          9
    85         32
    88         53
    89         62
    90         58
    91         58
    92         18
    93         13
    94          4
    99         20
   100         20
   101         26
   102        177
   103         43
   104          7
   105         15
   110          6
   111         61
   112         11
   113         25
   116         23
   117         50
   118         12
   119         41
   120          8
   121         11
   137         13
   138         96
   139         56
   140         40
   141         11
   142          9
   150         44
   151         59
   152         21
   153          5
   162          5
   163         12
   164         32
   165         25
   166         28
   167          8
   168          9
   174          2
   175         12
   176         35
   177         98
   178         53
   179         14
   180          5
   190          3
   191         14
   192         49
   193         25
   194         34
   195         28
   196         10
   197         25
   198         11
   202          6
   203         20
   204         16
   205         30
   206         30
   207          7
   208          2
   220         10
   221         28
   222         25
   223         33
   224          5
   225         31
   226          5
   227          8
   228         30
   229          8
   230          8
   231          2
   232          1
   236          3
   237         35
   238         54
   239         79
   240         37
   241         48
   242         11
   243          3
   254          2
   255          9
   256         31
   257         20
   258         13
   259          4
   260          2
   272          3
   273          9
   274          6
   275          8
   276          2
   282          1
   283         40
   284         17
   285         59
   286         23
   287         15
   288          6
   292          9
   293          6
   294         14
   295          3
   299         21
   300          4
   301         35
   302          7
   303         10
   307         26
   308         15
   309         35
   310         11
   311         13
   312          5
   313          9
   317         45
   318         24
   319        168
   320         73
   321        211
   322         69
   323        106
   324         20
   325         16
   329         45
   330          6
   331         46
   334          8
   335        706
   336        150
   337        934
   338        169
   339        243
   340         40
   341          3
   347         22
   348         19
   349         30
   350         19
   351          6
   352          2
   362          3
   363        144
   364        699
   365        323
   366        939
   367        223
   368        241
   369         45
   370          3
   371          2
   434         33
   435          5
   436         43
   437          6
   438          7