##TITLE=Library Entry 8887
##JCAMP-DX=Revision 4.10 
##DATA TYPE=MASS SPECTRUM
##SAMPLE DESCRIPTION=SOCONY MOBIL OIL INC., PAULSBORO, NEW JERSEY
##NAMES=HP
##CAS NAME=Undecane, 4,8-dimethyl-
##MOLFORM=C13H28
##CAS REGISTRY NO=17301-33-6
##MP= -300
##BP= -300
##MW= 184
##$RETENTION INDEX=1212
##$CONDENSED SPECTRUM=NO
##NPOINTS= 84
##XYDATA=(XY..XY) 1 
    26         12
    27        274
    28         29
    29        314
    30          7
    37          1
    38          4
    39        129
    40         26
    41        452
    42        143
    43        999
    44         32
    45          0
    50          1
    51          6
    52          3
    53         34
    54         16
    55        226
    56        101
    57        534
    58         23
    59          0
    62          0
    63          1
    64          0
    65          4
    66          3
    67         16
    68          8
    69         55
    70        292
    71        597
    72         32
    73          0
    77          3
    78          1
    79          3
    80          1
    81          4
    82          2
    83         13
    84         52
    85        315
    86         20
    87          0
    91          1
    92          0
    93          0
    94          0
    95          1
    96          7
    97         29
    98         15
    99         61
   100          4
   105          0
   106          0
   110          0
   111          5
   112         17
   113         29
   114          2
   124          0
   125          2
   126          1
   127          4
   128          0
   139          1
   140         37
   141        142
   142         15
   143          0
   154          2
   155          9
   156          1
   168          1
   169         10
   170          1
   182          0
   183          0
   184         10
   185          1