##TITLE=Library Entry 24379
##JCAMP-DX=Revision 4.10 
##DATA TYPE=MASS SPECTRUM
##SAMPLE DESCRIPTION=TECH. UNIVERSITY OF KARLSRUHE, KARLSRUHE, W. GERMANY
##NAMES=HP
##CAS NAME=Undecane, 2,5-dimethyl-
##MOLFORM=C13H28
##CAS REGISTRY NO=17301-22-3
##MP= -300
##BP= -300
##MW= 184
##$RETENTION INDEX=1210
##$CONDENSED SPECTRUM=NO
##NPOINTS= 111
##XYDATA=(XY..XY) 1 
    12          0
    13          0
    14          0
    15          1
    16          0
    19          0
    20          0
    24          0
    25          0
    26          2
    27         53
    28         11
    29        107
    30          2
    31          0
    32          0
    36          0
    37          0
    38          0
    39         30
    40          6
    41        183
    42         39
    43        389
    44         13
    45          0
    46          0
    47          0
    48          0
    49          0
    50          1
    51          1
    52          0
    53         10
    54          6
    55         85
    56        132
    57        999
    58         44
    59          0
    60          0
    63          0
    64          0
    65          1
    66          0
    67          5
    68          5
    69         43
    70        105
    71        348
    72         19
    73          0
    77          1
    78          0
    79          1
    80          0
    81          1
    82          6
    83         30
    84         22
    85         53
    86          3
    87          0
    88          0
    91          0
    92          0
    93          0
    94          0
    95          0
    96          0
    97          5
    98         51
    99         87
   100          6
   101          0
   102          0
   108          0
   109          0
   110          0
   111          2
   112         93
   113         52
   114          4
   115          0
   123          0
   124          0
   125          0
   126          5
   127          7
   128          0
   129          0
   138          0
   139          0
   140          7
   141         11
   142          1
   143          0
   153          0
   154          4
   155          8
   156          1
   157          0
   168          1
   169         12
   170          1
   171          0
   182          0
   183          0
   184         12
   185          1
   186          0