##TITLE=Library Entry 24462
##JCAMP-DX=Revision 4.10 
##DATA TYPE=MASS SPECTRUM
##SAMPLE DESCRIPTION=TECH. UNIVERSITY OF KARLSRUHE, KARLSRUHE, W. GERMANY
##NAMES=HP
##CAS NAME=Nonane, 2,5-dimethyl-
##MOLFORM=C11H24
##CAS REGISTRY NO=17302-27-1
##MP= -300
##BP= -300
##MW= 156
##$RETENTION INDEX=1021
##$CONDENSED SPECTRUM=NO
##NPOINTS= 97
##XYDATA=(XY..XY) 1 
    12          0
    13          0
    14          0
    15          3
    16          0
    19          0
    20          0
    24          0
    25          0
    26          4
    27         85
    28         16
    29        125
    30          3
    31          0
    32          0
    36          0
    37          0
    38          1
    39         47
    40          9
    41        220
    42         54
    43        770
    44         25
    45          0
    46          0
    47          0
    48          0
    49          0
    50          2
    51          2
    52          1
    53         12
    54          7
    55         91
    56        161
    57        999
    58         43
    59          0
    62          0
    63          0
    64          0
    65          1
    66          0
    67          4
    68          3
    69         49
    70         94
    71        111
    72          6
    73          0
    74          0
    75          0
    76          0
    77          1
    78          0
    79          1
    80          0
    81          1
    82          1
    83          9
    84        164
    85        284
    86         18
    87          0
    91          0
    92          0
    93          0
    94          0
    95          0
    96          0
    97          1
    98         64
    99        113
   100          8
   101          0
   102          0
   111          1
   112         13
   113         13
   114          1
   115          0
   125          0
   126          6
   127          9
   128          0
   129          0
   140          3
   141         15
   142          1
   143          0
   154          1
   155          0
   156         21
   157          2
   158          0