##TITLE=Library Entry 109656
##JCAMP-DX=Revision 4.10 
##DATA TYPE=MASS SPECTRUM
##SAMPLE DESCRIPTION=Exported from NIST MS Search
##NAMES=HP
##CAS NAME=Benzene, 1-chloro-2-propyl-
##MOLFORM=C9H11Cl
##CAS REGISTRY NO=1730-86-5
##MP= -300
##BP= -300
##MW= 154
##$RETENTION INDEX=1188
##$CONDENSED SPECTRUM=NO
##NPOINTS= 102
##XYDATA=(XY..XY) 1 
    15          1
    26          2
    27         12
    28          2
    29          4
    30          1
    32          1
    36          1
    37          2
    38          5
    39         31
    40          3
    41         12
    42          1
    43          1
    44          2
    45          1
    47          1
    49          2
    50         15
    51         33
    52          5
    53          2
    55          1
    56          1
    57          6
    58          6
    59          1
    60          1
    61          4
    62         10
    63         36
    64          6
    65         17
    66          1
    67          1
    68          1
    69          1
    72          1
    73         11
    74          8
    75         21
    76          6
    77         29
    78          6
    79          2
    84          1
    85          3
    86          3
    87          4
    88          2
    89         69
    90         20
    91         74
    92          6
    93          1
    97          2
    98          1
    99         27
   100          2
   101         14
   102          8
   103         19
   104          4
   105          1
   106          1
   109          1
   110          1
   111          1
   112         14
   113          3
   114          6
   115         25
   116          6
   117         10
   118          2
   119        100
   120         10
   121          1
   123          1
   124          1
   125        999
   126         90
   127        322
   128         29
   129          1
   136          1
   137          1
   138          2
   139          8
   140          1
   141          3
   142          1
   149          1
   151          1
   152          1
   153          1
   154        239
   155         24
   156         78
   157          8
   158          1