##TITLE=Library Entry 24253
##JCAMP-DX=Revision 4.10 
##DATA TYPE=MASS SPECTRUM
##SAMPLE DESCRIPTION=D.HENNEBERG, MAX-PLANCK INSTITUTE, MULHEIM, WEST GERMAN
Y
##NAMES=HP
##CAS NAME=Undecane, 3,6-dimethyl-
##MOLFORM=C13H28
##CAS REGISTRY NO=17301-28-9
##MP= -300
##BP= -300
##MW= 184
##$RETENTION INDEX=1210
##$CONDENSED SPECTRUM=NO
##NPOINTS= 53
##XYDATA=(XY..XY) 1 
    25          1
    26          9
    27         46
    29        143
    30          4
    37          3
    38          2
    39         21
    40          3
    41        187
    42         25
    43        403
    45          2
    47          0
    50          1
    51          1
    53          6
    54          2
    55         96
    56        142
    57        999
    58         38
    63          2
    65          0
    67          6
    68          4
    69         35
    70         84
    71        386
    72         22
    78          1
    82          1
    83         19
    84         19
    85        106
    86          7
    96          2
    97         11
    98         65
    99         51
   100          3
   112         37
   113         70
   114          5
   124          1
   126          4
   127          5
   141          1
   154          3
   155         31
   156          1
   169          4
   184          5