##TITLE=Library Entry 7825
##JCAMP-DX=Revision 4.10 
##DATA TYPE=MASS SPECTRUM
##SAMPLE DESCRIPTION=D.HENNEBERG, MAX-PLANCK INSTITUTE, MULHEIM, WEST GERMAN
Y
##NAMES=HP
##CAS NAME=Undecane, 2,8-dimethyl-
##MOLFORM=C13H28
##CAS REGISTRY NO=17301-25-6
##MP= -300
##BP= -300
##MW= 184
##$RETENTION INDEX=1220
##$CONDENSED SPECTRUM=NO
##NPOINTS= 48
##XYDATA=(XY..XY) 1 
    26         14
    27         98
    29        160
    30          0
    31          1
    32         25
    35          0
    36          1
    37          4
    39         56
    40          2
    41        259
    42         80
    43        999
    44          4
    53         12
    55        144
    56        122
    57        745
    58         17
    59          0
    65          1
    67          4
    68          3
    69         43
    70        275
    71        656
    72         25
    82          2
    83         11
    84         27
    85        273
    86         17
    95          1
    97         11
    98          3
    99         54
   100          4
   111          2
   112         16
   113         20
   119          1
   125          4
   140         30
   141         58
   155          1
   169          5
   184          1