##TITLE=Library Entry 47648
##JCAMP-DX=Revision 4.10 
##DATA TYPE=MASS SPECTRUM
##SAMPLE DESCRIPTION=Japan AIST/NIMC Database- Spectrum MS-IW-7294
##NAMES=HP
##CAS NAME=Methyl 1-phenyl-1,2,3-triazole-4,5-dicarboxylate
##MOLFORM=C12H11N3O4
##CAS REGISTRY NO=17304-69-7
##MP= -300
##BP= -300
##MW= 261
##$RETENTION INDEX=0
##$CONDENSED SPECTRUM=NO
##NPOINTS= 142
##XYDATA=(XY..XY) 1 
    15        105
    16          1
    17          3
    18          1
    26          2
    27         14
    28         54
    29         14
    30          4
    31         23
    32          9
    37          3
    38          9
    39         28
    40          3
    41          4
    42          3
    43         11
    44         58
    45          8
    46          2
    49          1
    50         43
    51        277
    52         20
    53          4
    54          2
    55          8
    56          3
    57          1
    58          1
    59        251
    60          6
    61          4
    62         11
    63         23
    64         15
    65         22
    66          3
    67          1
    68          2
    69          9
    70          1
    71          2
    72          2
    73          1
    74         10
    75         17
    76         43
    77        999
    78         77
    79          4
    80          2
    81          1
    82          3
    83          4
    85          1
    86          1
    87          5
    88         17
    89         49
    90         16
    91         54
    92         31
    93          8
    94          1
    95          1
    97          1
    99          2
   100          5
   101          3
   102          9
   103         55
   104         44
   105         16
   106         14
   107         12
   108          2
   111          1
   113          1
   114         22
   115         49
   116         49
   117         41
   118         85
   119         54
   120          7
   121          1
   127          1
   128         21
   129         64
   130        150
   131         36
   132         14
   133         30
   134        134
   135         12
   142          4
   143        653
   144        241
   145         56
   146         75
   147          9
   148          1
   149          1
   156         14
   157         24
   158        121
   159         18
   160         15
   161          2
   162         19
   163          3
   164          1
   170         30
   171         11
   172         13
   173         52
   174        100
   175         29
   176         10
   177          2
   188          9
   189          6
   190         37
   191          5
   200          1
   201        502
   202        672
   203         83
   204         12
   205         48
   206          6
   230         38
   231          5
   232          2
   233          9
   234          1
   261        593
   262         88
   263         10
   264          1