##TITLE=Library Entry 24294
##JCAMP-DX=Revision 4.10 
##DATA TYPE=MASS SPECTRUM
##SAMPLE DESCRIPTION=V.G.Zaikin, TIPS, Russian Acad. Sci.
##NAMES=HP
##CAS NAME=5-Ethyldecane
##MOLFORM=C12H26
##CAS REGISTRY NO=17302-36-2
##MP= -300
##BP= -300
##MW= 170
##$RETENTION INDEX=1139
##$CONDENSED SPECTRUM=NO
##NPOINTS= 23
##XYDATA=(XY..XY) 1 
    41        260
    42         55
    43        595
    44         15
    55        115
    56        110
    57        999
    58         80
    69         50
    70         70
    71        435
    72         20
    83         35
    84         25
    85        195
    98        100
    99         55
   112         75
   113         40
   140        105
   141         90
   170         15
   171          2