##TITLE=Library Entry 24231
##JCAMP-DX=Revision 4.10 
##DATA TYPE=MASS SPECTRUM
##SAMPLE DESCRIPTION=D.HENNEBERG, MAX-PLANCK INSTITUTE, MULHEIM, WEST GERMAN
Y
##NAMES=HP
##CAS NAME=Undecane, 2,9-dimethyl-
##MOLFORM=C13H28
##CAS REGISTRY NO=17301-26-7
##MP= -300
##BP= -300
##MW= 184
##$RETENTION INDEX=1233
##$CONDENSED SPECTRUM=NO
##NPOINTS= 48
##XYDATA=(XY..XY) 1 
    22          1
    25          0
    27         65
    29        163
    30          2
    31          0
    33          1
    35          1
    37          1
    39         37
    40          2
    41        248
    42         62
    43        515
    53         12
    54          5
    55        100
    56        309
    57        999
    58         29
    67          5
    68          7
    69         56
    70         54
    71        403
    72         18
    82          0
    83         12
    84         16
    85        268
    86         18
    97          8
    98         14
    99        102
   100          2
   111          8
   112          6
   113         33
   126         16
   127         14
   139          3
   140          3
   141          6
   154         40
   155         82
   156          9
   169          7
   184          1