##TITLE=Library Entry 24851
##JCAMP-DX=Revision 4.10 
##DATA TYPE=MASS SPECTRUM
##SAMPLE DESCRIPTION=D.HENNEBERG, MAX-PLANCK INSTITUTE, MULHEIM, WEST GERMAN
Y
##NAMES=HP
##CAS NAME=Decane, 2,2-dimethyl-
##MOLFORM=C12H26
##CAS REGISTRY NO=17302-37-3
##MP= -300
##BP= -300
##MW= 170
##$RETENTION INDEX=1115
##$CONDENSED SPECTRUM=NO
##NPOINTS= 62
##XYDATA=(XY..XY) 1 
    26          1
    27         37
    28         21
    29         99
    30          2
    31          0
    32          2
    33          0
    37          0
    38          0
    39         23
    40          5
    41        170
    42         19
    43        160
    44          6
    50          0
    51          1
    52          0
    53          6
    54          2
    55         41
    56        442
    57        999
    58         41
    59          0
    63          0
    65          1
    66          0
    67          3
    68          1
    69         17
    70          6
    71         76
    72          4
    75          0
    77          0
    78          0
    79          0
    81          0
    82          1
    83          4
    84          2
    85         49
    86          3
    95          0
    97          1
    98          0
    99         16
   100          1
   105          0
   111          0
   112         11
   113          7
   114          0
   128          0
   154          0
   155         13
   156          1
   168          0
   169          0
   170          0