##TITLE=Library Entry 25340
##JCAMP-DX=Revision 4.10 
##DATA TYPE=MASS SPECTRUM
##SAMPLE DESCRIPTION=D.HENNEBERG, MAX-PLANCK INSTITUTE, MULHEIM, WEST GERMAN
Y
##NAMES=HP
##CAS NAME=Undecane, 3,9-dimethyl-
##MOLFORM=C13H28
##CAS REGISTRY NO=17301-31-4
##MP= -300
##BP= -300
##MW= 184
##$RETENTION INDEX=1240
##$CONDENSED SPECTRUM=NO
##NPOINTS= 66
##XYDATA=(XY..XY) 1 
    25          2
    26          4
    27         49
    28          4
    29        176
    30          4
    31          0
    33          8
    35          2
    36          1
    37          2
    39         35
    40          3
    41        247
    42         45
    43        405
    47          1
    48          0
    49          0
    51          2
    52          0
    53         10
    54          7
    55        123
    56        236
    57        999
    58         39
    65          2
    66          0
    67          6
    68          4
    69         43
    70         95
    71        430
    72         23
    73          0
    75          1
    77          0
    79          1
    81          3
    82          3
    83         29
    84         11
    85        271
    86         15
    95          0
    96          3
    97         15
    98          6
    99         98
   100          8
   111          1
   112          2
   113         39
   114          5
   124          4
   125         37
   126         13
   127         30
   128          3
   154         21
   155         77
   156          7
   169          3
   182          0
   184          1