##TITLE=Library Entry 7834
##JCAMP-DX=Revision 4.10 
##DATA TYPE=MASS SPECTRUM
##SAMPLE DESCRIPTION=D.HENNEBERG, MAX-PLANCK INSTITUTE, MULHEIM, WEST GERMAN
Y
##NAMES=HP
##CAS NAME=Undecane, 3,7-dimethyl-
##MOLFORM=C13H28
##CAS REGISTRY NO=17301-29-0
##MP= -300
##BP= -300
##MW= 184
##$RETENTION INDEX=1222
##$CONDENSED SPECTRUM=NO
##NPOINTS= 46
##XYDATA=(XY..XY) 1 
    21          1
    26         10
    27        108
    28         54
    29        264
    30          4
    33          0
    37          1
    38          0
    39         57
    40          8
    41        326
    42         75
    43        999
    44          3
    51          0
    53         12
    54          9
    55        138
    56        207
    57        894
    58         32
    67          6
    68          3
    69         54
    70         88
    71        511
    72         28
    83          8
    84        148
    85        426
    86         24
    96          5
    97         26
    98         16
    99         43
   112          1
   113         11
   126         22
   127         63
   128          4
   154          2
   155         17
   156          0
   169          1
   184          1