##TITLE=Library Entry 7831
##JCAMP-DX=Revision 4.10 
##DATA TYPE=MASS SPECTRUM
##SAMPLE DESCRIPTION=D.HENNEBERG, MAX-PLANCK INSTITUTE, MULHEIM, WEST GERMAN
Y
##NAMES=HP
##CAS NAME=Undecane, 2,10-dimethyl-
##MOLFORM=C13H28
##CAS REGISTRY NO=17301-27-8
##MP= -300
##BP= -300
##MW= 184
##$RETENTION INDEX=1227
##$CONDENSED SPECTRUM=NO
##NPOINTS= 64
##XYDATA=(XY..XY) 1 
    24          0
    25          1
    26          8
    27         96
    28         11
    29        160
    30          4
    31          0
    33          1
    34          0
    36          1
    37          3
    38          1
    39         56
    40         13
    41        330
    42        177
    43        999
    44         11
    51          8
    52          0
    53         15
    54         11
    55        135
    56        215
    57        987
    58         40
    59          1
    64          0
    65          1
    66          0
    67          9
    68         12
    69         87
    70         47
    71        495
    72         24
    79          6
    81          2
    82          5
    83         20
    84         26
    85        344
    86         21
    96          2
    97         12
    98         13
    99        119
   100          8
   110          0
   111          4
   112         12
   113         43
   114          2
   125          8
   126          1
   127         17
   140         32
   141         98
   142         10
   168          1
   169         22
   170          2
   184          3