##TITLE=Library Entry 7879
##JCAMP-DX=Revision 4.10 
##DATA TYPE=MASS SPECTRUM
##SAMPLE DESCRIPTION=Exported from NIST MS Search
##NAMES=HP
##CAS NAME=Nonane, 4,5-dimethyl-
##MOLFORM=C11H24
##CAS REGISTRY NO=17302-23-7
##MP= -300
##BP= -300
##MW= 156
##$RETENTION INDEX=1046
##$CONDENSED SPECTRUM=NO
##NPOINTS= 50
##XYDATA=(XY..XY) 1 
    26          3
    27         61
    29        126
    30          3
    38          1
    39         11
    40         12
    41         22
    42        105
    43        999
    44         37
    45          1
    51          2
    52          1
    53         13
    54          8
    55        204
    56        220
    57        935
    58         40
    65          2
    66          1
    67          7
    68          4
    69        121
    70        340
    71        603
    72         26
    81          1
    82          8
    83         32
    84        325
    85        393
    86         22
    87          1
    96          3
    97         12
    98         34
    99         37
   100          2
   111          1
   112         46
   113         53
   114          3
   126         60
   127         45
   128          3
   141          1
   156         10
   157          1