##TITLE=Library Entry 7891
##JCAMP-DX=Revision 4.10 
##DATA TYPE=MASS SPECTRUM
##SAMPLE DESCRIPTION=D.HENNEBERG, MAX-PLANCK INSTITUTE, MULHEIM, WEST GERMAN
Y
##NAMES=HP
##CAS NAME=Undecane, 2,7-dimethyl-
##MOLFORM=C13H28
##CAS REGISTRY NO=17301-24-5
##MP= -300
##BP= -300
##MW= 184
##$RETENTION INDEX=1216
##$CONDENSED SPECTRUM=NO
##NPOINTS= 45
##XYDATA=(XY..XY) 1 
    21          1
    25          0
    26          5
    27         88
    28         15
    29        161
    30          2
    35          0
    39         47
    40          3
    41        255
    42         67
    43        999
    44          5
    51          0
    53          8
    54          6
    55        104
    56        172
    57        610
    58         22
    65          0
    66          0
    67          4
    68          7
    69         62
    70         37
    71        393
    72         17
    82          2
    83         12
    84        146
    85        364
    86         23
    98         77
    99         43
   100          0
   111         11
   112          0
   113          4
   126         22
   127         38
   128          2
   141         16
   169          2