##TITLE=Library Entry 9857
##JCAMP-DX=Revision 4.10 
##DATA TYPE=MASS SPECTRUM
##SAMPLE DESCRIPTION=Exported from NIST MS Search
##NAMES=HP
##CAS NAME=Undecane, 2,4-dimethyl-
##MOLFORM=C13H28
##CAS REGISTRY NO=17312-80-0
##MP= -300
##BP= -300
##MW= 184
##$RETENTION INDEX=1208
##$CONDENSED SPECTRUM=NO
##NPOINTS= 83
##XYDATA=(XY..XY) 1 
    25          1
    26         10
    27        255
    28         40
    29        323
    30          7
    31          1
    33          1
    37          2
    38          4
    39        129
    40         28
    41        486
    42        139
    43        999
    44         33
    45          1
    50          1
    51          5
    52          3
    53         30
    54         14
    55        172
    56        181
    57        555
    58         24
    59          1
    63          1
    65          4
    66          2
    67         14
    68          8
    69         87
    70         44
    71        357
    72         19
    73          1
    75          1
    77          3
    78          1
    79          2
    80          1
    81          3
    82          6
    83         25
    84        150
    85        608
    86         39
    87          1
    91          1
    93          1
    95          1
    96          3
    97         20
    98         19
    99         22
   100          2
   107          1
   109          1
   111          3
   112          5
   113          9
   114          1
   125          2
   126         76
   127         56
   128          5
   135          2
   137          2
   139          1
   140         22
   141         38
   142          4
   154          2
   155          4
   156          1
   168          2
   169         12
   170          2
   182          1
   183          1
   184          9
   185          1