##TITLE=Library Entry 3491
##JCAMP-DX=Revision 4.10 
##DATA TYPE=MASS SPECTRUM
##SAMPLE DESCRIPTION=Dmitri Zagorevskii, University of Missouri-Columbia, Co
lumbia, MO
##NAMES=HP
##CAS NAME=n-But-2-enoylhexahydro-1H-azepine-2-on
##MOLFORM=C10H15NO2
##CAS REGISTRY NO=173178-52-4
##MP= -300
##BP= -300
##MW= 181
##$RETENTION INDEX=0
##$CONDENSED SPECTRUM=NO
##NPOINTS= 74
##XYDATA=(XY..XY) 1 
    26         66
    27        275
    28         59
    29        127
    30         75
    31         16
    32          2
    36          7
    37         58
    38        110
    40        196
    41        999
    42        157
    43         79
    44         36
    45         77
    50         10
    51         16
    52         10
    53         46
    54         61
    55        191
    56        110
    57         45
    58         52
    59          5
    60          8
    65          8
    66          9
    67         54
    68        315
    69        944
    70        134
    71         44
    72          8
    77          5
    79         13
    80          8
    81          6
    82         26
    83         26
    84         89
    85         51
    86        271
    87         13
    94          9
    95         13
    96        270
    97         49
    98         40
    99         13
   110         53
   111          9
   112        139
   113         23
   114        181
   115         15
   124         15
   125         19
   126         29
   127         17
   128          9
   136          2
   138        316
   139         30
   140         18
   152         26
   153        118
   154         17
   166        213
   167         23
   180         14
   181        187
   182         22