##TITLE=Library Entry 38790
##JCAMP-DX=Revision 4.10 
##DATA TYPE=MASS SPECTRUM
##SAMPLE DESCRIPTION=D.HENNEBERG, MAX-PLANCK INSTITUTE, MULHEIM, WEST GERMAN
Y
##NAMES=HP
##CAS NAME=Nonane, 5-butyl-
##MOLFORM=C13H28
##CAS REGISTRY NO=17312-63-9
##MP= -300
##BP= -300
##MW= 184
##$RETENTION INDEX=1204
##$CONDENSED SPECTRUM=NO
##NPOINTS= 57
##XYDATA=(XY..XY) 1 
    24          1
    25          2
    26         10
    27         97
    28         19
    29        201
    30          2
    39         55
    40          9
    41        347
    42         62
    43        894
    50          0
    51          0
    52          1
    53         20
    54         14
    55        186
    56        124
    57        902
    58         39
    59          0
    65          1
    66          0
    67         13
    68          8
    69         66
    70         95
    71        999
    72         57
    73          0
    75          0
    76          0
    77          2
    79          3
    81          3
    82         21
    83         59
    84         58
    85        551
    86         33
    96          8
    97         71
    98         37
    99          8
   111          1
   112         11
   113          1
   125          0
   126        284
   127        107
   128          9
   140          8
   141          5
   154          0
   155          0
   184          2