##TITLE=Library Entry 25917
##JCAMP-DX=Revision 4.10 
##DATA TYPE=MASS SPECTRUM
##SAMPLE DESCRIPTION=NIST Mass Spectrometry Data Center, 1990.
##NAMES=HP
##CAS NAME=4,4-Dipropylheptane
##MOLFORM=C13H28
##CAS REGISTRY NO=17312-72-0
##MP= -300
##BP= -300
##MW= 184
##$RETENTION INDEX=0
##$CONDENSED SPECTRUM=NO
##NPOINTS= 36
##XYDATA=(XY..XY) 1 
    27        139
    28         59
    29        141
    32         12
    39        106
    41        527
    42         74
    43        610
    44         24
    53         64
    55        430
    56        206
    57        999
    58         42
    65         23
    66         11
    67         67
    68         23
    69        155
    71        710
    72         41
    77         21
    79         24
    81         19
    83         33
    84        123
    85        858
    86         59
    97         90
    98         66
    99        180
   100         12
   112         18
   140        163
   141        408
   142         45