##TITLE=Library Entry 44738
##JCAMP-DX=Revision 4.10 
##DATA TYPE=MASS SPECTRUM
##SAMPLE DESCRIPTION=Japan AIST/NIMC Database- Spectrum MS-NW-5983
##NAMES=HP
##CAS NAME=Heptadecanoic acid, methyl ester
##MOLFORM=C18H36O2
##CAS REGISTRY NO=1731-92-6
##MP= -300
##BP= -300
##MW= 284
##$RETENTION INDEX=2028
##$CONDENSED SPECTRUM=NO
##NPOINTS= 145
##XYDATA=(XY..XY) 1 
    15         25
    17          1
    18          7
    26          1
    27         37
    28          8
    29        101
    30          3
    31          6
    32          1
    33          1
    39         23
    40          5
    41        199
    42         41
    43        266
    44          9
    45         15
    51          1
    53         10
    54         15
    55        177
    56         39
    57        150
    58          8
    59         44
    60          3
    61          3
    65          2
    66          2
    67         23
    68         12
    69        114
    70         23
    71         55
    72          4
    73         16
    74        999
    75        183
    76          9
    77          3
    78          1
    79          5
    80          3
    81         18
    82         11
    83         67
    84         31
    85         28
    86          2
    87        640
    88         57
    89          5
    91          2
    93          5
    94          2
    95         14
    96          8
    97         48
    98         36
    99          7
   100          2
   101         48
   102          6
   103          1
   107          4
   108          1
   109          8
   110          4
   111         22
   112          9
   113          4
   114          1
   115         16
   116          9
   117          1
   121          4
   122          1
   123          3
   124          3
   125         10
   126          3
   127          2
   129         54
   130         13
   131          1
   135          4
   136          1
   137          2
   138          1
   139          7
   140          2
   141          1
   143        131
   144         15
   145          1
   149          3
   151          1
   152          1
   153          4
   154          1
   155          1
   157         12
   158          3
   163          2
   166          1
   167          3
   171          9
   172          4
   177          2
   181          2
   182          1
   185         37
   186          6
   191          1
   195          1
   196          1
   199         32
   200          6
   201          1
   205          1
   208          2
   209          2
   210          2
   213          7
   214          1
   223          1
   224          1
   225          1
   227         10
   228          3
   233          1
   234          1
   241         72
   242         14
   243          2
   251          1
   252          1
   253         40
   254          9
   255         19
   256          5
   284         84
   285         18
   286          2