##TITLE=Library Entry 8530
##JCAMP-DX=Revision 4.10 
##DATA TYPE=MASS SPECTRUM
##SAMPLE DESCRIPTION=NIST Mass Spectrometry Data Center
##NAMES=HP
##CAS NAME=1-Undecanol, acetate
##MOLFORM=C13H26O2
##CAS REGISTRY NO=1731-81-3
##MP= -300
##BP= -300
##MW= 214
##$RETENTION INDEX=1513
##$CONDENSED SPECTRUM=NO
##NPOINTS= 95
##XYDATA=(XY..XY) 1 
    14          1
    15          7
    26          2
    27         43
    28         14
    29         96
    30          3
    31          5
    38          1
    39         57
    40         13
    41        318
    42        135
    43        999
    44         33
    45          7
    50          1
    51          3
    52          2
    53         29
    54         61
    55        489
    56        421
    57        288
    58         38
    59          8
    61        392
    62          9
    63          2
    65          6
    66          7
    67         90
    68        157
    69        494
    70        459
    71        143
    72          9
    73         64
    74          4
    75          1
    77          4
    78          1
    79          9
    80          3
    81         37
    82        222
    83        456
    84        305
    85         79
    86          7
    87         12
    88          4
    91          1
    93          1
    94          2
    95         15
    96         87
    97        408
    98        204
    99         20
   100          3
   101         19
   102          5
   108          1
   109          4
   110         29
   111        194
   112         77
   113          9
   114          2
   115          3
   116         74
   117          5
   123          2
   124         13
   125         87
   126        180
   127         20
   128          4
   129          4
   130          7
   131          1
   138          1
   139          2
   141          1
   142          6
   143          1
   152          3
   153          1
   154         67
   155          9
   156          2
   169          1
   171          1
   199          1