##TITLE=Library Entry 24280
##JCAMP-DX=Revision 4.10 
##DATA TYPE=MASS SPECTRUM
##SAMPLE DESCRIPTION=D.HENNEBERG, MAX-PLANCK INSTITUTE, MULHEIM, WEST GERMAN
Y
##NAMES=HP
##CAS NAME=Undecane, 3-ethyl-
##MOLFORM=C13H28
##CAS REGISTRY NO=17312-58-2
##MP= -300
##BP= -300
##MW= 184
##$RETENTION INDEX=1260
##$CONDENSED SPECTRUM=NO
##NPOINTS= 48
##XYDATA=(XY..XY) 1 
    22          2
    25          0
    26         10
    27         86
    28          6
    29        204
    32          0
    33          1
    36          1
    39         63
    40          4
    41        285
    42         85
    43        982
    47          1
    51          1
    53         14
    54          6
    55        190
    56         62
    57        999
    58         31
    67         11
    68          4
    69         68
    70        250
    71        654
    72         34
    82          6
    83         29
    84         30
    85        370
    86         19
    96          1
    97         27
    98         14
    99        130
   100          6
   111         18
   112          6
   113         43
   114          1
   125          4
   126          7
   140          0
   154        114
   155        105
   156          9