##TITLE=Library Entry 44733
##JCAMP-DX=Revision 4.10 
##DATA TYPE=MASS SPECTRUM
##SAMPLE DESCRIPTION=NIST Mass Spectrometry Data Center
##NAMES=HP
##CAS NAME=Tridecanoic acid, methyl ester
##MOLFORM=C14H28O2
##CAS REGISTRY NO=1731-88-0
##MP= -300
##BP= -300
##MW= 228
##$RETENTION INDEX=1624
##$CONDENSED SPECTRUM=NO
##NPOINTS= 115
##XYDATA=(XY..XY) 1 
    15          7
    26          1
    27         25
    28          8
    29         59
    30          2
    31          3
    33          1
    38          1
    39         33
    40          7
    41        186
    42         45
    43        223
    44          9
    45         11
    51          2
    52          1
    53         17
    54         16
    55        222
    56         42
    57        108
    58          7
    59        100
    60          3
    61          2
    65          3
    66          2
    67         25
    68         12
    69        111
    70         22
    71         36
    72          3
    73         24
    74        999
    75        152
    76          9
    77          3
    78          1
    79          9
    80          2
    81         19
    82          9
    83         66
    84         36
    85         22
    87        678
    88         62
    89          5
    91          1
    93          5
    94          2
    95         16
    96          7
    97         54
    98         31
    99          6
   100          3
   101         63
   102          6
   103          1
   107          4
   108          1
   109          8
   110          3
   111         19
   112          7
   113          3
   114          1
   115         22
   116          9
   117          1
   121          3
   122          1
   123          4
   124          2
   125          8
   126          2
   127          1
   129         97
   130         14
   131          1
   135          3
   137          1
   139          3
   140          1
   143        194
   144         17
   145          1
   149          2
   152          3
   153          2
   154          6
   155          1
   157         20
   158          3
   163          1
   167          1
   171         21
   172          3
   177          1
   178          1
   185        112
   186         15
   187          1
   195          1
   197         60
   198          9
   199         38
   200          5
   228         36
   229          7
   230          1