##TITLE=Library Entry 25354
##JCAMP-DX=Revision 4.10 
##DATA TYPE=MASS SPECTRUM
##SAMPLE DESCRIPTION=Chemical Concepts
##NAMES=HP
##CAS NAME=Undecane, 6-ethyl-
##MOLFORM=C13H28
##CAS REGISTRY NO=17312-60-6
##MP= -300
##BP= -300
##MW= 184
##$RETENTION INDEX=1230
##$CONDENSED SPECTRUM=NO
##NPOINTS= 106
##XYDATA=(XY..XY) 1 
    24          0
    26          1
    27         73
    28          6
    29        192
    30          4
    35          0
    37          0
    38          1
    39         65
    40         10
    41        356
    42         79
    43        598
    44         19
    46          0
    47          0
    51          2
    52          2
    53         23
    54         14
    55        187
    56        101
    57        999
    58         45
    59          1
    61          1
    63          1
    65          4
    66          1
    67         18
    68         11
    69         73
    70        127
    71        734
    72         40
    73          1
    76          0
    77          3
    78          2
    79          5
    81          1
    82         25
    83         77
    84         53
    85        219
    86         13
    87          0
    89          0
    90          0
    92          0
    93          0
    95          1
    96          4
    97         28
    98         15
    99         76
   100          7
   101          0
   103          0
   104          0
   106          0
   108          0
   110          2
   111         16
   112        188
   113         70
   114          4
   116          0
   117          0
   118          0
   119          0
   121          0
   122          0
   123          0
   124          0
   125          8
   126         13
   127          4
   128          1
   130          0
   133          0
   140          5
   141          3
   142          0
   143          0
   145          0
   148          1
   149          0
   150          0
   153          0
   154        110
   155         85
   156          9
   157          1
   158          0
   159          0
   166          0
   168          0
   170          0
   173          0
   176          0
   178          0
   182          2
   184          8
   185          1