##TITLE=Library Entry 24065
##JCAMP-DX=Revision 4.10 
##DATA TYPE=MASS SPECTRUM
##SAMPLE DESCRIPTION=TECH. UNIVERSITY OF KARLSRUHE, KARLSRUHE, W. GERMANY
##NAMES=HP
##CAS NAME=Decane, 2,5-dimethyl-
##MOLFORM=C12H26
##CAS REGISTRY NO=17312-50-4
##MP= -300
##BP= -300
##MW= 170
##$RETENTION INDEX=1112
##$CONDENSED SPECTRUM=NO
##NPOINTS= 100
##XYDATA=(XY..XY) 1 
    12          0
    13          0
    14          0
    15          1
    16          0
    19          0
    20          0
    24          0
    25          0
    26          2
    27         48
    28         10
    29         92
    30          2
    31          0
    32          0
    36          0
    37          0
    38          0
    39         28
    40          6
    41        153
    42         32
    43        303
    44         10
    45          0
    46          0
    47          0
    48          0
    49          0
    50          1
    51          1
    52          0
    53          8
    54          5
    55         64
    56        114
    57        999
    58         44
    59          0
    62          0
    63          0
    64          0
    65          1
    66          0
    67          3
    68          4
    69         36
    70         86
    71         85
    72          4
    73          0
    74          0
    75          0
    77          0
    78          0
    79          0
    80          0
    81          0
    82          0
    83          9
    84          3
    85         37
    86          2
    87          0
    91          0
    92          0
    93          0
    95          0
    96          0
    97          2
    98        130
    99        106
   100          7
   101          0
   110          0
   111          0
   112          4
   113          7
   114          0
   115          0
   125          0
   126          7
   127          9
   128          0
   129          0
   139          0
   140          3
   141          7
   142          0
   143          0
   154          1
   155         10
   156          1
   157          0
   168          0
   169          0
   170         12
   171          1
   172          0