##TITLE=Library Entry 44761
##JCAMP-DX=Revision 4.10 
##DATA TYPE=MASS SPECTRUM
##SAMPLE DESCRIPTION=NIST Mass Spectrometry Data Center
##NAMES=HP
##CAS NAME=Nonanoic acid, methyl ester
##MOLFORM=C10H20O2
##CAS REGISTRY NO=1731-84-6
##MP= -300
##BP= -300
##MW= 172
##$RETENTION INDEX=1225
##$CONDENSED SPECTRUM=NO
##NPOINTS= 88
##XYDATA=(XY..XY) 1 
    15          8
    26          3
    27         39
    28         14
    29         59
    30          2
    31          5
    33          1
    39         61
    40         13
    41        186
    42         58
    43        203
    44          9
    45         16
    46          1
    50          2
    51          5
    52          3
    53         23
    54         17
    55        239
    56         49
    57        113
    58          8
    59        151
    60          5
    61          3
    63          1
    65          4
    66          2
    67         20
    68         16
    69         91
    70         19
    71         49
    72          4
    74        999
    75        102
    76          8
    77          3
    78          1
    79          6
    80          2
    81         18
    82          3
    83         44
    84         42
    85          7
    87        575
    88         60
    89          5
    91          1
    93          3
    94          4
    95          4
    96          7
    97         31
    98         24
    99          3
   100          2
   101         81
   102          6
   103          1
   107          1
   111          8
   112         11
   113          2
   115         31
   116          6
   117          1
   121          2
   122          2
   123          5
   125          2
   129        147
   130         14
   131          1
   139          4
   141        151
   142         16
   143        125
   144         12
   145          1
   157          1
   172         17
   173          6
   174          1