##TITLE=Library Entry 7833
##JCAMP-DX=Revision 4.10 
##DATA TYPE=MASS SPECTRUM
##SAMPLE DESCRIPTION=Chemical Concepts
##NAMES=HP
##CAS NAME=Decane, 3,7-dimethyl-
##MOLFORM=C12H26
##CAS REGISTRY NO=17312-54-8
##MP= -300
##BP= -300
##MW= 170
##$RETENTION INDEX=1125
##$CONDENSED SPECTRUM=NO
##NPOINTS= 73
##XYDATA=(XY..XY) 1 
    26          4
    27        110
    28          2
    29        282
    30          6
    31          0
    33          0
    36          0
    37          0
    38          1
    39         67
    40         12
    41        386
    42         90
    43        999
    44         30
    45          0
    50          0
    51          3
    52          1
    53         19
    54          8
    55        182
    56        161
    57        912
    58         37
    59          0
    63          0
    65          2
    66          1
    67          8
    68          4
    69         39
    70        246
    71        776
    72         36
    73          1
    75          0
    77          1
    78          0
    79          1
    81          1
    82          1
    83         11
    84         25
    85        359
    86         22
    87          0
    91          0
    95          0
    96          9
    97         31
    98         14
    99         40
   100          3
   110          0
   111          2
   112          5
   113         11
   114          0
   115          0
   125          0
   126         20
   127         65
   128          6
   140          9
   141         43
   142          5
   154          0
   155          6
   156          0
   170          4
   171          0