##TITLE=Library Entry 98719
##JCAMP-DX=Revision 4.10 
##DATA TYPE=MASS SPECTRUM
##SAMPLE DESCRIPTION=Chemical Concepts
##NAMES=HP
##CAS NAME=2-(4-Hydroxy-benzylidene)-malonic acid, diethyl ester
##MOLFORM=C14H16O5
##CAS REGISTRY NO=17315-86-5
##MP= -300
##BP= -300
##MW= 264
##$RETENTION INDEX=0
##$CONDENSED SPECTRUM=NO
##NPOINTS= 203
##XYDATA=(XY..XY) 1 
    26          6
    27         98
    28         15
    29        414
    30          8
    31          6
    33          0
    34          0
    35          0
    36          0
    37          1
    38          6
    39         58
    40          7
    41         20
    42          6
    43         28
    44          9
    45         15
    46          0
    47          0
    48          0
    49          0
    50         14
    51         34
    52         11
    53          3
    55         23
    56          4
    57         12
    58          0
    59          9
    60          4
    61          4
    62         22
    63         87
    64         30
    65        117
    66         11
    67          6
    68          5
    69         75
    70          5
    71          7
    72          1
    73         10
    74          9
    75         15
    76          6
    77         47
    78         36
    79         18
    80          3
    81         10
    82          3
    83          5
    84          2
    85          4
    86          2
    87          9
    88         10
    89        137
    90         42
    91        182
    92         17
    93         20
    94         15
    95         33
    96          4
    97          5
    98          3
    99          3
   100          2
   101         25
   102          7
   103          8
   104          6
   105         32
   106         14
   107         48
   108          4
   109          2
   110          2
   111          3
   112          1
   113          3
   114          0
   115         11
   116          5
   117         30
   118        999
   119        171
   120         60
   121         61
   122          9
   123        197
   124         13
   125          2
   126          0
   127          5
   128          6
   129          8
   130          3
   131         16
   132         13
   133         17
   134         23
   135          5
   136          3
   137          5
   138          1
   139          2
   140          1
   141          2
   142          1
   143          1
   144          5
   145         82
   146        440
   147        315
   148         36
   149         27
   150          4
   151        167
   152         16
   153          2
   154          0
   155          1
   156          0
   157          1
   158          0
   159          0
   160          1
   161         13
   162         38
   163         62
   164         52
   165          6
   166          1
   167          2
   168          1
   169          0
   170          0
   171          2
   172          7
   173         26
   174        142
   175         45
   176          7
   177         12
   178          3
   179          1
   180          1
   181          1
   182          0
   183          3
   185          2
   186          1
   187          0
   188          1
   189         71
   190        405
   191        208
   192        105
   193         12
   194          1
   195          0
   196          0
   197          0
   198          0
   199          0
   200         69
   201          8
   202          1
   203          1
   204          0
   205          2
   206          1
   207          5
   208          0
   209          0
   210          0
   211          0
   212          0
   213          0
   214          0
   215          0
   216          0
   217          3
   218         20
   219        674
   220        106
   221         12
   222          1
   223          0
   235         11
   236         11
   237          1
   263          3
   264        746
   265        111
   266         13
   268          1