##TITLE=Library Entry 24260
##JCAMP-DX=Revision 4.10 
##DATA TYPE=MASS SPECTRUM
##SAMPLE DESCRIPTION=D.HENNEBERG, MAX-PLANCK INSTITUTE, MULHEIM, WEST GERMAN
Y
##NAMES=HP
##CAS NAME=Decane, 3,8-dimethyl-
##MOLFORM=C12H26
##CAS REGISTRY NO=17312-55-9
##MP= -300
##BP= -300
##MW= 170
##$RETENTION INDEX=1138
##$CONDENSED SPECTRUM=NO
##NPOINTS= 66
##XYDATA=(XY..XY) 1 
    25          0
    26          4
    27         59
    28          9
    29        197
    30          4
    36          0
    38          1
    39         44
    40          9
    41        269
    42         41
    43        492
    44         12
    45          0
    50          0
    51          2
    52          1
    53         13
    54          6
    55         96
    56        235
    57        999
    58         42
    59          0
    65         14
    66          0
    67          5
    68          2
    69         25
    70         78
    71        471
    72         26
    73          0
    77          7
    78          0
    79          1
    81          0
    82          2
    83         17
    84         12
    85        371
    86         25
    87          0
    88          0
    91          0
    97         18
    98          3
    99         81
   100          6
   110          8
   111         45
   112         11
   113        102
   114          9
   115          0
   127          1
   140         17
   141         84
   142          9
   143          0
   154          0
   155          3
   156          0
   169          0
   170          0