##TITLE=Library Entry 24270
##JCAMP-DX=Revision 4.10 
##DATA TYPE=MASS SPECTRUM
##SAMPLE DESCRIPTION=D.HENNEBERG, MAX-PLANCK INSTITUTE, MULHEIM, WEST GERMAN
Y
##NAMES=HP
##CAS NAME=Dodecane, 3-methyl-
##MOLFORM=C13H28
##CAS REGISTRY NO=17312-57-1
##MP= -300
##BP= -300
##MW= 184
##$RETENTION INDEX=1271
##$CONDENSED SPECTRUM=NO
##NPOINTS= 64
##XYDATA=(XY..XY) 1 
    23          3
    26          9
    27         79
    28          1
    29        216
    30         10
    31          0
    32          4
    33          3
    37          4
    38          1
    39         46
    40         18
    41        295
    42         68
    43        580
    47          3
    51          0
    52          1
    53         17
    54          5
    55        121
    56        303
    57        999
    58         37
    60          0
    61          0
    66          2
    67         12
    68          3
    69         46
    70         39
    71        367
    72         16
    73          3
    77          3
    78          2
    81          3
    82          6
    83         19
    84         21
    85        233
    86         12
    91          0
    95          1
    96          4
    97         18
    98          8
    99         74
   100          2
   102          0
   111          8
   112          4
   113         24
   114          3
   115          1
   125          6
   126          7
   127          8
   154         37
   155         64
   156          7
   168          1
   169          4