##TITLE=Library Entry 38791
##JCAMP-DX=Revision 4.10 
##DATA TYPE=MASS SPECTRUM
##SAMPLE DESCRIPTION=D.HENNEBERG, MAX-PLANCK INSTITUTE, MULHEIM, WEST GERMAN
Y
##NAMES=HP
##CAS NAME=Nonane, 5-methyl-5-propyl-
##MOLFORM=C13H28
##CAS REGISTRY NO=17312-75-3
##MP= -300
##BP= -300
##MW= 184
##$RETENTION INDEX=0
##$CONDENSED SPECTRUM=NO
##NPOINTS= 43
##XYDATA=(XY..XY) 1 
    24          1
    26         10
    27         78
    29        150
    30          1
    31          9
    32          6
    37          2
    39         57
    40          5
    41        252
    42         11
    43        766
    44          7
    46          2
    53         14
    55        143
    56         83
    57        893
    58         28
    60          2
    68          6
    69         44
    70         34
    71        999
    72         49
    77          3
    79          2
    83         51
    84         43
    85        624
    86         38
    97          5
    98         14
    99         50
   100          2
   113          3
   126         83
   127        229
   128         25
   140         28
   141        102
   142         11