##TITLE=Library Entry 6999
##JCAMP-DX=Revision 4.10 
##DATA TYPE=MASS SPECTRUM
##SAMPLE DESCRIPTION=A.A.Kutin, Moscow, Russia
##NAMES=HP
##CAS NAME=Propionitrile, 3-(2-methyl-5-nitro-1-oxido-1,2,3-triazol-4-yl)ami
no-
##MOLFORM=C6H8N6O3
##CAS REGISTRY NO=173165-07-6
##MP= -300
##BP= -300
##MW= 212
##$RETENTION INDEX=0
##$CONDENSED SPECTRUM=NO
##NPOINTS= 142
##XYDATA=(XY..XY) 1 
    33          7
    34          1
    35          0
    36          1
    37          9
    38         28
    39         59
    40        102
    41        175
    42        277
    43        999
    45         47
    46         35
    47          1
    48          0
    49          0
    51         34
    52        100
    53        200
    54        414
    55        152
    56         60
    57         12
    58         22
    59          2
    60          1
    61          0
    62          1
    63          2
    64          6
    65          8
    66         40
    67         85
    68        142
    69        316
    70         30
    71         15
    72          1
    73          0
    74          0
    75          0
    76          1
    77          4
    78          7
    79         22
    80         57
    81        106
    82         22
    83         33
    84          6
    85          6
    86          0
    87          0
    88          0
    89          0
    90          0
    91          2
    92         13
    93         20
    94         13
    95         49
    96         16
    97         23
    98         14
    99          3
   100          0
   101          0
   102          0
   106        154
   107         56
   108          9
   109         22
   110          4
   111         10
   112          2
   113          1
   114          0
   115          0
   116          0
   117          0
   118          0
   119          1
   120          5
   121          9
   122         21
   124        221
   125         27
   126          4
   127          3
   128          0
   129          0
   130          0
   131          0
   132          0
   133          0
   134          0
   135          0
   136          1
   137          2
   138          5
   139          4
   140          3
   141          0
   142          0
   143          0
   144          0
   145          1
   146          1
   147          1
   148          1
   149          1
   150          0
   151          0
   152          0
   153          0
   156        114
   157          6
   158          0
   160          0
   161          0
   162          0
   163          2
   164          4
   166        173
   167         12
   168          1
   169          0
   170          0
   171          1
   172          0
   173          0
   178          1
   180          2
   192          0
   194          0
   196         18
   197          1
   198          0
   208          0
   212        102
   213          7
   214          0