##TITLE=Library Entry 44763
##JCAMP-DX=Revision 4.10 
##DATA TYPE=MASS SPECTRUM
##SAMPLE DESCRIPTION=NIST Mass Spectrometry Data Center
##NAMES=HP
##CAS NAME=Undecanoic acid, methyl ester
##MOLFORM=C12H24O2
##CAS REGISTRY NO=1731-86-8
##MP= -300
##BP= -300
##MW= 200
##$RETENTION INDEX=1428
##$CONDENSED SPECTRUM=NO
##NPOINTS= 100
##XYDATA=(XY..XY) 1 
    15          7
    26          2
    27         30
    28         10
    29         56
    30          2
    31          3
    33          1
    39         44
    40         10
    41        186
    42         50
    43        199
    44          7
    45         11
    50          1
    51          3
    52          2
    53         22
    54         18
    55        250
    56         46
    57         96
    58          5
    59        124
    60          4
    61          1
    63          1
    65          4
    66          2
    67         24
    68         12
    69         92
    70         19
    71         26
    72          2
    74        999
    75        117
    76          7
    77          3
    78          1
    79          8
    80          2
    81         17
    82          9
    83         61
    84         38
    85         27
    87        636
    88         62
    89          4
    91          1
    93          4
    94          1
    95         18
    96          5
    97         43
    98         32
    99          5
   100          2
   101         88
   102          5
   107          3
   108          1
   109          6
   110          1
   111         11
   112          4
   113          2
   115         39
   116          7
   121          2
   123          1
   124          5
   125          4
   126         10
   127          1
   129         66
   130          7
   135          1
   139          3
   140          1
   143        153
   144         14
   145          1
   149          3
   150          2
   151          1
   153          1
   157        132
   158         15
   167          2
   169        104
   170         13
   171         35
   172          3
   185          1
   200         34
   201          7
   202          1