##TITLE=Library Entry 24240
##JCAMP-DX=Revision 4.10 
##DATA TYPE=MASS SPECTRUM
##SAMPLE DESCRIPTION=D.HENNEBERG, MAX-PLANCK INSTITUTE, MULHEIM, WEST GERMAN
Y
##NAMES=HP
##CAS NAME=Undecane, 4,5-dimethyl-
##MOLFORM=C13H28
##CAS REGISTRY NO=17312-79-7
##MP= -300
##BP= -300
##MW= 184
##$RETENTION INDEX=1231
##$CONDENSED SPECTRUM=NO
##NPOINTS= 57
##XYDATA=(XY..XY) 1 
    21          2
    25          6
    26          4
    27        118
    28         41
    29        223
    30          5
    31          2
    32          1
    33          2
    36          2
    37          7
    38          6
    39         50
    40          2
    41        289
    42        125
    43        769
    44         12
    49          1
    51          2
    52          4
    53         14
    54          7
    55        166
    56        104
    57        999
    58         44
    59          1
    60          1
    63          0
    64          2
    65          1
    66          3
    67         11
    68          9
    69         60
    70        428
    71        594
    72         28
    82         18
    83         59
    84         39
    85         53
    86          1
    97          8
    98         19
    99         34
   100          2
   111          0
   112        161
   113         39
   114          1
   127          0
   140          2
   141         11
   155          0