##TITLE=Library Entry 24255
##JCAMP-DX=Revision 4.10 
##DATA TYPE=MASS SPECTRUM
##SAMPLE DESCRIPTION=D.HENNEBERG, MAX-PLANCK INSTITUTE, MULHEIM, WEST GERMAN
Y
##NAMES=HP
##CAS NAME=Undecane, 3,5-dimethyl-
##MOLFORM=C13H28
##CAS REGISTRY NO=17312-81-1
##MP= -300
##BP= -300
##MW= 184
##$RETENTION INDEX=1207
##$CONDENSED SPECTRUM=NO
##NPOINTS= 62
##XYDATA=(XY..XY) 1 
    22          2
    23          1
    24          1
    26          7
    27         47
    29        121
    30          0
    31          3
    32          1
    33          4
    34          1
    35          1
    36          0
    37          3
    39         37
    41        194
    42         43
    43        397
    44         16
    48          1
    50          1
    51          2
    52          1
    53          8
    54          2
    55         35
    56        121
    57        999
    60          0
    62          0
    67          5
    68          5
    69         46
    70         73
    71        367
    72         23
    81          0
    82         10
    83         18
    84         24
    85        137
    86          7
    87          1
    91          1
    97          5
    98         53
    99         93
   100          6
   111          3
   112         30
   113         21
   125          0
   126         14
   127         17
   128          1
   140          1
   141          0
   147          0
   155         28
   156          1
   169          3
   184          3