##TITLE=Library Entry 24233
##JCAMP-DX=Revision 4.10 
##DATA TYPE=MASS SPECTRUM
##SAMPLE DESCRIPTION=D.HENNEBERG, MAX-PLANCK INSTITUTE, MULHEIM, WEST GERMAN
Y
##NAMES=HP
##CAS NAME=Decane, 3,6-dimethyl-
##MOLFORM=C12H26
##CAS REGISTRY NO=17312-53-7
##MP= -300
##BP= -300
##MW= 170
##$RETENTION INDEX=1129
##$CONDENSED SPECTRUM=NO
##NPOINTS= 74
##XYDATA=(XY..XY) 1 
    25          0
    26          5
    27         82
    28         10
    29        191
    30          5
    32          0
    36          0
    38          1
    39         53
    40         11
    41        277
    42         59
    43        868
    44         25
    45          0
    50          1
    51          2
    52          1
    53         15
    54          8
    55        116
    56        188
    57        999
    58         41
    59          0
    63          0
    65         13
    66          0
    67          7
    68          2
    69         56
    70         86
    71        615
    72         34
    73          0
    77          1
    78          0
    79          1
    80          0
    81          0
    82          6
    83         26
    84        166
    85        375
    86         23
    87          0
    91          0
    94          0
    96          0
    97          3
    98         10
    99         42
   100          3
   110          3
   111          2
   112         64
   113        105
   114          9
   115          0
   125          0
   126          1
   127          2
   128          0
   140         13
   141         57
   142          6
   154          1
   155         10
   156          1
   168          1
   169          0
   170         12
   171          1