##TITLE=Library Entry 44740
##JCAMP-DX=Revision 4.10 
##DATA TYPE=MASS SPECTRUM
##SAMPLE DESCRIPTION=NIST Mass Spectrometry Data Center
##NAMES=HP
##CAS NAME=Nonadecanoic acid, methyl ester
##MOLFORM=C20H40O2
##CAS REGISTRY NO=1731-94-8
##MP= -300
##BP= -300
##MW= 312
##$RETENTION INDEX=2228
##$CONDENSED SPECTRUM=NO
##NPOINTS= 155
##XYDATA=(XY..XY) 1 
    15          5
    26          1
    27         18
    28          6
    29         58
    30          2
    31          3
    33          1
    39         20
    40          5
    41        194
    42         44
    43        329
    44         12
    45          9
    51          1
    52          1
    53         13
    54         18
    55        260
    56         53
    57        196
    58         13
    59         78
    60          4
    61          2
    65          3
    66          2
    67         32
    68         16
    69        149
    70         29
    71         76
    72          5
    73         24
    74        999
    75        250
    76         12
    77          3
    78          1
    79          9
    80          3
    81         30
    82         14
    83        101
    84         38
    85         41
    87        731
    88         61
    89          5
    91          2
    93          8
    94          3
    95         25
    96         12
    97         88
    98         36
    99          9
   100          3
   101         67
   102          7
   103          1
   105          1
   107          7
   108          2
   109         13
   110          6
   111         35
   112          9
   113          5
   114          2
   115         26
   116         12
   117          1
   121          9
   122          1
   123          7
   124          3
   125         16
   126          3
   127          3
   129         79
   130         19
   131          2
   133          1
   135          8
   136          1
   137          3
   138          2
   139          9
   140          2
   141          1
   143        226
   144         21
   145          2
   149          5
   150          1
   151          1
   152          1
   153          4
   154          1
   155          1
   157         30
   158          5
   163          3
   165          1
   166          1
   167          2
   168          1
   171         20
   172          4
   177          2
   180          1
   181          2
   182          1
   185         32
   186          6
   187          1
   191          1
   194          1
   195          1
   196          1
   199         44
   200          7
   201          1
   205          1
   209          1
   210          1
   213         38
   214          6
   215          1
   223          1
   227         22
   228          4
   236          1
   237          1
   238          1
   241         12
   242          2
   255         20
   256          4
   257          1
   261          1
   269         88
   270         16
   271          2
   279          1
   280          1
   281         33
   282          7
   283         18
   284          4
   312        117
   313         26
   314          3