##TITLE=Library Entry 20439
##JCAMP-DX=Revision 4.10 
##DATA TYPE=MASS SPECTRUM
##SAMPLE DESCRIPTION=NIST Mass Spectrometry Data Center, 1994
##NAMES=HP
##CAS NAME=Dodecanedioic acid, dimethyl ester
##MOLFORM=C14H26O4
##CAS REGISTRY NO=1731-79-9
##MP= -300
##BP= -300
##MW= 258
##$RETENTION INDEX=1852
##$CONDENSED SPECTRUM=NO
##NPOINTS= 129
##XYDATA=(XY..XY) 1 
    15        437
    16          9
    18          9
    26         16
    27        212
    28        139
    29        374
    30         20
    31         65
    32          4
    33         13
    39        214
    41        774
    42        240
    43        710
    44         40
    45        102
    51          6
    52          9
    53         74
    54         75
    55        999
    56        105
    57        168
    58          6
    59        628
    60         22
    61         11
    64          2
    65         13
    66         11
    67        146
    68         62
    69        541
    70         67
    71         61
    72         12
    73         99
    74        830
    75         61
    76          6
    77         10
    78          7
    79         56
    80         35
    81        135
    82         49
    83        322
    84        418
    85         64
    86          6
    87        331
    88         40
    91         14
    92          8
    93         70
    94         30
    95         83
    96         79
    97        241
    98        723
    99         64
   100         13
   101         62
   105         11
   106         10
   107         49
   108         23
   109         55
   110         48
   111        141
   112        227
   113         31
   114         13
   115         31
   116          9
   119          9
   120          8
   121         24
   122         13
   123         39
   124         32
   125         48
   126         35
   127         11
   128         10
   129         30
   130         12
   133         11
   134         28
   135        150
   136         17
   137         19
   138         35
   139         15
   140          6
   141          9
   142         20
   143         27
   144          6
   147         10
   148         24
   149         51
   150         15
   151         18
   152         66
   153        282
   154         24
   155          5
   157          7
   159          8
   166         69
   167         39
   168          4
   169          4
   170         32
   171          8
   172         10
   176          8
   177          8
   183          3
   185        157
   186         20
   193          6
   194         46
   195         13
   198          5
   227        205
   228         28