##TITLE=Library Entry 25407
##JCAMP-DX=Revision 4.10 
##DATA TYPE=MASS SPECTRUM
##SAMPLE DESCRIPTION=Exported from NIST MS Search
##NAMES=HP
##CAS NAME=Decane, 5-ethyl-5-methyl-
##MOLFORM=C13H28
##CAS REGISTRY NO=17312-74-2
##MP= -300
##BP= -300
##MW= 184
##$RETENTION INDEX=0
##$CONDENSED SPECTRUM=NO
##NPOINTS= 99
##XYDATA=(XY..XY) 1 
    36          1
    37          1
    38          5
    39        140
    40         26
    41        535
    42         78
    43        721
    44         25
    45          2
    46          1
    47          1
    48          1
    49          1
    50          3
    51          8
    52          5
    53         50
    54         17
    55        312
    56        110
    57        999
    58         45
    59          1
    61          1
    62          1
    63          2
    64          1
    65          7
    66          3
    67         24
    68          9
    69         90
    70        145
    71        805
    72         45
    73          1
    74          1
    75          1
    76          1
    77          6
    78          1
    79          6
    80          1
    81          8
    82          4
    83         49
    84         18
    85        335
    86         23
    87          1
    91          2
    92          1
    93          1
    94          1
    95          2
    96          4
    97         26
    98         10
    99         52
   100          4
   101          1
   102          1
   103          1
   104          1
   105          1
   107          1
   109          1
   110          1
   111          3
   112         78
   113        224
   114         20
   115          1
   117          1
   118          1
   119          1
   123          1
   124          1
   125          2
   126         39
   127        153
   128         15
   129          1
   131          1
   139          1
   140          1
   141          1
   145          1
   153          1
   154         17
   155        128
   156         16
   157          1
   168          1
   169         10
   170          1
   182          1
   183          1