##TITLE=Library Entry 26076
##JCAMP-DX=Revision 4.10 
##DATA TYPE=MASS SPECTRUM
##SAMPLE DESCRIPTION=D.HENNEBERG, MAX-PLANCK INSTITUTE, MULHEIM, WEST GERMAN
Y
##NAMES=HP
##CAS NAME=Benzene, (3,3-dimethylbutyl)-
##MOLFORM=C12H18
##CAS REGISTRY NO=17314-92-0
##MP= -300
##BP= -300
##MW= 162
##$RETENTION INDEX=0
##$CONDENSED SPECTRUM=NO
##NPOINTS= 113
##XYDATA=(XY..XY) 1 
    26          5
    27         59
    28         89
    29        124
    30          3
    31          6
    32          8
    36          0
    37          0
    38          3
    39         74
    40          8
    41        201
    42         14
    43        285
    44          8
    45          2
    49          0
    50         11
    51         46
    52         13
    53         13
    54          1
    55         32
    56         20
    57        999
    58         42
    59          3
    61          0
    62          2
    63         18
    64          9
    65        112
    66          7
    67          3
    68          1
    69         10
    70         42
    71        136
    72          6
    74          4
    75          4
    76          4
    77         52
    78         41
    79         28
    80          2
    81          0
    82          0
    83          0
    84          0
    85          0
    86          0
    87          0
    88          0
    89         18
    90          8
    91        851
    92        114
    93          7
    94          0
    95          0
    96          0
    97          0
    98          0
    99          0
   101          0
   102          5
   103         25
   104         33
   105        234
   106        370
   107         28
   108          1
   109          0
   110          0
   111          0
   112          1
   113          0
   114          0
   115         11
   116          4
   117          8
   118          1
   119          2
   120          0
   121          0
   124          0
   126          0
   127          3
   128          8
   129          4
   130          1
   131          6
   132          0
   133          0
   134          0
   135          0
   136          0
   141          0
   142          0
   143          0
   145          9
   146          2
   147         50
   148          7
   149          0
   157          0
   159          0
   160          2
   161          1
   162        361
   163         45