##TITLE=Library Entry 24265
##JCAMP-DX=Revision 4.10 
##DATA TYPE=MASS SPECTRUM
##SAMPLE DESCRIPTION=D.HENNEBERG, MAX-PLANCK INSTITUTE, MULHEIM, WEST GERMAN
Y
##NAMES=HP
##CAS NAME=Undecane, 4,6-dimethyl-
##MOLFORM=C13H28
##CAS REGISTRY NO=17312-82-2
##MP= -300
##BP= -300
##MW= 184
##$RETENTION INDEX=1196
##$CONDENSED SPECTRUM=NO
##NPOINTS= 52
##XYDATA=(XY..XY) 1 
    21          0
    24          0
    25          1
    26          7
    27         80
    29        160
    30          1
    32          3
    33          2
    35          1
    37          3
    38          0
    39         37
    41        200
    42         66
    43        703
    44          1
    51          1
    53         12
    54          5
    55         99
    56        102
    57        999
    58         36
    63          0
    65          0
    66          1
    67          6
    68          6
    69         49
    70        146
    71        504
    72         21
    82          0
    83         12
    84         57
    85        161
    86         12
    96          0
    97          6
    98         46
    99         33
   100          0
   104          0
   112         35
   113         80
   114          5
   140          5
   141         34
   142          2
   155          0
   184          2