##TITLE=Library Entry 38439
##JCAMP-DX=Revision 4.10 
##DATA TYPE=MASS SPECTRUM
##SAMPLE DESCRIPTION=D.HENNEBERG, MAX-PLANCK INSTITUTE, MULHEIM, WEST GERMAN
Y
##NAMES=HP
##CAS NAME=Undecane, 3,3-dimethyl-
##MOLFORM=C13H28
##CAS REGISTRY NO=17312-65-1
##MP= -300
##BP= -300
##MW= 184
##$RETENTION INDEX=1239
##$CONDENSED SPECTRUM=NO
##NPOINTS= 46
##XYDATA=(XY..XY) 1 
    22          0
    26         10
    27         55
    28          7
    29        113
    30          1
    33          0
    39         33
    40          3
    41        187
    42         37
    43        626
    44         12
    51          0
    53          9
    54          3
    55        126
    56         52
    57        535
    58         19
    67         34
    68          1
    69         41
    70        390
    71        999
    72         52
    82          0
    83          8
    84          3
    85        188
    86         10
    97          2
    98          5
    99         69
   100          3
   111          1
   112          2
   113         25
   114          0
   126          3
   127          0
   139          1
   154         28
   155         87
   156          9
   169          9