##TITLE=Library Entry 7824
##JCAMP-DX=Revision 4.10 
##DATA TYPE=MASS SPECTRUM
##SAMPLE DESCRIPTION=D.HENNEBERG, MAX-PLANCK INSTITUTE, MULHEIM, WEST GERMAN
Y
##NAMES=HP
##CAS NAME=Undecane, 2,3-dimethyl-
##MOLFORM=C13H28
##CAS REGISTRY NO=17312-77-5
##MP= -300
##BP= -300
##MW= 184
##$RETENTION INDEX=1251
##$CONDENSED SPECTRUM=NO
##NPOINTS= 57
##XYDATA=(XY..XY) 1 
    25          1
    27         93
    28         25
    29        161
    30          3
    31          5
    33          0
    34          1
    36          1
    37          1
    38          1
    39         48
    40         12
    41        303
    42         93
    43        999
    44          8
    50          0
    51          3
    52          0
    53         16
    54         10
    55        165
    56        110
    57        892
    58         33
    59          0
    65          0
    66          2
    67         14
    68         11
    69         76
    70        141
    71        650
    72         31
    81          5
    82         23
    83         49
    84         58
    85        418
    86         27
    90          0
    96         12
    97         62
    98         35
    99         72
   100          4
   110          5
   111         43
   112         24
   113          5
   125          0
   127          0
   140        148
   141         81
   142          6
   169          0