##TITLE=Library Entry 25417
##JCAMP-DX=Revision 4.10 
##DATA TYPE=MASS SPECTRUM
##SAMPLE DESCRIPTION=D.HENNEBERG, MAX-PLANCK INSTITUTE, MULHEIM, WEST GERMAN
Y
##NAMES=HP
##CAS NAME=Undecane, 6,6-dimethyl-
##MOLFORM=C13H28
##CAS REGISTRY NO=17312-76-4
##MP= -300
##BP= -300
##MW= 184
##$RETENTION INDEX=1202
##$CONDENSED SPECTRUM=NO
##NPOINTS= 63
##XYDATA=(XY..XY) 1 
    22          1
    23          0
    24          0
    25          1
    26         12
    27         62
    28         21
    29        142
    30          1
    31          1
    32          8
    33          0
    34          1
    35          0
    36          2
    37          2
    38          0
    39         36
    41        191
    42         22
    43        421
    45          1
    46          2
    47          1
    48          0
    51          3
    53         11
    54          2
    55         66
    56        155
    57        999
    58         46
    63          0
    65          4
    66          0
    67          6
    68          6
    69         46
    70         30
    71        698
    72         34
    79          1
    80          0
    81          3
    83          7
    84         27
    85         26
    86          0
    87          3
    97          9
    99          6
   101          0
   104          0
   111          0
   112         99
   113        228
   114         18
   117          0
   125          0
   127          1
   141          0
   168          0
   170          1