##TITLE=Library Entry 24371
##JCAMP-DX=Revision 4.10 
##DATA TYPE=MASS SPECTRUM
##SAMPLE DESCRIPTION=D.HENNEBERG, MAX-PLANCK INSTITUTE, MULHEIM, WEST GERMAN
Y
##NAMES=HP
##CAS NAME=Undecane, 5,5-dimethyl-
##MOLFORM=C13H28
##CAS REGISTRY NO=17312-73-1
##MP= -300
##BP= -300
##MW= 184
##$RETENTION INDEX=1206
##$CONDENSED SPECTRUM=NO
##NPOINTS= 47
##XYDATA=(XY..XY) 1 
    24          4
    26         11
    27         56
    28         40
    29        108
    31         12
    33          5
    36          3
    38          2
    39         22
    40          2
    41        172
    42         11
    43        362
    44         20
    53         11
    54          2
    55         72
    56        119
    57        999
    58         30
    59          7
    67          8
    68          3
    69         52
    70         67
    71        349
    72          4
    82          5
    83         16
    84         12
    85        145
    86          3
    91          1
    97          6
    98         56
    99        146
   100         19
   111         11
   113          3
   126         38
   127         91
   128          7
   140          5
   142          0
   169          7
   184          2