##TITLE=Library Entry 24360
##JCAMP-DX=Revision 4.10 
##DATA TYPE=MASS SPECTRUM
##SAMPLE DESCRIPTION=D.HENNEBERG, MAX-PLANCK INSTITUTE, MULHEIM, WEST GERMAN
Y
##NAMES=HP
##CAS NAME=Decane, 3,4-dimethyl-
##MOLFORM=C12H26
##CAS REGISTRY NO=17312-45-7
##MP= -300
##BP= -300
##MW= 170
##$RETENTION INDEX=0
##$CONDENSED SPECTRUM=NO
##NPOINTS= 80
##XYDATA=(XY..XY) 1 
    24          0
    27        149
    28         59
    29        173
    30          6
    34          2
    35          4
    39         59
    40          8
    41        240
    42         45
    43        748
    44         19
    45          5
    46          2
    47          2
    51          9
    52          1
    53          7
    54          9
    55        119
    56        346
    57        999
    58         25
    59          7
    60          3
    61          2
    63          1
    68          7
    69         51
    70        102
    71        568
    72         22
    77          6
    79          3
    81          7
    82         12
    83         70
    84         72
    85        168
    86          9
    88          2
    89          2
    90          0
    96          6
    97          7
    99         11
   100          1
   101          3
   103          1
   105          0
   108          2
   110          4
   111          5
   112        137
   113         47
   114          8
   115          1
   118          0
   121          1
   124          1
   127          3
   129          2
   138          0
   140          6
   141         24
   142          1
   143          0
   145          0
   147          1
   151          2
   153          0
   155          0
   156          0
   158          0
   160          0
   165          0
   168          1
   170          1
   171          0