##TITLE=Library Entry 24889
##JCAMP-DX=Revision 4.10 
##DATA TYPE=MASS SPECTRUM
##SAMPLE DESCRIPTION=MPI,A2199-G1474,18-DEC-67 (ID=4, PURITY=4)
##NAMES=HP
##CAS NAME=Undecane, 2,2-dimethyl-
##MOLFORM=C13H28
##CAS REGISTRY NO=17312-64-0
##MP= -300
##BP= -300
##MW= 184
##$RETENTION INDEX=1214
##$CONDENSED SPECTRUM=NO
##NPOINTS= 49
##XYDATA=(XY..XY) 1 
    25          0
    26          2
    27         19
    28          7
    29         60
    30          2
    32          0
    38          0
    39         13
    40          3
    41        107
    42         13
    43        113
    44          3
    51          0
    52          0
    53          3
    54          2
    55         29
    56        359
    57        999
    58         32
    59          1
    65          0
    67          2
    68          1
    69         12
    70          4
    71         63
    72          3
    79          0
    81          0
    82          0
    83          2
    84          2
    85         34
    86          2
    96          0
    97          2
    98          1
    99         10
   100          0
   111          0
   113          6
   114          0
   126          8
   127          3
   169          7
   170          1