##TITLE=Library Entry 4157
##JCAMP-DX=Revision 4.10 
##DATA TYPE=MASS SPECTRUM
##SAMPLE DESCRIPTION=Div. of Experiment Therapeutics WRAIR, WRAMC, Washingto
n DC 20307
##NAMES=HP
##CAS NAME=Morpholine, 4-(7-thiabicyclo[4.2.0]oct-1-yl)-, S,S-dioxide
##MOLFORM=C11H19NO3S
##CAS REGISTRY NO=1731-61-9
##MP= -300
##BP= -300
##MW= 245
##$RETENTION INDEX=0
##$CONDENSED SPECTRUM=NO
##NPOINTS= 105
##XYDATA=(XY..XY) 1 
    41        999
    42        446
    43        192
    44        123
    45        107
    46          2
    47         11
    48         11
    49         12
    50         13
    51         62
    52         56
    53        312
    54        334
    55        567
    56        360
    57        129
    58         94
    59         19
    60          3
    61          5
    62          2
    63         18
    64          8
    65        124
    66         67
    67        398
    68        157
    69        109
    70         79
    71         57
    72         24
    73          2
    74          6
    77        160
    78         34
    79        194
    80        126
    81        231
    82        148
    83         61
    84         45
    85         50
    86        181
    87         18
    88         11
    91         82
    92         15
    93         81
    94        221
    95        282
    96        114
    97         71
    98         34
    99         18
   100         16
   105          6
   106         22
   107         23
   108        429
   109        232
   110        105
   111         26
   112        101
   113         16
   114          3
   118          3
   119          3
   120         17
   121         10
   122        190
   123        139
   124        165
   125         28
   126         61
   127        124
   128          9
   134          8
   135          6
   136        174
   137         60
   138        331
   139        119
   140         68
   141          6
   142         14
   150         60
   151         19
   152        321
   153        233
   154         41
   155          3
   164          8
   165         36
   166        714
   167        370
   168         38
   169          1
   179          8
   180         78
   181         20
   202          8
   245        111
   246         25
   247          7