##TITLE=Library Entry 3458
##JCAMP-DX=Revision 4.10 
##DATA TYPE=MASS SPECTRUM
##SAMPLE DESCRIPTION=D.D.FAULK CENTRAL MISSOURI STATE COLLEGE, WARRENSBURG,
 USA
##NAMES=HP
##CAS NAME=4-Hexen-3-one, 4,5-dimethyl-
##MOLFORM=C8H14O
##CAS REGISTRY NO=17325-90-5
##MP= -300
##BP= -300
##MW= 126
##$RETENTION INDEX=972
##$CONDENSED SPECTRUM=NO
##NPOINTS= 92
##XYDATA=(XY..XY) 1 
    13          2
    14         12
    15         53
    16          2
    17          1
    18          2
    19          0
    20          0
    24          0
    25          2
    26         42
    27        342
    28         71
    29        357
    30          8
    31          7
    32          2
    33          0
    36          1
    37         11
    38         28
    39        277
    40         50
    41        999
    42         60
    43         77
    44          3
    45          2
    48          0
    49          4
    50         25
    51         50
    52         23
    53        128
    54         26
    55         58
    56          8
    57        177
    58          7
    59          4
    60          0
    61          2
    62          6
    63         11
    64          2
    65         18
    66         10
    67         65
    68         19
    69        920
    70         58
    71          3
    72          1
    73          0
    74          1
    75          3
    77         11
    78          2
    79          6
    80          1
    81          5
    82          1
    83          6
    84          1
    85          1
    86          1
    87          0
    89          0
    91          7
    92          1
    93          6
    94          1
    95          4
    96         20
    97        877
    98         59
    99          3
   100          0
   107          1
   108          0
   109          4
   110          1
   111          7
   112          0
   121          0
   122          0
   123          1
   124          1
   125          1
   126        205
   127         20
   128          1