##TITLE=Library Entry 8817
##JCAMP-DX=Revision 4.10 
##DATA TYPE=MASS SPECTRUM
##SAMPLE DESCRIPTION=D.A. GEORGE, US AGRIC. RES. LAB., YAKIMA, WASH.,
##NAMES=HP
##CAS NAME=1,2-Epoxyundecane
##MOLFORM=C11H22O
##CAS REGISTRY NO=17322-97-3
##MP= -300
##BP= -300
##MW= 170
##$RETENTION INDEX=0
##$CONDENSED SPECTRUM=NO
##NPOINTS= 59
##XYDATA=(XY..XY) 1 
    26         30
    27        400
    28        260
    29        620
    30         20
    31        120
    32         20
    39        230
    40         50
    41        890
    42        370
    43        999
    44        180
    45        130
    53         80
    54        240
    55        750
    56        570
    57        530
    58        510
    59        130
    65         20
    66         40
    67        280
    68        490
    69        460
    70        390
    71        999
    72        110
    73         20
    77         20
    79         20
    80         20
    81        250
    82        470
    83        310
    84        170
    85        160
    86         20
    94         20
    95        210
    96        250
    97        140
    98         70
    99         30
   100         20
   109         90
   110        140
   111         30
   112         80
   113         30
   124         50
   126         80
   127         40
   138         20
   140         20
   142         20
   152         30
   170         20