##TITLE=Library Entry 91723
##JCAMP-DX=Revision 4.10 
##DATA TYPE=MASS SPECTRUM
##SAMPLE DESCRIPTION=NIST Mass Spectrometry Data Center
##NAMES=HP
##CAS NAME=Heptanedioic acid, dimethyl ester
##MOLFORM=C9H16O4
##CAS REGISTRY NO=1732-08-7
##MP= -300
##BP= -300
##MW= 188
##$RETENTION INDEX=1345
##$CONDENSED SPECTRUM=NO
##NPOINTS= 106
##XYDATA=(XY..XY) 1 
    14          2
    15         71
    16          1
    26          8
    27         72
    28         39
    29         80
    30          8
    31         28
    32          1
    33          5
    34          2
    35          3
    37          1
    38          5
    39        120
    40         28
    41        281
    42        182
    43        298
    44         20
    45         81
    46          2
    47          3
    48         67
    49         62
    51          8
    52          4
    53         46
    54         44
    55        680
    56         50
    57         44
    58         15
    59        556
    60         17
    61          4
    62          1
    63         22
    65         11
    66          4
    67         48
    68        191
    69        513
    70         49
    71         29
    72         21
    73        287
    74        679
    75         30
    76          3
    77          2
    78          2
    79         23
    80          8
    81         25
    82         32
    83        402
    84         26
    85         48
    86          5
    87        228
    88         33
    89          2
    94          1
    95         14
    96        100
    97        280
    98         27
    99         16
   100        148
   101         50
   102         12
   103          1
   106          1
   107          1
   109          1
   111        182
   112         15
   113         54
   114         93
   115        999
   116         68
   117          6
   122          1
   123         13
   124        247
   125        423
   126         35
   127         27
   128        357
   129         56
   130          5
   139         20
   140          2
   141          8
   142          1
   145          5
   146          7
   155          3
   156         84
   157        365
   158         33
   159          4
   160          1
   189          1