##TITLE=Library Entry 48326
##JCAMP-DX=Revision 4.10 
##DATA TYPE=MASS SPECTRUM
##SAMPLE DESCRIPTION=Chemical Concepts
##NAMES=HP
##CAS NAME=Phosphoramidothioic acid, O,O-dimethyl ester
##MOLFORM=C2H8NO2PS
##CAS REGISTRY NO=17321-47-0
##MP= -300
##BP= -300
##MW= 141
##$RETENTION INDEX=0
##$CONDENSED SPECTRUM=NO
##NPOINTS= 19
##XYDATA=(XY..XY) 1 
    46        167
    47         83
    48         39
    62         16
    63         33
    64        114
    78        999
    79         49
    80         12
    93         56
    94         48
    96         11
   110        146
   111        289
   112         12
   113         16
   141        652
   142         25
   143         27