##TITLE=Library Entry 6983
##JCAMP-DX=Revision 4.10 
##DATA TYPE=MASS SPECTRUM
##SAMPLE DESCRIPTION=Japan AIST/NIMC Database- Spectrum MS-NW-3432
##NAMES=HP
##CAS NAME=5,6-Dihydro-4-methoxy-2H-pyran
##MOLFORM=C6H10O2
##CAS REGISTRY NO=17327-22-9
##MP= -300
##BP= -300
##MW= 114
##$RETENTION INDEX=0
##$CONDENSED SPECTRUM=NO
##NPOINTS= 79
##XYDATA=(XY..XY) 1 
    12          9
    13         17
    14         74
    15        286
    16          5
    18          2
    24          3
    25         19
    26        170
    27        841
    28        275
    29        451
    30        127
    31        165
    32          8
    33         61
    36          5
    37         40
    38         67
    39        831
    40         84
    41        668
    42        472
    43        999
    44         62
    45        210
    46          5
    48          4
    49         33
    50        165
    51        218
    52        132
    53        998
    54        719
    55        507
    56        105
    57        387
    58         99
    59         56
    60          3
    61         17
    62          6
    63          5
    64          1
    65          9
    66          7
    67         10
    68        100
    69        175
    70         59
    71        326
    72         97
    73         30
    74          3
    75          6
    77          3
    79          4
    80          3
    81        131
    82         40
    83        837
    84        382
    85        306
    86        265
    87         28
    88          6
    95         11
    96         70
    97         27
    98         26
    99         47
   100          4
   111         29
   112          8
   113        890
   114        934
   115         67
   116          7
   117          2