##TITLE=Library Entry 86280
##JCAMP-DX=Revision 4.10 
##DATA TYPE=MASS SPECTRUM
##SAMPLE DESCRIPTION=A.A.Kutin, Moscow, Russia
##NAMES=HP
##CAS NAME=Benzoic acid, 4-fluoro-, 2-(acetylamino)phenyl ester
##MOLFORM=C15H12FNO3
##CAS REGISTRY NO=173261-89-7
##MP= -300
##BP= -300
##MW= 273
##$RETENTION INDEX=0
##$CONDENSED SPECTRUM=NO
##NPOINTS= 143
##XYDATA=(XY..XY) 1 
    34          3
    37         25
    38         63
    39        110
    40         51
    41         56
    43        648
    44         30
    45         10
    47          1
    48          1
    50        107
    51        132
    52        198
    53        168
    54         30
    55         18
    56          8
    57         13
    58          2
    60          6
    61         10
    62         20
    63         55
    64         36
    65         27
    66          7
    67          7
    68         12
    69         17
    70          7
    71          4
    73          3
    75         97
    76         16
    77         14
    78         30
    80        361
    81         41
    82          5
    83          3
    84          2
    85          2
    86          1
    87          1
    88          2
    89          2
    90          4
    91         15
    92         13
    95        265
    96         11
    97          1
    98          0
    99          1
   100          0
   101          0
   102          1
   103          1
   104          7
   105          8
   109        999
   111          5
   112          1
   113          1
   114          0
   115          3
   116          0
   117          0
   119          3
   120          7
   123        689
   124         39
   126          3
   127          0
   128          1
   129          1
   131          1
   133        118
   134          9
   135          4
   136          1
   137          0
   138          1
   139          1
   140          5
   141          0
   143          0
   144          3
   145          0
   146          0
   147          0
   148          0
   149          5
   151        148
   152         11
   154          0
   155          0
   157          1
   158          0
   159          0
   161          0
   164          0
   165          0
   166          0
   169          0
   171          1
   172          0
   173          0
   175          0
   181          0
   183          0
   184          0
   185          0
   186          0
   188          0
   194          0
   197          0
   200          0
   201          0
   202          0
   203          0
   204          0
   205          0
   208          0
   210          0
   213         38
   214          4
   215          0
   219          0
   225          0
   227          0
   228          0
   229          0
   231         22
   232          3
   236          0
   265          0
   266          0
   267          0
   273          8
   274          0
   275          0