##TITLE=Library Entry 13512
##JCAMP-DX=Revision 4.10 
##DATA TYPE=MASS SPECTRUM
##SAMPLE DESCRIPTION=LAC, NIDDK, NIH, Bethesda, MD 20892
##NAMES=HP
##CAS NAME=Benzoic acid, 2-acetoxy-4-bromo-
##MOLFORM=C9H7BrO4
##CAS REGISTRY NO=17336-09-3
##MP= -300
##BP= -300
##MW= 258
##$RETENTION INDEX=0
##$CONDENSED SPECTRUM=NO
##NPOINTS= 167
##XYDATA=(XY..XY) 1 
    41         34
    42         48
    43        999
    44         46
    45         40
    46          6
    47         15
    48          8
    49         94
    50         38
    51         63
    52         89
    53         47
    54          7
    55         14
    56          5
    57         10
    58          1
    59          8
    60          6
    61         31
    62         78
    63        205
    64         64
    65         48
    66         10
    67          6
    69          0
    70          9
    71          6
    72          1
    73         10
    74         24
    75         28
    76         16
    77         16
    78         29
    79         19
    80         19
    81         12
    82          6
    83          6
    84         58
    85          8
    86         37
    87          7
    88         22
    89         25
    90         94
    91         65
    92         21
    93         13
    94          4
    95          7
    96          2
    97          4
    98          2
    99          2
   100          0
   101          3
   102          1
   103          4
   104          5
   105          6
   106         14
   107          7
   108         14
   109          3
   110          0
   111          2
   112          9
   113          5
   114         26
   115          2
   116          4
   117         20
   118         28
   119          0
   120          3
   121          0
   123          0
   124         11
   125          0
   126          4
   128          0
   129          2
   130          3
   131          1
   132         12
   133          7
   134          0
   135          1
   136          9
   137          7
   138          1
   139          2
   141          5
   142          9
   143         29
   144          9
   145         27
   146          1
   147          0
   149          2
   150         17
   151          0
   153          0
   154          3
   155          5
   156          4
   157          5
   158          3
   159          4
   160          5
   161          2
   162          2
   164          6
   168         23
   169         30
   170        141
   171         27
   172        115
   173          9
   174         10
   175          0
   177          7
   178          0
   179          0
   180          3
   181          4
   182          9
   183          3
   184          0
   185          1
   186          1
   187          0
   189          1
   194          1
   195          1
   196          2
   197          1
   198        624
   199         61
   200        610
   201         59
   202          4
   225         21
   226          3
   227         24
   228          1
   232          6
   239          2
   240          0
   241          6
   242          1
   243          6
   244          1
   245          0
   249          2
   250          0
   251          4
   253          2
   258        340
   259         36
   260        330
   261         32
   262          3