##TITLE=Library Entry 87412
##JCAMP-DX=Revision 4.10 
##DATA TYPE=MASS SPECTRUM
##SAMPLE DESCRIPTION=J.H.BOWIE UNIVERSITY OF ADELAIDE, AUSTRALIA
##NAMES=HP
##CAS NAME=1H-Imidazole-2-methanol, 1-methyl-
##MOLFORM=C5H8N2O
##CAS REGISTRY NO=17334-08-6
##MP= -300
##BP= -300
##MW= 112
##$RETENTION INDEX=0
##$CONDENSED SPECTRUM=NO
##NPOINTS= 18
##XYDATA=(XY..XY) 1 
    40        150
    41        150
    42        400
    43        520
    44        180
    52         90
    54        340
    55        180
    56        160
    81        380
    82        490
    83        150
    95        250
    96        130
   110        999
   111        500
   112        610
   113         50