##TITLE=Library Entry 88614
##JCAMP-DX=Revision 4.10 
##DATA TYPE=MASS SPECTRUM
##SAMPLE DESCRIPTION=Chemical Concepts
##NAMES=HP
##CAS NAME=2,4-Hexadienedioic acid, dimethyl ester
##MOLFORM=C8H10O4
##CAS REGISTRY NO=1733-37-5
##MP= -300
##BP= -300
##MW= 170
##$RETENTION INDEX=0
##$CONDENSED SPECTRUM=NO
##NPOINTS= 90
##XYDATA=(XY..XY) 1 
    25          3
    26         44
    27         29
    29         67
    30         10
    31         19
    33          1
    37          5
    38         11
    39         56
    40         25
    41         44
    42         11
    43         11
    44          1
    45          6
    49          9
    50         81
    51        156
    52        132
    53         84
    54         37
    55         54
    56          3
    57          5
    59        119
    60          1
    61          1
    62          2
    63          3
    65         15
    66          6
    67          6
    68         61
    69         18
    71         10
    72          1
    74          2
    75          0
    77          7
    78          1
    79        138
    80         61
    81         19
    82          4
    83         36
    84          2
    85          2
    86          1
    87          0
    88          0
    91          2
    92          1
    93          2
    94          2
    95         27
    96         10
    97          5
    98          1
    99          4
   100          1
   101          1
   103          0
   105          1
   106          1
   107         36
   108         24
   109         10
   110         14
   111        999
   112         73
   113         10
   114          1
   123        111
   124          6
   125          2
   126          0
   127          1
   129          0
   137          3
   138          4
   139        224
   140         24
   141          4
   142          1
   155         54
   156          4
   170        142
   171         12
   172          2