##TITLE=Library Entry 82576
##JCAMP-DX=Revision 4.10 
##DATA TYPE=MASS SPECTRUM
##SAMPLE DESCRIPTION=A.A.Kutin, Moscow, Russia
##NAMES=HP
##CAS NAME=N'-(Benzylidene)-3-pyridinohydrazide
##MOLFORM=C13H11N3O
##CAS REGISTRY NO=17336-46-8
##MP= -300
##BP= -300
##MW= 225
##$RETENTION INDEX=0
##$CONDENSED SPECTRUM=NO
##NPOINTS= 108
##XYDATA=(XY..XY) 1 
    33          0
    36          0
    37         14
    38         40
    39         97
    40         20
    41         14
    42          4
    43          8
    44         11
    45         13
    48          0
    49         19
    50        233
    51        531
    52         92
    53         41
    54          3
    55          3
    56          1
    57          2
    60          0
    61         11
    62         41
    63        125
    64         64
    65        204
    66         23
    67          5
    68          2
    69          2
    70          0
    71          1
    73          3
    74         21
    75         35
    76         56
    77        117
    78        721
    79        105
    80          3
    83          0
    85          3
    86          6
    87          7
    88          4
    89        234
    90        122
    91         35
    92        136
    93         15
    94         29
    95          3
    97          0
    99          0
   101          0
   102         16
   103         18
   104         38
   105         82
   106        999
   107         74
   108          4
   111          1
   113          1
   115          3
   116          1
   117          0
   118         18
   119         56
   120          7
   122        691
   123         52
   124          2
   127          2
   128          1
   130          0
   131          0
   135          1
   139          4
   140          3
   141          1
   144          0
   147          5
   148         68
   149          7
   150          0
   153          0
   154          1
   165          1
   166          4
   167         14
   168          7
   169          2
   170          0
   171          0
   175          0
   181          2
   185          0
   190          0
   195          6
   196          3
   197          1
   222          0
   224         13
   225         84
   226         13
   227          0