##TITLE=Library Entry 43634
##JCAMP-DX=Revision 4.10 
##DATA TYPE=MASS SPECTRUM
##SAMPLE DESCRIPTION=NIST Mass Spectrometry Data Center
##NAMES=HP
##CAS NAME=6-Azathymine, bis(trimethylsilyl) ether
##MOLFORM=C10H21N3O2Si2
##CAS REGISTRY NO=17331-64-5
##MP= -300
##BP= -300
##MW= 271
##$RETENTION INDEX=1468
##$CONDENSED SPECTRUM=NO
##NPOINTS= 157
##XYDATA=(XY..XY) 1 
    15          2
    26          1
    27          6
    28          3
    29          9
    30          1
    31          3
    39          2
    40          1
    41          3
    42          8
    43         66
    44         32
    45        183
    46         13
    47         12
    51          1
    52          3
    53          8
    54          6
    55         30
    56         19
    57         17
    58         34
    59         65
    60          7
    61          5
    63          1
    64          1
    66          2
    67          2
    68          2
    69          6
    70         47
    71         13
    72        112
    73        999
    74        110
    75         57
    76          3
    77          1
    78          1
    81          2
    82          2
    83         16
    84         12
    85         15
    86         56
    87         24
    88          4
    89          1
    96          1
    97          2
    98          9
    99         15
   100        218
   101         22
   102         14
   103          3
   104          1
   105          2
   106          3
   110          1
   111          2
   113        473
   114         68
   115        189
   116         43
   117         16
   118          3
   119          2
   120         18
   124          1
   125          1
   126          1
   127         13
   128         52
   129         10
   130          6
   131         18
   132          8
   133         19
   134          3
   135          2
   139          1
   140         21
   141         15
   142          4
   143          2
   144          2
   145          4
   147        178
   148         29
   149         15
   150          1
   154          1
   155          4
   156         37
   157         19
   158          8
   159          5
   160          8
   161          2
   162          1
   170          3
   171          2
   172         12
   173          6
   174          7
   175         12
   176          2
   177          1
   182          1
   183          1
   184          4
   185          2
   186          2
   187         22
   188         38
   189          9
   190          3
   197          1
   198          5
   199          1
   200          2
   201          3
   202         46
   203          9
   204          4
   205          1
   213          4
   214          2
   215          4
   216          1
   226          2
   227          1
   228         11
   229          4
   230          6
   231          1
   232          1
   240          5
   241          1
   242          5
   243          1
   244          1
   256        645
   257        144
   258         67
   259         10
   260          2
   270         10
   271        253
   272         59
   273         25
   274          4
   275          1