##TITLE=Library Entry 41740
##JCAMP-DX=Revision 4.10 
##DATA TYPE=MASS SPECTRUM
##SAMPLE DESCRIPTION=A.A.Kutin, Moscow, Russia
##NAMES=HP
##CAS NAME=Imidazolo[4,5-d]pyrimidine, 7-benzylamino-3-(3-trimethylsilylprop
yl)-
##MOLFORM=C18H25N5Si
##CAS REGISTRY NO=173347-45-0
##MP= -300
##BP= -300
##MW= 339
##$RETENTION INDEX=0
##$CONDENSED SPECTRUM=NO
##NPOINTS= 229
##XYDATA=(XY..XY) 1 
    33         13
    34         11
    36          1
    37          4
    39         95
    40        179
    41        105
    43        208
    44        110
    45        234
    46         17
    47          9
    48          6
    49          1
    50         19
    51         38
    52         30
    53         34
    54         23
    55         47
    57         55
    58         70
    59        125
    60         12
    61          7
    63         31
    65        188
    66         30
    67         25
    68         11
    69         23
    70         22
    71         28
    73        999
    74         84
    75         36
    77         60
    78         25
    79         83
    80         22
    81         11
    83         20
    84         36
    85         26
    86          7
    87          3
    89         42
    91        821
    92         69
    93         31
    94         16
    95         11
    96          5
    97          8
    98         11
    99         25
   100          7
   101          6
   102          6
   103          8
   104         29
   106        361
   107         46
   108         10
   109          7
   110          7
   111         10
   112          5
   113          2
   114          4
   115          5
   116         10
   117          8
   118          9
   119         40
   120         48
   121         20
   122          7
   123          9
   124          5
   125          3
   126          3
   127          4
   128          8
   129          6
   130          4
   131          8
   132          9
   133         15
   134         21
   135         14
   136          7
   137          5
   138          5
   139          1
   140          1
   141          3
   142          6
   143          5
   144          2
   145          5
   146          5
   147         13
   148         21
   149         10
   150          9
   151          5
   152          3
   153          4
   154          3
   155         11
   156          3
   157          1
   159          6
   160         11
   161          8
   162          9
   163          5
   164         17
   165         16
   166          3
   167          1
   168          1
   169          4
   170          5
   171          4
   172          1
   174          3
   175          2
   176          5
   177          7
   178          9
   179          3
   180          3
   181          3
   182          5
   183          2
   184          3
   185          0
   187          0
   188          3
   189          2
   190          3
   191         19
   192         17
   193         13
   194          4
   195          5
   196          3
   197          8
   198          6
   199          1
   201          0
   203          1
   204          6
   205          5
   206         14
   207          4
   208          6
   209         14
   211         13
   212          3
   213          0
   217          1
   218          2
   219          4
   220          8
   221          6
   222          8
   223          7
   224        110
   225        161
   226         26
   227          2
   231          0
   232          2
   233         10
   234         18
   235          9
   236         24
   238        246
   239        103
   240         14
   241          1
   246          1
   247          0
   248          2
   249          1
   250          5
   252         54
   253          7
   254          1
   262          3
   263          1
   264          5
   265          4
   266         92
   267         17
   268          2
   269          0
   280          1
   281          1
   282          0
   283          0
   294          1
   295          3
   296         14
   297          5
   298          3
   299          0
   308          0
   310          1
   311          2
   312          1
   322          1
   323          3
   324         68
   325         19
   326          4
   327          0
   334          1
   335          3
   336          6
   337          7
   338         39
   339        334
   340         84
   341         20
   342          2