##TITLE=Library Entry 94933
##JCAMP-DX=Revision 4.10 
##DATA TYPE=MASS SPECTRUM
##SAMPLE DESCRIPTION=NIST Mass Spectrometry Data Center
##NAMES=HP
##CAS NAME=1,6-Diphenoxy-2-4-hexadiyne
##MOLFORM=C18H14O2
##CAS REGISTRY NO=17338-03-3
##MP= -300
##BP= -300
##MW= 262
##$RETENTION INDEX=0
##$CONDENSED SPECTRUM=NO
##NPOINTS= 140
##XYDATA=(XY..XY) 1 
    26          4
    27         10
    29          1
    37         11
    38         44
    39        293
    40         19
    41          4
    42          1
    43          3
    47          1
    49          4
    50        314
    51        116
    52          9
    53         10
    54          1
    55         14
    57          1
    61          9
    62         35
    63        131
    64         41
    65        345
    66         60
    67          9
    68          1
    73          5
    74         92
    75        224
    76        462
    77        138
    78         11
    79          3
    84          1
    85          1
    86          5
    87         10
    88          8
    89         29
    90          7
    91         61
    92         10
    93         53
    94        218
    95         20
    96          1
    98          2
    99          3
   100          1
   101          7
   102         17
   103         83
   104          8
   105          9
   107          4
   109          1
   110          1
   111          1
   113         14
   114         26
   115        999
   116        110
   117          7
   118         13
   119          6
   125          1
   126         14
   127         24
   128         19
   129         10
   130          2
   131         25
   132          8
   137          3
   138          6
   139        386
   140        160
   141        386
   142         47
   143         11
   144         26
   145         16
   146          1
   150          6
   151         10
   152          6
   153          1
   155          6
   156          3
   157          8
   158          1
   159          1
   165          4
   166          1
   167         12
   168        840
   169        443
   170         52
   171          6
   178          3
   179          2
   181          1
   184          1
   185          4
   186          1
   189          3
   190          3
   191         11
   192          2
   194         14
   195          2
   202          5
   203          5
   204          2
   205          8
   206          2
   207          4
   208          1
   215          9
   216          2
   217          3
   218          8
   219         13
   220          2
   221          1
   231          2
   232          1
   233         25
   234          7
   235          2
   243          2
   244          2
   245          7
   246          1
   247         12
   248          2
   261         41
   262         34
   263          6