##TITLE=Library Entry 52232
##JCAMP-DX=Revision 4.10 
##DATA TYPE=MASS SPECTRUM
##SAMPLE DESCRIPTION=Chuck Anderson, Aldrich Chemical Co.
##NAMES=HP
##CAS NAME=Isopropyl tiglate
##MOLFORM=C8H14O2
##CAS REGISTRY NO=1733-25-1
##MP= -300
##BP= -300
##MW= 142
##$RETENTION INDEX=960
##$CONDENSED SPECTRUM=NO
##NPOINTS= 76
##XYDATA=(XY..XY) 1 
    14          1
    15         14
    16          1
    18          0
    19          1
    20          0
    26         20
    27        285
    28         63
    29        222
    30          5
    31         13
    32          0
    36          0
    37          3
    38          9
    39        132
    40         16
    41        140
    42         26
    43        344
    44         15
    45         24
    46          1
    49          1
    50         10
    51         19
    52         11
    53         71
    54         72
    55        600
    56         72
    57         28
    58          7
    59        166
    60          7
    65          1
    66          1
    67          3
    69         27
    70          3
    71          4
    72          8
    73         10
    74          2
    79          1
    81          9
    82        158
    83        999
    84        108
    85        162
    86          7
    87          3
    95          1
    96          3
    97         10
    98          2
    99         26
   100        270
   101        289
   102         17
   103          2
   109         10
   110          1
   113          3
   114          0
   123          1
   124          3
   125          2
   127        246
   128         19
   129          2
   141          2
   142         72
   143          7
   144          0