##TITLE=Library Entry 40573
##JCAMP-DX=Revision 4.10 
##DATA TYPE=MASS SPECTRUM
##SAMPLE DESCRIPTION=A.A.Kutin, Moscow, Russia
##NAMES=HP
##CAS NAME=1H-Xanthine, 3,7-dimethyl-1-(3-trimethylsilylpropyl)-
##MOLFORM=C13H22N4O2Si
##CAS REGISTRY NO=173347-43-8
##MP= -300
##BP= -300
##MW= 294
##$RETENTION INDEX=0
##$CONDENSED SPECTRUM=NO
##NPOINTS= 189
##XYDATA=(XY..XY) 1 
    33          5
    34          3
    36          1
    37          2
    38          6
    39         47
    40        101
    41        124
    42        339
    43        203
    44         91
    45        309
    46         17
    47         12
    48          1
    49          1
    50          5
    51         11
    52         23
    53         46
    54         71
    55        146
    56        112
    57         40
    58         76
    59        152
    60         15
    61         12
    62          2
    63          3
    64          2
    65          7
    67        325
    68         39
    69         41
    70         85
    71         31
    73        999
    74         71
    75         54
    76          4
    77          6
    78          5
    79         12
    81         88
    82         89
    83         52
    84         24
    85         17
    86         26
    87          3
    88          2
    89          3
    90          1
    91          3
    92          2
    93          8
    94         20
    95         16
    96         19
    97         30
    99         27
   100        112
   101          9
   102          5
   103          1
   104          2
   105          2
   106          2
   107          9
   108         36
   109         72
   110         19
   111         22
   112          5
   113          4
   114          2
   115          1
   116          0
   118         13
   119          4
   120          4
   121         12
   122         22
   123          9
   125         30
   126          4
   127          2
   128          1
   129          0
   130          0
   131          1
   132          2
   133          2
   134          4
   135          9
   136         43
   137         24
   138         20
   139          5
   140          1
   141          1
   142          0
   143          0
   144          0
   146          0
   147          2
   148          6
   149          6
   150         14
   151          5
   152          4
   153          3
   154          1
   155          1
   156          0
   159          0
   161          3
   163         29
   165         19
   166          5
   167          5
   168          4
   169          1
   170          0
   171          0
   175          0
   176          1
   177          1
   179         19
   180        136
   181        258
   182         22
   183          2
   189          0
   191          1
   193         66
   194          8
   195          2
   196          1
   197          0
   202          0
   203          2
   205         52
   206          7
   207         11
   208          2
   209          1
   210          1
   211          1
   212          0
   219          0
   221          6
   222          2
   223          4
   224          0
   225          0
   233          0
   234          1
   235          3
   237        174
   238         26
   239          7
   240          0
   245          0
   247          0
   248          0
   249          2
   251         83
   252         21
   253         52
   254          9
   255          2
   256          0
   263          1
   264          0
   265         11
   266          5
   267          0
   276          0
   277          2
   279         66
   280         12
   281          3
   282          0
   292          0
   294         24
   295          4
   296          1