##TITLE=Library Entry 47644
##JCAMP-DX=Revision 4.10 
##DATA TYPE=MASS SPECTRUM
##SAMPLE DESCRIPTION=A.A.Kutin, Moscow, Russia
##NAMES=HP
##CAS NAME=Phosphine, (2-oxo-2-phenylethyl)diphenyl-, oxide
##MOLFORM=C20H17O2P
##CAS REGISTRY NO=1733-58-0
##MP= -300
##BP= -300
##MW= 320
##$RETENTION INDEX=0
##$CONDENSED SPECTRUM=NO
##NPOINTS= 198
##XYDATA=(XY..XY) 1 
    33          4
    34          1
    35          0
    36          1
    39         68
    40         20
    41         10
    42          9
    43          8
    44         10
    45          3
    47         84
    50        108
    51        287
    52         18
    53          4
    54          1
    55          3
    56          3
    57          9
    58          0
    62         12
    63         34
    65         87
    66          5
    67          1
    68          4
    69         12
    70          4
    71          6
    72          1
    74         29
    75         33
    77        999
    78         85
    79         11
    80          4
    81          6
    82          3
    83          6
    84          2
    85          1
    86          3
    87          4
    89         38
    91        189
    92         13
    94         30
    95         49
    96          7
    97          2
    98          2
    99          2
   100          4
   102         93
   103        111
   105        649
   106         42
   107         37
   108         15
   109         13
   111          2
   112          1
   113          3
   115         23
   116          2
   118          9
   121         51
   123         31
   124         11
   125         27
   126         14
   127         13
   128         31
   129         20
   130          1
   131          1
   133         24
   134          2
   135          1
   136          2
   137          6
   138          3
   139         12
   140         10
   141         21
   142         37
   143          2
   144          2
   145          5
   146          3
   147          6
   149          6
   150          8
   151         27
   152         86
   153         61
   154         50
   155          8
   157          9
   158          1
   160         20
   163          5
   165         85
   166         19
   167         19
   168          5
   170         21
   171         37
   173         42
   174          3
   178        634
   179        211
   180         81
   181         41
   183         91
   184         11
   185         10
   186          3
   187          0
   188          0
   189          0
   191          0
   192          1
   194         21
   195         40
   196         92
   197         20
   199        122
   201        948
   202         89
   203          7
   204          0
   207          0
   209          1
   211          0
   212          1
   213          3
   215         45
   217         49
   218          6
   219          3
   220          0
   223          1
   225          4
   226          1
   227          3
   229         21
   230          2
   231          0
   238          0
   239          1
   240          4
   243        171
   244         18
   245          2
   249          0
   251          0
   252          0
   253          1
   254          2
   255          9
   256          3
   257          0
   259          0
   262          0
   270          0
   271          0
   272          0
   273          2
   274          0
   275          4
   276          3
   277          4
   278          0
   279          0
   283          0
   287          1
   288          2
   289          2
   291        131
   292         36
   293          5
   294          0
   299          0
   301          8
   302          2
   303          2
   305          2
   314          0
   315          1
   316          4
   317          5
   319        159
   320        270
   321         52
   322          5
   323          0