##TITLE=Library Entry 41881
##JCAMP-DX=Revision 4.10 
##DATA TYPE=MASS SPECTRUM
##SAMPLE DESCRIPTION=Exported from NIST MS Search
##NAMES=HP
##CAS NAME=Silane, trimethyl(propoxymethyl)-
##MOLFORM=C7H18OSi
##CAS REGISTRY NO=17348-62-8
##MP= -300
##BP= -300
##MW= 146
##$RETENTION INDEX=0
##$CONDENSED SPECTRUM=NO
##NPOINTS= 93
##XYDATA=(XY..XY) 1 
    15          4
    17          0
    18          1
    19          0
    26          2
    27         33
    28         14
    29         31
    30          3
    31         60
    32          3
    33          1
    37          0
    38          0
    39         10
    40          1
    41         31
    42         15
    43         95
    44         34
    45        106
    46          7
    47         24
    48          1
    49          0
    50          2
    51          1
    52          1
    53          4
    54          1
    55          9
    56          2
    57         14
    58         25
    59        134
    60         18
    61        204
    62         12
    63          7
    64          0
    65          0
    66          3
    67          1
    69          1
    70          2
    71          5
    72         21
    73        999
    74         89
    75        221
    76         15
    77          7
    78          0
    80          0
    81          0
    83          0
    85          1
    86          0
    87         36
    88          7
    89        142
    90         12
    92          6
    93          0
    99          1
   100          0
   101          3
   102          1
   103        413
   104         34
   105         24
   106          2
   107          0
   113          0
   115          1
   116          0
   117        134
   118         14
   119          7
   120          0
   121          0
   129          0
   130          0
   131         86
   132         10
   133         22
   134          3
   135          1
   144          2
   145          2
   146         22
   147          3
   148          2