##TITLE=Library Entry 1330
##JCAMP-DX=Revision 4.10 
##DATA TYPE=MASS SPECTRUM
##SAMPLE DESCRIPTION=Japan AIST/NIMC Database- Spectrum MS-NW-1876
##NAMES=HP
##CAS NAME=Glycyl-D-aspartic acid
##MOLFORM=C6H10N2O5
##CAS REGISTRY NO=17343-03-2
##MP= -300
##BP= -300
##MW= 190
##$RETENTION INDEX=0
##$CONDENSED SPECTRUM=NO
##NPOINTS= 106
##XYDATA=(XY..XY) 1 
    25          5
    26         40
    27        121
    28        397
    29        142
    30        999
    31         61
    32         13
    36          3
    37          3
    38          8
    39         25
    40         45
    41        100
    42        208
    43        239
    44        344
    45         70
    46         34
    47          6
    48          2
    51          6
    52          9
    53         19
    54         32
    55        221
    56        118
    57         63
    58         31
    59         12
    60        161
    61          9
    63          2
    65          2
    66          3
    67          9
    68         21
    69         44
    70        212
    71         27
    72         34
    73         26
    74          9
    75         11
    77          2
    79          2
    80          4
    81          7
    82         29
    83         47
    84         32
    85        146
    86         15
    87         18
    88        119
    89         18
    90          2
    91          2
    93          2
    94          2
    95          5
    96         14
    97         30
    98         56
    99         40
   100         32
   101         91
   102          8
   103          2
   107          2
   108          3
   109          4
   110         23
   111         41
   112        169
   113        100
   114         24
   115          5
   116          5
   121          2
   122          2
   123          3
   124          4
   125          6
   126        436
   127         68
   128         10
   129         29
   130          7
   131          2
   135          2
   136          2
   137          2
   138          3
   139          2
   140          2
   144          6
   152          3
   153          3
   154        164
   155         20
   156          3
   171          3
   172        226
   173         17
   174          3