##TITLE=Library Entry 45758
##JCAMP-DX=Revision 4.10 
##DATA TYPE=MASS SPECTRUM
##SAMPLE DESCRIPTION=R.A.FRIEDEL BUREAU OF MINES U.S.DEPT.OF INT.BRUCETON PA
 USA.
##NAMES=HP
##CAS NAME=Silane, (sec-butoxymethyl)trimethyl-
##MOLFORM=C8H20OSi
##CAS REGISTRY NO=17348-64-0
##MP= -300
##BP= -300
##MW= 160
##$RETENTION INDEX=0
##$CONDENSED SPECTRUM=NO
##NPOINTS= 28
##XYDATA=(XY..XY) 1 
    29        245
    31         18
    43        149
    45        220
    47         70
    59         89
    61         85
    66          0
    69         11
    73        728
    75        999
    83          1
    87          4
    89         50
   101         16
   103        524
   104         50
   115          4
   117          1
   118          0
   130          6
   145        775
   146        101
   147         34
   159          3
   160         10
   161          1
   162          0