##TITLE=Library Entry 65911
##JCAMP-DX=Revision 4.10 
##DATA TYPE=MASS SPECTRUM
##SAMPLE DESCRIPTION=Japan AIST/NIMC Database- Spectrum MS-NW-4743
##NAMES=HP
##CAS NAME=Carbonochloridic acid, 2,2,2-trichloroethyl ester
##MOLFORM=C3H2Cl4O2
##CAS REGISTRY NO=17341-93-4
##MP= -300
##BP= -300
##MW= 210
##$RETENTION INDEX=0
##$CONDENSED SPECTRUM=NO
##NPOINTS= 99
##XYDATA=(XY..XY) 1 
    12          4
    13          3
    14          7
    15          2
    16          2
    18          2
    24          2
    25         14
    26         65
    27          4
    28         15
    29         53
    30         23
    31         45
    32          1
    35         39
    36         25
    37         11
    38          9
    39          1
    40          1
    41          2
    42          8
    43          3
    44         34
    45          7
    47         46
    48         37
    49         44
    50         11
    51          9
    57          2
    59          4
    60         49
    61        113
    62         19
    63        655
    64          9
    65        210
    66          3
    69          1
    70         27
    71         17
    72          4
    73          1
    74          1
    76          2
    77          6
    78          1
    79          2
    81          5
    82         39
    83         20
    84         25
    85         12
    86          5
    87          2
    89          1
    93        999
    94         24
    95        524
    96         74
    97        166
    98         43
    99         29
   100          8
   110          1
   111          3
   112          2
   113          4
   114          1
   115          2
   117         84
   118          1
   119         82
   120          1
   121         27
   123          3
   130          2
   131        292
   132          9
   133        274
   134          7
   135         89
   136          2
   137         10
   141          2
   143          1
   147          2
   149          2
   156          1
   157          2
   159          1
   175         45
   176          2
   177         40
   178          2
   179         13
   181          2