##TITLE=Library Entry 76276
##JCAMP-DX=Revision 4.10 
##DATA TYPE=MASS SPECTRUM
##SAMPLE DESCRIPTION=A.A.Kutin, Moscow, Russia
##NAMES=HP
##CAS NAME=Acetic acid, 2-[(diethoxymethyl)ethylphosphinatomethyl)](ethoxyca
rbonyl)amino-, ethyl ester
##MOLFORM=C15H30NO8P
##CAS REGISTRY NO=173462-45-8
##MP= -300
##BP= -300
##MW= 383
##$RETENTION INDEX=0
##$CONDENSED SPECTRUM=NO
##NPOINTS= 167
##XYDATA=(XY..XY) 1 
    33          2
    34          0
    36          0
    38          0
    39          2
    40          6
    42        471
    43        148
    44        135
    45        109
    47        316
    49          4
    50          0
    51          0
    52          0
    53          0
    54          0
    56         17
    57          3
    58         10
    59         21
    60         15
    61          3
    62          3
    63          7
    65         41
    66          3
    67          1
    68          1
    69          2
    70          7
    71          2
    72         18
    73          7
    74         21
    75        289
    76          7
    77          3
    78          2
    79          5
    80          5
    81          8
    82          4
    83          4
    84          0
    86          7
    87          3
    88         32
    89          3
    90          4
    91          3
    92          2
    93          6
    94          1
    95          2
    96          2
    97          6
    98          0
    99          3
   100          1
   103        999
   104         21
   105          2
   106          1
   107          1
   108          4
   109          1
   110          1
   111          1
   112          0
   115         21
   116         67
   117          3
   118          1
   119          0
   120          0
   121          2
   122          1
   124         15
   125          3
   127          1
   128          0
   129          0
   130          0
   131          0
   132          0
   133          0
   134          1
   135          0
   136          2
   137          0
   138          1
   139          0
   143          6
   144          3
   145          0
   146          0
   147          0
   149          0
   150          1
   151          1
   152         16
   153          1
   154          0
   155          0
   157          0
   159          0
   160          2
   161          0
   162          1
   163          2
   164          1
   165          0
   166          0
   167          0
   171          0
   172          0
   173          0
   174          0
   175          0
   177          0
   178          1
   179          2
   180          5
   181          0
   182          0
   183          0
   188         27
   189          3
   190          0
   191          0
   192          0
   193          0
   194          0
   195          0
   196          0
   205          0
   206          0
   207          1
   208          4
   209          0
   210          0
   217          0
   219          0
   220          0
   222          0
   224          2
   225          0
   235          5
   236          2
   237          0
   238          0
   245          0
   251          2
   252          2
   253          0
   264          3
   265          0
   279          2
   280          5
   281          2
   282          0
   291          3
   292          0
   297          0
   325          0
   338          0