##TITLE=Library Entry 47505
##JCAMP-DX=Revision 4.10 
##DATA TYPE=MASS SPECTRUM
##SAMPLE DESCRIPTION=NIST Mass Spectrometry Data Center
##NAMES=HP
##CAS NAME=4-Nitrocinnamaldehyde
##MOLFORM=C9H7NO3
##CAS REGISTRY NO=1734-79-8
##MP= -300
##BP= -300
##MW= 177
##$RETENTION INDEX=0
##$CONDENSED SPECTRUM=NO
##NPOINTS= 90
##XYDATA=(XY..XY) 1 
    12          3
    14          1
    15          4
    16          9
    17          4
    18          3
    26         37
    27        107
    28         33
    29        194
    30        227
    36          3
    37         41
    38         74
    39        174
    40         14
    41         15
    42          3
    43          4
    44          3
    46         32
    48          2
    50        435
    51        573
    52        122
    53         67
    54         30
    55         32
    60          4
    61         50
    62        113
    63        265
    64         60
    65        144
    66         13
    73         33
    74        237
    75        263
    76        356
    77        999
    78         75
    79          8
    80          3
    81          3
    84          2
    85         11
    86         20
    87         34
    88         14
    89        100
    90        126
    91        195
    92         55
    93         14
    94          2
    97         11
    98         39
    99         13
   101         76
   102        587
   103        555
   104         60
   105          7
   106          3
   107         20
   113          4
   114          2
   115          5
   116         10
   117          9
   118         72
   119         49
   120          6
   127          1
   130        727
   131        308
   132         33
   133          7
   144          3
   146         22
   147         25
   148          7
   149         11
   160        872
   161        100
   162          9
   176         97
   177        275
   178         30
   179          2