##TITLE=Library Entry 15106
##JCAMP-DX=Revision 4.10 
##DATA TYPE=MASS SPECTRUM
##SAMPLE DESCRIPTION=Japan AIST/NIMC Database- Spectrum MS-NW-9949
##NAMES=HP
##CAS NAME=dl-Alanine ethyl ester
##MOLFORM=C5H11NO2
##CAS REGISTRY NO=17344-99-9
##MP= -300
##BP= -300
##MW= 117
##$RETENTION INDEX=0
##$CONDENSED SPECTRUM=NO
##NPOINTS= 27
##XYDATA=(XY..XY) 1 
    14          1
    15         11
    26          4
    27         26
    28         41
    29         35
    30          3
    31          2
    40          2
    41          7
    42         40
    43         17
    44        999
    45         33
    46          5
    47          2
    55          3
    56          5
    57          2
    70          1
    73          2
    74         31
    88          4
   102          7
   116          1
   117          9
   118          3