##TITLE=Library Entry 18250
##JCAMP-DX=Revision 4.10 
##DATA TYPE=MASS SPECTRUM
##SAMPLE DESCRIPTION=Chemical Concepts
##NAMES=HP
##CAS NAME=N'-(4,5,6,7-Tetrahydro-6,6-dimethyl-4-oxo-1-phenyl-1H-indazol-5-y
lidene)nicotinohydrazide
##MOLFORM=C21H19N5O2
##CAS REGISTRY NO=173463-32-6
##MP= -300
##BP= -300
##MW= 373
##$RETENTION INDEX=0
##$CONDENSED SPECTRUM=NO
##NPOINTS= 170
##XYDATA=(XY..XY) 1 
    34         12
    36          7
    37         12
    38         33
    39        180
    40        172
    41        162
    42         31
    43         73
    44         51
    45          8
    50        164
    51        999
    53         99
    55        113
    57         39
    58          3
    62          9
    63         41
    65        141
    66         49
    67        125
    68         31
    69         27
    70         11
    71         11
    73          4
    74          9
    75         27
    76         50
    77        617
    78        774
    79        100
    80         24
    81         17
    83         23
    84          8
    85          4
    87          6
    89         33
    90         19
    91         93
    92         56
    93         94
    94         38
    95         11
    96          4
    97          4
    98          5
   101         11
   102         20
   103         31
   104         75
   106        440
   107         32
   108         22
   109          9
   112          6
   113          6
   115         35
   116         36
   117         35
   118         42
   119         83
   120         15
   121         13
   122         19
   123          6
   126          6
   127         15
   128         39
   129         27
   130         35
   131         12
   132         11
   133          6
   134          4
   135          5
   136         31
   137         13
   139          6
   140          9
   141         13
   142         18
   143         27
   144         25
   145         13
   146          9
   147          9
   148          4
   151          7
   152         11
   153         11
   154         23
   155         25
   156         19
   157         22
   158          9
   159          4
   161          4
   165          5
   166          8
   167         26
   168         57
   169         28
   170         24
   171         28
   172          5
   177          4
   178          9
   179         13
   180         16
   181         29
   182         38
   183         66
   184         43
   185         29
   186          8
   187          4
   188          4
   189          4
   192          7
   193         21
   194         41
   195        118
   196         81
   197         39
   198         12
   199          4
   205          8
   206         10
   207         11
   208         13
   209         42
   210         22
   211         45
   212         12
   219          4
   220          6
   221         14
   222         17
   223         95
   224         67
   225         11
   226         14
   227          7
   235          4
   237         64
   239        786
   240        113
   241         22
   252          7
   253          5
   263          3
   264          5
   266         16
   267        267
   268         45
   269         25
   270          4
   302         13
   303          4
   317         13
   318          3
   330          7
   344         10
   345         23
   346          5
   373         23
   374          6