##TITLE=Library Entry 1382
##JCAMP-DX=Revision 4.10 
##DATA TYPE=MASS SPECTRUM
##SAMPLE DESCRIPTION=R.E.Ardrey ET AL.Pharmaceutical Mass Spectra,L.,1985
##NAMES=HP
##CAS NAME=Didesmethyldiphenhydramine
##MOLFORM=C15H17NO
##CAS REGISTRY NO=17349-94-9
##MP= -300
##BP= -300
##MW= 227
##$RETENTION INDEX=0
##$CONDENSED SPECTRUM=NO
##NPOINTS= 38
##XYDATA=(XY..XY) 1 
    27         30
    29         30
    30        999
    31         30
    35         60
    37         20
    39         20
    41         20
    42         80
    43         20
    44         40
    45        370
    50         20
    51         60
    60         10
    61         40
    63         10
    77         10
    78         30
    79         20
    83         10
    89         10
    91         20
   115         20
   128         10
   139         10
   152        100
   153         20
   155         10
   163         10
   164         10
   165        220
   166        110
   167        520
   168        260
   169         20
   183        130
   184         30