##TITLE=Library Entry 109775
##JCAMP-DX=Revision 4.10 
##DATA TYPE=MASS SPECTRUM
##SAMPLE DESCRIPTION=Exported from NIST MS Search
##NAMES=HP
##CAS NAME=1,10-Decanedione, 1,10-bis(2-oxocyclohexyl)-
##MOLFORM=C22H34O4
##CAS REGISTRY NO=17343-93-0
##MP= -300
##BP= -300
##MW= 362
##$RETENTION INDEX=0
##$CONDENSED SPECTRUM=NO
##NPOINTS= 66
##XYDATA=(XY..XY) 1 
    24         21
    25         15
    26         34
    44         26
    47        333
    50         66
    54         26
    55        256
    57         26
    58         21
    75         23
    76         71
    77         21
    78         60
    87         18
    88         31
    96         15
    98         31
   100         52
   103         13
   105         21
   109         21
   116         21
   119         34
   120         21
   123         21
   124         97
   125        999
   128        203
   138        111
   139         74
   140        775
   143        164
   145         52
   153        412
   156         97
   163         34
   166         60
   167         74
   169        140
   178         71
   179         26
   180         26
   181         58
   183         47
   184         21
   199         21
   200         47
   218         84
   220         52
   223        417
   226         97
   237         45
   238         63
   240         47
   242         45
   253         21
   254         52
   259         18
   262         52
   265        238
   267         66
   269         26
   362        222
   363         97
   364         21