##TITLE=Library Entry 29959
##JCAMP-DX=Revision 4.10 
##DATA TYPE=MASS SPECTRUM
##SAMPLE DESCRIPTION=D.HENNEBERG, MAX-PLANCK INSTITUTE, MULHEIM, WEST GERMAN
Y
##NAMES=HP
##CAS NAME=Propane, 2-methyl-2-(1-methylethoxy)-
##MOLFORM=C7H16O
##CAS REGISTRY NO=17348-59-3
##MP= -300
##BP= -300
##MW= 116
##$RETENTION INDEX=651
##$CONDENSED SPECTRUM=NO
##NPOINTS= 41
##XYDATA=(XY..XY) 1 
    25          0
    26          9
    27         87
    28         50
    29        101
    30          3
    31         68
    32          2
    33          0
    36          0
    37          5
    38          9
    39         94
    40         20
    41        275
    42         39
    43        135
    44          6
    45         37
    46          0
    48          0
    49          1
    50          3
    51          3
    52          1
    53          5
    54          2
    55         24
    56         53
    57        630
    58         41
    59        999
    60         39
    61          3
    69          0
    71          0
    73          2
    86          0
   101        145
   102         10
   103          0