##TITLE=Library Entry 4589
##JCAMP-DX=Revision 4.10 
##DATA TYPE=MASS SPECTRUM
##SAMPLE DESCRIPTION=A.A.Kutin, Moscow, Russia
##NAMES=HP
##CAS NAME=Acetic acid, 2-(diisopropylphosphonatomethyl)(ethoxycarbonyl)amin
o-, ethyl ester
##MOLFORM=C14H28NO7P
##CAS REGISTRY NO=173462-48-1
##MP= -300
##BP= -300
##MW= 353
##$RETENTION INDEX=0
##$CONDENSED SPECTRUM=NO
##NPOINTS= 206
##XYDATA=(XY..XY) 1 
    33          3
    34          1
    36          3
    37          3
    38          7
    39         49
    40         31
    41        202
    42        999
    43        447
    44        183
    45         42
    47         14
    48          2
    49          1
    50          0
    51          0
    52          0
    53          1
    54          1
    55          7
    56         23
    57         10
    58         42
    59         48
    60         55
    61          5
    62          1
    63          2
    65         38
    66          0
    67          1
    68          4
    69         10
    70         19
    71          5
    72         22
    73          4
    74          9
    75          1
    76          0
    77          2
    78          6
    79          5
    80          5
    81         10
    82         41
    83         16
    84          4
    85          2
    86         21
    87         10
    88        107
    89          5
    90          1
    91          2
    92          1
    93          1
    95         12
    96        103
    97         41
    99          8
   100          2
   102         22
   103          2
   104          2
   105          2
   106         11
   107          3
   108          2
   109         11
   110         10
   111          2
   112          1
   113          1
   114          7
   115         34
   116        322
   117         21
   118          3
   119          0
   120          0
   121          2
   122         18
   123         29
   124        317
   125         12
   126          2
   127          1
   128          1
   129          1
   130          2
   131          1
   132          2
   133          0
   134          2
   135          1
   136          1
   137          1
   138          9
   139          9
   140          1
   141          0
   142          2
   143          1
   144          6
   145          0
   146          3
   147          0
   148          0
   150         18
   151        123
   152         38
   153          2
   154          0
   156          0
   157          0
   158          1
   160         15
   161          3
   162          1
   163          0
   164          1
   165          0
   166          5
   167          0
   168          4
   169          0
   170          0
   171          1
   174          7
   175          1
   176          0
   177          3
   178          3
   179          5
   180          4
   181          1
   182          1
   183          0
   184          0
   186          0
   187          5
   188         39
   189          8
   190          1
   192          0
   193          0
   194          2
   195         14
   196         86
   197         18
   198          3
   199          0
   203          0
   204          1
   205          0
   206          0
   207          0
   208          0
   209          0
   212          0
   215          0
   217          0
   220          0
   221          1
   223        209
   224         39
   225          4
   226          0
   227          0
   236          0
   238          7
   239          3
   240          1
   241         23
   242          1
   243          0
   246          0
   251          1
   252         13
   253          1
   265          8
   266          5
   267          0
   269         29
   270          3
   271          0
   275          1
   280          3
   281          2
   282          0
   283          2
   284          0
   289          0
   293          0
   294          4
   295          0
   307          0
   308          0
   311          4
   312          0
   325          2
   326          0
   353          4
   354          0