##TITLE=Library Entry 31730
##JCAMP-DX=Revision 4.10 
##DATA TYPE=MASS SPECTRUM
##SAMPLE DESCRIPTION=NIST Mass Spectrometry Data Center, 1990.
##NAMES=HP
##CAS NAME=Cyclohexane-d12
##MOLFORM=C6D12
##CAS REGISTRY NO=1735-17-7
##MP= -300
##BP= -300
##MW= 96
##$RETENTION INDEX=661
##$CONDENSED SPECTRUM=NO
##NPOINTS= 39
##XYDATA=(XY..XY) 1 
    13          1
    15         12
    18         46
    29         26
    30        368
    32        115
    33         15
    34        151
    35         10
    38         14
    40         48
    42        389
    43         19
    44         82
    45         10
    46        832
    47         48
    48        260
    49         16
    50         94
    52         21
    54         36
    56         15
    58         42
    59          8
    60         51
    61          8
    62        271
    63          8
    64        999
    65         36
    70         10
    74         28
    76         22
    78        237
    79         16
    94         30
    96        559
    97         40