##TITLE=Library Entry 40801
##JCAMP-DX=Revision 4.10 
##DATA TYPE=MASS SPECTRUM
##SAMPLE DESCRIPTION=Chemical Concepts
##NAMES=HP
##CAS NAME=Cyclopropene, 3,3-diphenyl-1-trimethylsilyl-
##MOLFORM=C18H20Si
##CAS REGISTRY NO=173595-34-1
##MP= -300
##BP= -300
##MW= 264
##$RETENTION INDEX=0
##$CONDENSED SPECTRUM=NO
##NPOINTS= 161
##XYDATA=(XY..XY) 1 
    27          0
    29          6
    30          0
    31          3
    39          5
    42          1
    43         26
    44         11
    45        123
    46          8
    47          4
    50          1
    51          3
    52          0
    53          5
    54          0
    55          3
    56          0
    57          4
    58          7
    59         12
    60          1
    61          0
    62          2
    63          7
    64          1
    65          2
    66          0
    67          0
    68          0
    69          0
    70          1
    71          1
    73        999
    74         89
    75         41
    76          3
    77          4
    78          1
    79          0
    81          0
    82          1
    83          1
    84          0
    86          1
    87          2
    88          1
    89          4
    90          0
    91          1
    92          0
    93          1
    94          1
    95          1
    96          0
    97          0
    98          1
    99          0
   101          1
   102          1
   103          2
   104          1
   105          4
   106          1
   107          1
   108          0
   109          1
   110          1
   111          0
   113          2
   114          1
   115          5
   116          2
   117          1
   118          0
   119          2
   120          0
   121          7
   122          1
   123          0
   124          2
   125          0
   126          1
   127          1
   128          2
   129          2
   130          0
   131          1
   132          0
   133          0
   135          3
   136          0
   137          1
   138          0
   139          4
   140          0
   141          1
   143          1
   145          5
   146          1
   147          0
   150          1
   151          2
   152          3
   153          1
   155          1
   159          0
   161          0
   162          1
   163          7
   164          4
   165         22
   166          3
   167          1
   169          0
   176          2
   177          1
   178          2
   179          1
   181          0
   187          5
   188          5
   189         40
   190         13
   191         22
   192          8
   193          1
   194          0
   200          0
   201          0
   202          6
   203          4
   204          2
   205          2
   206          0
   207          0
   208          0
   209          0
   215          1
   216          0
   217          5
   218          2
   219          2
   220          0
   221          2
   229          0
   231          2
   232          2
   233          6
   234          1
   235          0
   245          1
   247          0
   248          1
   249         15
   250          3
   251          0
   264         55
   265         13
   266          4
   267          0