##TITLE=Library Entry 57050
##JCAMP-DX=Revision 4.10 
##DATA TYPE=MASS SPECTRUM
##SAMPLE DESCRIPTION=R.T.HOLMAN,UNIVERSITY OF MINNESOTA
##NAMES=HP
##CAS NAME=1,3-Dioxane, 2-pentadecyl-
##MOLFORM=C19H38O2
##CAS REGISTRY NO=17352-27-1
##MP= -300
##BP= -300
##MW= 298
##$RETENTION INDEX=0
##$CONDENSED SPECTRUM=NO
##NPOINTS= 143
##XYDATA=(XY..XY) 1 
    26          2
    27         12
    28         45
    29         37
    30          2
    31         43
    32          7
    38          1
    39          7
    40          2
    41         77
    42         17
    43         95
    44         14
    45          8
    46          1
    47          1
    51          1
    52          1
    53          4
    54          7
    55         58
    56         17
    57         57
    58         47
    59         58
    60          2
    61          1
    65          1
    66          2
    67         15
    68         11
    69         29
    70          9
    71         23
    72          2
    73          7
    74          1
    75          3
    76          1
    77         21
    78          2
    79          2
    80          2
    81         13
    82         15
    83         21
    84          5
    85          9
    86          2
    87        999
    88         46
    89          6
    90          1
    91          1
    92          1
    93          1
    94          1
    95         13
    96         10
    97         13
    98          3
    99          2
   100          4
   101          4
   102         45
   103         12
   104          1
   105          1
   107          1
   108          1
   109          6
   110          3
   111          4
   112          2
   113          9
   114          2
   115          3
   116          1
   117         15
   118          1
   119          1
   121          1
   122          1
   123          2
   124          2
   125          2
   126          1
   127          2
   128          1
   129          2
   135          1
   136          1
   137          2
   138          1
   139          1
   140          1
   141          1
   142          1
   143          1
   149          1
   150          1
   151          1
   152          1
   153          1
   154          1
   155          1
   157          1
   159          2
   165          1
   166          1
   167          1
   168          1
   169          1
   170          1
   171          2
   179          1
   180          1
   181          1
   183          1
   185          1
   194          2
   195          1
   196          1
   197          1
   199          1
   211          1
   221          1
   222          5
   223          2
   224          1
   225          1
   239          4
   240          2
   241          1
   253          1
   254          1
   255          1
   270          2
   271          1
   297         31
   298          9
   299          2