##TITLE=Library Entry 66942
##JCAMP-DX=Revision 4.10 
##DATA TYPE=MASS SPECTRUM
##SAMPLE DESCRIPTION=A.Pleshkova, Nesmeyanov Inst.Org.Elem.Cpds, Moscow
##NAMES=HP
##CAS NAME=Phosphorodiamidous fluoride, tetramethyl-
##MOLFORM=C4H12FN2P
##CAS REGISTRY NO=1735-82-6
##MP= -300
##BP= -300
##MW= 138
##$RETENTION INDEX=0
##$CONDENSED SPECTRUM=NO
##NPOINTS= 29
##XYDATA=(XY..XY) 1 
    15        343
    16         21
    27         26
    28        134
    29         20
    30        162
    40         26
    41         40
    42        427
    43         59
    44        317
    45         26
    50         35
    51         61
    65         52
    69         48
    76         26
    78         76
    79          1
    80         17
    93         70
    94        999
    95         52
   122         63
   123         65
   124          2
   138        197
   139         11
   140          2