##TITLE=Library Entry 6168
##JCAMP-DX=Revision 4.10 
##DATA TYPE=MASS SPECTRUM
##SAMPLE DESCRIPTION=NIST Mass Spectrometry Data Center, 2010
##NAMES=HP
##CAS NAME=Trifluoroacetic acid, 2-methylpropyl ester
##MOLFORM=C6H9F3O2
##CAS REGISTRY NO=17355-83-8
##MP= -300
##BP= -300
##MW= 170
##$RETENTION INDEX=655
##$CONDENSED SPECTRUM=NO
##NPOINTS= 54
##XYDATA=(XY..XY) 1 
    14          1
    15          9
    26         11
    27        136
    28         25
    29        144
    30          8
    31         13
    33          5
    37          6
    38         17
    39        186
    40         35
    41        724
    42         91
    43        999
    44         38
    45          6
    47         10
    50         44
    51         12
    52          3
    53         17
    54          7
    55         96
    56        375
    57        532
    58         25
    59         23
    60          3
    61         28
    62          1
    65          1
    67          1
    69        674
    70          8
    73          1
    78         26
    80          3
    85          2
    95          1
    97         39
    99        136
   100          3
   101          1
   109          2
   115          1
   125          9
   126          1
   127          5
   128         18
   129          9
   155          4
   169          1