##TITLE=Library Entry 50117
##JCAMP-DX=Revision 4.10 
##DATA TYPE=MASS SPECTRUM
##SAMPLE DESCRIPTION=NIST Mass Spectrometry Data Center, 1990.
##NAMES=HP
##CAS NAME=1-Ethynylcyclopentanol
##MOLFORM=C7H10O
##CAS REGISTRY NO=17356-19-3
##MP= -300
##BP= -300
##MW= 110
##$RETENTION INDEX=0
##$CONDENSED SPECTRUM=NO
##NPOINTS= 64
##XYDATA=(XY..XY) 1 
    15         33
    16          7
    17         10
    18          4
    24          5
    25         21
    26        112
    27        390
    28        149
    29        153
    30          8
    31         38
    37         41
    38        141
    39        791
    40        300
    41        325
    42        152
    43        152
    44         10
    45          9
    49         25
    50        101
    51        191
    52         73
    53        756
    54        483
    55        660
    56         50
    57         20
    60          6
    61         31
    62         58
    63        113
    64         95
    65        129
    66        108
    67        861
    68        804
    69        104
    70         25
    71         23
    74         10
    75          4
    77        131
    78         27
    79        132
    80          4
    81        999
    82        333
    83         66
    84         21
    85          7
    86          5
    89         20
    91        230
    92         63
    93         18
    94          5
    95        581
    96         46
   107         12
   109        196
   110         28