##TITLE=Library Entry 60723
##JCAMP-DX=Revision 4.10 
##DATA TYPE=MASS SPECTRUM
##SAMPLE DESCRIPTION=NIST Mass Spectrometry Data Center, 1990.
##NAMES=HP
##CAS NAME=1,4-Cyclohexadiene, 1,2-dimethyl-
##MOLFORM=C8H12
##CAS REGISTRY NO=17351-28-9
##MP= -300
##BP= -300
##MW= 108
##$RETENTION INDEX=832
##$CONDENSED SPECTRUM=NO
##NPOINTS= 43
##XYDATA=(XY..XY) 1 
    15         27
    18          7
    26         19
    27        154
    28         50
    29         24
    37          9
    38         41
    39        268
    40         34
    41        101
    42          7
    50         74
    51        167
    52         57
    53         83
    54         19
    55          9
    61          9
    62         28
    63         65
    64         19
    65        169
    66         37
    67         30
    74         18
    75         12
    77        620
    78         94
    79        170
    80         25
    89         17
    91        999
    92        127
    93        880
    94         66
   102          8
   103         23
   105         91
   106         58
   107         78
   108        494
   109         38