##TITLE=Library Entry 67658
##JCAMP-DX=Revision 4.10 
##DATA TYPE=MASS SPECTRUM
##SAMPLE DESCRIPTION=V.Zaikin,Inst.Petrochem.Synth.,RAS,Moscow
##NAMES=HP
##CAS NAME=2-Furancarboxylic acid, 2-methylphenyl ester
##MOLFORM=C12H10O3
##CAS REGISTRY NO=17357-58-3
##MP= -300
##BP= -300
##MW= 202
##$RETENTION INDEX=0
##$CONDENSED SPECTRUM=NO
##NPOINTS= 61
##XYDATA=(XY..XY) 1 
    25          4
    26         14
    27         20
    28          3
    29         21
    39        199
    40         17
    41         15
    42          3
    43          7
    50         11
    51         33
    52         31
    53         15
    54          4
    55          7
    60          3
    63          9
    64          4
    65         12
    66          6
    67         17
    68          7
    69          7
    71          5
    73          3
    74          3
    75          7
    77         33
    78         30
    80          7
    81          5
    82          4
    83          6
    90          5
    91          8
    92          5
    93          3
    94          7
    95        999
    96         59
    97          6
    99          3
   101          3
   102          3
   105          6
   106          4
   107          5
   108          3
   111          5
   112         11
   113          6
   119          5
   130          6
   132          4
   134          3
   139          6
   173          4
   187          4
   202         85
   203         12