##TITLE=Library Entry 14188
##JCAMP-DX=Revision 4.10 
##DATA TYPE=MASS SPECTRUM
##SAMPLE DESCRIPTION=Chemical Concepts
##NAMES=HP
##CAS NAME=4-Hydroxy-6-methyl-3-[2-(2-nitrophenyl)-2,3-dihydrobenzo[b][1,4]t
hiazepin-4-yl]-2H-pyran-2-one
##MOLFORM=C21H16N2O5S
##CAS REGISTRY NO=173601-64-4
##MP= -300
##BP= -300
##MW= 408
##$RETENTION INDEX=0
##$CONDENSED SPECTRUM=NO
##NPOINTS= 217
##XYDATA=(XY..XY) 1 
    33         11
    38        142
    39        275
    40          3
    41        144
    43        999
    44         34
    46         44
    47          9
    48         23
    50        142
    51        277
    52        115
    53         87
    55        132
    56         58
    58         61
    59        155
    60         39
    62        152
    63        334
    65        198
    67         39
    68         44
    69        502
    71         36
    74        347
    75        622
    77        306
    78         57
    80         82
    82        100
    83         68
    85        321
    87        102
    88         96
    90         70
    91         95
    92         41
    93         49
    95         30
    96         28
    97        156
    98        109
   100         38
   101        121
   103        413
   104         89
   105         47
   106         25
   108        126
   109         62
   110         29
   111         51
   112         19
   113         56
   114         30
   115         46
   116         29
   117         35
   118         19
   120        146
   121         37
   122         22
   124         76
   125        116
   126         41
   127         41
   128         46
   129         25
   130         19
   132         47
   133         18
   134         21
   135         44
   136         40
   137         35
   139        338
   140         65
   141         20
   142         11
   143          6
   144         10
   145         10
   146        109
   147         67
   148        121
   149        211
   150         27
   151         18
   152         75
   154         70
   155         18
   156          7
   157          9
   159         21
   160         36
   161         65
   162         37
   163         11
   164         23
   165         27
   166         34
   167        179
   168        236
   169         48
   171         29
   172         16
   173         15
   175        168
   176        208
   177         25
   178         18
   179          7
   180          8
   182         43
   183         80
   184         22
   185         11
   186         10
   187         12
   188         33
   189         84
   190         26
   192        293
   194        217
   195        548
   196         82
   197         16
   200         19
   201          9
   202         23
   203         10
   204         24
   205         14
   208          9
   209         10
   210         18
   211         17
   212         12
   213          8
   214         17
   215         45
   216         28
   217         24
   218         16
   219          8
   220          8
   221          7
   222          9
   223         10
   224          8
   225         10
   226          8
   227          8
   228         13
   229          8
   230         15
   231         19
   232          8
   233          7
   234          9
   235         12
   236         44
   237         16
   238         14
   239          9
   240          9
   241          9
   242          7
   243         14
   244         22
   245          9
   246         10
   247         19
   248         23
   249         17
   250         18
   251         12
   252         11
   253         30
   254         10
   256         13
   257         32
   259        116
   260        768
   261        129
   262         56
   263         15
   265         10
   266          7
   267          8
   268          9
   269          9
   270         10
   271         25
   272        177
   273        162
   274         41
   275         18
   276         16
   277         12
   278         11
   279         17
   283         21
   284          9
   285          6
   286          6
   288          7
   289          8
   290          9
   291          8
   390          7
   391         22
   392          8
   408         35
   409          8