##TITLE=Library Entry 44603
##JCAMP-DX=Revision 4.10 
##DATA TYPE=MASS SPECTRUM
##SAMPLE DESCRIPTION=R.T.HOLMAN,UNIVERSITY OF MINNESOTA
##NAMES=HP
##CAS NAME=8,11,14-Eicosatrienoic acid, methyl ester
##MOLFORM=C21H36O2
##CAS REGISTRY NO=17364-32-8
##MP= -300
##BP= -300
##MW= 320
##$RETENTION INDEX=2250
##$CONDENSED SPECTRUM=NO
##NPOINTS= 182
##XYDATA=(XY..XY) 1 
    38         10
    39        260
    40         50
    41        900
    42        220
    43        710
    44         70
    45         60
    50         10
    51         30
    52         20
    53        140
    54        250
    55        910
    56        200
    57        450
    58         40
    59        270
    60         10
    61         10
    63         10
    64         10
    65         80
    66        110
    67        810
    68        320
    69        570
    70        140
    71        230
    72         30
    73         60
    74        999
    75        100
    76         10
    77        170
    78        110
    79        590
    80        550
    81        760
    82        310
    83        280
    84        160
    85        170
    86         20
    87        530
    88         60
    89         10
    91        230
    92         80
    93        410
    94        340
    95        510
    96        400
    97        260
    98         80
    99         50
   100         10
   101         80
   102         10
   103         20
   104         20
   105        140
   106         60
   107        200
   108        120
   109        210
   110        130
   111         90
   112         40
   113         50
   114         20
   115         70
   116         20
   117         40
   118         20
   119        100
   120         50
   121        200
   122         90
   123        120
   124         70
   125         50
   126         20
   127         40
   128         40
   129         90
   130         20
   131         30
   132         10
   133         60
   141         90
   142         20
   143         60
   144         20
   145         20
   146         10
   147         30
   148         30
   149         90
   150        250
   151         70
   152         50
   153         20
   154         20
   155         20
   156         10
   157         20
   158         10
   159         30
   160         10
   161         30
   162         20
   163         80
   164         70
   165         30
   166         30
   167         20
   168         10
   169         10
   170         10
   171         10
   172         10
   173         10
   174         10
   175         20
   176         10
   177         80
   178         40
   179         20
   180         10
   181         10
   182         10
   183         10
   184         10
   185         20
   187         10
   189         20
   190         20
   191         30
   192         20
   193         10
   194         10
   195         10
   196         10
   197         10
   199         10
   203         20
   204         10
   205         20
   206         10
   207         10
   208         10
   209         20
   210         10
   217         10
   219         10
   221         10
   222        110
   223         20
   224         10
   235         20
   236         10
   237         10
   238         10
   248         10
   249         20
   250         10
   251         10
   252         10
   263         20
   264         10
   266         10
   277         10
   289         40
   290         20
   291         20
   292         20
   293         10
   318         10
   320        160
   321         30
   322         10