##TITLE=Library Entry 83529
##JCAMP-DX=Revision 4.10 
##DATA TYPE=MASS SPECTRUM
##SAMPLE DESCRIPTION=NIST Mass Spectrometry Data Center, 1994
##NAMES=HP
##CAS NAME=3-(4-Hydroxyphenyl)propionitrile
##MOLFORM=C9H9NO
##CAS REGISTRY NO=17362-17-3
##MP= -300
##BP= -300
##MW= 147
##$RETENTION INDEX=1570
##$CONDENSED SPECTRUM=NO
##NPOINTS= 69
##XYDATA=(XY..XY) 1 
     4          1
    14          2
    15          2
    26         15
    27         44
    28         18
    29         11
    31          2
    32          0
    37          9
    38         24
    39        103
    40         29
    41         17
    42          4
    43          4
    44          1
    45          2
    50         43
    51         87
    52         43
    53         58
    54          5
    55         22
    59          4
    60          1
    61          8
    62         24
    63         49
    64         18
    65         40
    66         10
    67          2
    68          1
    73          3
    74         10
    75          8
    76          1
    77        203
    78         58
    79         32
    80          3
    81          6
    86          2
    87          3
    88          3
    89         16
    90          8
    91         33
    92          4
    93          1
    94          4
   101          3
   102          3
   103          3
   105          8
   107        999
   108         72
   109          4
   116          4
   117          5
   118          6
   119          4
   120          5
   128          1
   145          1
   147        167
   148         16
   149          1