##TITLE=Library Entry 93429
##JCAMP-DX=Revision 4.10 
##DATA TYPE=MASS SPECTRUM
##SAMPLE DESCRIPTION=Institute of Organic Chemistry, Novosibirsk, USSR 1988
##NAMES=HP
##CAS NAME=4-Methoxycarbonylbutyl-3-methoxycarbonylpropyl ether
##MOLFORM=C11H20O5
##CAS REGISTRY NO=17361-53-4
##MP= -300
##BP= -300
##MW= 232
##$RETENTION INDEX=0
##$CONDENSED SPECTRUM=NO
##NPOINTS= 76
##XYDATA=(XY..XY) 1 
    27         42
    28         48
    29         91
    30          5
    31         24
    32          3
    33          2
    39         35
    40         10
    41        143
    42         76
    43        107
    44         14
    45        100
    50          3
    53          8
    54         17
    55        302
    56         39
    57         55
    58          9
    59        531
    60         24
    61          2
    64          2
    67          2
    68          4
    69         47
    70         11
    71         82
    72         17
    73        268
    74        194
    75         10
    81          5
    82         17
    83        186
    84         50
    85        146
    86         11
    87        126
    88         18
    95          2
    97          7
    98         10
    99        189
   100         36
   101        702
   102         51
   103          5
   111          4
   112          7
   113          8
   114         52
   115        999
   116         82
   117         86
   118          6
   119          2
   127          4
   129          3
   130          4
   131        131
   132         10
   133          2
   140          4
   143          2
   144          4
   145          1
   146          2
   149         20
   150          2
   158          2
   159          4
   168         10
   200          1