##TITLE=Library Entry 24115
##JCAMP-DX=Revision 4.10 
##DATA TYPE=MASS SPECTRUM
##SAMPLE DESCRIPTION=R.T.HOLMAN,UNIVERSITY OF MINNESOTA
##NAMES=HP
##CAS NAME=Oleic acid, 3-(octadecyloxy)propyl ester
##MOLFORM=C39H76O3
##CAS REGISTRY NO=17367-41-8
##MP= -300
##BP= -300
##MW= 592
##$RETENTION INDEX=0
##$CONDENSED SPECTRUM=NO
##NPOINTS= 288
##XYDATA=(XY..XY) 1 
    26         20
    27         90
    28         40
    29        220
    30         20
    31         30
    36         10
    37         10
    39         80
    40         30
    41        550
    42        150
    43        930
    44         70
    45         35
    50          5
    51         10
    52          5
    53         50
    54        140
    55        860
    56        250
    57        999
    58        210
    59        140
    60         50
    61         20
    63         20
    65         20
    66         20
    67        310
    68        190
    69        750
    70        210
    71        700
    72         60
    73         60
    74         10
    75         40
    76          5
    77        160
    78         15
    79         85
    80         60
    81        360
    82        260
    83        550
    84        190
    85        370
    86         30
    87         40
    88         10
    89         10
    91         50
    92         15
    93         80
    94         60
    95        310
    96        200
    97        420
    98        270
    99        120
   100         90
   101         40
   102         10
   103         10
   104         10
   105         50
   106         20
   107         60
   108         40
   109        190
   110        110
   111        220
   112        110
   113        190
   114         30
   115         30
   116         15
   117         20
   118         15
   119         50
   120         20
   121         70
   122         30
   123         90
   124         70
   125        110
   126         50
   127         70
   128         20
   129         30
   130         10
   131         20
   132         10
   133         30
   134         20
   135         60
   136         30
   137        110
   138         50
   139         50
   140         30
   141         50
   142         15
   143         20
   144         10
   145         20
   146         10
   147         25
   148         15
   149         65
   150         20
   151         70
   152         45
   153         35
   154         20
   155         50
   156         15
   157         15
   158         10
   159         15
   160          5
   161         15
   162         10
   163         30
   164         15
   165         60
   166         50
   167         30
   168         20
   169         55
   170         10
   171         15
   172         10
   173         10
   174          5
   175         15
   176         10
   177         20
   178         15
   179         35
   180         35
   181         25
   182         20
   183         40
   184         10
   185         20
   186         10
   187         10
   188          5
   189         15
   190          5
   191         25
   192         15
   193         30
   194         20
   195         20
   196         20
   197         25
   198         10
   199         10
   200          5
   201         10
   202          5
   203         15
   204         10
   205         15
   206         15
   207         30
   208         15
   209         20
   210         10
   211         20
   212         10
   213         10
   215          5
   217         10
   218         10
   219         20
   220         20
   221         30
   222         20
   223         20
   224         15
   225         20
   226         10
   229         10
   231         10
   235         10
   236         15
   237         15
   238         10
   239         20
   240         10
   241          5
   243          5
   245         10
   246         10
   247         10
   248          5
   249         10
   250         45
   251         20
   252         20
   253         20
   254         10
   255         10
   256         10
   257         10
   259         10
   260         10
   261         10
   262         15
   263         25
   264        260
   265        100
   266         20
   267         20
   268         10
   277         10
   279         15
   280         10
   281        130
   282         30
   284         10
   285         10
   286         10
   291          7
   292          8
   293          8
   294          7
   295         10
   297          6
   301          6
   303          7
   305          6
   306          6
   307          8
   308          9
   309         16
   310         50
   311         47
   312         14
   313         16
   314          7
   315         11
   316          6
   317          6
   318          6
   319          7
   320         10
   321         35
   322        240
   323        180
   324         52
   325         60
   326         18
   327         23
   328         10
   329        120
   330         33
   331          9
   333          6
   341         16
   342          7
   343          6
   350          6
   351          6
   353         13
   365          6
   370          6
   400          6
   412          6
   414          6
   430          8
   432          5
   440          4
   442          4
   469          4
   472          4
   516          2
   517          2
   564          3
   592         50
   593         23
   594         12
   595          3