##TITLE=Library Entry 84475
##JCAMP-DX=Revision 4.10 
##DATA TYPE=MASS SPECTRUM
##SAMPLE DESCRIPTION=M J. SAXBY
##NAMES=HP
##CAS NAME=Acetic acid, trifluoro-, 2-methylphenyl ester
##MOLFORM=C9H7F3O2
##CAS REGISTRY NO=1736-10-3
##MP= -300
##BP= -300
##MW= 204
##$RETENTION INDEX=0
##$CONDENSED SPECTRUM=NO
##NPOINTS= 41
##XYDATA=(XY..XY) 1 
    29         57
    31         86
    38         48
    39        192
    40          9
    41         19
    43          9
    44         86
    45         38
    50        125
    51        221
    52        105
    53        105
    59         48
    62         38
    63         86
    64         28
    65        115
    69        355
    74         48
    75         19
    76         19
    77        567
    78        307
    79         19
    82         19
    89         76
    90        509
    91        576
    92         48
   106         28
   107        999
   108         96
   109        105
   135         76
   157         38
   175        125
   176         28
   190          9
   204        673
   205         67