##TITLE=Library Entry 63645
##JCAMP-DX=Revision 4.10 
##DATA TYPE=MASS SPECTRUM
##SAMPLE DESCRIPTION=Q. Pu, LBC, NIDDK, NIH, Bethesda, MD 20892
##NAMES=HP
##CAS NAME=N,N-Dibenzylglycine
##MOLFORM=C16H17NO2
##CAS REGISTRY NO=17360-47-3
##MP= -300
##BP= -300
##MW= 255
##$RETENTION INDEX=0
##$CONDENSED SPECTRUM=NO
##NPOINTS= 94
##XYDATA=(XY..XY) 1 
    41         69
    43         16
    44         15
    45         20
    46          0
    50          9
    51         24
    52          7
    53          3
    54          1
    55         11
    56          3
    57          9
    58          4
    59          3
    60          6
    61          2
    62          4
    63         22
    64          9
    65        127
    66          9
    67          9
    68         48
    69         10
    70         10
    71          5
    73          5
    74          2
    75          2
    76          3
    77         16
    78          7
    79          5
    81          3
    82          3
    83          4
    84          2
    85          4
    86          1
    87          2
    89         31
    90          7
    91        999
    92         83
    93         10
    94          3
    95          2
    96          2
    97          4
    98          1
    99          0
   103          2
   104          5
   105          6
   106         11
   107          3
   108          0
   109          0
   111         11
   115          2
   116          2
   117          8
   118         22
   119          5
   120         14
   121          1
   123          0
   125          0
   129          2
   132          2
   134          6
   135          0
   141          0
   143          0
   152          2
   164         17
   165          6
   166          3
   167          2
   178          6
   179          2
   181         33
   182          5
   194          3
   196          8
   197          2
   208          2
   210        459
   211         78
   212          7
   254          0
   255         23
   256          4