##TITLE=Library Entry 47154
##JCAMP-DX=Revision 4.10 
##DATA TYPE=MASS SPECTRUM
##SAMPLE DESCRIPTION=NIST Mass Spectrometry Data Center
##NAMES=HP
##CAS NAME=p-Trifluoromethoxybenzyl alcohol
##MOLFORM=C8H7F3O2
##CAS REGISTRY NO=1736-74-9
##MP= -300
##BP= -300
##MW= 192
##$RETENTION INDEX=0
##$CONDENSED SPECTRUM=NO
##NPOINTS= 80
##XYDATA=(XY..XY) 1 
    12          2
    15          3
    17          3
    18          4
    26         19
    27         42
    29         98
    30         12
    31         83
    37         30
    38         67
    39        187
    40         32
    41         65
    42          8
    43         13
    44          1
    45          2
    47         12
    49         14
    50        122
    51        170
    52         48
    53         35
    54          6
    55         19
    57          6
    61         18
    62         47
    63        113
    64         58
    65        100
    66         69
    67         49
    69        334
    70          5
    73          7
    74         36
    75         44
    77        999
    78        128
    79        284
    80         20
    81          4
    83         29
    84          4
    85          3
    86          6
    87          2
    89         54
    90          7
    92         32
    93         12
    94         20
    95        120
    96         15
    97         12
   105        112
   107        570
   108         57
   109         61
   110          4
   113          2
   123          7
   125          2
   127          7
   143         37
   144          2
   161         26
   163        164
   164         17
   171         21
   172          2
   175         81
   176          9
   189         62
   191        194
   192        528
   193         46
   194          4