##TITLE=Library Entry 32715
##JCAMP-DX=Revision 4.10 
##DATA TYPE=MASS SPECTRUM
##SAMPLE DESCRIPTION=R.T.HOLMAN,UNIVERSITY OF MINNESOTA
##NAMES=HP
##CAS NAME=4,7,10-Hexadecatrienoic acid, methyl ester
##MOLFORM=C17H28O2
##CAS REGISTRY NO=17364-31-7
##MP= -300
##BP= -300
##MW= 264
##$RETENTION INDEX=0
##$CONDENSED SPECTRUM=NO
##NPOINTS= 168
##XYDATA=(XY..XY) 1 
    39        180
    40         30
    41        700
    42         70
    43        300
    44         20
    45         30
    50         10
    51         30
    52         30
    53        150
    54        230
    55        500
    56         50
    57        140
    58         10
    59        180
    60         10
    61         10
    63         10
    65        110
    66        130
    67        999
    68        180
    69        230
    70         30
    71        100
    72         10
    73         20
    74        280
    75         40
    76         10
    77        290
    78        170
    79        910
    80        650
    81        620
    82        180
    83        120
    84         60
    85        180
    86         10
    87         90
    88        100
    89         10
    90         10
    91        480
    92        350
    93        580
    94        240
    95        390
    96        140
    97         80
    98         40
    99         20
   100         10
   101         20
   102         20
   103         30
   104         50
   105        310
   106        290
   107        190
   108         70
   109        100
   110         70
   111         40
   112         10
   113         10
   114         10
   115         30
   116         20
   117         80
   118         30
   119        230
   120        100
   121        180
   122         70
   123        100
   124         40
   125         20
   126         10
   127         60
   128         20
   129         30
   130         20
   131         40
   132         20
   133        150
   134         90
   135        110
   136         90
   137        130
   138         30
   139         10
   140         40
   141         20
   142         10
   143         10
   144         10
   145         20
   146         10
   147        300
   148         70
   149         80
   150        120
   151         40
   152         30
   153         30
   154         50
   155         10
   157         10
   159         10
   160         10
   161        120
   162         30
   163         80
   164         20
   165         20
   166        120
   167         40
   168         20
   169         10
   171         10
   173         10
   175         40
   176         20
   177         40
   178         20
   179         30
   180         40
   181         20
   182         11
   185         10
   188         30
   189         20
   190         70
   191         20
   192         30
   193         30
   194         40
   195         10
   196         10
   203         10
   204         10
   205         10
   206         10
   207         30
   208         10
   209         10
   210         10
   214         10
   215         10
   217         10
   221         10
   222         10
   223         10
   231         10
   232         20
   233         60
   234         20
   235         20
   236         10
   237         10
   262         10
   263         10
   264         90
   265         20