##TITLE=Library Entry 11058
##JCAMP-DX=Revision 4.10 
##DATA TYPE=MASS SPECTRUM
##SAMPLE DESCRIPTION=NIST Mass Spectrometry Data Center, 1994
##NAMES=HP
##CAS NAME=3-Fluorophenylacetone
##MOLFORM=C9H9FO
##CAS REGISTRY NO=1737-19-5
##MP= -300
##BP= -300
##MW= 152
##$RETENTION INDEX=0
##$CONDENSED SPECTRUM=NO
##NPOINTS= 87
##XYDATA=(XY..XY) 1 
    12          0
    13          1
    14          9
    15         52
    16          0
    17          0
    18          0
    26          3
    27         10
    29          2
    31          8
    33          3
    37          3
    38          9
    39         32
    40          2
    41          2
    42          2
    43        999
    44         23
    45          3
    46          0
    49          2
    50         16
    51         16
    52          2
    53          1
    55          8
    56          4
    57         47
    58          2
    59         10
    60          1
    61          5
    62         14
    63         31
    64          3
    65          1
    66          0
    67          0
    68          3
    69          4
    70          4
    71          0
    73          1
    74          6
    75          9
    76          2
    77          4
    78          1
    79          0
    80          2
    81         14
    82          6
    83         82
    84          5
    85          2
    86          3
    87          3
    88          1
    89         10
    90          1
    91          0
    92          0
    93          0
    94          2
    95          3
    96          2
    97          1
    98          0
    99          0
   101          2
   102          0
   103          2
   105          1
   107         25
   109        135
   110         22
   111          1
   120          0
   121          0
   123          1
   133          1
   136          0
   152         67
   153          7
   154          0