##TITLE=Library Entry 89541
##JCAMP-DX=Revision 4.10 
##DATA TYPE=MASS SPECTRUM
##SAMPLE DESCRIPTION=NIST Mass Spectrometry Data Center
##NAMES=HP
##CAS NAME=4-Fluorophenoxyacetic acid hydrazide
##MOLFORM=C8H9FN2O2
##CAS REGISTRY NO=1737-62-8
##MP= -300
##BP= -300
##MW= 184
##$RETENTION INDEX=0
##$CONDENSED SPECTRUM=NO
##NPOINTS= 89
##XYDATA=(XY..XY) 1 
    14          3
    15          8
    16          3
    17          4
    18         25
    26          4
    27          7
    29         42
    30         33
    31        179
    32         42
    33          3
    37          6
    38         13
    39         24
    40          3
    41          6
    42         48
    43         75
    44         32
    45        495
    46          9
    49          4
    50         47
    51         35
    52          3
    53          6
    55         14
    56         19
    57        115
    58         14
    59          5
    61         10
    62         17
    63         39
    64         21
    65          7
    66          1
    68         17
    69         39
    70         15
    71          2
    72          6
    73        335
    74         40
    75        231
    76         23
    77         31
    78          3
    79          1
    80          2
    81         26
    82         16
    83        138
    84         48
    85          3
    86          1
    92          4
    93          8
    94         31
    95        771
    96         75
    97        201
    98         13
   105         11
   106          1
   109          2
   110          4
   111         40
   112        999
   113         91
   114          5
   123         21
   124          3
   125        224
   126         22
   127          1
   138          3
   139          1
   151          3
   152          2
   154          1
   155          1
   165          1
   169         15
   170          1
   184        150
   185         15
   186          1