##TITLE=Library Entry 28229
##JCAMP-DX=Revision 4.10 
##DATA TYPE=MASS SPECTRUM
##SAMPLE DESCRIPTION=Chemical Concepts
##NAMES=HP
##CAS NAME=1-Undecanamine, N,N-dimethyl-
##MOLFORM=C13H29N
##CAS REGISTRY NO=17373-28-3
##MP= -300
##BP= -300
##MW= 199
##$RETENTION INDEX=0
##$CONDENSED SPECTRUM=NO
##NPOINTS= 62
##XYDATA=(XY..XY) 1 
    26          0
    27          7
    29         19
    30          9
    31          0
    39          4
    40          0
    41         27
    42         22
    43         24
    44         14
    45         13
    46          7
    51          0
    53          1
    54          0
    55         15
    56          5
    57         13
    58        999
    59         33
    60          0
    65          0
    67          0
    68          0
    69          4
    70          3
    71          4
    72          2
    73          0
    79          0
    81          0
    82          1
    83          1
    84         11
    85          1
    86          0
    93          0
    95          0
    96          0
    97          0
    98          0
   100          1
   109          0
   110          0
   112          0
   114          2
   123          0
   126          0
   128          1
   138          0
   140          0
   142          0
   154          0
   156          0
   170          0
   184          1
   196          0
   197          0
   198          3
   199         15
   200          2