##TITLE=Library Entry 61844
##JCAMP-DX=Revision 4.10 
##DATA TYPE=MASS SPECTRUM
##SAMPLE DESCRIPTION=NIST Mass Spectrometry Data Center, 1994
##NAMES=HP
##CAS NAME=N-Benzyl-p-anisidine
##MOLFORM=C14H15NO
##CAS REGISTRY NO=17377-95-6
##MP= -300
##BP= -300
##MW= 213
##$RETENTION INDEX=0
##$CONDENSED SPECTRUM=NO
##NPOINTS= 94
##XYDATA=(XY..XY) 1 
    12          1
    15         60
    17         21
    18         61
    26          5
    30          4
    37          6
    38         33
    39        144
    40         12
    41         92
    42          3
    50         53
    51        109
    52        114
    53         58
    54         10
    55          9
    59          4
    61          4
    62         21
    63        102
    64         83
    65        260
    66         34
    67         29
    68          6
    71          3
    72          4
    75         10
    76         22
    77        100
    78         44
    79         44
    80         37
    81         10
    84         13
    87          2
    88          3
    89         47
    90          2
    91        999
    92        120
    93         21
    94          2
    95        132
    96          9
   102          5
   103          5
   104         18
   106         15
   107         28
   108         18
   114          2
   115         22
   116          8
   117          2
   119          5
   120         20
   122        899
   123         76
   124          5
   126          2
   127          3
   128          4
   134         33
   135          9
   136         62
   137          6
   139          6
   140          4
   141         13
   142          3
   143          3
   151          2
   152          5
   153          4
   154          3
   166          8
   167         32
   168         35
   169          9
   180          8
   181          3
   196         50
   197         17
   198         77
   199         12
   210         11
   211         33
   212         65
   213        547
   214         85
   215          7