##TITLE=Library Entry 77329
##JCAMP-DX=Revision 4.10 
##DATA TYPE=MASS SPECTRUM
##SAMPLE DESCRIPTION=NIST Mass Spectrometry Data Center
##NAMES=HP
##CAS NAME=Benzenemethanol, 2-methyl-, acetate
##MOLFORM=C10H12O2
##CAS REGISTRY NO=17373-93-2
##MP= -300
##BP= -300
##MW= 164
##$RETENTION INDEX=1287
##$CONDENSED SPECTRUM=NO
##NPOINTS= 62
##XYDATA=(XY..XY) 1 
    14          1
    15          8
    26          1
    27         11
    28          1
    29          4
    31          1
    37          1
    38          5
    39         41
    40          4
    41          9
    42          6
    43        147
    44          4
    45          2
    49          1
    50         17
    51         48
    52         15
    53         13
    54          1
    55          1
    61          2
    62         10
    63         31
    64          7
    65         58
    66          5
    67          1
    73          1
    74          5
    75          4
    76          6
    77        118
    78        139
    79         72
    80          4
    85          1
    86          2
    87          2
    89         21
    90          7
    91        100
    92         11
    93         35
    94          3
   101          1
   102         14
   103        161
   104        999
   105        323
   106         25
   107         88
   108          6
   119         21
   120          5
   121         13
   122         41
   123          4
   164          6
   165          1