##TITLE=Library Entry 83172
##JCAMP-DX=Revision 4.10 
##DATA TYPE=MASS SPECTRUM
##SAMPLE DESCRIPTION=C.Djerassi ET AL. J.Am.Chem. Soc.,89,4775(1967)
##NAMES=HP
##CAS NAME=Cyclopentanone, 5-furfurylidene-2,2,3-trimethyl-
##MOLFORM=C13H16O2
##CAS REGISTRY NO=17386-72-0
##MP= -300
##BP= -300
##MW= 204
##$RETENTION INDEX=0
##$CONDENSED SPECTRUM=NO
##NPOINTS= 49
##XYDATA=(XY..XY) 1 
    41        119
    42          9
    43         21
    44         25
    50          5
    51         83
    52         52
    53         42
    55         71
    63         21
    64          9
    65         27
    67         11
    69         23
    70          9
    76         15
    77         71
    78        191
    79         32
    81         67
    83         13
    89         13
    91         42
    92         15
    93         13
    95         15
    96          9
   103         11
   105         38
   106        999
   107         83
   115         13
   119         13
   120         17
   121         23
   123          9
   133         21
   134        137
   135         23
   147         15
   160         15
   161         58
   162         13
   176         61
   177         15
   189         40
   190         13
   204        243
   205         27