##TITLE=Library Entry 44063
##JCAMP-DX=Revision 4.10 
##DATA TYPE=MASS SPECTRUM
##SAMPLE DESCRIPTION=Chemical Concepts
##NAMES=HP
##CAS NAME=5-Stannaspiro[4.4]nona-1,3-diene, 6,6,9,9-tetrakis(trimethylsilyl
)-
##MOLFORM=C20H44Si4Sn
##CAS REGISTRY NO=173849-36-0
##MP= -300
##BP= -300
##MW= 516
##$RETENTION INDEX=0
##$CONDENSED SPECTRUM=NO
##NPOINTS= 295
##XYDATA=(XY..XY) 1 
    26          2
    27          6
    29          4
    31          3
    39          4
    40         16
    41         14
    42         18
    43         27
    44          5
    45         68
    46          4
    47          1
    53          1
    55          2
    57          5
    58          4
    59         63
    60          4
    61          2
    69          4
    71          3
    72          5
    73        999
    74         70
    75         31
    76          2
    81          1
    83         28
    84          6
    85         25
    86          2
    87          4
    93          2
    95          9
    96          1
    97         12
    98          2
    99          3
   101          2
   107          2
   109         10
   111         12
   112          1
   113          4
   115          4
   116          7
   117          5
   118         11
   119          6
   120         17
   121         14
   122          2
   123          3
   124          3
   125          4
   127          5
   129          7
   131         24
   132         15
   133         37
   134         14
   135        162
   136         21
   137          8
   139         10
   141         13
   142          3
   143          6
   144          6
   145          7
   146          7
   147          4
   148          2
   149          3
   150          2
   151          1
   153          9
   154          2
   155         19
   156          3
   157         29
   158          6
   159          3
   161          6
   162          3
   163          9
   164          5
   165         13
   166          1
   167         35
   168         16
   169         15
   170         31
   171         18
   172         41
   173          8
   174          6
   175          5
   176          9
   177          5
   178          4
   179          5
   181          4
   182          3
   183          7
   184          3
   185          9
   186          1
   187          5
   188          2
   189         11
   190          4
   191         10
   192          4
   193         12
   194          1
   195          5
   196          1
   197          4
   198          1
   199          3
   200          1
   201          4
   202          1
   203          6
   204          1
   205          4
   207          3
   209         16
   210          4
   211          4
   212          2
   213          6
   214          5
   215         13
   216          7
   217          7
   218          6
   219          5
   220          1
   221          1
   222          1
   223          2
   225          3
   226          1
   227          5
   228          2
   229          8
   230          4
   231         10
   232          2
   233          4
   235          1
   237          2
   239          8
   240          3
   241         12
   242          4
   243          7
   244          3
   245          8
   246          2
   247          3
   248          1
   249          2
   251          1
   253          4
   254          3
   255          6
   256          4
   257          9
   259          3
   261          3
   263          5
   264          1
   265          2
   266          2
   267         16
   268         15
   269         30
   270         18
   271         40
   272          6
   273          8
   274          2
   275         10
   276          1
   277          5
   279          2
   281          1
   283          2
   284          1
   285          4
   286          2
   287          5
   288          3
   289          3
   290          4
   291          3
   292          4
   293          2
   294          1
   299          2
   301          2
   302          1
   303          4
   305          2
   311          1
   312          1
   313          2
   314          1
   315          2
   317          2
   319          1
   321         22
   322          8
   323          8
   324          2
   325         74
   326         49
   327        125
   328         71
   329        180
   330         38
   331         41
   332          5
   333         30
   334          6
   335          8
   336          2
   337          2
   338          1
   339          4
   340         15
   341         17
   342         29
   343         25
   344         35
   345         10
   346          8
   347          3
   348          6
   349          1
   351          4
   352          2
   353          2
   355          1
   371          2
   372          2
   373          4
   374          3
   375          6
   376          2
   377          1
   387          1
   389          1
   391          1
   399          1
   401          1
   412          1
   413          2
   425          1
   427          2
   439          1
   441          3
   442          2
   443          3
   444          2
   445          1
   447          1
   495          1
   497         22
   498         18
   499         40
   500         24
   501         52
   502         19
   503         16
   504          5
   505          9
   506          5
   507          2
   508          1
   512         14
   513         14
   514         28
   515         21
   516         37
   517         16
   518         12
   519          3
   520          7
   521          2
   522          1