##TITLE=Library Entry 32171
##JCAMP-DX=Revision 4.10 
##DATA TYPE=MASS SPECTRUM
##SAMPLE DESCRIPTION=A.A.Kutin, Moscow, Russia
##NAMES=HP
##CAS NAME=But-3-yn-2-ol, 2-(bicyclo[2.2.1]hept-2-en-5-yl)-
##MOLFORM=C11H14O
##CAS REGISTRY NO=17385-45-4
##MP= -300
##BP= -300
##MW= 162
##$RETENTION INDEX=0
##$CONDENSED SPECTRUM=NO
##NPOINTS= 88
##XYDATA=(XY..XY) 1 
    33         24
    34          1
    37          2
    38          7
    39         66
    40         40
    41         32
    43         98
    44          7
    45          2
    49          0
    50          8
    51         32
    52         14
    53         40
    55         15
    56          6
    57          4
    61          2
    62          4
    63         15
    66        999
    69         70
    71         13
    72          0
    74          2
    76          8
    77        128
    78         31
    79         96
    80         21
    81         58
    82         19
    83          5
    84          9
    85          1
    86          0
    88          1
    89          4
    91        139
    92         32
    93         89
    94          8
    95         17
    96         22
    97          6
    98          0
    99          0
   102          2
   103          5
   104         10
   105         18
   106          1
   108         28
   109          2
   110          0
   113          0
   115         10
   116          7
   117         21
   118         19
   119         28
   120          3
   121          8
   122          1
   123          0
   127          8
   128         12
   129         81
   130          5
   131          3
   132          1
   133          4
   134          5
   135          0
   141          1
   142          1
   143         14
   144          5
   145          3
   147         33
   148          5
   149          0
   158          1
   160          0
   161          4
   162          5
   163          0