##TITLE=Library Entry 51639
##JCAMP-DX=Revision 4.10 
##DATA TYPE=MASS SPECTRUM
##SAMPLE DESCRIPTION=D.HENNEBERG, MAX-PLANCK INSTITUTE, MULHEIM, WEST GERMAN
Y
##NAMES=HP
##CAS NAME=Cyclobuta[1,2:3,4]dicyclooctene, 1,2,3,4,5,6,6a.alpha.,6b.alpha.,
7,8,9,10,11,12,12a.alpha.,12b.beta.-hexadecahydro-
##MOLFORM=C16H28
##CAS REGISTRY NO=17385-55-6
##MP= -300
##BP= -300
##MW= 220
##$RETENTION INDEX=0
##$CONDENSED SPECTRUM=NO
##NPOINTS= 66
##XYDATA=(XY..XY) 1 
    27         63
    28        138
    29         96
    32         20
    39        115
    40         25
    41        395
    42         37
    43         57
    44         16
    51         16
    52         16
    53         88
    54        288
    55        346
    56         56
    57         26
    65         40
    66         80
    67        563
    68        277
    69        233
    70         23
    77         56
    78         26
    79        136
    80        110
    81        570
    82        999
    83        108
    91         46
    92         15
    93         64
    94         51
    95        291
    96        161
    97         50
   105         16
   106         11
   107         33
   108         67
   109         77
   110        610
   111        216
   112         21
   121         41
   122         25
   123         31
   124         33
   125         26
   135         41
   136         20
   137         14
   138         13
   149         27
   150         13
   163         18
   164         11
   177         11
   178          9
   191         14
   192         48
   193         14
   220         89
   221         20
   222          8