##TITLE=Library Entry 71092
##JCAMP-DX=Revision 4.10 
##DATA TYPE=MASS SPECTRUM
##SAMPLE DESCRIPTION=J. DEUTSCH,DEP. PHARMACEUT. CHEM.,HEBREW UNIV.,JERUSALE
M,ISR
##NAMES=HP
##CAS NAME=1,1'-Bicyclohexyl-2,2'-diol
##MOLFORM=C12H22O2
##CAS REGISTRY NO=17385-36-3
##MP= -300
##BP= -300
##MW= 198
##$RETENTION INDEX=0
##$CONDENSED SPECTRUM=NO
##NPOINTS= 22
##XYDATA=(XY..XY) 1 
    41        350
    43        150
    53        100
    54        100
    55        260
    57        200
    67        400
    68        100
    69        100
    70        150
    80        150
    81        250
    83        150
    93        100
    94        100
    95        150
    97        100
    98        999
    99         50
   162        100
   180         50
   198         10