##TITLE=Library Entry 59323
##JCAMP-DX=Revision 4.10 
##DATA TYPE=MASS SPECTRUM
##SAMPLE DESCRIPTION=Japan AIST/NIMC Database- Spectrum MS-NW-2377
##NAMES=HP
##CAS NAME=Carbobenzyloxyglycine 4-nitrophenyl ester
##MOLFORM=C16H14N2O6
##CAS REGISTRY NO=1738-86-9
##MP= -300
##BP= -300
##MW= 330
##$RETENTION INDEX=0
##$CONDENSED SPECTRUM=NO
##NPOINTS= 126
##XYDATA=(XY..XY) 1 
    12          4
    13          1
    14          3
    15          5
    16          6
    17          1
    18          3
    25          3
    26         26
    27         81
    28        263
    29         20
    30         27
    31          6
    32          4
    36          1
    37          9
    38         28
    39         83
    40          7
    41         11
    42         12
    43         13
    44        112
    45          4
    46          2
    49          4
    50         41
    51         64
    52         37
    53         25
    54          8
    55         12
    56        477
    57         16
    58          2
    59          4
    60          2
    61          8
    62         18
    63         59
    64         33
    65        139
    66          9
    67          2
    68          2
    69          1
    71          3
    73          3
    74         14
    75         17
    76         16
    77        111
    78         31
    79        192
    80         24
    81         16
    82          4
    83         34
    84          7
    85          2
    86          2
    87          2
    88          3
    89         29
    90         38
    91        999
    92         93
    93         26
    94          4
    95          1
    96          1
    97          1
    99          4
   101          2
   102          1
   103          4
   104          2
   105         25
   106         20
   107        171
   108        259
   109         68
   110          5
   111          1
   114          5
   115          1
   117          2
   118          5
   119          9
   120         14
   121          2
   122          7
   123         74
   124          6
   125          1
   134          2
   135          2
   136          1
   138          1
   139         73
   140          6
   141          1
   148          2
   150          9
   151          1
   152          1
   162          1
   163          4
   164          5
   165          2
   167          1
   178          2
   179          2
   180          2
   191          5
   192         34
   193          4
   194         34
   195          4
   196          1
   197          1
   206          2
   222         15
   223          5
   229          4