##TITLE=Library Entry 20139
##JCAMP-DX=Revision 4.10 
##DATA TYPE=MASS SPECTRUM
##SAMPLE DESCRIPTION=NO AUTHOR
##NAMES=HP
##CAS NAME=Ergosta-4,7,22-trien-3-one
##MOLFORM=C28H42O
##CAS REGISTRY NO=17398-57-1
##MP= -300
##BP= -300
##MW= 394
##$RETENTION INDEX=0
##$CONDENSED SPECTRUM=NO
##NPOINTS= 100
##XYDATA=(XY..XY) 1 
    39         58
    41        425
    43        694
    53         83
    55        999
    56         56
    57        219
    67        332
    68         58
    69        965
    70         93
    71         88
    77         95
    79        208
    81        394
    82        132
    83        270
    91        242
    93        220
    94         52
    95        300
    96         71
    97         97
   105        209
   107        186
   109        266
   115         60
   117        128
   118         56
   119        159
   121         97
   122         57
   123        134
   124         67
   125        163
   128         62
   129        123
   130         56
   131        234
   132         59
   133        163
   135         72
   136         94
   137         77
   141         59
   142         52
   143        140
   144         65
   145        249
   146         72
   147        162
   149         50
   155        128
   156         57
   157        136
   158         52
   159        155
   160         55
   161        116
   169         87
   171        129
   172         53
   173        232
   174         82
   175        156
   176         57
   183         97
   185        141
   187         67
   197         71
   198         91
   199         89
   201         54
   209         59
   211         87
   213        102
   215        144
   223         66
   225        115
   226         62
   227        196
   228         57
   241         77
   242         89
   243        100
   251         95
   252         54
   253         66
   255         70
   267        546
   268        184
   269        463
   270        307
   271         81
   296        146
   297         70
   350        180
   351        153
   394        667
   395        211