##TITLE=Library Entry 79616
##JCAMP-DX=Revision 4.10 
##DATA TYPE=MASS SPECTRUM
##SAMPLE DESCRIPTION=G. Lange, Inst. Org. Chem., Univ. Wurzburg, Germany
##NAMES=HP
##CAS NAME=5,8-Methano-3H-2-benzopyran-3-one, 4,4a,5,6,7,8-hexahydro-4-isopr
opyl-1-phenyl-, (4.alpha.,4a.beta.,5.alpha.,8.alpha.)-
##MOLFORM=C19H22O2
##CAS REGISTRY NO=173974-11-3
##MP= -300
##BP= -300
##MW= 282
##$RETENTION INDEX=0
##$CONDENSED SPECTRUM=NO
##NPOINTS= 158
##XYDATA=(XY..XY) 1 
    36         16
    37         27
    38         33
    39         95
    40         76
    41        178
    42         31
    43        131
    44        197
    45         22
    46          9
    48         11
    49         17
    50         64
    51        132
    52         14
    53         29
    54          7
    55         79
    56         19
    57         58
    58          5
    60          8
    61         11
    62          9
    63         22
    64         18
    65         91
    66         12
    67         46
    68          9
    69        173
    70         24
    71         36
    72          5
    73         15
    74         24
    75          7
    76         26
    77        498
    78         45
    79         64
    80          6
    81         22
    82         12
    83         75
    84         40
    85         16
    86         18
    89         16
    91        103
    92         31
    93         59
    95         26
    96          5
    97         22
    98         15
    99          8
   102          9
   103         18
   104         15
   105        999
   106         71
   107         26
   108          5
   109         12
   111         10
   113          6
   115         50
   116          8
   117         15
   119         19
   121         19
   127         13
   128         23
   129         21
   131         12
   132          5
   133         15
   134         15
   135          9
   136          5
   139         14
   141         55
   142         57
   143          9
   144          5
   145         13
   146          8
   147          7
   149         45
   150          8
   151          8
   152         21
   153         25
   154         13
   155         25
   156         11
   157         17
   159         13
   162          6
   165         46
   166          8
   167         21
   168          6
   169         50
   170        173
   171        135
   172         12
   173          8
   175          6
   176          6
   177         20
   178         12
   179         10
   180          6
   181         19
   182         14
   183         72
   184         26
   185         40
   186          7
   187         41
   188          8
   193         19
   194         12
   195         12
   197         26
   198         74
   199        360
   200         72
   201          7
   207         10
   208          8
   209         12
   210         10
   211         87
   212         18
   213         13
   221         13
   222          5
   225         38
   226         16
   236          8
   237          6
   239        151
   240         39
   241         11
   249          6
   253         20
   254         59
   255          6
   263          5
   267         11
   281          8
   282        281
   283         64
   284          9