##TITLE=Library Entry 81426
##JCAMP-DX=Revision 4.10 
##DATA TYPE=MASS SPECTRUM
##SAMPLE DESCRIPTION=G. Lange, Inst. Org. Chem., Univ. Wurzburg, Germany
##NAMES=HP
##CAS NAME=5,8-Methano-3H-2-benzopyran-3-one, 4,4a,5,6,7,8-hexahydro-4-(4-ni
trophenyl)-1-phenyl-, (4.alpha.,4a.beta.,5.alpha.,8.alpha.)-
##MOLFORM=C22H19NO4
##CAS REGISTRY NO=173974-09-9
##MP= -300
##BP= -300
##MW= 361
##$RETENTION INDEX=0
##$CONDENSED SPECTRUM=NO
##NPOINTS= 118
##XYDATA=(XY..XY) 1 
    39         25
    41         23
    43          5
    44         17
    45          6
    50          6
    51         40
    52          6
    53         12
    55         13
    59          7
    63         26
    64          5
    65         78
    66         10
    67         19
    74          6
    76         19
    77        456
    78         46
    79         18
    88          5
    89         95
    90         18
    91         45
    92         27
    93         67
    94          5
   101          5
   102         11
   103         12
   104         14
   105        999
   106         81
   107         12
   113          5
   114          6
   115         48
   116         16
   117         59
   118          9
   119          7
   120          6
   121          8
   126          5
   127         16
   128         38
   129         16
   131         11
   132          5
   133         92
   134         10
   139         10
   140          6
   141         47
   142         52
   143         10
   144          6
   145          6
   147         63
   148          6
   150         10
   151          7
   152         28
   153         26
   154         14
   155         10
   157          5
   163        648
   164         65
   165         30
   166         12
   167         13
   168         10
   169         31
   170        562
   171         91
   172          9
   178          7
   179          8
   180          7
   181         11
   182          6
   183         24
   184          8
   189          5
   197         31
   198        294
   199        192
   200         30
   201          5
   202         13
   203          5
   215         13
   216          5
   226          6
   228          7
   239          7
   240          9
   241          5
   242          5
   256         26
   257          6
   291          6
   292          5
   304         17
   305          6
   316          9
   320          9
   332          8
   333         30
   334          6
   343          5
   344         18
   360         17
   361        320
   362         79
   363         11