##TITLE=Library Entry 18735
##JCAMP-DX=Revision 4.10 
##DATA TYPE=MASS SPECTRUM
##SAMPLE DESCRIPTION=Exported from NIST MS Search
##NAMES=HP
##CAS NAME=4H-Thiopyran-4-one, 1,1-dioxide
##MOLFORM=C5H4O3S
##CAS REGISTRY NO=17396-38-2
##MP= -300
##BP= -300
##MW= 144
##$RETENTION INDEX=0
##$CONDENSED SPECTRUM=NO
##NPOINTS= 64
##XYDATA=(XY..XY) 1 
    25         67
    26        542
    27         57
    28          4
    29         67
    37         43
    38         23
    39        101
    41         80
    42        101
    43        124
    44         70
    45        313
    46        188
    48        481
    49         64
    50        165
    51        151
    52        138
    53        488
    54        999
    55        208
    56         43
    57        390
    58        585
    59        117
    60         40
    61         57
    62         97
    65        127
    67         26
    68        276
    69        202
    70         64
    71        973
    72         37
    73         64
    74        501
    76         30
    77         13
    78         20
    80        134
    81         40
    82         33
    83         33
    84        175
    85         10
    86        606
    87        198
    88         70
    90         43
    93         10
    95         30
    96         67
    97          6
    99        134
   102         64
   112         20
   115         26
   118         70
   127         30
   144        558
   145         26
   146         23