##TITLE=Library Entry 98529
##JCAMP-DX=Revision 4.10 
##DATA TYPE=MASS SPECTRUM
##SAMPLE DESCRIPTION=G. Lange, Inst. Org. Chem., Univ. Wurzburg, Germany
##NAMES=HP
##CAS NAME=5H-Methano-3H-2-benzopyran-3-one, 4,4a,5,6,7,8-hexahydro-1-(4-met
hoxyphenyl)-4-phenyl-, (4.alpha.,4a.beta.,5.alpha.,8.alpha.)-
##MOLFORM=C23H22O3
##CAS REGISTRY NO=173973-90-5
##MP= -300
##BP= -300
##MW= 346
##$RETENTION INDEX=0
##$CONDENSED SPECTRUM=NO
##NPOINTS= 79
##XYDATA=(XY..XY) 1 
    38         22
    39         78
    40         18
    41        184
    42         52
    43        233
    44         61
    50         20
    51         35
    53         25
    54         17
    55        141
    56        532
    57        119
    61        145
    63         38
    64         46
    65         52
    67         35
    69         27
    70        110
    71         54
    76         24
    77        232
    78         27
    79         31
    81         23
    82         22
    83         34
    84          7
    85         15
    89         34
    90        146
    91         76
    92        117
    93         21
    98         78
    99        146
   100         38
   103         24
   104         12
   105         59
   107        108
   108         19
   115         34
   118        999
   119         93
   120          8
   121         17
   127          8
   128         24
   129         19
   133         11
   135        700
   136         61
   141         19
   142         14
   143         80
   150          7
   151         82
   152         34
   153         16
   154          7
   165         10
   171          7
   172         10
   181         11
   197          7
   199         12
   200        105
   201         21
   213          7
   224         64
   225          7
   228         80
   229         38
   318         12
   346        194
   347         45