##TITLE=Library Entry 14595
##JCAMP-DX=Revision 4.10 
##DATA TYPE=MASS SPECTRUM
##SAMPLE DESCRIPTION=DENNIS H SMITH DEPT OF CHEM STANFORD UNIV STANFORD CALI
F 9430
##NAMES=HP
##CAS NAME=Pregna-4,7-diene-3,20-dione
##MOLFORM=C21H28O2
##CAS REGISTRY NO=17398-60-6
##MP= -300
##BP= -300
##MW= 312
##$RETENTION INDEX=0
##$CONDENSED SPECTRUM=NO
##NPOINTS= 167
##XYDATA=(XY..XY) 1 
    40         14
    41        161
    42          7
    43        999
    45         26
    51         17
    52         12
    53         76
    55        178
    57         16
    58         70
    63         11
    65         52
    66         11
    67        108
    69         52
    71         85
    77        132
    78         36
    79        142
    80         25
    81        145
    83         30
    84         18
    85        142
    86         36
    89         12
    90          7
    91        237
    92         36
    93        110
    94         28
    95         95
    96          9
    97         18
   103         35
   104         24
   105        163
   106         34
   107         86
   108         27
   109         56
   111         18
   115         74
   116         42
   117        110
   118         30
   119        109
   120         27
   121         59
   122         28
   123         69
   124         83
   125         15
   127         27
   128         84
   129        116
   130         43
   131        128
   132         40
   133         78
   134         40
   135         50
   136         18
   137         53
   138         15
   141         72
   142         44
   143        104
   144         37
   145        137
   146         52
   147         90
   148         29
   149         15
   152         15
   153         29
   154         24
   155         63
   156         32
   157         87
   158         33
   159         91
   160         33
   161         58
   162         19
   163         17
   165         22
   166         24
   167         28
   168         21
   169         57
   170         21
   171         83
   172         34
   173         69
   174         48
   175         70
   176         40
   177         22
   178         14
   179         17
   180         11
   181         28
   182         15
   183         56
   184         36
   185         96
   186         31
   187         42
   188         16
   189         48
   190         14
   191          9
   193         13
   194          8
   195         29
   196         15
   197         53
   198         33
   199         86
   200         44
   201         15
   202          7
   207         11
   208          9
   209         81
   210         41
   211         57
   212         57
   213         81
   214         30
   215         18
   221         13
   223         74
   224         31
   225        123
   226         42
   227        494
   228         94
   229         31
   230          8
   237         23
   238          9
   239         70
   240         17
   241         51
   242         54
   251         33
   252         11
   253         30
   254         26
   255         78
   265         12
   266          8
   269        132
   270        120
   272         14
   279         62
   283          9
   284         47
   294         54
   295         22
   297        567
   310          9
   311         10
   312        808