##TITLE=Library Entry 77578
##JCAMP-DX=Revision 4.10 
##DATA TYPE=MASS SPECTRUM
##SAMPLE DESCRIPTION=A.A.Kutin, Moscow, Russia
##NAMES=HP
##CAS NAME=Propanedinitrile, 2-(1-cyclopropylethylidene)-
##MOLFORM=C8H8N2
##CAS REGISTRY NO=17407-30-6
##MP= -300
##BP= -300
##MW= 132
##$RETENTION INDEX=0
##$CONDENSED SPECTRUM=NO
##NPOINTS= 33
##XYDATA=(XY..XY) 1 
    37         24
    38        160
    39        477
    40        438
    41        296
    43         31
    44         39
    50         41
    51        160
    52        113
    53         39
    55         29
    57         42
    63        151
    64        113
    65        255
    66         80
    67         42
    69         13
    75         28
    76        100
    77        263
    78        572
    79         80
    90        145
    91         50
    92        108
   104        999
   105        708
   106         93
   117         28
   131        431
   132        764