##TITLE=Library Entry 34446
##JCAMP-DX=Revision 4.10 
##DATA TYPE=MASS SPECTRUM
##SAMPLE DESCRIPTION=CARL DJERASSI DEPT OF CHEM STANFORD UNIV STANFORD CALIF
 94305
##NAMES=HP
##CAS NAME=2(1H)-Naphthalenone, 4a,5,6,7,8,8a-hexahydro-7.alpha.-isopropyl-4
a.beta.,8a.beta.-dimethyl-
##MOLFORM=C15H24O
##CAS REGISTRY NO=17408-66-1
##MP= -300
##BP= -300
##MW= 220
##$RETENTION INDEX=0
##$CONDENSED SPECTRUM=NO
##NPOINTS= 87
##XYDATA=(XY..XY) 1 
    41        920
    42         50
    43        400
    44         90
    45        220
    51         40
    52         30
    53        200
    54         30
    55        520
    56         20
    57         90
    59        270
    63         10
    65        110
    66         30
    67        410
    68         60
    69        999
    70         50
    71         30
    73         10
    74        150
    77        230
    78         50
    79        280
    80         80
    81        330
    82        130
    83        100
    84         10
    85         30
    91        240
    92         40
    93        420
    94        140
    95        700
    96        260
    97         90
   103         10
   105        100
   106         30
   107        390
   108        210
   109        340
   110         90
   111         50
   115         10
   117         20
   119         60
   120         30
   121        290
   122        110
   123        150
   124         90
   125         20
   131         20
   133         50
   134         20
   135        290
   136        260
   137         80
   138         20
   145         20
   147         40
   148         40
   149        210
   150        100
   151        100
   152         30
   159         60
   161         30
   162         20
   163         60
   164         60
   165         30
   177        630
   178        570
   179         90
   187         20
   192         30
   205         80
   206         20
   207         20
   218         20
   220        220
   221         40