##TITLE=Library Entry 59626
##JCAMP-DX=Revision 4.10 
##DATA TYPE=MASS SPECTRUM
##SAMPLE DESCRIPTION=NIST Mass Spectrometry Data Center, 2010
##NAMES=HP
##CAS NAME=N-(Benzyloxy)-2,2,2-trifluoroacetamide
##MOLFORM=C9H8F3NO2
##CAS REGISTRY NO=174075-91-3
##MP= -300
##BP= -300
##MW= 219
##$RETENTION INDEX=0
##$CONDENSED SPECTRUM=NO
##NPOINTS= 55
##XYDATA=(XY..XY) 1 
    26          1
    27          4
    28          1
    29          4
    30          4
    31          2
    37          2
    38          5
    39         33
    40          2
    41          8
    42          1
    43          4
    44          8
    46          1
    47          1
    49          2
    50         30
    51         64
    52         14
    53          4
    61          2
    62          7
    63         25
    64          7
    65        119
    66          7
    69         49
    70          1
    73          1
    74          8
    75          5
    76          6
    77         99
    78         19
    79         11
    80          1
    85          1
    86          1
    87          1
    89         20
    90         10
    91        999
    92         80
    93          3
    97          3
   105         32
   106         16
   107          5
   108          3
   109          1
   127          2
   150          1
   202          2
   219          1