##TITLE=Library Entry 41720
##JCAMP-DX=Revision 4.10 
##DATA TYPE=MASS SPECTRUM
##SAMPLE DESCRIPTION=D.J.MANNING NATIONAL INSTIT. FOR RES. IN DAIRYING, READ
ING, UK
##NAMES=HP
##CAS NAME=Butyric acid, 2-hydroxy-3-methyl-, methyl ester
##MOLFORM=C6H12O3
##CAS REGISTRY NO=17417-00-4
##MP= -300
##BP= -300
##MW= 132
##$RETENTION INDEX=889
##$CONDENSED SPECTRUM=NO
##NPOINTS= 96
##XYDATA=(XY..XY) 1 
    25          1
    26          8
    27         73
    28         36
    29         73
    30         18
    31         73
    32          7
    33         16
    37          2
    38          5
    39         42
    40          8
    41         89
    42         16
    43        203
    44         20
    45         34
    46          1
    47          2
    48          0
    49          0
    50          1
    51          1
    52          1
    53          6
    54          3
    55        203
    56         12
    57         46
    58         30
    59         81
    60          3
    61         46
    62          6
    63          1
    64          0
    65          0
    66          0
    67          1
    68          0
    69          6
    70          2
    71         16
    72         71
    73        999
    74         44
    75         34
    76          2
    77          0
    78          0
    79          0
    80          0
    81          1
    82          1
    83          5
    84          2
    85         16
    86          1
    87          1
    88          0
    89         38
    90        469
    91         18
    92          3
    93          0
    94          0
    95          0
    96          0
    97          0
    98          0
    99          3
   100          1
   101          2
   102          0
   103         18
   104          4
   105          0
   106          0
   107          0
   108          0
   109          0
   110          0
   111          0
   112          0
   113          1
   114          3
   115          0
   116          0
   117          5
   118          0
   130          1
   131          0
   132         14
   133          1
   134          0