##TITLE=Library Entry 1319
##JCAMP-DX=Revision 4.10 
##DATA TYPE=MASS SPECTRUM
##SAMPLE DESCRIPTION=NIST Mass Spectrometry Data Center, 1994
##NAMES=HP
##CAS NAME=2-Fluoro-5-nitrobenzonitrile
##MOLFORM=C7H3FN2O2
##CAS REGISTRY NO=17417-09-3
##MP= -300
##BP= -300
##MW= 166
##$RETENTION INDEX=0
##$CONDENSED SPECTRUM=NO
##NPOINTS= 61
##XYDATA=(XY..XY) 1 
    16          6
    25          6
    30        999
    33         18
    36         11
    37         69
    38         64
    39         26
    44          5
    46         61
    48         10
    49         50
    50        195
    51         65
    52         28
    55         11
    56         52
    57        107
    58          9
    60          8
    61         62
    62         52
    63         40
    64         22
    68        102
    69        147
    70         27
    72          6
    73         34
    74         49
    75        217
    76         80
    77          6
    79          4
    80         16
    81         59
    82         61
    83          4
    85          5
    86         15
    87         24
    88         21
    92         35
    93        223
    94         85
    95          6
    99         98
   100        627
   101         59
   106         11
   108        319
   109         26
   118         11
   120        829
   121         62
   136        239
   137         20
   150         32
   166        710
   167         59
   168          3