##TITLE=Library Entry 76412
##JCAMP-DX=Revision 4.10 
##DATA TYPE=MASS SPECTRUM
##SAMPLE DESCRIPTION=Japan AIST/NIMC Database- Spectrum MS-IW-3553
##NAMES=HP
##CAS NAME=Propane, 1,1-diethoxy-2-methyl-
##MOLFORM=C8H18O2
##CAS REGISTRY NO=1741-41-9
##MP= -300
##BP= -300
##MW= 146
##$RETENTION INDEX=859
##$CONDENSED SPECTRUM=NO
##NPOINTS= 67
##XYDATA=(XY..XY) 1 
    13          1
    14          5
    15         26
    16          1
    17          2
    18         10
    19         27
    25          2
    26         27
    27        263
    28         71
    29        428
    30         19
    31        241
    32          3
    33          1
    37          3
    38          8
    39         82
    40         14
    41        234
    42         78
    43        699
    44         37
    45        324
    46         46
    47        848
    48         12
    49          5
    50          1
    51          1
    52          1
    53         10
    54          8
    55        304
    56         42
    57        142
    58         15
    59         20
    60          8
    61         11
    69          4
    70         12
    71        211
    72         86
    73        952
    74         52
    75        809
    76         27
    77          4
    83          1
    85         19
    86          2
    87          4
    88         52
    89         51
    90          2
    99          3
   100         33
   101        808
   102         53
   103        999
   104         62
   105          6
   118          2
   130          1
   145          7