##TITLE=Library Entry 3933
##JCAMP-DX=Revision 4.10 
##DATA TYPE=MASS SPECTRUM
##SAMPLE DESCRIPTION=G. Lange, Inst. Org. Chem., Univ. Wurzburg, Germany
##NAMES=HP
##CAS NAME=Benzene, [(1,2-dimethyl-1-propenyl)sulfinyl]-
##MOLFORM=C11H14OS
##CAS REGISTRY NO=17414-14-1
##MP= -300
##BP= -300
##MW= 194
##$RETENTION INDEX=0
##$CONDENSED SPECTRUM=NO
##NPOINTS= 70
##XYDATA=(XY..XY) 1 
    38          7
    39        138
    40         24
    41        999
    42         43
    43         89
    45         30
    47          7
    50         32
    51        114
    52         16
    53         85
    54          9
    55         18
    57         57
    58          9
    59         54
    63         23
    65         55
    66         36
    67         69
    68         10
    69        188
    70         12
    71          6
    73         15
    74          7
    75          6
    76          5
    77         82
    78        202
    79         15
    84         18
    85         32
    91         27
    97         17
   108          5
   109         37
   110        204
   111         21
   112          9
   115          9
   116         40
   117         14
   119         10
   123         10
   125         14
   126        157
   127         15
   128         16
   129         11
   131          7
   135         31
   143         18
   144         25
   145         23
   146          9
   149         13
   151         49
   152          5
   161          7
   163         10
   175          7
   176          7
   177        140
   178         41
   179          9
   194        120
   195         17
   196          6