##TITLE=Library Entry 63497
##JCAMP-DX=Revision 4.10 
##DATA TYPE=MASS SPECTRUM
##SAMPLE DESCRIPTION=Japan AIST/NIMC Database- Spectrum MS-IW-6529
##NAMES=HP
##CAS NAME=2-(p-(Benzyloxy)phenoxy)-2-methylpropionic acid
##MOLFORM=C17H18O4
##CAS REGISTRY NO=17413-75-1
##MP= -300
##BP= -300
##MW= 286
##$RETENTION INDEX=0
##$CONDENSED SPECTRUM=NO
##NPOINTS= 87
##XYDATA=(XY..XY) 1 
    15          1
    26          2
    27          5
    28          3
    29          1
    37          1
    38          2
    39         21
    40          4
    41         26
    42          3
    43          9
    44          3
    45          5
    50          3
    51          7
    52          4
    53          5
    54          4
    55          4
    57          1
    58          3
    59          6
    62          1
    63          9
    64          7
    65         60
    66          4
    68          1
    69         17
    70          3
    75          1
    76          2
    77          5
    78          9
    79          2
    80          1
    81          9
    82          3
    85          1
    86         24
    87         40
    88          3
    89          9
    90          6
    91        999
    92         91
    93          4
    94          2
   105          1
   107          1
   108          4
   109         49
   110         15
   111          1
   115          1
   122          4
   123          1
   128          1
   129          1
   135          2
   141          1
   149          1
   150          2
   151          1
   152          1
   153          2
   165          1
   171          1
   178          3
   181          2
   182          1
   184          1
   195          1
   197          1
   198          1
   199          6
   200        195
   201         28
   202          2
   240          3
   241         18
   242          3
   268          2
   286        144
   287         27
   288          3