##TITLE=Library Entry 30179
##JCAMP-DX=Revision 4.10 
##DATA TYPE=MASS SPECTRUM
##SAMPLE DESCRIPTION=ATLAS OF MASS SPECTRA OF ORGANIC COMPOUNDS, V. A. KOPTY
UG, ED.
##NAMES=HP
##CAS NAME=Hydrazine, trimethyl-
##MOLFORM=C3H10N2
##CAS REGISTRY NO=1741-01-1
##MP= -300
##BP= -300
##MW= 74
##$RETENTION INDEX=572
##$CONDENSED SPECTRUM=NO
##NPOINTS= 22
##XYDATA=(XY..XY) 1 
    27         28
    28         36
    29         34
    30        325
    31         58
    32         76
    36         17
    40         11
    41         21
    42        265
    43        120
    44        169
    45         23
    46         26
    57         31
    58         16
    59        999
    60         32
    71          7
    73         25
    74        615
    75         41