##TITLE=Library Entry 69226
##JCAMP-DX=Revision 4.10 
##DATA TYPE=MASS SPECTRUM
##SAMPLE DESCRIPTION=Japan AIST/NIMC Database- Spectrum MS-IW-7721
##NAMES=HP
##CAS NAME=1,4-Dihydro-4-oxopyridazine
##MOLFORM=C4H4N2O
##CAS REGISTRY NO=17417-57-1
##MP= -300
##BP= -300
##MW= 96
##$RETENTION INDEX=0
##$CONDENSED SPECTRUM=NO
##NPOINTS= 43
##XYDATA=(XY..XY) 1 
    12          2
    13          6
    14         13
    15          1
    17          1
    18          8
    24          1
    25          6
    26         16
    27         51
    28        168
    29          9
    31          1
    34          5
    36          2
    37          7
    38         18
    39         28
    40         80
    41         84
    42        196
    43          7
    44          6
    48          1
    49          2
    50          5
    51          8
    52          4
    53         10
    54          4
    55          1
    66          1
    67          7
    68         57
    69        422
    70         35
    71          2
    77          1
    78          2
    80          1
    96        999
    97         87
    98          5