##TITLE=Library Entry 85056
##JCAMP-DX=Revision 4.10 
##DATA TYPE=MASS SPECTRUM
##SAMPLE DESCRIPTION=CARL DJERASSI DEPT OF CHEM STANFORD UNIV STANFORD CALIF
 94305
##NAMES=HP
##CAS NAME=5H-Inden-5-one, 1,2,3,3a,4,7a-hexahydro-7a-methyl-, trans-
##MOLFORM=C10H14O
##CAS REGISTRY NO=17429-25-3
##MP= -300
##BP= -300
##MW= 150
##$RETENTION INDEX=0
##$CONDENSED SPECTRUM=NO
##NPOINTS= 49
##XYDATA=(XY..XY) 1 
    41        495
    42         29
    43         29
    44         19
    50         39
    51        138
    52         79
    53        237
    54         59
    55        207
    56          9
    63         29
    65        128
    66        118
    67        544
    68        306
    69        534
    70         19
    77        227
    78         79
    79        495
    80        287
    81        267
    82        158
    83          9
    91        188
    92         39
    93        564
    94        405
    95        702
    96        108
    97         19
   103          9
   105         39
   106         59
   107        277
   108        999
   109        118
   117         29
   119          9
   120          9
   121         69
   122        217
   123         19
   135        148
   136         19
   149         19
   150        237
   151         29