##TITLE=Library Entry 3800
##JCAMP-DX=Revision 4.10 
##DATA TYPE=MASS SPECTRUM
##SAMPLE DESCRIPTION=CARL DJERASSI DEPT OF CHEM STANFORD UNIV STANFORD CALIF
 94305
##NAMES=HP
##CAS NAME=2(1H)-Naphthalenone, 4a,5,8,8a-tetrahydro-1,1,4a-trimethyl-, tran
s-
##MOLFORM=C13H18O
##CAS REGISTRY NO=17429-27-5
##MP= -300
##BP= -300
##MW= 190
##$RETENTION INDEX=0
##$CONDENSED SPECTRUM=NO
##NPOINTS= 104
##XYDATA=(XY..XY) 1 
    40        130
    41        999
    42         80
    43        210
    44         20
    45         20
    47         10
    50         80
    51        270
    52        140
    53        390
    54         70
    55        330
    56         30
    57         30
    58         30
    59         20
    60         20
    62         20
    63         90
    64         30
    65        260
    66        100
    67        280
    68         40
    69        170
    70         30
    71         20
    72         60
    73         10
    74         20
    75         20
    76         20
    77        520
    78        170
    79        350
    80        290
    81        140
    82        200
    83         50
    84         10
    85         10
    89         30
    90         20
    91        750
    92        150
    93        999
    94        120
    95        130
    96        110
    97         20
    98         20
   102         20
   103         60
   104         30
   105        260
   106        260
   107        130
   108        860
   109        230
   110         40
   111         10
   115         70
   116         30
   117         60
   118        210
   119        480
   120        250
   121        180
   122         50
   123         30
   127         20
   128         40
   129         40
   130         20
   131         50
   132         30
   133        110
   134        580
   135        100
   136        210
   137         30
   138         20
   141         20
   142         20
   143         10
   144         10
   145         30
   146         20
   147        130
   148         30
   149         20
   157         30
   158         10
   159         30
   160         20
   161         20
   162         40
   174         20
   175         50
   176         20
   190        200
   191         40
   192         40