##TITLE=Library Entry 49586
##JCAMP-DX=Revision 4.10 
##DATA TYPE=MASS SPECTRUM
##SAMPLE DESCRIPTION=CARL DJERASSI DEPT OF CHEM STANFORD UNIV STANFORD CALIF
 94305
##NAMES=HP
##CAS NAME=2(1H)-Naphthalenone, 4a,5,8,8a-tetrahydro-4a-methyl-, trans-
##MOLFORM=C11H14O
##CAS REGISTRY NO=17429-21-9
##MP= -300
##BP= -300
##MW= 162
##$RETENTION INDEX=0
##$CONDENSED SPECTRUM=NO
##NPOINTS= 84
##XYDATA=(XY..XY) 1 
    41        820
    42         80
    43         90
    44         20
    45         10
    50        140
    51        400
    52        240
    53        430
    54        140
    55        260
    56         30
    57         30
    58         20
    61         10
    62         40
    63        150
    64         50
    65        320
    66        130
    67        200
    68         70
    69        840
    70         70
    71        170
    72         20
    74         20
    75         30
    76         20
    77        570
    78        330
    79        700
    80        999
    81        200
    82        250
    83         30
    84        180
    85         20
    86         10
    87         10
    89         40
    90         20
    91        850
    92        520
    93        490
    94         90
    95         80
    96         20
   102         20
   103         80
   104         40
   105        470
   106        120
   107        110
   108        360
   109         50
   110         10
   115        100
   116         40
   117        110
   118         80
   119        290
   120        530
   121        120
   122         10
   127         20
   128         30
   129        140
   130         20
   131         40
   132         20
   133         80
   134        170
   135         20
   143         10
   144         70
   145         20
   146         10
   147        220
   148         30
   161         20
   162        600
   163        100
   164         20