##TITLE=Library Entry 38722
##JCAMP-DX=Revision 4.10 
##DATA TYPE=MASS SPECTRUM
##SAMPLE DESCRIPTION=Exported from NIST MS Search
##NAMES=HP
##CAS NAME=Cycloheptanone, 4-methoxy-
##MOLFORM=C8H14O2
##CAS REGISTRY NO=17429-01-5
##MP= -300
##BP= -300
##MW= 142
##$RETENTION INDEX=0
##$CONDENSED SPECTRUM=NO
##NPOINTS= 55
##XYDATA=(XY..XY) 1 
    41        783
    42        327
    43        410
    44        327
    45        158
    50         54
    51         83
    52         51
    53        166
    54        590
    55        944
    56        177
    57        129
    58        769
    59        319
    63         11
    65         32
    66         29
    67        188
    68        244
    69        150
    70         11
    71        999
    72        359
    73         24
    74        327
    75         19
    77         46
    78        110
    79         54
    80         11
    81        161
    82        399
    83        123
    84         38
    85        113
    86         24
    87        265
    88         19
    91         19
    94         19
    95         51
    97         19
    99         54
   106         27
   108         13
   109         16
   110        370
   111         35
   113        105
   114        359
   115         13
   127         21
   142        139
   143         21