##TITLE=Library Entry 83725
##JCAMP-DX=Revision 4.10 
##DATA TYPE=MASS SPECTRUM
##SAMPLE DESCRIPTION=CARL DJERASSI DEPT OF CHEM STANFORD UNIV STANFORD CALIF
 94305
##NAMES=HP
##CAS NAME=2,5-Cyclohexadien-1-one, 4-ethyl-3,4-dimethyl-
##MOLFORM=C10H14O
##CAS REGISTRY NO=17429-35-5
##MP= -300
##BP= -300
##MW= 150
##$RETENTION INDEX=1629
##$CONDENSED SPECTRUM=NO
##NPOINTS= 30
##XYDATA=(XY..XY) 1 
    41        181
    50         50
    51        161
    52         70
    53        151
    55         20
    63         50
    65        131
    66         20
    67         40
    77        373
    78         70
    79        212
    80         20
    91        474
    92         60
    93        171
    94         60
    95         10
   103         10
   105         50
   107        999
   108         90
   109         10
   121        272
   122        363
   123         20
   135        161
   150        323
   151         20