##TITLE=Library Entry 69297
##JCAMP-DX=Revision 4.10 
##DATA TYPE=MASS SPECTRUM
##SAMPLE DESCRIPTION=Exported from NIST MS Search
##NAMES=HP
##CAS NAME=2-Cyclohexen-1-one, 4,4,5-trimethyl-
##MOLFORM=C9H14O
##CAS REGISTRY NO=17429-29-7
##MP= -300
##BP= -300
##MW= 138
##$RETENTION INDEX=0
##$CONDENSED SPECTRUM=NO
##NPOINTS= 35
##XYDATA=(XY..XY) 1 
    41        291
    42         42
    43         63
    50         22
    51         55
    52         33
    53        153
    54         44
    55        112
    56         18
    63         13
    65         33
    66         22
    67        225
    68        195
    69        394
    70         44
    71         20
    77         44
    78         15
    79         46
    80         18
    81        414
    82         90
    83         33
    91         26
    93         24
    95        284
    96        999
    97         77
   109         24
   110         42
   123         72
   138        221
   139         24