##TITLE=Library Entry 12503
##JCAMP-DX=Revision 4.10 
##DATA TYPE=MASS SPECTRUM
##SAMPLE DESCRIPTION=Chemical Concepts
##NAMES=HP
##CAS NAME=10,11-Dimethyl-tricyclo[4.3.1.1(2,5)]undecane-10,11-diol
##MOLFORM=C13H22O2
##CAS REGISTRY NO=174226-41-6
##MP= -300
##BP= -300
##MW= 210
##$RETENTION INDEX=0
##$CONDENSED SPECTRUM=NO
##NPOINTS= 128
##XYDATA=(XY..XY) 1 
    26          1
    27         70
    28          8
    29         56
    30          0
    31         12
    39         86
    40         13
    41        211
    42         15
    43        999
    44         19
    45         54
    46          0
    50          1
    51         16
    52          9
    53         80
    54         15
    55        125
    56          7
    57         15
    58         16
    59          6
    61          2
    62          0
    63          4
    64          2
    65         32
    66         21
    67        173
    68         23
    69        110
    70          5
    71        232
    72         12
    73          1
    75          1
    76          1
    77         85
    78         15
    79        161
    80         45
    81        208
    82         32
    83         47
    84         65
    85         37
    86          1
    87          6
    88         18
    89          2
    90          1
    91        117
    92         24
    93        227
    94         83
    95        155
    96         20
    97         87
    98         23
    99          0
   100          1
   103          6
   104          3
   105         68
   106         30
   107        134
   108         41
   109         74
   110        237
   111         79
   112          2
   113          2
   114          1
   115          6
   116          4
   117         16
   118         12
   119         41
   120         10
   121         96
   122         57
   123         66
   124         39
   125          9
   126          0
   127          0
   128          1
   129          2
   130          1
   131         19
   132          8
   133         29
   134         24
   135         32
   136         25
   137         43
   138          1
   139          1
   143          0
   144          0
   145         18
   146          8
   147         24
   148         10
   149        310
   150         49
   151         37
   152          3
   157          0
   159         30
   160          3
   161          1
   163         28
   164         30
   165          2
   173          0
   174         11
   175          4
   177        236
   178         24
   179          1
   191          3
   192        174
   193         20
   194          0
   195          4