##TITLE=Library Entry 35906
##JCAMP-DX=Revision 4.10 
##DATA TYPE=MASS SPECTRUM
##SAMPLE DESCRIPTION=Exported from NIST MS Search
##NAMES=HP
##CAS NAME=3-Hexanone, 6-methoxy-2-methyl-
##MOLFORM=C8H16O2
##CAS REGISTRY NO=17429-05-9
##MP= -300
##BP= -300
##MW= 144
##$RETENTION INDEX=0
##$CONDENSED SPECTRUM=NO
##NPOINTS= 29
##XYDATA=(XY..XY) 1 
    41        532
    42        152
    43        603
    44         33
    45        562
    46         16
    53         23
    55         76
    56         33
    57         33
    58         67
    59        644
    60         25
    67         16
    68         20
    69        999
    70         64
    71        474
    72         30
    73         42
    85         16
    86        186
    87         25
    97         33
   101        771
   102         42
   112        186
   113         33
   144         37