##TITLE=Library Entry 9084
##JCAMP-DX=Revision 4.10 
##DATA TYPE=MASS SPECTRUM
##SAMPLE DESCRIPTION=Chemical Concepts
##NAMES=HP
##CAS NAME=11-Hydroxy-11-methyl-tricyclo[4.3.1.1(2,5)]undecan-10-one
##MOLFORM=C12H18O2
##CAS REGISTRY NO=174226-38-1
##MP= -300
##BP= -300
##MW= 194
##$RETENTION INDEX=0
##$CONDENSED SPECTRUM=NO
##NPOINTS= 117
##XYDATA=(XY..XY) 1 
    26         12
    27        203
    28         20
    29        131
    31         21
    36          9
    38         13
    39        263
    40         67
    41        469
    42         54
    43        999
    44         51
    45         66
    50         16
    51         63
    52         34
    53        190
    54         93
    55        368
    56         50
    57         91
    58         37
    59         12
    63         19
    65         79
    66         65
    67        426
    68        128
    69        199
    70         46
    71        956
    72         60
    73         10
    77        184
    78         54
    79        319
    80        325
    81        626
    82        156
    83        139
    84        322
    85         80
    86         12
    91        285
    92         88
    93        286
    94        170
    95        383
    96        573
    97        228
    98        107
    99         21
   100         14
   103         22
   104         16
   105        181
   106         96
   107        201
   108        208
   109        427
   110        190
   111        259
   112         28
   113         25
   115         22
   116          9
   117         37
   118         90
   119        127
   120        129
   121        114
   122         52
   123        277
   124        195
   125         35
   126         80
   127         16
   128         10
   129         23
   131         27
   132         32
   133        540
   134        137
   135         46
   136         93
   137        183
   138         66
   139         24
   140         15
   141         10
   143         29
   145         17
   147         72
   148        106
   149        127
   150         34
   151        521
   152        124
   153         27
   158         26
   159         13
   160         10
   161         94
   162         16
   165        116
   166        122
   167         19
   175         23
   176        326
   177         64
   178         10
   179        120
   180         17
   194        667
   195         91
   196         10