##TITLE=Library Entry 57591
##JCAMP-DX=Revision 4.10 
##DATA TYPE=MASS SPECTRUM
##SAMPLE DESCRIPTION=Exported from NIST MS Search
##NAMES=HP
##CAS NAME=Cyclohexanone, 4-methoxy-2,2,6-trimethyl-
##MOLFORM=C10H18O2
##CAS REGISTRY NO=17429-03-7
##MP= -300
##BP= -300
##MW= 170
##$RETENTION INDEX=0
##$CONDENSED SPECTRUM=NO
##NPOINTS= 53
##XYDATA=(XY..XY) 1 
    41        511
    42         83
    43         80
    44         27
    45        134
    51         27
    52         16
    53         91
    54         32
    55        313
    56         80
    57        128
    58        102
    59         83
    65         29
    67        104
    68         53
    69        299
    70         88
    71        428
    72         27
    73         35
    77         24
    79         29
    81         48
    82        230
    83        374
    84         27
    85        187
    86         59
    87         83
    88        999
    89         53
    95        126
    96         27
    97         13
    99        112
   100         19
   101         75
   102        350
   103         29
   109         21
   110         78
   111         35
   113         27
   114         11
   115         27
   123         24
   127         29
   128         19
   138         72
   170        142
   171         21