##TITLE=Library Entry 25039
##JCAMP-DX=Revision 4.10 
##DATA TYPE=MASS SPECTRUM
##SAMPLE DESCRIPTION=Chemical Concepts
##NAMES=HP
##CAS NAME=Pentanoic acid, 2-methyl-3-oxo-, methyl ester
##MOLFORM=C7H12O3
##CAS REGISTRY NO=17422-12-7
##MP= -300
##BP= -300
##MW= 144
##$RETENTION INDEX=0
##$CONDENSED SPECTRUM=NO
##NPOINTS= 39
##XYDATA=(XY..XY) 1 
    30         12
    31         21
    33          0
    34          1
    38          2
    39         16
    40         29
    41         32
    42         10
    43         41
    44         19
    45          6
    51          1
    52          1
    53          4
    54          4
    55         64
    56        108
    57        999
    58         35
    59        132
    60          5
    67          2
    68          0
    69          5
    73          1
    83         26
    84          4
    85          1
    87         39
    88        117
    89         24
    90          1
   112          7
   113         41
   114          2
   115         45
   116          2
   144         31