##TITLE=Library Entry 46571
##JCAMP-DX=Revision 4.10 
##DATA TYPE=MASS SPECTRUM
##SAMPLE DESCRIPTION=J.H.BOWIE UNIVERSITY OF ADELAIDE, AUSTRALIA
##NAMES=HP
##CAS NAME=Hydrazine, phenylsulfinyl-
##MOLFORM=C6H6N2OS
##CAS REGISTRY NO=17420-03-0
##MP= -300
##BP= -300
##MW= 154
##$RETENTION INDEX=0
##$CONDENSED SPECTRUM=NO
##NPOINTS= 15
##XYDATA=(XY..XY) 1 
    38         60
    39        120
    48        100
    49         90
    50        220
    51        470
    52        100
    63         50
    65         80
    74         80
    76         60
    77        999
    78        160
   105        160
   154         50