##TITLE=Library Entry 12180
##JCAMP-DX=Revision 4.10 
##DATA TYPE=MASS SPECTRUM
##SAMPLE DESCRIPTION=Chemical Concepts
##NAMES=HP
##CAS NAME=11-Methyltricyclo[4.3.1.1(2,5)]undecan-11-ol
##MOLFORM=C12H20O
##CAS REGISTRY NO=174226-52-9
##MP= -300
##BP= -300
##MW= 180
##$RETENTION INDEX=0
##$CONDENSED SPECTRUM=NO
##NPOINTS= 98
##XYDATA=(XY..XY) 1 
    26          9
    27        230
    28         46
    29        177
    30          5
    31         25
    38          8
    39        293
    40         53
    41        563
    42         55
    43        999
    44         30
    45         79
    50         12
    51         65
    52         40
    53        238
    54        133
    55        300
    56         25
    57         33
    58         51
    59         29
    61          5
    62          5
    63         20
    64          8
    65        101
    66         71
    67        415
    68         94
    69        135
    70         26
    71        793
    72         67
    73          4
    75          6
    76          5
    77        199
    78        100
    79        438
    80        521
    81        856
    82        123
    83        267
    84        152
    85         33
    89          6
    91        255
    92        252
    93        304
    94        153
    95        368
    96         47
    97        135
    98         25
    99         10
   103         13
   104         14
   105        126
   106        100
   107        130
   108         59
   109         82
   110         72
   111         19
   115         11
   116          4
   117         12
   118          7
   119        101
   120         88
   121         60
   122        329
   123         67
   124         16
   125          6
   131          5
   133        103
   134         70
   135         31
   136         20
   137        877
   138        106
   139         16
   147         63
   148          7
   151         16
   152          9
   161          6
   162        133
   163         24
   165         69
   166         10
   180        432
   181         60
   182          6