##TITLE=Library Entry 49403
##JCAMP-DX=Revision 4.10 
##DATA TYPE=MASS SPECTRUM
##SAMPLE DESCRIPTION=Chemical Concepts
##NAMES=HP
##CAS NAME=11-Methyltricyclo[5.3.1.1(2,6)]dodecan-11-ol
##MOLFORM=C13H22O
##CAS REGISTRY NO=174226-53-0
##MP= -300
##BP= -300
##MW= 194
##$RETENTION INDEX=0
##$CONDENSED SPECTRUM=NO
##NPOINTS= 116
##XYDATA=(XY..XY) 1 
    26          3
    27         91
    28         19
    29         88
    30          2
    31         11
    38          2
    39        130
    40         25
    41        295
    42         28
    43        411
    44         12
    45         34
    50          4
    51         28
    52         17
    53        114
    54         50
    55        192
    56         13
    57         20
    58         18
    59          9
    63          9
    64          4
    65         52
    66         34
    67        243
    68         52
    69         88
    70         15
    71        174
    72         18
    73          4
    75          4
    76          3
    77        110
    78         91
    79        239
    80        999
    81        395
    82         45
    83         49
    84         35
    85         16
    86          4
    89          3
    90          2
    91        118
    92         47
    93        126
    94        115
    95        407
    96        101
    97         94
    98         21
    99         10
   100          2
   102          2
   103          7
   104          5
   105         59
   106         23
   107         58
   108         35
   109         69
   110         13
   111         19
   112          7
   113          3
   115          7
   116          3
   117         10
   118          4
   119         54
   120         17
   121         27
   122         35
   123         24
   124         10
   125          4
   127          3
   128          3
   129          4
   131          4
   132          2
   133         56
   134         36
   135         41
   136         76
   137        141
   138         16
   139          7
   145          4
   147         31
   148         12
   149          9
   150          4
   151         80
   152         11
   153          3
   161         90
   162         12
   163          2
   165          6
   166          2
   175          2
   176         42
   177          8
   179         53
   180          7
   193          2
   194         38
   195          6
   196          1