##TITLE=Library Entry 78224
##JCAMP-DX=Revision 4.10 
##DATA TYPE=MASS SPECTRUM
##SAMPLE DESCRIPTION=Exported from NIST MS Search
##NAMES=HP
##CAS NAME=D-Glucose, cyclic 1,2-ethanediyl mercaptal, pentaacetate
##MOLFORM=C18H26O10S2
##CAS REGISTRY NO=17429-98-0
##MP= -300
##BP= -300
##MW= 466
##$RETENTION INDEX=0
##$CONDENSED SPECTRUM=NO
##NPOINTS= 105
##XYDATA=(XY..XY) 1 
    47         41
    48         11
    49          4
    50         16
    51         23
    52         18
    53         41
    54         16
    55         55
    56         16
    57         41
    58         55
    59         81
    60         88
    61        218
    62         16
    63         18
    64         16
    65         14
    66          4
    67         11
    68         14
    69         41
    70         14
    71         32
    72          9
    73         69
    74         16
    75          9
    76         16
    77         39
    78         14
    79         18
    80          4
    81         18
    82          7
    83          7
    84         14
    85         18
    86         25
    87         30
    88          4
    89         14
    90          4
    91         16
    92          4
    93          7
    95          7
    97         39
    98         11
    99          9
   101          9
   102         14
   103         39
   104          4
   105        999
   106         53
   107         88
   108          4
   109          4
   110          2
   111          4
   113          4
   115         34
   116          9
   118         16
   119         16
   127          9
   129          9
   131         18
   134         18
   135          4
   139         27
   142          4
   143          4
   145         11
   159         11
   160          7
   161          4
   171          4
   173          7
   184          9
   185         14
   189         41
   191          4
   201          6
   202          7
   203          4
   204          1
   205          0
   215          1
   216          4
   217          1
   231          1
   243          7
   244          3
   245          1
   258          3
   259          1
   303          0
   304          0
   346          1
   347          1
   406          0
   407          0