##TITLE=Library Entry 68280
##JCAMP-DX=Revision 4.10 
##DATA TYPE=MASS SPECTRUM
##SAMPLE DESCRIPTION=Chemical Concepts
##NAMES=HP
##CAS NAME=Tricyclo[5.3.1.1(2,6)]dodecan-11-ol, 11-methyl-12-methylene-
##MOLFORM=C14H22O
##CAS REGISTRY NO=174226-48-3
##MP= -300
##BP= -300
##MW= 206
##$RETENTION INDEX=0
##$CONDENSED SPECTRUM=NO
##NPOINTS= 160
##XYDATA=(XY..XY) 1 
    26          5
    27        133
    28         20
    29        104
    30          4
    31         18
    38          5
    39        164
    40         34
    41        365
    42         33
    43        772
    44         18
    45         72
    46          2
    47          2
    49          4
    50          9
    51         58
    52         34
    53        173
    54         37
    55        272
    56         24
    57         52
    58         18
    59         10
    60          7
    61          3
    62          4
    63         22
    64         13
    65        112
    66         66
    67        363
    68         61
    69        131
    70         20
    71        238
    72         18
    73          8
    74          9
    75         18
    76         10
    77        360
    78         98
    79        554
    80        144
    81        608
    82         66
    83         77
    84         91
    85         38
    86          5
    87          4
    88          4
    89         17
    90         10
    91        598
    92        310
    93        636
    94        931
    95        999
    96        476
    97        200
    98         29
    99         21
   100          4
   101          4
   102         12
   103         42
   104         65
   105        310
   106        240
   107        347
   108        240
   109        127
   110         90
   111        166
   112         30
   113          9
   115         57
   116         27
   117        165
   118        126
   119        240
   120        129
   121        245
   122         67
   123         55
   124         39
   125         21
   126          7
   127         13
   128         25
   129         40
   130         27
   131        415
   132        227
   133        262
   134        113
   135        312
   136        159
   137         53
   138         13
   139          7
   140          2
   141          7
   142          5
   143         18
   144         17
   145        480
   146        235
   147        209
   148        185
   149         86
   150         20
   151         42
   152         13
   153          2
   154          1
   155          3
   157          9
   158          7
   159        372
   160        179
   161         75
   162         30
   163        242
   164         52
   165         39
   166          5
   167          2
   168          1
   169          1
   171          8
   172          7
   173        760
   174         91
   175         10
   176          2
   177         26
   178         10
   179          3
   180          3
   181          1
   183          1
   185          2
   186          2
   187         32
   188        657
   189        115
   190         14
   191        309
   192         40
   193          4
   205          5
   206        326
   207         56
   208          5