##TITLE=Library Entry 11418
##JCAMP-DX=Revision 4.10 
##DATA TYPE=MASS SPECTRUM
##SAMPLE DESCRIPTION=Div. of Experiment Therapeutics WRAIR, WRAMC, Washingto
n DC 20307
##NAMES=HP
##CAS NAME=Sorbic acid, 3-chloro-5-hydroxy-, d-lactone
##MOLFORM=C6H5ClO2
##CAS REGISTRY NO=17422-72-9
##MP= -300
##BP= -300
##MW= 144
##$RETENTION INDEX=0
##$CONDENSED SPECTRUM=NO
##NPOINTS= 23
##XYDATA=(XY..XY) 1 
    43        999
    47         88
    49         44
    50         93
    51         55
    53        183
    59         22
    61        124
    62         87
    65        195
    73        565
    75        157
    81         63
    84         25
    86         49
    88        198
    90         55
   116        711
   118        213
   129        301
   131        136
   144        315
   146        107