##TITLE=Library Entry 49824
##JCAMP-DX=Revision 4.10 
##DATA TYPE=MASS SPECTRUM
##SAMPLE DESCRIPTION=CARL DJERASSI DEPT OF CHEM STANFORD UNIV STANFORD CALIF
 94305
##NAMES=HP
##CAS NAME=1(2H)-Naphthalenone, 8a.beta.-ethyl-2-furfurylideneoctahydro-
##MOLFORM=C17H22O2
##CAS REGISTRY NO=17429-51-5
##MP= -300
##BP= -300
##MW= 258
##$RETENTION INDEX=0
##$CONDENSED SPECTRUM=NO
##NPOINTS= 131
##XYDATA=(XY..XY) 1 
    40         80
    41        616
    42        101
    43        161
    44         90
    45         70
    46         10
    47         20
    50         40
    51        181
    52        111
    53        353
    54         40
    55        343
    56         10
    57         60
    58         10
    62         10
    63         70
    64         40
    65        191
    66         60
    67        313
    68         50
    69         60
    70         10
    71         10
    75         10
    76         10
    77        323
    78        242
    79        313
    80         50
    81        999
    82         70
    83         20
    85         20
    87         10
    89         30
    90         10
    91        434
    92        101
    93        101
    94         50
    95        313
    96         20
    97         10
   102         10
   103         40
   104         20
   105        121
   106        161
   107        232
   108         80
   109         50
   111         10
   115        111
   116         40
   117         70
   118         20
   119        121
   120        202
   121         80
   122         20
   123         50
   127         30
   128         70
   129         80
   130         20
   131         80
   132         20
   133         80
   134         20
   135        121
   136         20
   141         40
   142         10
   143         30
   144         20
   145         60
   146         20
   147         50
   148         90
   149         60
   150         10
   153         10
   155         20
   157         40
   158         10
   159         50
   160         10
   161         50
   162         30
   163         20
   164         10
   165         10
   167         10
   169         10
   171         20
   172         10
   173         60
   174         10
   175         70
   176         10
   177         40
   183         20
   184         10
   185         20
   186         10
   187         30
   188         10
   189         20
   190         10
   199         10
   200         10
   201        545
   202         90
   203         30
   204         10
   205         10
   211         10
   212         10
   213        121
   214         20
   215         10
   229        565
   230        151
   231         10
   258        606
   259        111
   260         10