##TITLE=Library Entry 3116
##JCAMP-DX=Revision 4.10 
##DATA TYPE=MASS SPECTRUM
##SAMPLE DESCRIPTION=CARL DJERASSI DEPT OF CHEM STANFORD UNIV STANFORD CALIF
 94305
##NAMES=HP
##CAS NAME=Cyclohexanone, 3-methoxy-
##MOLFORM=C7H12O2
##CAS REGISTRY NO=17429-00-4
##MP= -300
##BP= -300
##MW= 128
##$RETENTION INDEX=0
##$CONDENSED SPECTRUM=NO
##NPOINTS= 43
##XYDATA=(XY..XY) 1 
    41        999
    42        900
    43        650
    44         20
    45        100
    50         30
    51         50
    52         10
    53        140
    54        100
    55        350
    56         20
    57         40
    58        990
    59        110
    61         10
    62         10
    63         10
    65         30
    66         20
    67         80
    68        840
    69        140
    70        170
    71        920
    72         70
    74        370
    75         10
    79         10
    81         30
    83         30
    84         10
    85        190
    86         10
    87         20
    95         10
    96        390
    97         70
    98         20
   100         20
   113         20
   128        270
   129         20