##TITLE=Library Entry 10730
##JCAMP-DX=Revision 4.10 
##DATA TYPE=MASS SPECTRUM
##SAMPLE DESCRIPTION=Exported from NIST MS Search
##NAMES=HP
##CAS NAME=Methyl 3,4-di-O-acetyl-2-acetamido-2-deoxy-6-O-methyl-.alpha.-D-g
alactopyranoside
##MOLFORM=C14H23NO8
##CAS REGISTRY NO=17429-93-5
##MP= -300
##BP= -300
##MW= 333
##$RETENTION INDEX=0
##$CONDENSED SPECTRUM=NO
##NPOINTS= 133
##XYDATA=(XY..XY) 1 
    41         73
    42         86
    43        999
    44        133
    45        350
    46         10
    47          3
    50          3
    51          3
    52          3
    53         33
    54         23
    55         43
    56         46
    57         40
    58         70
    59        400
    60        120
    61         33
    65          3
    66          3
    67         20
    68         43
    69         46
    70        103
    71         63
    72         70
    73        113
    74        166
    75         76
    76          3
    78          3
    79         16
    80         73
    81         40
    82         33
    83         80
    84        113
    85         46
    86         40
    87         93
    88         63
    89          3
    90          3
    92          3
    93          3
    94          3
    95          3
    96         66
    97         66
    98        100
    99         53
   100         33
   101        833
   102        106
   103         26
   108         33
   109         26
   110         33
   111         53
   112        186
   113         33
   114        116
   115         66
   116         23
   117         20
   121         10
   122         43
   123         10
   124         16
   125         16
   126         53
   127         43
   128         53
   129         53
   130         63
   131          3
   132          3
   134          3
   135          3
   136         20
   137          3
   138         40
   139         70
   140        116
   141         26
   142         23
   143        233
   144         40
   145         20
   146          3
   149          3
   150          6
   151          3
   152          3
   153         33
   154         46
   155         20
   156         66
   157         46
   158         26
   159          6
   165          3
   166         13
   167         13
   168         30
   169         80
   170         83
   171         50
   172         66
   173         10
   174          6
   180          3
   181          6
   182         40
   183          6
   184          3
   195          6
   197          6
   198         50
   199         20
   213         46
   214        140
   215         13
   216          6
   228          6
   230          6
   231          6
   241         20
   242         10
   274        100
   275         20
   276         10