##TITLE=Library Entry 109666
##JCAMP-DX=Revision 4.10 
##DATA TYPE=MASS SPECTRUM
##SAMPLE DESCRIPTION=Div. of Experiment Therapeutics WRAIR, WRAMC, Washingto
n DC 20307
##NAMES=HP
##CAS NAME=2,3-Bis[p-chlorophenyl]propionic acid
##MOLFORM=C15H12Cl2O2
##CAS REGISTRY NO=1743-54-0
##MP= -300
##BP= -300
##MW= 294
##$RETENTION INDEX=0
##$CONDENSED SPECTRUM=NO
##NPOINTS= 101
##XYDATA=(XY..XY) 1 
    45         10
    49          4
    50          3
    51          6
    57          1
    62          4
    63         16
    64          2
    65          2
    67          1
    69          1
    73          7
    74          7
    75         28
    77         67
    78          8
    79          1
    84         12
    85          8
    86         21
    87          9
    88         17
    89        105
    90         23
    91          7
    93          3
    97          3
    99         35
   101         27
   102         26
   103         12
   105          4
   106          2
   107          3
   108          1
   111         15
   113         28
   115         16
   119          6
   123          8
   125        999
   127        327
   131          1
   134          4
   136          8
   137         13
   138         12
   139         18
   141         33
   143         10
   145          2
   147          9
   149          6
   150         11
   151         16
   152         29
   154          5
   160          1
   161          1
   162          2
   163          3
   165         10
   166          1
   168          1
   169         31
   171         11
   173          9
   175         41
   176         56
   178        135
   179          6
   181          3
   184          1
   186          2
   188          1
   192          3
   195          1
   197          1
   199          6
   211          1
   212         19
   213          6
   214         16
   215          3
   216          5
   233          1
   241          1
   246          8
   248         11
   249          8
   250          6
   251          5
   252          1
   258          1
   260          1
   294        125
   295         20
   296         83
   297         13
   298         12
   299          1