##TITLE=Library Entry 33685
##JCAMP-DX=Revision 4.10 
##DATA TYPE=MASS SPECTRUM
##SAMPLE DESCRIPTION=D.HENNEBERG, MAX-PLANCK INSTITUTE, MULHEIM, WEST GERMAN
Y
##NAMES=HP
##CAS NAME=Cyclohexene, 4-ethenyl-1,4-dimethyl-
##MOLFORM=C10H16
##CAS REGISTRY NO=1743-61-9
##MP= -300
##BP= -300
##MW= 136
##$RETENTION INDEX=949
##$CONDENSED SPECTRUM=NO
##NPOINTS= 84
##XYDATA=(XY..XY) 1 
    22          2
    26          4
    27        125
    28        163
    29         40
    30          0
    31          5
    36          5
    37          2
    38         10
    39        141
    40         49
    41        178
    42         38
    43         35
    44         35
    45          2
    48          1
    50         12
    51         40
    52         27
    53        164
    54         12
    55         72
    56          3
    57          4
    58          7
    59          2
    60          2
    61          3
    62          6
    63         19
    64         12
    65         50
    66         62
    67        420
    68        999
    69         71
    70          3
    74          2
    75          6
    76          3
    77        110
    78         32
    79        181
    80         85
    81        111
    82         18
    83          0
    87          0
    89          4
    90          3
    91        124
    92        117
    93        423
    94        159
    95         64
    96          4
   102          3
   103         10
   104          5
   105         44
   106         34
   107        184
   108         46
   109         19
   110          3
   114          0
   115          5
   116          3
   117          7
   118          2
   119         16
   120          1
   121        190
   122         22
   123          0
   131          0
   132          1
   134          2
   135          4
   136        136
   137         15
   138          0