##TITLE=Library Entry 453
##JCAMP-DX=Revision 4.10 
##DATA TYPE=MASS SPECTRUM
##SAMPLE DESCRIPTION=Chemical Concepts
##NAMES=HP
##CAS NAME=Ethyl 2-(bromomethyl)acrylate
##MOLFORM=C6H9BrO2
##CAS REGISTRY NO=17435-72-2
##MP= -300
##BP= -300
##MW= 192
##$RETENTION INDEX=0
##$CONDENSED SPECTRUM=NO
##NPOINTS= 105
##XYDATA=(XY..XY) 1 
    25         14
    26        103
    27        363
    28        636
    29        999
    30         41
    31        117
    38        182
    39        922
    40        624
    41        342
    42        103
    43        330
    44        410
    45        355
    46         20
    47         17
    50         14
    51         18
    52         11
    53         55
    54         28
    55        178
    56         58
    57        279
    58         87
    59        102
    60         17
    64         14
    65         16
    66         20
    67        136
    68        251
    69        192
    70         25
    71         50
    72         28
    73         32
    77         12
    78         12
    79         34
    80         37
    81         25
    82         23
    83        154
    84         93
    85        873
    86        144
    87         72
    88         20
    91         15
    93         47
    94         13
    95        266
    96         32
    97         19
    98         53
    99         46
   100         11
   101         42
   102         12
   105         17
   107         42
   108         20
   109         31
   110         14
   111         17
   112        123
   113        663
   114         90
   115         16
   118         54
   119        370
   120         83
   121        359
   122         28
   123         13
   125         20
   127         13
   129         22
   135         15
   137         13
   139         15
   140         21
   141         13
   142         18
   146         47
   147        721
   148         89
   149        701
   150         50
   151         13
   152         26
   153         11
   154         23
   155         11
   164        922
   165         69
   166        922
   167         74
   168         11
   192        461
   193         67
   194        450
   195         63