##TITLE=Library Entry 53443
##JCAMP-DX=Revision 4.10 
##DATA TYPE=MASS SPECTRUM
##SAMPLE DESCRIPTION=Albert Lebedev, Moscow State University, Russia
##NAMES=HP
##CAS NAME=4,6-Bis[(4-fluorophenyl)thio]-2,5-dichloro-3-trifluoromethylpyrid
ine
##MOLFORM=C18H8Cl2F5NS2
##CAS REGISTRY NO=174312-60-8
##MP= -300
##BP= -300
##MW= 467
##$RETENTION INDEX=0
##$CONDENSED SPECTRUM=NO
##NPOINTS= 289
##XYDATA=(XY..XY) 1 
    45         40
    46          2
    50         62
    51         43
    52          2
    57        209
    58         14
    59          4
    62         25
    63         90
    64          8
    68         31
    69        240
    70         21
    71         10
    72          2
    74         51
    75        293
    76         31
    79         41
    80          6
    81         66
    83        999
    84         63
    85         16
    87         30
    88          7
    93         41
    94         44
    95        267
    96         33
    97          5
    99         11
   100         22
   101          8
   103         20
   105         17
   106         40
   107         58
   108         25
   109         25
   110          5
   111         16
   112          7
   115         14
   116          6
   117         13
   118         14
   119          8
   120         21
   121          8
   122         12
   123          6
   125         14
   126        108
   127        726
   128         81
   129         38
   130         18
   131         15
   132         19
   133         19
   134          5
   135         12
   137         22
   138         14
   139        126
   140         18
   141         26
   142          7
   143         11
   144          7
   145         23
   146          5
   149         30
   150         17
   151         21
   152         13
   153         10
   154         23
   156         50
   157         40
   158         12
   159          7
   164         38
   165         13
   166          9
   167          6
   168          9
   169         13
   170         11
   171         59
   172         12
   173         12
   174          8
   175         63
   176         31
   177         48
   178         18
   179         10
   180         12
   181         43
   182         20
   183          4
   184         16
   185          9
   186         17
   187         22
   188         35
   189         18
   190          5
   192         17
   193          9
   194         23
   195          8
   196         14
   197         12
   198         14
   199         24
   200         43
   201         90
   202         19
   203         13
   204          6
   206         15
   207         23
   208          6
   209          8
   210         37
   211         13
   212         29
   213         29
   214         24
   216         11
   217          6
   219         33
   220         14
   221         13
   222          8
   223         14
   224         17
   225         37
   226         50
   227          9
   231         17
   232         24
   233         39
   234         38
   235         66
   236         29
   237         29
   238         19
   239          6
   242         38
   243         25
   244         45
   245         11
   246         53
   247         23
   248          9
   249         44
   250         92
   251         41
   252          8
   254         12
   255         16
   256         13
   257         22
   258         16
   259         11
   260         14
   261         12
   262          7
   266         20
   267        103
   268         34
   269        105
   270        124
   271         60
   272         28
   273         34
   274         13
   275         53
   276         73
   277         17
   278         19
   279          5
   282         36
   283         10
   284         19
   285         17
   286         26
   287         11
   288         13
   289          6
   291         12
   292         39
   293         19
   294         18
   295         19
   296          8
   300        102
   301        202
   302         56
   303         27
   304         88
   305        129
   306         49
   307         55
   308         12
   309          6
   310         21
   311         19
   312         12
   313          9
   314          5
   316        129
   317         24
   318         56
   319         10
   320         34
   321          9
   322         22
   323          6
   326         14
   327         73
   328         43
   329         17
   330          9
   336        108
   337         32
   338         51
   339         65
   340         34
   341         41
   342         22
   343         11
   344         32
   345         10
   346          7
   352          5
   353         12
   354          4
   362         83
   363         40
   364         36
   365         14
   366          5
   372         39
   373         11
   374         27
   375          7
   376        144
   377         36
   378         19
   379          6
   392         35
   393          8
   394         13
   395         10
   396         43
   397         38
   398         34
   399         13
   400         23
   401          4
   412         24
   413          7
   414         11
   415          3
   428         13
   429          3
   430         83
   431         33
   432        731
   433        160
   434        301
   435         59
   436         24
   437          5
   466        167
   467        743
   468        277
   469        563
   470        139
   471        129
   472         26
   473         12
   474          2