##TITLE=Library Entry 15176
##JCAMP-DX=Revision 4.10 
##DATA TYPE=MASS SPECTRUM
##SAMPLE DESCRIPTION=Chuck Anderson, Aldrich Chemical Co.
##NAMES=HP
##CAS NAME=(S)-(+)-1-Cyclohexylethylamine
##MOLFORM=C8H17N
##CAS REGISTRY NO=17430-98-7
##MP= -300
##BP= -300
##MW= 127
##$RETENTION INDEX=0
##$CONDENSED SPECTRUM=NO
##NPOINTS= 57
##XYDATA=(XY..XY) 1 
    15          3
    17          0
    18         26
    26          2
    27         22
    28         20
    29         15
    30         35
    31          0
    36          1
    38          1
    39         25
    40          4
    41         44
    42         29
    43         33
    44        999
    45         26
    46          1
    48          0
    50          1
    51          3
    52          1
    53          8
    54          8
    55         19
    56          8
    57          2
    58          1
    63          0
    65          3
    66          1
    67         21
    68          5
    69          5
    70          7
    71          0
    77          3
    78          0
    79          4
    80          2
    81          6
    82          4
    83          3
    84          0
    91          1
    93          1
    94          0
    95         13
    96          2
   109          1
   110          1
   112          8
   113          0
   126          2
   127          1
   128          0