##TITLE=Library Entry 40116
##JCAMP-DX=Revision 4.10 
##DATA TYPE=MASS SPECTRUM
##SAMPLE DESCRIPTION=Japan AIST/NIMC Database- Spectrum MS-IW-1533
##NAMES=HP
##CAS NAME=L-Valine, ethyl ester
##MOLFORM=C7H15NO2
##CAS REGISTRY NO=17431-03-7
##MP= -300
##BP= -300
##MW= 145
##$RETENTION INDEX=1017
##$CONDENSED SPECTRUM=NO
##NPOINTS= 45
##XYDATA=(XY..XY) 1 
    15          2
    26          1
    27         21
    28         47
    29         43
    30         27
    31          1
    39         11
    40          1
    41         13
    42          7
    43         14
    44          5
    45          2
    46         15
    47          3
    53          3
    54          4
    55        194
    56         47
    57         32
    58          5
    68          1
    69          4
    70         10
    71          5
    72        999
    73         51
    74        156
    75          7
    82          1
    83          2
    84         10
    85          1
    98          2
   100          2
   102        211
   103         14
   104          1
   116          2
   130          4
   144          1
   145          8
   146         19
   147          1