##TITLE=Library Entry 31479
##JCAMP-DX=Revision 4.10 
##DATA TYPE=MASS SPECTRUM
##SAMPLE DESCRIPTION=Exported from NIST MS Search
##NAMES=HP
##CAS NAME=Cyclobutane, 1,2-dichloro-
##MOLFORM=C4H6Cl2
##CAS REGISTRY NO=17437-39-7
##MP= -300
##BP= -300
##MW= 124
##$RETENTION INDEX=0
##$CONDENSED SPECTRUM=NO
##NPOINTS= 19
##XYDATA=(XY..XY) 1 
    39         35
    41         30
    53        110
    62        999
    63        175
    64        345
    65         60
    75         80
    77         30
    88         70
    89        350
    90         25
    91        115
    96         40
    98         25
   100         10
   124         31
   126         20
   128          3