##TITLE=Library Entry 9110
##JCAMP-DX=Revision 4.10 
##DATA TYPE=MASS SPECTRUM
##SAMPLE DESCRIPTION=Chemical Concepts
##NAMES=HP
##CAS NAME=(1H)Benzimidazole, 5-fluoro-2-(3-chlorophenyl)-6-(4-methylpiperaz
in-1-yl)-
##MOLFORM=C18H18ClFN4
##CAS REGISTRY NO=174468-73-6
##MP= -300
##BP= -300
##MW= 344
##$RETENTION INDEX=0
##$CONDENSED SPECTRUM=NO
##NPOINTS= 229
##XYDATA=(XY..XY) 1 
    30         16
    31         23
    32          3
    33          2
    36          2
    38          2
    39          9
    40          2
    41         23
    42        299
    43        999
    44         67
    45         13
    46          1
    50         10
    51         21
    52          9
    53          2
    54         10
    55         14
    56         89
    57         70
    58         42
    59         11
    61          1
    62          5
    63         11
    64          4
    65         11
    66          2
    67          3
    68          3
    69          6
    70        422
    71        610
    72         32
    73          3
    74          6
    75         13
    76          9
    77         28
    78          3
    79          1
    80          3
    81         63
    82         25
    83         12
    84          5
    85         43
    86          2
    87          1
    88          6
    89         11
    90          4
    91          3
    92          1
    93          3
    94          4
    95         16
    96          6
    97          9
    98         12
    99         12
   100          1
   101          2
   102          8
   103          3
   104          1
   105          6
   106          2
   107         10
   108         86
   109         18
   110          5
   111         12
   112          4
   113          3
   114          2
   115          6
   116          3
   117          2
   118          2
   119          1
   120          1
   121          6
   122          7
   123         19
   124          2
   125          1
   126          1
   127          1
   129          1
   131          1
   133          1
   134          4
   135         22
   136         13
   137          8
   138         20
   139          2
   140          7
   143          1
   147          1
   149          6
   150          1
   157          1
   158          1
   162          2
   163          5
   164          2
   165          1
   171          2
   172         34
   173         11
   182          5
   183          3
   184          1
   191          1
   192          1
   194          1
   195          1
   198          1
   208          1
   209          9
   210         26
   211          6
   212          1
   217          2
   218         19
   219          4
   220          7
   221          2
   222          1
   223          5
   224          6
   225          7
   226          1
   227          3
   232          1
   233          2
   234          2
   235          2
   236          3
   237          5
   238          8
   239          4
   240          3
   241          2
   243          2
   244          7
   245         44
   246         20
   247         18
   248          6
   249          2
   252          3
   253          3
   254          3
   255          2
   256          2
   257          4
   258         10
   259        113
   260         40
   261         43
   262         13
   263          3
   264          2
   265          1
   266          1
   267          2
   268          2
   269          3
   270          2
   271         16
   272         73
   273        267
   274        158
   275        106
   276         44
   277          6
   280          3
   281         13
   282         12
   283          6
   284          4
   285          2
   286          4
   287         19
   288         18
   289          8
   290          5
   291          1
   294          2
   295          3
   296          7
   297          2
   298          3
   299          2
   300         36
   301         20
   302         19
   303          7
   304          3
   309          5
   310          1
   313          2
   314          3
   315          5
   316          8
   317          2
   318          2
   323          3
   324         10
   325          4
   326          5
   327          2
   328          5
   329         34
   330          7
   331         12
   332          1
   342          7
   343         32
   344        510
   345        116
   346        171
   347         33
   348          3