##TITLE=Library Entry 14687
##JCAMP-DX=Revision 4.10 
##DATA TYPE=MASS SPECTRUM
##SAMPLE DESCRIPTION=Chemical Concepts
##NAMES=HP
##CAS NAME=(1H)Benzimidazole, 5-fluoro-2-(4-fluorophenyl)-6-(4-methylpiperaz
in-1-yl)-
##MOLFORM=C18H18F2N4
##CAS REGISTRY NO=174468-72-5
##MP= -300
##BP= -300
##MW= 328
##$RETENTION INDEX=0
##$CONDENSED SPECTRUM=NO
##NPOINTS= 178
##XYDATA=(XY..XY) 1 
    31          5
    32         12
    33          1
    36          1
    38          1
    39          7
    40          1
    41         17
    42        268
    43        999
    44         59
    45          3
    50          4
    51         11
    52         10
    53          1
    54         11
    55         15
    56         97
    57         61
    58         29
    59          3
    60          1
    62          3
    63          7
    64          3
    65          4
    66          1
    67          3
    68          1
    69          7
    70        236
    71        400
    72         17
    73          2
    74          1
    75          5
    76          4
    77         11
    78          2
    79          1
    80          8
    81        131
    82         35
    83         17
    84          5
    85         35
    86          2
    88          5
    89          6
    90          4
    91          3
    93          1
    94          4
    95         27
    96          9
    97          9
    98          8
    99          7
   101          2
   102          2
   103          1
   104          1
   105          2
   106          2
   107         13
   108         81
   109         18
   110          5
   111          2
   114          1
   115          5
   116          1
   117          1
   119          1
   120          1
   121         12
   122         36
   123          9
   124          1
   128         12
   129          1
   133          2
   134          3
   135         17
   136          4
   137          1
   145          2
   146          3
   147          4
   148          1
   149          9
   150          1
   151          1
   159          1
   163          9
   164         48
   165          1
   179          1
   182          1
   184          1
   194          1
   200          1
   201          1
   202         27
   203          4
   205          1
   209          6
   210          3
   211          3
   216          2
   217          1
   224          3
   225          4
   226          1
   227          3
   228         13
   229         48
   230         22
   231          5
   236          3
   237          1
   238          2
   239          7
   240          5
   241          3
   242         11
   243        111
   244         36
   245          6
   248          1
   251          2
   252          3
   253          3
   254          1
   255         15
   256         75
   257        264
   258        142
   259         23
   260          1
   264          3
   265         10
   266         10
   267          2
   269          1
   270          3
   271         13
   272         17
   273          3
   278          1
   279          4
   280         28
   281          5
   282          5
   283          3
   284         70
   285         34
   286         11
   287          1
   297          1
   298          4
   299          3
   300          8
   301          1
   307          2
   308          7
   309          2
   310         13
   311          4
   312          2
   313         29
   314          8
   326          8
   327         27
   328        616
   329        159
   330         13