##TITLE=Library Entry 14486
##JCAMP-DX=Revision 4.10 
##DATA TYPE=MASS SPECTRUM
##SAMPLE DESCRIPTION=LAC, NIDDK, NIH, Bethesda, MD 20892
##NAMES=HP
##CAS NAME=Pregn-5-en-20-one, 3-(acetyloxy)-16-bromo-, (3.beta.,16.alpha.)-
##MOLFORM=C23H33BrO3
##CAS REGISTRY NO=17449-92-2
##MP= -300
##BP= -300
##MW= 436
##$RETENTION INDEX=0
##$CONDENSED SPECTRUM=NO
##NPOINTS= 229
##XYDATA=(XY..XY) 1 
    41         93
    43        999
    44          5
    45         12
    47          1
    49          9
    50          1
    51         10
    52          0
    53         44
    55         94
    56          1
    57         20
    58          1
    59          1
    60          2
    61          3
    62          0
    63          2
    65         31
    66          8
    67         72
    69         26
    71         10
    72          0
    75          0
    77         88
    78          5
    79        133
    80          3
    81         98
    82          6
    83          8
    84          6
    85          8
    86          4
    88          0
    89          3
    91        188
    92         33
    93        111
    94         19
    95         29
    96          3
    97          6
    98          1
    99          3
   100          0
   101          0
   102          3
   103         16
   104          2
   105        151
   106         26
   107         85
   108         17
   109         25
   110          3
   111          9
   112          3
   113          2
   115         36
   116         16
   117         59
   118         13
   119         58
   120         34
   121        103
   122         25
   123         31
   124         11
   125          4
   126          2
   127          9
   128         24
   129         35
   130         17
   131         59
   132          2
   133         74
   134          2
   135         82
   136         24
   137        103
   138         14
   139          3
   141         30
   142         11
   143         40
   144         14
   145        114
   146         28
   147         45
   148         16
   149         21
   150          9
   151          6
   152          4
   153          5
   154          3
   155         13
   156          7
   157         43
   158         22
   159         63
   160         33
   161         48
   162          9
   163          6
   165          6
   166          1
   167          6
   168          3
   169         11
   170          5
   171         23
   172          7
   173         31
   174         13
   175         42
   176          9
   177          4
   178          2
   179          3
   180          1
   181          8
   182          3
   183         14
   184          3
   185         18
   186         32
   187         15
   188         29
   189          9
   190          3
   191          3
   192          1
   193          3
   194          1
   195          7
   196          0
   197         14
   198          6
   199         10
   200          2
   201          5
   202          3
   203          6
   204          1
   205          1
   207          6
   208          1
   209          4
   210          1
   211          9
   212          5
   213          7
   214          2
   215          3
   216          2
   217          0
   219          0
   221          2
   222          0
   223          4
   224          1
   225         14
   226          3
   227          3
   228          1
   229          2
   230          0
   235          1
   236          0
   237          5
   238          3
   239          9
   240          2
   241          2
   242          2
   243          0
   249          1
   250          0
   251          4
   253         38
   254          8
   255          2
   256          0
   263          9
   264          2
   265          1
   266          0
   267          6
   268          2
   269          2
   270          0
   271          0
   273          0
   277          0
   278          1
   279          3
   281         57
   282         12
   283          2
   284          0
   285          0
   286          0
   294          1
   296        364
   297        100
   298         14
   299          2
   300          0
   310          3
   311          2
   312         16
   313          4
   314          3
   315          0
   326          0
   328          2
   329          0
   332          0
   357         14
   358          3
   359          0
   376          4
   378          6
   379          0