##TITLE=Library Entry 99372
##JCAMP-DX=Revision 4.10 
##DATA TYPE=MASS SPECTRUM
##SAMPLE DESCRIPTION=Chemical Concepts
##NAMES=HP
##CAS NAME=1-(4-Methyl-3-nitrobenzoyl)morpholine
##MOLFORM=C12H14N2O4
##CAS REGISTRY NO=174482-85-0
##MP= -300
##BP= -300
##MW= 250
##$RETENTION INDEX=0
##$CONDENSED SPECTRUM=NO
##NPOINTS= 114
##XYDATA=(XY..XY) 1 
    33          6
    34          1
    35          3
    36          9
    38         29
    39        160
    41         80
    43         59
    44         91
    45         77
    47          1
    48          1
    49          5
    50         40
    51         74
    52         13
    53          9
    55         13
    57         14
    58          7
    60         14
    62         41
    63        126
    65        320
    67          3
    69          9
    70          4
    71          5
    73         20
    74         15
    75         33
    76         13
    77         14
    78          3
    79          2
    80          1
    81          3
    82          2
    83          3
    84          4
    85          6
    86          9
    87         17
    89        195
    91        587
    92         32
    94          2
    95          2
    96          2
    97          6
    99         14
   100          4
   101         10
   102          6
   103          4
   104          2
   105          2
   106          2
   107          1
   109          3
   110          3
   111          9
   112          5
   114         23
   115         16
   116         65
   118        450
   119        999
   120         83
   123         25
   124         18
   125         27
   126          8
   127          8
   128          2
   129          2
   130          8
   132          1
   133          1
   135         15
   136         10
   137          2
   138          4
   139          9
   140          7
   141          4
   142          2
   143          2
   144          4
   145          1
   146          1
   148         11
   150         40
   151         86
   152         23
   153         27
   154          5
   155          1
   156          1
   157          1
   158          1
   161          1
   162          1
   163          2
   164          1
   165          1
   167          1
   171          4
   173          2
   176          1
   178          8
   179          2
   180          2
   181          1