##TITLE=Library Entry 9111
##JCAMP-DX=Revision 4.10 
##DATA TYPE=MASS SPECTRUM
##SAMPLE DESCRIPTION=Chemical Concepts
##NAMES=HP
##CAS NAME=(1H)Benzimidazole, 5-fluoro-2-(4-chlorophenyl)-6-(4-methylpiperaz
in-1-yl)-
##MOLFORM=C18H18ClFN4
##CAS REGISTRY NO=174468-74-7
##MP= -300
##BP= -300
##MW= 344
##$RETENTION INDEX=0
##$CONDENSED SPECTRUM=NO
##NPOINTS= 228
##XYDATA=(XY..XY) 1 
    28        107
    29         28
    30         23
    31          5
    32         13
    33          4
    35          1
    36         12
    38          6
    39         17
    40          4
    41         36
    42        375
    43        999
    44        172
    45          1
    46          1
    50          5
    51          9
    52         11
    53          3
    54         14
    55         17
    56        100
    57         69
    58         39
    59          2
    61          1
    62          8
    63         11
    64          5
    65          7
    66          2
    67          3
    68          3
    69          6
    70        358
    71        522
    72         24
    73          2
    74          1
    75         17
    76         14
    77          7
    78          1
    79          1
    80          4
    81         65
    82         27
    83         12
    84          4
    85         34
    86          2
    87          2
    88          6
    89         14
    90          4
    91          2
    93          1
    94          3
    95         16
    96          6
    97          7
    98         11
    99         10
   100          2
   101          2
   102         10
   103          4
   104          2
   105          8
   106          3
   107          8
   108         72
   109         16
   110          5
   111         13
   112          3
   113          3
   114          1
   115          5
   116          2
   117          2
   118          1
   119          1
   120          2
   121          5
   122          7
   123          3
   124          2
   125          1
   127          1
   129          1
   130          1
   131          2
   132          1
   133          1
   134          4
   135         16
   136         14
   137          9
   138         20
   139          3
   140          7
   141          1
   144          1
   145          1
   147          1
   148          1
   149          3
   150          1
   151          1
   156          1
   158          3
   159          1
   162          1
   163          3
   164          1
   171          3
   172         32
   173         11
   179          1
   180          1
   181          1
   182          3
   183          2
   184          2
   186          1
   191          1
   194          1
   208          1
   209          7
   210         19
   211          5
   212          1
   217          1
   218         16
   219          3
   220          5
   223          3
   224          4
   225          5
   226          1
   227          2
   232          1
   236          2
   237          3
   238          5
   239          4
   240          1
   241          1
   243          1
   244          5
   245         30
   246         15
   247         12
   248          4
   252          2
   253          1
   254          2
   255          3
   256          1
   257          1
   258          6
   259         77
   260         26
   261         30
   262          8
   263          2
   265          1
   266          1
   267          1
   268          1
   269          1
   271          7
   272         47
   273        171
   274        100
   275         66
   276         29
   277          3
   280          2
   281          9
   282          8
   283          5
   284          3
   286          4
   287         14
   288         14
   289          6
   290          3
   294          1
   295          3
   296          5
   297          1
   298          2
   299          1
   300         25
   301         16
   302         14
   303          6
   304          1
   309          4
   310          3
   311          1
   313          1
   314          2
   315          3
   316          7
   317          1
   318          1
   323          2
   324          5
   325          1
   326          4
   327          2
   328          2
   329         31
   330          5
   331          8
   332          1
   342          7
   343         29
   344        415
   345         95
   346        142
   347         27
   348          2