##TITLE=Library Entry 14764
##JCAMP-DX=Revision 4.10 
##DATA TYPE=MASS SPECTRUM
##SAMPLE DESCRIPTION=Chemical Concepts
##NAMES=HP
##CAS NAME=(1H)Benzimidazole, 5-fluoro-2-(4-methoxyphenyl)-6-(4-methylpipera
zin-1-yl)-
##MOLFORM=C19H21FN4O
##CAS REGISTRY NO=174468-77-0
##MP= -300
##BP= -300
##MW= 340
##$RETENTION INDEX=0
##$CONDENSED SPECTRUM=NO
##NPOINTS= 237
##XYDATA=(XY..XY) 1 
    30         13
    31          5
    32          4
    36          1
    39          8
    40          1
    41         19
    42        258
    43        999
    44         57
    45          5
    50          2
    51          6
    52          5
    53          9
    54          7
    55         12
    56         97
    57         57
    58         47
    59          3
    60          1
    62          2
    63          9
    64          5
    65         10
    66          2
    67          3
    68          1
    69          7
    70        382
    71        600
    72         30
    73          1
    75          3
    76          7
    77         17
    78          4
    79          2
    80          1
    81         30
    82         12
    83          8
    84          4
    85         33
    86          1
    88          2
    89          3
    90          9
    91         11
    92          5
    93          2
    94          2
    95         10
    96          4
    97         10
    98         17
    99         14
   100          1
   101          2
   102          3
   103          6
   104          2
   105          4
   106          3
   107          6
   108         39
   109         10
   110          3
   111          1
   112          2
   113          4
   115          3
   116          1
   117          1
   118          2
   119         10
   120          4
   121          7
   122          6
   123          2
   126          2
   127          2
   128          1
   129          1
   131          1
   132          1
   133         13
   134         40
   135         19
   136          5
   137          1
   139          1
   140          1
   142          2
   145          2
   146          1
   147          4
   148          4
   149          7
   150          2
   151          1
   153          1
   155          1
   158          1
   159          1
   161          1
   162          2
   163          5
   164          1
   169         10
   170         48
   171          7
   172          5
   173          2
   174          2
   176          1
   179          3
   180          1
   182          1
   183          1
   184          1
   185          1
   186          3
   187          2
   191          3
   192          3
   193          1
   194          1
   196          3
   197         24
   198         34
   199         12
   200          7
   201          2
   202          2
   206          1
   207          1
   209          4
   210         12
   211          7
   212         22
   213          8
   214         12
   215          3
   216          1
   221          1
   222          1
   223          4
   224         10
   225         21
   226        100
   227         23
   228          5
   229          1
   233          2
   234          4
   235          2
   236          3
   237          4
   238          6
   239         13
   240         23
   241         31
   242         17
   243          7
   244          1
   246          1
   248          2
   249          1
   250          2
   251          5
   252          7
   253         12
   254        138
   255        213
   256         58
   257         12
   258          3
   259          2
   260          5
   261          1
   262          2
   263          3
   264          5
   265          5
   266          4
   267          7
   268         43
   269        418
   270        260
   271         41
   272          3
   275          1
   276          5
   277         30
   278         17
   279          4
   280          2
   281          2
   282          6
   283         28
   284         34
   285          5
   286          1
   290          3
   291          8
   292         10
   293          2
   294          2
   295          2
   296         53
   297         25
   298          9
   305          1
   309          4
   310         11
   311          9
   312         13
   313          3
   319          7
   320         17
   321          4
   322          3
   323          3
   324          4
   325         62
   326         14
   327          1
   328          2
   337          1
   338         18
   339         64
   340        977
   341        213
   342         27
   343          1