##TITLE=Library Entry 30480
##JCAMP-DX=Revision 4.10 
##DATA TYPE=MASS SPECTRUM
##SAMPLE DESCRIPTION=R RYHAGE MS-LAB KAROLINSKA INSTITUTET STOCKHOLM SWEDEN
##NAMES=HP
##CAS NAME=2,4,6,8,9-Pentathiaadamantane, 1,5,10-trimethyl-
##MOLFORM=C8H12S5
##CAS REGISTRY NO=17443-95-7
##MP= -300
##BP= -300
##MW= 268
##$RETENTION INDEX=0
##$CONDENSED SPECTRUM=NO
##NPOINTS= 92
##XYDATA=(XY..XY) 1 
    15         23
    18          5
    26          8
    27         31
    28          5
    29          6
    32         16
    33         18
    34         17
    38          6
    39         62
    40          7
    41         56
    44         19
    45        254
    46         18
    47         30
    51          8
    53         25
    54          6
    55          8
    57         24
    58        125
    59        999
    60         77
    61          9
    64         10
    65          7
    67          6
    69         22
    70          5
    71         42
    72         13
    73         27
    74          9
    75          7
    76         69
    77         16
    78          8
    79          7
    84         10
    85         69
    86         17
    87         73
    91         23
    97         17
    98          7
    99         22
   103         53
   104          9
   105          8
   111         50
   112        112
   113        103
   114         12
   115          6
   117        550
   118         73
   119        202
   120         15
   121         16
   123          8
   130          9
   131        228
   132         18
   133         43
   135          7
   136         59
   137          6
   138          9
   143         16
   144         69
   145        142
   146         22
   147         13
   163          8
   171         13
   177        108
   178         10
   179         14
   203        116
   204        202
   205         37
   206         28
   209         90
   210          9
   211         16
   268        348
   269         44
   270         86
   271         10
   272          9