##TITLE=Library Entry 16904
##JCAMP-DX=Revision 4.10 
##DATA TYPE=MASS SPECTRUM
##SAMPLE DESCRIPTION=NIST Mass Spectrometry Data Center, 1990.
##NAMES=HP
##CAS NAME=1,4,7,10,13,16-Hexaoxacyclooctadecane
##MOLFORM=C12H24O6
##CAS REGISTRY NO=17455-13-9
##MP= -300
##BP= -300
##MW= 264
##$RETENTION INDEX=2504
##$CONDENSED SPECTRUM=NO
##NPOINTS= 93
##XYDATA=(XY..XY) 1 
    12          1
    13          0
    15         70
    16          5
    17          0
    18          3
    19         32
    26         14
    27         98
    28        281
    29        201
    30         44
    31        148
    32          3
    33          1
    39          4
    41         59
    42        127
    43        528
    44        300
    45        999
    46         24
    47          2
    51          0
    54          1
    55          6
    56         16
    57         87
    58        163
    59        162
    60         12
    61         10
    62          1
    63          0
    67          1
    68          1
    69         10
    70         37
    71         66
    72         97
    73        232
    74         14
    75         21
    76          1
    77          4
    80          1
    83          3
    84          1
    85          7
    86         44
    87        202
    88        116
    89        415
    90         19
    91          4
    97          1
    99          7
   100          7
   101         57
   102         13
   103         19
   104          4
   105          6
   107          1
   112          0
   113          2
   114          5
   115         11
   116          5
   117         29
   118          5
   119          4
   121          1
   127          0
   129          0
   131         19
   133         95
   134          7
   135          1
   145          2
   146          0
   147          0
   148          0
   157          1
   159          1
   161          1
   162          0
   163          0
   175          3
   177         17
   178          1
   189          1
   221          0