##TITLE=Library Entry 44504
##JCAMP-DX=Revision 4.10 
##DATA TYPE=MASS SPECTRUM
##SAMPLE DESCRIPTION=Chemical Concepts
##NAMES=HP
##CAS NAME=6-Heptenoic acid, methyl ester
##MOLFORM=C8H14O2
##CAS REGISTRY NO=1745-17-1
##MP= -300
##BP= -300
##MW= 142
##$RETENTION INDEX=0
##$CONDENSED SPECTRUM=NO
##NPOINTS= 88
##XYDATA=(XY..XY) 1 
    25          3
    26         27
    27        286
    28         15
    29        254
    30          6
    31         44
    33          5
    34          0
    35          0
    37          5
    38         17
    39        319
    40         54
    41        650
    42         90
    43        521
    44         23
    45         32
    46          0
    48          0
    49          0
    50         12
    51         22
    52         14
    53         77
    54        123
    55        487
    56         38
    57         73
    58         17
    59        469
    60         17
    61          5
    62          2
    63          2
    64          0
    65         14
    66         11
    67        144
    68        354
    69        228
    70         11
    71         15
    72         22
    73          6
    74        999
    75         42
    76          4
    77          7
    78          3
    79         17
    80          3
    81         38
    82        166
    83         97
    84          7
    85         10
    86          1
    87        168
    88         28
    89          1
    91          1
    92          1
    93         14
    94          0
    95          7
    96          0
    97          1
    98          0
    99          6
   100          7
   101         29
   102          1
   105          0
   109          3
   110        247
   111        120
   112          8
   113         18
   114          6
   115          0
   125          0
   127          6
   128          0
   141          0
   142          4
   143          0