##TITLE=Library Entry 79301
##JCAMP-DX=Revision 4.10 
##DATA TYPE=MASS SPECTRUM
##SAMPLE DESCRIPTION=Chuck Anderson, Aldrich Chemical Co.
##NAMES=HP
##CAS NAME=Ethyl 3-benzoylacrylate
##MOLFORM=C12H12O3
##CAS REGISTRY NO=17450-56-5
##MP= -300
##BP= -300
##MW= 204
##$RETENTION INDEX=0
##$CONDENSED SPECTRUM=NO
##NPOINTS= 56
##XYDATA=(XY..XY) 1 
    15          7
    18          0
    26         20
    27         46
    28         14
    29         58
    30          3
    38          3
    39          7
    43          7
    44          5
    45          8
    50         33
    51        121
    52         10
    53         23
    54         23
    55         17
    62          3
    63          6
    65          6
    71         10
    73          5
    74         12
    75         11
    76         22
    77        383
    78         29
    79          7
    81          6
    82         10
    91          3
    99         28
   101          1
   102         16
   103         61
   104         10
   105        999
   106         68
   107          5
   115          3
   127         13
   130         79
   131        180
   132         46
   133          6
   147          9
   148          9
   158         25
   159         93
   160         22
   161          8
   175         23
   176         10
   204         69
   205          9