##TITLE=Library Entry 17573
##JCAMP-DX=Revision 4.10 
##DATA TYPE=MASS SPECTRUM
##SAMPLE DESCRIPTION=Leung Pu, NIH, Bethesda, Maryland, U.S.
##NAMES=HP
##CAS NAME=Dibenzo-30-crown-10
##MOLFORM=C28H40O10
##CAS REGISTRY NO=17455-25-3
##MP= -300
##BP= -300
##MW= 536
##$RETENTION INDEX=0
##$CONDENSED SPECTRUM=NO
##NPOINTS= 155
##XYDATA=(XY..XY) 1 
    41        129
    42         35
    43        802
    44         26
    45        999
    46         20
    47          9
    48          2
    49         34
    50         10
    51         32
    52        125
    53         27
    54          7
    55         46
    56          3
    57         40
    58         18
    59         82
    60          3
    61          3
    62          2
    63         20
    64         30
    65        121
    66         16
    67          9
    68          6
    69         30
    71        199
    73        255
    74          7
    75          7
    76          6
    77         97
    78          5
    79         61
    80        348
    81        124
    82         34
    84         20
    85          2
    86         18
    87         87
    89        129
    91        132
    92         27
    93         67
    94         13
    95         39
    96          2
    97          7
    99          3
   101          7
   102          0
   103         10
   104         29
   105         18
   107         77
   108         70
   109        287
   110        106
   111         10
   112          2
   113          8
   115         58
   117         24
   119         34
   121        841
   122         60
   123         17
   124          4
   125          0
   126          6
   127          0
   128          0
   129          1
   130          0
   131          5
   133         52
   135        102
   136        828
   137        387
   138         29
   139          3
   141          1
   143          1
   145          4
   147          6
   148          4
   149         26
   150          3
   151         12
   152          1
   153          8
   154          8
   155          0
   157          0
   159         32
   161         13
   162          7
   163         75
   164          4
   165         10
   166          1
   167          1
   171          0
   175          1
   177          2
   179          7
   180         23
   181         76
   182          6
   183          1
   187          1
   189          4
   191          1
   193          1
   195          0
   197          0
   198          3
   199          0
   205          1
   207         13
   208          1
   209          1
   215          0
   221          0
   222          0
   224         10
   225         13
   226          1
   228          0
   242          6
   243          0
   250          1
   251          2
   253          0
   266          0
   268         21
   269          3
   270          0
   312          1
   313          0
   358          0
   378          1
   404          0
   448          1
   449          0
   450          0
   506          0
   536        186
   537         55
   538         13
   539          1