##TITLE=Library Entry 24311
##JCAMP-DX=Revision 4.10 
##DATA TYPE=MASS SPECTRUM
##SAMPLE DESCRIPTION=D.HENNEBERG, MAX-PLANCK INSTITUTE, MULHEIM, WEST GERMAN
Y
##NAMES=HP
##CAS NAME=Undecane, 5-ethyl-
##MOLFORM=C13H28
##CAS REGISTRY NO=17453-94-0
##MP= -300
##BP= -300
##MW= 184
##$RETENTION INDEX=1232
##$CONDENSED SPECTRUM=NO
##NPOINTS= 51
##XYDATA=(XY..XY) 1 
    25          0
    26          5
    27         98
    28         41
    29        207
    30          3
    31          0
    32          2
    33          0
    37          1
    39         43
    40          2
    41        271
    42         55
    43        643
    51          1
    53          9
    54          8
    55        123
    56        103
    57        999
    58         42
    59          0
    65          0
    67          9
    68          4
    69         56
    70         61
    71        374
    72         14
    82          5
    83         16
    84         22
    85        214
    86         10
    87          0
    96          0
    97         14
    98         68
    99         57
   100          1
   111          4
   112          3
   113         14
   125          1
   126         31
   127         11
   140          0
   154         35
   155         41
   156          2