##TITLE=Library Entry 18793
##JCAMP-DX=Revision 4.10 
##DATA TYPE=MASS SPECTRUM
##SAMPLE DESCRIPTION=Institute of Organic Chemistry, Novosibirsk, USSR 1988
##NAMES=HP
##CAS NAME=Silane, dichlorodiethenyl-
##MOLFORM=C4H6Cl2Si
##CAS REGISTRY NO=1745-72-8
##MP= -300
##BP= -300
##MW= 152
##$RETENTION INDEX=0
##$CONDENSED SPECTRUM=NO
##NPOINTS= 33
##XYDATA=(XY..XY) 1 
    26          7
    27        111
    28         39
    39         56
    53         42
    54        999
    55         50
    63        203
    64         17
    65         70
    88         32
    89         48
    90         41
    91         17
    92         10
    98         81
    99        230
   100         69
   101        151
   102         11
   103         29
   116        581
   117         97
   118        212
   119         30
   123          6
   124         10
   125        330
   126         51
   127        213
   128         29
   129         41
   151          1