##TITLE=Library Entry 17374
##JCAMP-DX=Revision 4.10 
##DATA TYPE=MASS SPECTRUM
##SAMPLE DESCRIPTION=Japan AIST/NIMC Database- Spectrum MS-NW-6582
##NAMES=HP
##CAS NAME=Cyclohexyl-15-crown-5
##MOLFORM=C14H26O5
##CAS REGISTRY NO=17454-48-7
##MP= -300
##BP= -300
##MW= 274
##$RETENTION INDEX=0
##$CONDENSED SPECTRUM=NO
##NPOINTS= 152
##XYDATA=(XY..XY) 1 
    14          2
    15         61
    16          2
    17          3
    18         10
    26          7
    27         84
    28        146
    29         85
    30         15
    31         99
    32          2
    39         38
    40          9
    41        204
    42         88
    43        259
    44        210
    45        999
    46         24
    47          3
    51          4
    52          2
    53         29
    54         36
    55         68
    56         16
    57         96
    58        135
    59        170
    60          8
    61          9
    62          2
    63          3
    64         10
    65          5
    66          6
    67         66
    68         23
    69         71
    70         67
    71         52
    72        128
    73        201
    74         10
    75         19
    76          4
    77          9
    78          8
    79         39
    80         46
    81        200
    82         50
    83         44
    84         14
    85          9
    86         35
    87        159
    88        132
    89        486
    90         27
    91          7
    93          5
    94          9
    95         15
    96         35
    97         64
    98        125
    99        161
   100         19
   101         50
   102         13
   103         34
   104          7
   105          8
   106          3
   107         14
   108          3
   109          4
   110          5
   111          6
   112         11
   113         19
   114         17
   115         15
   116         10
   117         38
   118          4
   119          5
   121          2
   122          1
   123          5
   124         18
   125         11
   126          9
   127         18
   128          4
   129         12
   130          2
   131          9
   132          7
   133        118
   134          9
   135          9
   137          1
   139          3
   140         37
   141         63
   142         55
   143         71
   144          7
   145          3
   147          2
   148          1
   149          3
   151         22
   152          1
   153          3
   154          3
   155         18
   156         11
   157          6
   158         12
   159          7
   160          1
   161          6
   167          1
   168          9
   169          5
   170          9
   171          6
   172          3
   175          3
   176          3
   177          9
   178          3
   179          5
   184          4
   185         10
   186         19
   187         52
   188          6
   195          1
   199          2
   202          1
   212          3
   213          2
   230          2
   231          5
   256          2
   274          8
   275          2