##TITLE=Library Entry 58320
##JCAMP-DX=Revision 4.10 
##DATA TYPE=MASS SPECTRUM
##SAMPLE DESCRIPTION=Japan AIST/NIMC Database- Spectrum MS-IW- 910
##NAMES=HP
##CAS NAME=Dicyclohexano-24-crown-8
##MOLFORM=C24H44O8
##CAS REGISTRY NO=17455-23-1
##MP= -300
##BP= -300
##MW= 460
##$RETENTION INDEX=0
##$CONDENSED SPECTRUM=NO
##NPOINTS= 332
##XYDATA=(XY..XY) 1 
    14          1
    15          7
    17          4
    18         15
    26          4
    27         18
    28         52
    29         41
    30          9
    31         53
    32          3
    33          1
    39         11
    40          4
    41        133
    42         62
    43        199
    44        148
    45        843
    46         20
    47          3
    50          1
    51          3
    52          1
    53         20
    54         33
    55        134
    56         27
    57        102
    58        118
    59        158
    60          9
    61          7
    62          2
    63          9
    64         45
    65          5
    66          8
    67        106
    68         34
    69        137
    70         79
    71        103
    72        303
    73        474
    74         21
    75         24
    76          6
    77         21
    78         36
    79        107
    80         98
    81        820
    82        167
    83        201
    84         39
    85         41
    86         77
    87        460
    88        330
    89        999
    90         55
    91         29
    92          9
    93         23
    94         27
    95         57
    96         95
    97        190
    98        288
    99        631
   100         68
   101        111
   102         25
   103         72
   104         13
   105         35
   106         37
   107        166
   108         30
   109         47
   110         18
   111         28
   112         44
   113         79
   114         50
   115         83
   116         49
   117        235
   118         19
   119         23
   120         15
   121         19
   122         23
   123         47
   124         82
   125        108
   126         72
   127        207
   128         25
   129         29
   130          9
   131         81
   132         18
   133        785
   134         67
   135         59
   136          8
   137         12
   138          9
   139         28
   140        160
   141        367
   142        188
   143        462
   144         44
   145         24
   146          4
   147          9
   148         22
   149         40
   150         13
   151        211
   152         19
   153         20
   154         14
   155         74
   156         31
   157         29
   158         29
   159         35
   160         38
   161         34
   162          6
   163         15
   164          3
   165          9
   166         12
   167         18
   168         60
   169         67
   170         61
   171         93
   172         16
   173          8
   174          3
   175         36
   176         10
   177         38
   178         13
   179         11
   180          2
   181          3
   182          5
   183          9
   184         36
   185        102
   186        154
   187        466
   188         53
   189         13
   190          2
   191          2
   192          2
   193          4
   194          4
   195         17
   196          4
   197          4
   198          2
   199         15
   200          6
   201         13
   202          9
   203         13
   204          3
   205          8
   206          1
   207          2
   208          1
   209          3
   210         11
   211          9
   212         67
   213         57
   214         16
   215         45
   216          8
   217          4
   218          2
   219          3
   220          1
   221          3
   222          3
   223          3
   224          1
   225          2
   226          3
   227         13
   228         37
   229        129
   230         42
   231        258
   232         36
   233         14
   234          2
   235          1
   236          1
   237          1
   238          2
   239          4
   240          2
   241          6
   242          3
   243          9
   244          2
   245          6
   246         14
   247          9
   248          2
   249         25
   250          4
   251          1
   253          1
   254          1
   255         11
   256         22
   257         16
   258          5
   259          8
   260          2
   261          2
   263          1
   265          1
   266          1
   267          2
   268          1
   269          3
   270          1
   271          1
   272          5
   273         26
   274         14
   275         70
   276         10
   277          9
   278          3
   279          1
   282          1
   283          3
   284          2
   285          6
   286          1
   287          5
   288          1
   289          2
   290          2
   291          3
   292          1
   293          6
   294          1
   297          1
   299          2
   300          3
   301          2
   302          1
   303          1
   305          1
   306          1
   307          1
   308          1
   309          1
   310         32
   311         10
   312          2
   313          1
   316          1
   317          7
   318          5
   319         16
   320          3
   321          3
   325          5
   326          7
   327         14
   328         10
   329         11
   330          2
   331          1
   334          1
   337          2
   341          1
   343          1
   344          1
   345          1
   346          1
   347          1
   353          1
   354         37
   355         12
   356          3
   357          1
   361          2
   362          6
   363          6
   364          1
   365         13
   366          3
   370          1
   371          3
   372          4
   373         12
   374          3
   375          1
   378          1
   379          1
   380          2
   381          1
   385          2
   386          1
   398          5
   399          2
   416          2
   417          3
   418          1
   442          3
   443          1
   458          1
   460         45
   461         25
   462          6
   463          1