##TITLE=Library Entry 39477
##JCAMP-DX=Revision 4.10 
##DATA TYPE=MASS SPECTRUM
##SAMPLE DESCRIPTION=ASES Database, Dalian Institute, P.R. China
##NAMES=HP
##CAS NAME=(2-Ethyl-butanoyl)thiourea
##MOLFORM=C7H14N2OS
##CAS REGISTRY NO=17464-80-1
##MP= -300
##BP= -300
##MW= 174
##$RETENTION INDEX=0
##$CONDENSED SPECTRUM=NO
##NPOINTS= 11
##XYDATA=(XY..XY) 1 
    59         45
    60        359
    71        999
    75         15
    76        138
    98        310
    99         76
   103         15
   115         14
   146         31
   174        875