##TITLE=Library Entry 4051
##JCAMP-DX=Revision 4.10 
##DATA TYPE=MASS SPECTRUM
##SAMPLE DESCRIPTION=Japan AIST/NIMC Database- Spectrum MS-NW-3332
##NAMES=HP
##CAS NAME=Benzene, (2-propenyloxy)-
##MOLFORM=C9H10O
##CAS REGISTRY NO=1746-13-0
##MP= -300
##BP= -300
##MW= 134
##$RETENTION INDEX=0
##$CONDENSED SPECTRUM=NO
##NPOINTS= 76
##XYDATA=(XY..XY) 1 
    14          2
    15         12
    17          1
    18          3
    25          1
    26         13
    27         40
    28          4
    29          6
    31          2
    36          2
    37         16
    38         52
    39        375
    40         39
    41        999
    42         33
    43         11
    44          2
    49          3
    50         39
    51        121
    52         18
    53          9
    54          9
    55         33
    56          5
    57          2
    61          6
    62         16
    63         51
    64         22
    65        189
    66        108
    67          9
    68         30
    69          2
    73          2
    74         10
    75          8
    76          8
    77        149
    78        121
    79         70
    80          9
    81          2
    82          1
    89          6
    90          6
    91        208
    92         50
    93         23
    94        331
    95         22
    96          1
   102          3
   103         17
   104          8
   105        107
   106         36
   107         33
   108          4
   115         24
   116         24
   117         30
   118          6
   119        161
   120         15
   121          1
   130          1
   131         16
   132          7
   133        171
   134        642
   135         65
   136          9