##TITLE=Library Entry 76153
##JCAMP-DX=Revision 4.10 
##DATA TYPE=MASS SPECTRUM
##SAMPLE DESCRIPTION=CARL DJERASSI DEPT OF CHEM STANFORD UNIV STANFORD CALIF
 94305
##NAMES=HP
##CAS NAME=L-Phenylalanine, N,N-dimethyl-
##MOLFORM=C11H15NO2
##CAS REGISTRY NO=17469-89-5
##MP= -300
##BP= -300
##MW= 193
##$RETENTION INDEX=0
##$CONDENSED SPECTRUM=NO
##NPOINTS= 34
##XYDATA=(XY..XY) 1 
    41         20
    42        150
    43         10
    44        120
    50         10
    51         30
    56         70
    58         20
    63         10
    65         30
    70         10
    74         30
    77         50
    78         20
    79         10
    88         20
    89         10
    91        100
    92         20
   102        999
   103         80
   104         40
   105         30
   117         10
   130         10
   131         10
   132         30
   133         50
   134         20
   144         10
   146         40
   147         60
   148        210
   193         10