##TITLE=Library Entry 92837
##JCAMP-DX=Revision 4.10 
##DATA TYPE=MASS SPECTRUM
##SAMPLE DESCRIPTION=Exported from NIST MS Search
##NAMES=HP
##CAS NAME=1,2,4-Thiadiazol-5-amine, 3-methyl-
##MOLFORM=C3H5N3S
##CAS REGISTRY NO=17467-35-5
##MP= -300
##BP= -300
##MW= 115
##$RETENTION INDEX=0
##$CONDENSED SPECTRUM=NO
##NPOINTS= 29
##XYDATA=(XY..XY) 1 
    26         50
    27        210
    28        130
    29         30
    32        100
    33         70
    38        100
    39        140
    40         90
    41         90
    42        200
    43        220
    44         50
    45        260
    46        190
    47        499
    53        100
    58         90
    59        100
    60        280
    72        150
    73        899
    74        949
    75        250
    76        130
    86         80
   115        999
   116        220
   117        150