##TITLE=Library Entry 31356
##JCAMP-DX=Revision 4.10 
##DATA TYPE=MASS SPECTRUM
##SAMPLE DESCRIPTION=NIST Mass Spectrometry Data Center, 1998.
##NAMES=HP
##CAS NAME=Monolinuron
##MOLFORM=C9H11ClN2O2
##CAS REGISTRY NO=1746-81-2
##MP= -300
##BP= -300
##MW= 214
##$RETENTION INDEX=1740
##$CONDENSED SPECTRUM=NO
##NPOINTS= 107
##XYDATA=(XY..XY) 1 
    15          9
    26          1
    27          4
    28         23
    29         16
    30         16
    31          8
    32          1
    33         18
    35          1
    36          1
    37          8
    38         17
    39         25
    40          5
    41          4
    42          4
    43          2
    44          6
    45         66
    46        226
    47          6
    48          1
    49          7
    50         25
    51         17
    52         14
    53          2
    54          1
    55          1
    56         12
    57          4
    58          8
    59          4
    60         98
    61        999
    62         57
    63         96
    64         43
    65         15
    66          2
    67          1
    71          1
    72          5
    73         53
    74         17
    75         71
    76         18
    77          5
    78          3
    79          1
    84          2
    85          6
    86          2
    87          5
    88         11
    89         14
    90         80
    91         40
    92          7
    93          1
    97          3
    98          8
    99        156
   100         14
   101         54
   102          5
   103          1
   104          1
   105          1
   106          1
   107          1
   108          1
   110          2
   111         57
   112          5
   113         19
   114          2
   118          1
   119          6
   120          1
   124          3
   125         66
   126        239
   127         58
   128         79
   129         12
   130          1
   140          2
   141          1
   142          1
   147          2
   148         12
   149          1
   153         81
   154         37
   155         29
   156         12
   157          1
   165          1
   166          3
   167          1
   168          1
   214        125
   215         14
   216         41
   217          4