##TITLE=Library Entry 64286
##JCAMP-DX=Revision 4.10 
##DATA TYPE=MASS SPECTRUM
##SAMPLE DESCRIPTION=A.A.Kutin, Moscow, Russia
##NAMES=HP
##CAS NAME=1,2,4-Thiadiazol-5-amine, N-benzyl-3-phenyl-
##MOLFORM=C15H13N3S
##CAS REGISTRY NO=17467-59-3
##MP= -300
##BP= -300
##MW= 267
##$RETENTION INDEX=0
##$CONDENSED SPECTRUM=NO
##NPOINTS= 137
##XYDATA=(XY..XY) 1 
    34          1
    36          0
    37          5
    38         14
    39         97
    40          6
    41         20
    42          1
    43          0
    44          0
    45         23
    46         30
    47          2
    48          2
    50         60
    51        125
    52         31
    53         16
    54          1
    55          6
    57          1
    58          4
    59          5
    60          4
    61         55
    62         14
    63         50
    64         21
    65        207
    66         13
    67          1
    68          2
    69          9
    70          2
    71          1
    72          2
    73          6
    74         12
    75         23
    76         79
    77        173
    78         28
    79         16
    80          1
    81          1
    82          3
    83          2
    84          6
    85          2
    86          2
    87          3
    88          4
    89         29
    91        999
    92         78
    93          3
    94          1
    95          1
    96          1
    97          2
    98          0
    99          2
   100          1
   101          2
   103        142
   104        121
   105         71
   106        142
   107         17
   108         27
   109         31
   110          6
   111          2
   115          0
   116          4
   117          4
   118          3
   119          2
   121         12
   122         34
   123          8
   124          2
   125          0
   129          5
   131         21
   132          9
   134         80
   135        273
   136         50
   137         21
   138          2
   139          0
   143          0
   146          0
   147          2
   148          5
   149          1
   150          0
   151          0
   161          1
   163         67
   164         56
   165          8
   166          3
   167          0
   176          6
   177          1
   178          0
   180          0
   188          2
   189          6
   190         14
   191          2
   192          1
   207          2
   208          1
   209          0
   212          0
   219          0
   220          0
   221          1
   224          0
   225          0
   234          1
   239         13
   240          2
   241          0
   250          0
   251          1
   252          0
   262          0
   264          2
   267        705
   268        135
   269         43
   270          6
   271          0