##TITLE=Library Entry 17137
##JCAMP-DX=Revision 4.10 
##DATA TYPE=MASS SPECTRUM
##SAMPLE DESCRIPTION=Japan AIST/NIMC Database- Spectrum MS-NW-1524
##NAMES=HP
##CAS NAME=Carbamic acid, 1-methylethyl ester
##MOLFORM=C4H9NO2
##CAS REGISTRY NO=1746-77-6
##MP= -300
##BP= -300
##MW= 103
##$RETENTION INDEX=0
##$CONDENSED SPECTRUM=NO
##NPOINTS= 36
##XYDATA=(XY..XY) 1 
    14          6
    15         46
    16         23
    17         10
    18         32
    19          2
    26         11
    27        158
    28         14
    29         36
    30          1
    31         52
    32          3
    37          6
    38         11
    39         80
    40         19
    41        228
    42         99
    43        202
    44        171
    45        999
    46         23
    47          2
    57          3
    58          7
    59        320
    60         10
    61          1
    62        442
    63          6
    64          1
    75          1
    88        117
    89          4
   104          1