##TITLE=Library Entry 44705
##JCAMP-DX=Revision 4.10 
##DATA TYPE=MASS SPECTRUM
##SAMPLE DESCRIPTION=J.W.PINSON UNIV. OF S. MISSISSIPPI, HATTIESBURG, MISS.,
 USA
##NAMES=HP
##CAS NAME=Germane, ethyl-
##MOLFORM=C2H8Ge
##CAS REGISTRY NO=1747-99-5
##MP= -300
##BP= -300
##MW= 106
##$RETENTION INDEX=0
##$CONDENSED SPECTRUM=NO
##NPOINTS= 61
##XYDATA=(XY..XY) 1 
     2          4
    12          1
    13          0
    14          6
    15          6
    24          1
    25          1
    26         11
    27         55
    28          2
    29         69
    30          4
    35          0
    36          1
    37          0
    38          0
    39          1
    47          0
    48          1
    49          1
    50          2
    51          0
    52          0
    70        220
    71        130
    72        704
    73        381
    74        999
    75        599
    76        934
    77        340
    78        173
    79         60
    82          1
    83          4
    84         11
    85         17
    86         17
    87         28
    88         26
    89         30
    90          9
    91         11
    92          1
    93          2
    94          2
    95         17
    96          5
    97         34
    98         20
    99         88
   100        122
   101        266
   102        247
   103        366
   104        341
   105        372
   106        202
   107         77
   108         35
   109          1