##TITLE=Library Entry 88604
##JCAMP-DX=Revision 4.10 
##DATA TYPE=MASS SPECTRUM
##SAMPLE DESCRIPTION=MUS253 A. Mujsce, AT&T Bell Labs., Murray Hill, N.J., U
SA
##NAMES=HP
##CAS NAME=Diethyl 1-hydroxybutylphosphonate
##MOLFORM=C8H19O4P
##CAS REGISTRY NO=17477-67-7
##MP= -300
##BP= -300
##MW= 210
##$RETENTION INDEX=0
##$CONDENSED SPECTRUM=NO
##NPOINTS= 98
##XYDATA=(XY..XY) 1 
    26         27
    27        184
    28        136
    29        260
    30         12
    31         92
    39         49
    40         13
    41        106
    42         26
    43        187
    44        116
    45        107
    46         11
    47         82
    48         15
    49          7
    53         10
    54          6
    55         98
    56         10
    57         45
    61          3
    62          2
    63          4
    65        344
    66         60
    71         15
    72         63
    73         28
    75          4
    76          2
    77         16
    78          3
    79         11
    81        148
    82        519
    83        546
    86          1
    87          2
    91         33
    92         47
    93         91
    94         60
    95         41
    96          4
    99         21
   100          2
   106          2
   107          4
   109         69
   110        176
   111        999
   112         62
   113         13
   119          6
   121          3
   122          1
   123         11
   124          7
   125         11
   127          6
   129          2
   132          1
   135          4
   138        593
   139         70
   140         11
   141          9
   142          2
   143          2
   153          7
   154          3
   155          5
   157          2
   159          1
   161          2
   162          1
   163          2
   164          2
   165          7
   167          9
   168         17
   169          3
   170          1
   175          2
   178          2
   180          1
   181          7
   183          2
   191          2
   192          1
   193          1
   207          3
   209          2
   210          2
   211          2
   212          2