##TITLE=Library Entry 64492
##JCAMP-DX=Revision 4.10 
##DATA TYPE=MASS SPECTRUM
##SAMPLE DESCRIPTION=V.Zaikin,Inst.Petrochem.Synth.,RAS,Moscow
##NAMES=HP
##CAS NAME=Benzimidazol-2-one, 1-benzyl-1,3(2H)-dihydro-3-thiiranylmethyl-
##MOLFORM=C17H16N2OS
##CAS REGISTRY NO=174816-00-3
##MP= -300
##BP= -300
##MW= 296
##$RETENTION INDEX=0
##$CONDENSED SPECTRUM=NO
##NPOINTS= 93
##XYDATA=(XY..XY) 1 
    27          3
    38          3
    39         24
    41         10
    45         38
    47          5
    50          6
    51         16
    52          6
    58          4
    59         11
    61          3
    62          4
    63         18
    64         11
    65         77
    66          5
    71          5
    72          3
    73         62
    74          5
    75          6
    76          6
    77         22
    78         11
    79          3
    89         19
    90         66
    91        999
    92         80
    93          4
   102          3
   103          5
   104          8
   105          4
   106          7
   116          5
   117         14
   118         38
   119         15
   128          3
   129          4
   130         10
   131         11
   132          6
   133          6
   134         10
   136         12
   143          5
   144          4
   145         50
   146         22
   147         13
   151          3
   152          6
   159          3
   163          3
   164          3
   166          3
   167          3
   171         24
   172         10
   173         14
   174          5
   177          4
   180          6
   193          4
   194          9
   195         16
   205         20
   206          5
   207         10
   208          3
   221         22
   222         40
   223         34
   224        325
   225         52
   226          4
   235          3
   237         70
   238         18
   249          4
   250         24
   251          4
   263        268
   264        164
   265         28
   266          2
   296        553
   297        106
   298         35
   299          5