##TITLE=Library Entry 83046
##JCAMP-DX=Revision 4.10 
##DATA TYPE=MASS SPECTRUM
##SAMPLE DESCRIPTION=Chemical Concepts
##NAMES=HP
##CAS NAME=1,3-Dithiane-2-thione
##MOLFORM=C4H6S3
##CAS REGISTRY NO=1748-15-8
##MP= -300
##BP= -300
##MW= 150
##$RETENTION INDEX=0
##$CONDENSED SPECTRUM=NO
##NPOINTS= 73
##XYDATA=(XY..XY) 1 
    26         15
    27         73
    29         15
    33          5
    34          7
    37          8
    38         20
    39        200
    40         32
    41        622
    42         50
    43          5
    44         40
    45        385
    46        783
    47         68
    48         33
    49          2
    51          3
    53          2
    55         14
    56          2
    57         11
    58         45
    59         86
    60         14
    61          7
    64        109
    65          3
    66         10
    68          2
    69         18
    70          2
    71         48
    72         23
    73         75
    74         90
    75          9
    76        310
    77         60
    78         55
    79          5
    80          3
    81          2
    83          4
    84          2
    85          7
    90          4
    91          4
    92          2
   103          6
   105          4
   106        999
   107         44
   108         79
   109          5
   110          5
   115          2
   117          2
   118          1
   119          1
   120          1
   121          4
   125          2
   134         13
   135         13
   136          3
   141          2
   150        971
   151         69
   152        127
   153          7
   154          6