##TITLE=Library Entry 63415
##JCAMP-DX=Revision 4.10 
##DATA TYPE=MASS SPECTRUM
##SAMPLE DESCRIPTION=NIST Mass Spectrometry Data Center, 1994
##NAMES=HP
##CAS NAME=N-Benzyl-1-phenylethanamine  #
##MOLFORM=C15H17N
##CAS REGISTRY NO=17480-69-2
##MP= -300
##BP= -300
##MW= 211
##$RETENTION INDEX=0
##$CONDENSED SPECTRUM=NO
##NPOINTS= 72
##XYDATA=(XY..XY) 1 
    15          1
    26          1
    27         24
    28          1
    30         12
    37          1
    38          7
    39         65
    40          4
    41         11
    42         33
    44          2
    50         29
    51         97
    52         24
    53          9
    54          2
    56          1
    61          1
    62          5
    63         31
    64         10
    65        135
    66          7
    75          7
    76         13
    77        145
    78         47
    79         80
    80          5
    82          1
    84          1
    87          1
    89         32
    91        999
    92         81
    93          4
    97          1
    98          5
   102          6
   103         40
   104         60
   105        151
   106         58
   107          4
   115          1
   116          3
   117          5
   118          9
   119          2
   120         21
   121          2
   130          2
   131          1
   132          7
   133          1
   134         33
   135          3
   152          3
   165          5
   166          2
   167          3
   178          1
   193          2
   194          7
   196        402
   197         58
   198          3
   208          7
   209          6
   210          5
   211          6