##TITLE=Library Entry 40784
##JCAMP-DX=Revision 4.10 
##DATA TYPE=MASS SPECTRUM
##SAMPLE DESCRIPTION=Chemical Concepts
##NAMES=HP
##CAS NAME=Silane, 2-butenyltrimethyl-, (Z)-
##MOLFORM=C7H16Si
##CAS REGISTRY NO=17486-13-4
##MP= -300
##BP= -300
##MW= 128
##$RETENTION INDEX=0
##$CONDENSED SPECTRUM=NO
##NPOINTS= 73
##XYDATA=(XY..XY) 1 
    25          0
    26          4
    27         31
    28         18
    29         24
    30          2
    31         23
    32          5
    33          0
    37          0
    38          1
    39         18
    40          0
    41          5
    42         12
    43         95
    44         27
    45        134
    46         10
    47          4
    49          0
    50          2
    51          3
    52          1
    53         16
    54          4
    55         23
    56          4
    57         15
    58         23
    59        131
    60         11
    61          4
    62          0
    64          0
    65          2
    66          3
    67          6
    68          1
    69          7
    70          4
    71         14
    72         11
    73        999
    74         84
    75         35
    76          1
    77          1
    78          0
    79          0
    80          0
    81          2
    82          0
    83          5
    84          0
    85         68
    86          6
    87          4
    93          0
    95          3
    96          0
    97          5
    98          1
    99          0
   109          0
   111          3
   112          1
   113         42
   114          5
   115          1
   128         67
   129          9
   130          2