##TITLE=Library Entry 50933
##JCAMP-DX=Revision 4.10 
##DATA TYPE=MASS SPECTRUM
##SAMPLE DESCRIPTION=J.VOTH UNIV. OF CALIF, DAVIS, CALIFORNIA, 95616, USA
##NAMES=HP
##CAS NAME=Cyclohexene, 1-iodo-
##MOLFORM=C6H9I
##CAS REGISTRY NO=17497-53-9
##MP= -300
##BP= -300
##MW= 208
##$RETENTION INDEX=1079
##$CONDENSED SPECTRUM=NO
##NPOINTS= 89
##XYDATA=(XY..XY) 1 
    12          4
    13          4
    14         12
    15         50
    16          1
    17          0
    18          2
    25          7
    26         87
    27        461
    28         67
    29         59
    30          1
    31          2
    32          4
    35          1
    36          5
    37         40
    38         78
    39        390
    40         53
    41        497
    42         31
    43          4
    44          1
    45          4
    48          3
    49         25
    50        249
    51        345
    52        214
    53         51
    54         75
    55        126
    56          6
    57          2
    60          5
    61         18
    62         23
    63         44
    64          9
    65        109
    66        115
    67         27
    68          2
    69          2
    71          2
    72          4
    73         16
    74         27
    75         27
    76          8
    77        150
    78         49
    79        264
    80         80
    81        999
    82        119
    83          4
    88         48
    89          3
    90         16
    91          2
    93          2
   100          1
   101          5
   103          2
   115          2
   116         46
   117          4
   118         15
   127        280
   128         58
   129          4
   139          2
   140          1
   141          5
   152          7
   153          4
   164          1
   165          5
   167         10
   168          1
   180         10
   196          2
   207          1
   208        847
   209         56
   210          1