##TITLE=Library Entry 33207
##JCAMP-DX=Revision 4.10 
##DATA TYPE=MASS SPECTRUM
##SAMPLE DESCRIPTION=J.VOTH UNIV. OF CALIF, DAVIS, CALIFORNIA, 95616, USA
##NAMES=HP
##CAS NAME=Cyclopentene, 1-iodo-
##MOLFORM=C5H7I
##CAS REGISTRY NO=17497-52-8
##MP= -300
##BP= -300
##MW= 194
##$RETENTION INDEX=0
##$CONDENSED SPECTRUM=NO
##NPOINTS= 89
##XYDATA=(XY..XY) 1 
    12          5
    13          4
    14          9
    15         14
    16          0
    17          1
    18          3
    19          0
    24          1
    25          6
    26         38
    27         95
    28         25
    29          2
    31          3
    36          5
    37         14
    38        110
    39        415
    40         74
    41        461
    42         16
    43          1
    44          0
    45          1
    48          1
    49          6
    50         43
    51         52
    52         28
    53          4
    54          0
    55          1
    59          0
    60          7
    61         30
    62         44
    63         69
    64         18
    65        176
    66        195
    67        999
    68         56
    69          2
    71          1
    72          0
    73          1
    75          0
    77          1
    78          0
    79          1
    80          0
    81          1
    82          1
    91          2
    92          0
    93          3
    94          0
    95          0
    96          2
    97          0
   101          0
   102          2
   103          0
   104          0
   108          1
   127         67
   128         30
   129          1
   133          2
   134          0
   139          3
   140          1
   141          3
   147          0
   151          0
   152          5
   153          2
   163          0
   164          2
   165          7
   166          2
   167          0
   176          0
   192          0
   193         12
   194        685
   195         38
   196          1