##TITLE=Library Entry 15079
##JCAMP-DX=Revision 4.10 
##DATA TYPE=MASS SPECTRUM
##SAMPLE DESCRIPTION=Japan AIST/NIMC Database- Spectrum MS-NW-5356
##NAMES=HP
##CAS NAME=Zirconium(IV) trifluoroacetylacetonate
##MOLFORM=C20H16F12O8Zr
##CAS REGISTRY NO=17499-68-2
##MP= -300
##BP= -300
##MW= 702
##$RETENTION INDEX=0
##$CONDENSED SPECTRUM=NO
##NPOINTS= 407
##XYDATA=(XY..XY) 1 
    12          1
    13          1
    14          4
    15         27
    17          1
    18          3
    20          4
    26          7
    27         32
    28         22
    29         12
    31         12
    32          2
    33          3
    36          1
    37          5
    38          9
    39         79
    40         49
    41         21
    42         31
    43        999
    44         24
    45          3
    47          9
    50          5
    51          6
    52          2
    53         63
    54          8
    55         53
    56          9
    57          9
    58          5
    59         29
    63          4
    64          2
    65          5
    66          7
    67        184
    68         19
    69        177
    70          7
    71          6
    72          3
    73          3
    75          9
    77          6
    78          2
    79          2
    80          1
    81          6
    82          3
    83          5
    84         16
    85        138
    86         14
    87         78
    88          4
    89          5
    90          1
    91          9
    92          3
    93          2
    95          6
    96          1
    97          6
   103          2
   106          2
   107          2
   108          1
   109         12
   110          2
   111          3
   112          1
   113         16
   114          4
   115         79
   116          5
   117          5
   119          9
   120          3
   121          1
   123          2
   125         11
   126          7
   127          6
   128          4
   129          6
   131          3
   132          2
   134          2
   135          4
   136          2
   137          3
   138          2
   139         16
   140          2
   141          1
   143          6
   144          1
   145         13
   146          3
   147         23
   148        101
   149         43
   150         37
   151         10
   153          2
   154         24
   155          3
   157          7
   158          2
   159         10
   161          2
   162          1
   163          3
   164          2
   165         23
   166          7
   167         17
   168          4
   169         14
   170          2
   171          9
   172          2
   173          4
   175          4
   176          2
   177          3
   179          9
   180          2
   181          2
   182          2
   183          2
   184          8
   185          4
   186          7
   187         23
   188         12
   189          9
   190        143
   191         65
   192         53
   193         13
   195          6
   196          1
   197          2
   199          2
   200          3
   201          3
   202          2
   203          4
   205          6
   206          3
   207          3
   208          2
   209         33
   210         10
   211         28
   212         10
   213         21
   214          3
   215        100
   216         42
   217         40
   218          9
   219          2
   220          1
   221          2
   222          1
   223          1
   224          2
   225          2
   226          2
   227          4
   228          3
   229         35
   230         17
   231        563
   232        154
   233        216
   234         14
   235        203
   236         10
   237         34
   238          3
   239          2
   240         11
   241          7
   242          8
   243          4
   244          2
   245          2
   248          1
   249         13
   250          2
   251          3
   252         10
   253         36
   254         12
   255         14
   256          4
   257         18
   258          5
   259          7
   260          3
   261          8
   262        104
   263         32
   264         44
   265          6
   266         36
   267          4
   268          8
   269          1
   271          1
   273          2
   274          1
   275          3
   276          1
   277          2
   279          6
   280          9
   281        187
   282         70
   283         75
   284         13
   285         68
   286          6
   287         10
   288          1
   293          3
   295          4
   296          1
   297          3
   299          3
   300          1
   301          1
   302          1
   303          3
   304          1
   307          5
   308          2
   309          5
   310          2
   311          3
   312          2
   313          3
   314          2
   315         46
   316         17
   317         16
   318          5
   319         22
   320          5
   321          7
   322          3
   323          2
   324          2
   325          2
   326          1
   327          2
   328          1
   329          1
   333          6
   334          2
   335          1
   336          1
   337          2
   338          2
   339          2
   340          1
   341          1
   342          2
   343          2
   344          1
   345          3
   346         20
   347          8
   348          7
   349          3
   350          8
   351          2
   352          2
   353          2
   354          2
   355          2
   356          2
   357          1
   359          1
   361          1
   362          5
   363          2
   364         10
   365        397
   366        123
   367        147
   368         20
   369        138
   370         13
   371         25
   372          4
   385          1
   387         10
   388          4
   389          4
   390          1
   391          5
   392          1
   393          2
   395          2
   396         22
   397          9
   398          9
   399          3
   400          9
   401          2
   402          3
   405          2
   407          1
   409          1
   411          1
   413          4
   414         11
   415        417
   416        143
   417        158
   418         22
   419        144
   420         18
   421         25
   422          4
   433          1
   436          1
   437          2
   441          1
   452          2
   453          3
   454          2
   455          3
   456          1
   458          1
   459          1
   468          1
   476          1
   479          1
   486          1
   487          2
   489          1
   499          8
   500          4
   501          4
   502          3
   503          5
   504          2
   505          4
   506          2
   509          1
   510          2
   515          1
   527          2
   528          1
   530          9
   531          4
   532          4
   533          2
   534          4
   535          1
   537          2
   538          2
   539          2
   541          2
   542          2
   543          1
   544          2
   545          2
   546          3
   547          3
   548          9
   549        947
   550        357
   551        331
   552         63
   553        324
   554         54
   555         55
   556          9
   557          3
   568          4
   569          1
   570          2
   572          2
   635          1
   636          4
   637          4
   638          2
   639          6
   683         13
   684          7
   685          6
   686          2
   687          5
   702          4
   703          2
   704          2
   706          2