##TITLE=Library Entry 68215
##JCAMP-DX=Revision 4.10 
##DATA TYPE=MASS SPECTRUM
##SAMPLE DESCRIPTION=G.A.M.S., PARIS, FRANCE.
##NAMES=HP
##CAS NAME=Naphthalene, decahydro-1,6-dimethyl-
##MOLFORM=C12H22
##CAS REGISTRY NO=1750-51-2
##MP= -300
##BP= -300
##MW= 166
##$RETENTION INDEX=0
##$CONDENSED SPECTRUM=NO
##NPOINTS= 93
##XYDATA=(XY..XY) 1 
    26          5
    27         69
    28         23
    29         97
    30          2
    38          1
    39         87
    40         17
    41        267
    42         31
    43         64
    44          3
    50          2
    51         11
    52          7
    53         65
    54         62
    55        311
    56         38
    57         46
    58          3
    63          3
    64          1
    65         20
    66         14
    67        279
    68        134
    69        129
    70         20
    71         22
    72          1
    77         30
    78          7
    79         48
    80         31
    81        502
    82        259
    83        111
    84         11
    85         13
    86          1
    91         22
    92          5
    93         23
    94         64
    95        999
    96        194
    97         43
    98          4
    99          3
   103          1
   105          6
   106          2
   107          8
   108         10
   109        135
   110        198
   111         43
   112          4
   113          2
   115          2
   117          1
   119          3
   120          1
   121          3
   122          5
   123        113
   124         35
   125          7
   126          1
   127          1
   128          1
   129          1
   131          1
   133          1
   135          2
   136          1
   137         20
   138         14
   139          2
   141          5
   145          1
   149          2
   150          1
   151         65
   152          8
   153          1
   155          1
   164          1
   165          3
   166        354
   167         48
   168          3