##TITLE=Library Entry 21279
##JCAMP-DX=Revision 4.10 
##DATA TYPE=MASS SPECTRUM
##SAMPLE DESCRIPTION=Zaikin V.G., TIPS RAS, Moscow, Russia
##NAMES=HP
##CAS NAME=5-Bromovaleric acid, decyl ester
##MOLFORM=C15H29BrO2
##CAS REGISTRY NO=175083-30-4
##MP= -300
##BP= -300
##MW= 320
##$RETENTION INDEX=1936
##$CONDENSED SPECTRUM=NO
##NPOINTS= 104
##XYDATA=(XY..XY) 1 
    26         14
    27        109
    28          2
    29        202
    30          4
    31          6
    36         14
    38          7
    39         82
    40         18
    41        410
    42        171
    43        501
    44         26
    45         11
    51          4
    52          3
    53         44
    54         78
    55        999
    56        513
    57        478
    58         22
    59         39
    60          4
    65          3
    66          4
    67         70
    68        135
    69        414
    70        539
    71        224
    72         11
    73         72
    74          6
    77          3
    79         11
    80         11
    81         37
    82        172
    83        548
    84        335
    85        199
    86         11
    87          7
    93          4
    95         18
    96         67
    97        361
    98        217
    99         42
   100         30
   101        677
   102         40
   103          9
   106          3
   107         22
   108          4
   109         26
   110         27
   111        229
   112        267
   113         26
   115          4
   125          6
   129          4
   135        236
   136         13
   137        234
   138         15
   139         10
   140        364
   141         46
   155          8
   157         44
   158          4
   162         10
   163        360
   164         30
   165        352
   166         19
   171          3
   178          3
   180         75
   181        640
   182        105
   183        638
   184         37
   185         43
   186          5
   191          3
   193          4
   207          5
   209          4
   211          5
   213          3
   218          3
   220          3
   221          9
   223         18
   236         13
   238         12
   241         31
   242          4