##TITLE=Library Entry 63035
##JCAMP-DX=Revision 4.10 
##DATA TYPE=MASS SPECTRUM
##SAMPLE DESCRIPTION=A.A.Kutin, Moscow, Russia
##NAMES=HP
##CAS NAME=Piperazine, 1-benzyl-4-(3-indolylmethyl)-
##MOLFORM=C20H23N3
##CAS REGISTRY NO=17511-50-1
##MP= -300
##BP= -300
##MW= 305
##$RETENTION INDEX=0
##$CONDENSED SPECTRUM=NO
##NPOINTS= 141
##XYDATA=(XY..XY) 1 
    34          1
    36          1
    37          4
    38         10
    39         51
    40         31
    41         36
    42         97
    43         20
    44         28
    45          3
    50         38
    51         61
    52         20
    53          4
    54         18
    55         27
    56        111
    57         23
    58         24
    59          0
    60          0
    61          3
    62         11
    63         38
    64         12
    65        100
    66          6
    67          1
    68          3
    69          3
    70         16
    71         10
    72         49
    73          5
    74         21
    75         29
    76         49
    77        101
    78         18
    79          4
    80          1
    81          2
    82          1
    83         21
    84         11
    85         69
    86          5
    87          3
    88          7
    89         30
    90         32
    91        999
    92         82
    93          2
    96          0
    97          6
    98          4
    99          9
   100          3
   101         19
   102        116
   103         85
   104         24
   105         14
   106          5
   107          3
   114          1
   115          6
   116         10
   117         12
   118         24
   119         12
   120         35
   121          4
   127          4
   128         63
   129        226
   130        639
   131         87
   132         67
   133         18
   134        162
   135         17
   136          8
   137          0
   141          0
   142          4
   143         35
   144         59
   145         14
   146         33
   147         10
   148         41
   149          5
   150          0
   152          0
   154          0
   155          2
   156          5
   157         21
   158        113
   159         16
   160         12
   161         15
   162          1
   163          0
   165          0
   167          1
   168          0
   169          2
   170         12
   171         22
   172         18
   173         15
   174         18
   175        671
   176        138
   177         10
   178          0
   179          0
   183          0
   184          0
   185          7
   186          3
   187         25
   188          3
   189          0
   206          0
   212          0
   214         47
   215          8
   216          0
   235          1
   275          1
   276          1
   277          0
   304          3
   305        113
   306         23
   307          2