##TITLE=Library Entry 73376
##JCAMP-DX=Revision 4.10 
##DATA TYPE=MASS SPECTRUM
##SAMPLE DESCRIPTION=A.A.Kutin, Moscow, Russia
##NAMES=HP
##CAS NAME=Thiazolidine-2,4-dione, 5-dimethylaminomethylene-
##MOLFORM=C6H8N2O2S
##CAS REGISTRY NO=175143-88-1
##MP= -300
##BP= -300
##MW= 172
##$RETENTION INDEX=0
##$CONDENSED SPECTRUM=NO
##NPOINTS= 77
##XYDATA=(XY..XY) 1 
    33          1
    34          1
    37          0
    38          2
    39          5
    40         17
    41         46
    42        343
    43         48
    44         44
    45         49
    46         39
    47          5
    48          2
    51         37
    52         13
    53         15
    54          6
    55          5
    56         13
    57         46
    58         47
    59         82
    60          7
    61          6
    66          1
    67          4
    68          9
    69          6
    70         24
    71          7
    72          8
    73         26
    74         16
    75          1
    77          1
    80          2
    81          2
    82          1
    83          6
    84          5
    85         20
    86         30
    87          5
    88          6
    89          0
    95          0
    96          2
    97          0
    98          1
   100        999
   101        745
   102         83
   103         34
   104          0
   112          0
   113          1
   114          0
   115          5
   116          0
   117          4
   118          0
   127          1
   128         10
   129        169
   130         11
   131         24
   132          1
   133          0
   143          1
   144          0
   157          0
   158          0
   172        354
   173         28
   174         17
   175          0