##TITLE=Library Entry 2328
##JCAMP-DX=Revision 4.10 
##DATA TYPE=MASS SPECTRUM
##SAMPLE DESCRIPTION=NIST Mass Spectrometry Data Center, 1994
##NAMES=HP
##CAS NAME=Propanesulfonylacetonitrile
##MOLFORM=C5H9NO2S
##CAS REGISTRY NO=175137-61-8
##MP= -300
##BP= -300
##MW= 147
##$RETENTION INDEX=0
##$CONDENSED SPECTRUM=NO
##NPOINTS= 67
##XYDATA=(XY..XY) 1 
    12          3
    13         13
    14         12
    15         49
    16          1
    17          1
    18          3
    19          0
    25          2
    26         42
    27        455
    28         67
    29         26
    30          1
    31          1
    32          5
    33          4
    34          2
    36          0
    37         11
    38         39
    39        251
    40        168
    41        999
    42        124
    43        753
    44         29
    45         18
    46          6
    47          4
    48         45
    49          6
    50          3
    51          1
    52          1
    53          1
    54         11
    55         19
    56          1
    57          4
    58          3
    60          2
    61          1
    62          1
    63          6
    64         18
    65         19
    66          2
    67          2
    68          1
    69          1
    70          2
    71          2
    73          1
    74          0
    75          0
    78          0
    79          1
    80          0
    81          2
    82          4
    83          1
    88          3
    89          1
   104          1
   107          2
   148          1