##TITLE=Library Entry 82623
##JCAMP-DX=Revision 4.10 
##DATA TYPE=MASS SPECTRUM
##SAMPLE DESCRIPTION=Japan AIST/NIMC Database- Spectrum MS-NW-4456
##NAMES=HP
##CAS NAME=3-Pyridinecarboxamide, N-phenyl-
##MOLFORM=C12H10N2O
##CAS REGISTRY NO=1752-96-1
##MP= -300
##BP= -300
##MW= 198
##$RETENTION INDEX=0
##$CONDENSED SPECTRUM=NO
##NPOINTS= 76
##XYDATA=(XY..XY) 1 
    17          1
    18          2
    26          8
    27         17
    28         18
    29          1
    39         72
    40          9
    41          7
    42          1
    43          1
    44          1
    49          6
    50         58
    51        251
    52         44
    53         14
    54          3
    57          1
    61          4
    62          8
    63         24
    64         22
    65         79
    66         16
    67          2
    70          1
    71          1
    74          5
    75          7
    76         11
    77         42
    78        622
    79         41
    80          2
    87          1
    88          1
    89          3
    90          4
    91         10
    92         17
    93         17
    94          9
    98          1
    99          1
   102          1
   103          1
   104          2
   105          6
   106        999
   107         68
   108          5
   109          4
   113          1
   114          1
   115          5
   116          2
   117          1
   119          2
   120          1
   127          1
   128          1
   140          2
   141          2
   142          2
   152          1
   165          1
   168          3
   169          3
   170          1
   171          1
   196          3
   197         44
   198        443
   199         63
   200          5