##TITLE=Library Entry 49474
##JCAMP-DX=Revision 4.10 
##DATA TYPE=MASS SPECTRUM
##SAMPLE DESCRIPTION=NIST Mass Spectrometry Data Center, 1994
##NAMES=HP
##CAS NAME=1,2-Bis(3-cyclohexenyl)ethylene
##MOLFORM=C14H20
##CAS REGISTRY NO=17527-28-5
##MP= -300
##BP= -300
##MW= 188
##$RETENTION INDEX=0
##$CONDENSED SPECTRUM=NO
##NPOINTS= 89
##XYDATA=(XY..XY) 1 
     4          0
    15          7
    17          1
    18          2
    27        155
    28         44
    29         48
    30          1
    32          0
    37          2
    39        271
    40         35
    41        264
    42         10
    43          3
    50         20
    51         70
    52         44
    53        112
    54         86
    55         38
    56          5
    58          1
    62          3
    63         20
    65         96
    66         48
    67        112
    68         11
    69          4
    70          1
    71          0
    74          1
    75          3
    77        207
    78        140
    79        515
    80        999
    81        105
    82          9
    83          1
    87          1
    89          7
    91        214
    92        205
    93         68
    94         31
    95         15
    96          4
    97         10
    98          0
   101          1
   102          4
   103         15
   104         18
   105         65
   106         50
   107         34
   108          7
   109         34
   110          7
   115         21
   116          7
   117         25
   118          9
   119         49
   120         13
   121          4
   122          2
   127          4
   128          8
   129          4
   130          2
   131         17
   132          9
   133         16
   134         71
   135          7
   141          1
   145         21
   146         20
   147          8
   159         19
   160         12
   161          1
   173          7
   174          1
   188         25
   189          3