##TITLE=Library Entry 13882
##JCAMP-DX=Revision 4.10 
##DATA TYPE=MASS SPECTRUM
##SAMPLE DESCRIPTION=Japan AIST/NIMC Database- Spectrum MS-NW-5035
##NAMES=HP
##CAS NAME=Molybdenyl acetylacetonate
##MOLFORM=C10H14MoO6
##CAS REGISTRY NO=17524-05-9
##MP= -300
##BP= -300
##MW= 328
##$RETENTION INDEX=0
##$CONDENSED SPECTRUM=NO
##NPOINTS= 262
##XYDATA=(XY..XY) 1 
    13          1
    14          9
    15         60
    16          1
    17          2
    18          7
    25          1
    26          9
    27         41
    28         19
    29         12
    31          8
    32          1
    36          1
    37          6
    38         13
    39         72
    40          9
    41         26
    42         32
    43        999
    44         26
    45          4
    49          1
    50          5
    51          7
    52          2
    53         22
    54          4
    55         19
    56          1
    57          3
    58          9
    60          1
    61          1
    62          1
    63          3
    64          1
    65         14
    66          6
    67         27
    68          3
    69         10
    70          1
    71          2
    72          8
    77          2
    79          2
    81          6
    82         23
    83          8
    84          4
    85        116
    86          6
    87          1
    91          1
    92          1
    95          2
    96          1
    97          2
    98          1
    99         13
   100         81
   101          5
   107          1
   108          3
   109          2
   110          2
   111          4
   112          5
   113          4
   114          6
   115          3
   116          2
   117          1
   121          2
   122          3
   123          2
   124          9
   125          9
   126          8
   127         13
   128         14
   129         13
   130         14
   131         10
   132          5
   133          5
   134          3
   135          2
   136          4
   137          5
   138          7
   139         10
   140          8
   141         11
   142         11
   143          9
   144         11
   145         13
   146          9
   147         14
   148          8
   149         10
   150          8
   151         11
   152          8
   153         13
   154         10
   155         19
   156         10
   157         15
   158          6
   159         11
   160          3
   161          5
   162          2
   163         14
   164          9
   165         12
   166         21
   167         26
   168         22
   169         32
   170         18
   171         17
   172         11
   173          6
   174          4
   175          2
   176          2
   177          6
   178          2
   179          5
   180          8
   181         28
   182          8
   183         26
   184         32
   185         34
   186         24
   187         45
   188         11
   189         24
   190         10
   191          5
   192          7
   193          4
   194          5
   195          5
   196          4
   197          4
   198          4
   199          3
   200          3
   201          2
   202          2
   203          1
   204          1
   205          8
   206          2
   207         23
   208         21
   209         22
   210         32
   211         46
   212         29
   213         44
   214         21
   215         14
   216          9
   217          1
   222          8
   223        150
   224         56
   225        104
   226        202
   227        229
   228        167
   229        276
   230         92
   231        105
   232         35
   233          3
   234          1
   237          1
   238          3
   239          9
   240          4
   241          3
   242          3
   243          3
   244          4
   245          1
   246          2
   247          1
   248          1
   249          2
   250          5
   251          2
   252          5
   253          5
   254         16
   255          7
   256          7
   257          2
   258          3
   262          1
   264          1
   265          1
   266          1
   267          1
   268          2
   269          1
   270          2
   271          1
   272          1
   274          1
   278          1
   279         30
   280        135
   281         33
   282        118
   283        186
   284        188
   285        150
   286        229
   287         42
   288         92
   289          9
   290          2
   293          4
   294          4
   295          3
   296          7
   297          8
   298          7
   299          9
   300          6
   301          3
   302          3
   306          4
   307          4
   308          3
   309          7
   310          9
   311          6
   312          9
   313          6
   314          3
   315          3
   322         74
   323          9
   324         49
   325         86
   326         95
   327         60
   328        128
   329         15
   330         53
   331          6
   332          1