##TITLE=Library Entry 41333
##JCAMP-DX=Revision 4.10 
##DATA TYPE=MASS SPECTRUM
##SAMPLE DESCRIPTION=Dmitri Zagorevskii, University of Missouri-Columbia, Co
lumbia, MO
##NAMES=HP
##CAS NAME=3-(2-Hydroxyethyl)-2,2,4-trimethyl-3-cyclohexene-1-carbaldehyde,
 TBDMS derivative
##MOLFORM=C18H34O2Si
##CAS REGISTRY NO=175348-38-6
##MP= -300
##BP= -300
##MW= 310
##$RETENTION INDEX=0
##$CONDENSED SPECTRUM=NO
##NPOINTS= 141
##XYDATA=(XY..XY) 1 
    26          3
    27         26
    29         78
    31          8
    39         31
    40          4
    41        205
    42         11
    43         82
    44          6
    45         37
    47         35
    53         33
    55        131
    56         19
    57         80
    58         57
    59        135
    60         13
    61         24
    65         16
    66          3
    67         82
    68          7
    69        170
    70         12
    71          9
    72          9
    73        999
    74         85
    75        859
    76         66
    77         76
    78         10
    79         86
    80         14
    81        114
    82         11
    83        108
    84         11
    85         23
    87          7
    88         27
    89        519
    90         48
    91        136
    92         17
    93        144
    95         62
    96         10
    97         16
    98          2
    99         31
   100         10
   101         60
   102          8
   103         24
   104          8
   105        231
   106         29
   107        139
   108         18
   109         62
   110          9
   111         15
   113         13
   115        158
   116         20
   117         33
   118          7
   119        344
   120         44
   121        117
   122         27
   123         35
   124          3
   125          7
   127         21
   128          3
   129         49
   130          9
   131         98
   132         13
   133        107
   134         16
   135         93
   136         12
   137         12
   139          9
   141         42
   142          8
   143         22
   145         55
   146          9
   147         40
   148          8
   149         70
   150         14
   151         12
   153         44
   154          7
   155         40
   156          3
   157         52
   158          6
   159         23
   161        217
   162         28
   163         22
   165         12
   167         29
   168          6
   169         11
   171         55
   172          8
   173         14
   177          8
   178          7
   179         14
   181         75
   182         12
   183         34
   184          6
   185          9
   193         11
   195        106
   196         20
   197        294
   198         52
   199         17
   209         14
   210          6
   211         20
   223         19
   224          3
   225          8
   239          7
   253        337
   254         72
   255         19
   295          9