##TITLE=Library Entry 75974
##JCAMP-DX=Revision 4.10 
##DATA TYPE=MASS SPECTRUM
##SAMPLE DESCRIPTION=NIST Mass Spectrometry Data Center, 1994
##NAMES=HP
##CAS NAME=3-Chloro-5,5-dimethylcyclohex-2-enone
##MOLFORM=C8H11ClO
##CAS REGISTRY NO=17530-69-7
##MP= -300
##BP= -300
##MW= 158
##$RETENTION INDEX=0
##$CONDENSED SPECTRUM=NO
##NPOINTS= 96
##XYDATA=(XY..XY) 1 
    12          2
    13          3
    14         14
    15         62
    16          0
    17          2
    18          1
    25          1
    26         16
    27        148
    28         30
    29         54
    30          0
    35          2
    36          5
    37         26
    38         80
    39        466
    40         42
    41        174
    42         34
    43         16
    46          1
    47          3
    48          1
    49         17
    50         46
    51         90
    52         25
    53         75
    54          8
    55         45
    56         62
    57          4
    60         11
    61         14
    62         18
    63         40
    64          9
    65         56
    66          4
    67        478
    68         22
    69          3
    70          5
    72          2
    73         23
    74          2
    75         23
    76          5
    77         97
    78         16
    79        121
    80         15
    81          8
    82          1
    83          4
    85          1
    86          1
    87         10
    88          4
    89         10
    90          2
    91         12
    92          1
    93          5
    94          3
    95         20
    96          2
    99          5
   100          5
   102        999
   103         55
   104        312
   105         19
   106          1
   107          5
   108          5
   113          1
   115         43
   116          6
   117         13
   118          1
   123          4
   128          1
   129          3
   130         36
   131          4
   132         12
   143         38
   144          2
   145         13
   158        167
   159         17
   160         57
   161          4