##TITLE=Library Entry 109251
##JCAMP-DX=Revision 4.10 
##DATA TYPE=MASS SPECTRUM
##SAMPLE DESCRIPTION=A.A.Kutin, Moscow, Russia
##NAMES=HP
##CAS NAME=Benzo[b]perhydrothiazepin-4-one-3-acetic acid
##MOLFORM=C11H11NO3S
##CAS REGISTRY NO=17547-79-4
##MP= -300
##BP= -300
##MW= 237
##$RETENTION INDEX=0
##$CONDENSED SPECTRUM=NO
##NPOINTS= 175
##XYDATA=(XY..XY) 1 
    33          2
    34          4
    35          6
    36         35
    37         18
    38         56
    39        214
    40         57
    41        214
    42        112
    43         63
    44         34
    45        181
    46         12
    47         13
    48          2
    49          3
    50         26
    51         53
    52         53
    53         29
    54         17
    55        115
    56         19
    57         89
    58         19
    59         11
    60         24
    61         14
    62         16
    63         50
    64         31
    65         69
    66         16
    67         21
    68         17
    69         97
    70         61
    71         63
    72         26
    73         25
    74          9
    75         10
    76          9
    77         38
    78         29
    79         16
    80         64
    81         34
    82         24
    83         17
    84         20
    85        320
    86         16
    87          7
    88          2
    89          6
    90         14
    91         20
    92         14
    93         49
    94         25
    95         60
    96        184
    97         39
    98         22
    99          8
   100          1
   101          3
   102          3
   103          6
   104          6
   105          4
   106         21
   107          5
   108         16
   109         53
   110         10
   111          9
   113        174
   114         11
   115          6
   116          5
   117         17
   118          6
   119          5
   120         15
   121         10
   122         39
   123         96
   124        119
   125        999
   126         83
   127         42
   128          9
   129          7
   130         36
   131         20
   132          4
   133          2
   134          7
   135         11
   136        203
   137         23
   138         19
   139          7
   140          2
   141          8
   142          1
   143          1
   145         10
   146         18
   147          7
   148         13
   149         25
   150         33
   151         66
   152         24
   153          7
   154          1
   155          0
   156          1
   157          3
   158         12
   159          5
   160          3
   161          1
   162         10
   163          2
   164         11
   165          3
   166          1
   167          0
   171          0
   172          1
   173          1
   174          3
   175          6
   176          4
   177          7
   178         11
   179          1
   180          0
   185          1
   186         12
   187          1
   188          0
   189          0
   190          3
   191          1
   192          1
   193          1
   194          0
   195          0
   196          0
   197          0
   201          0
   202          0
   203          0
   204          6
   205          1
   209          2
   213          0
   218          0
   219          2
   220          5
   221          1
   223          0
   228          0
   234          8
   237        177
   238         22
   239         10
   240          0
   242          0