##TITLE=Library Entry 59107
##JCAMP-DX=Revision 4.10 
##DATA TYPE=MASS SPECTRUM
##SAMPLE DESCRIPTION=NIST Mass Spectrometry Data Center, 2013
##NAMES=HP
##CAS NAME=Lacosamide
##MOLFORM=C13H18N2O3
##CAS REGISTRY NO=175481-36-4
##MP= -300
##BP= -300
##MW= 250
##$RETENTION INDEX=2074
##$CONDENSED SPECTRUM=NO
##NPOINTS= 147
##XYDATA=(XY..XY) 1 
    15         33
    16          1
    17          1
    18          4
    26          3
    27         15
    28         69
    29         41
    30         41
    31         17
    32          7
    33          3
    37          1
    38          4
    39         39
    40          7
    41         31
    42        111
    43        954
    44        168
    45        187
    46          6
    47          1
    50         14
    51         50
    52         15
    53          6
    54          5
    55         37
    56         21
    57         47
    58         24
    59         23
    60          8
    61          1
    62          4
    63         24
    64          8
    65        142
    66          9
    67          1
    68          3
    69          2
    70          5
    71          5
    72          8
    73         20
    74        771
    75         36
    76          9
    77         70
    78         29
    79         47
    80          4
    82          1
    83          2
    84         15
    85        656
    86         38
    87          6
    88          2
    89         33
    90         18
    91        999
    92         82
    93          4
    97          1
    98          2
    99          6
   100          4
   101          1
   102          2
   103          6
   104         49
   105         20
   106        752
   107         82
   108          8
   109          1
   110          1
   111          1
   112          4
   113          3
   114          2
   115         12
   116        287
   117         60
   118         16
   119          4
   120         21
   121          2
   127          2
   128          2
   129          1
   130         13
   131         24
   132         22
   133         10
   134          6
   135          3
   136          1
   142          2
   143          2
   144        180
   145         15
   146         24
   147          4
   148          7
   149          2
   150          2
   152          2
   153          1
   157          1
   158          3
   159         27
   160         77
   161         11
   162          5
   163        128
   164         14
   165          1
   166          2
   173          1
   174          1
   175         11
   176         11
   177          3
   178          1
   189          1
   190          4
   191         77
   192         20
   193          3
   200          4
   201          5
   202          1
   205          1
   207          8
   208          2
   218         10
   219          2
   232          1
   233          1
   235          1
   250         41
   251          7
   252          1