##TITLE=Library Entry 83330
##JCAMP-DX=Revision 4.10 
##DATA TYPE=MASS SPECTRUM
##SAMPLE DESCRIPTION=J. SHAW, BORRISTON RESEARCH, ROCKVILLE, MD, USA
##NAMES=HP
##CAS NAME=Diamidafos
##MOLFORM=C8H13N2O2P
##CAS REGISTRY NO=1754-58-1
##MP= -300
##BP= -300
##MW= 200
##$RETENTION INDEX=0
##$CONDENSED SPECTRUM=NO
##NPOINTS= 85
##XYDATA=(XY..XY) 1 
    12          2
    15         79
    16          6
    17         20
    18         56
    28        420
    30        648
    31         41
    32         34
    33          3
    39        449
    40         23
    41          9
    42         25
    43         16
    44         20
    46        187
    49         54
    50         91
    51        218
    52         16
    53         15
    55         13
    57          6
    60        178
    61         12
    63        108
    65        336
    66         46
    67          4
    68          2
    69          1
    70          1
    71          1
    74         27
    77        472
    78        252
    79         14
    80          6
    81          3
    83          3
    84          2
    85          3
    86          1
    89          6
    91         12
    92         15
    94        417
    95         27
    96          3
    97          1
    99          2
   100          1
   107        999
   108         59
   109          5
   110          1
   112          2
   113          2
   120          4
   121          5
   123         24
   124          1
   126          1
   136          1
   139         21
   140         38
   141          5
   142          1
   150          1
   152          6
   154          1
   155          1
   168          7
   169         11
   170         47
   171          7
   172          1
   182          8
   183          1
   197          1
   198          1
   200        139
   201         48
   202          3