##TITLE=Library Entry 2939
##JCAMP-DX=Revision 4.10 
##DATA TYPE=MASS SPECTRUM
##SAMPLE DESCRIPTION=CARL DJERASSI DEPT OF CHEM STANFORD UNIV STANFORD CALIF
 94305
##NAMES=HP
##CAS NAME=Androstan-1-one, (5.alpha.)-
##MOLFORM=C19H30O
##CAS REGISTRY NO=1755-29-9
##MP= -300
##BP= -300
##MW= 274
##$RETENTION INDEX=0
##$CONDENSED SPECTRUM=NO
##NPOINTS= 119
##XYDATA=(XY..XY) 1 
    40         70
    41        999
    42        160
    43        310
    44         60
    45         10
    51         40
    52         30
    53        280
    54         80
    55        640
    56         50
    57         60
    58         10
    63         10
    65         90
    66         40
    67        480
    68        110
    69        140
    70         10
    71         30
    77        190
    78         40
    79        380
    80         80
    81        430
    82         70
    83         40
    84         10
    85         10
    91        250
    92         40
    93        310
    94        120
    95        490
    96         60
    97         40
   103         20
   104         10
   105        160
   106         50
   107        320
   108        140
   109        150
   110        110
   111        170
   112         20
   115         20
   117         20
   119         90
   120         50
   121        170
   122         50
   123         60
   124        300
   125         30
   128         10
   129         10
   131         40
   132         10
   133        120
   134         50
   135        220
   136         40
   137         60
   138         10
   145         40
   146         10
   147        100
   148        150
   149        150
   150         30
   151         10
   159         30
   160         20
   161        140
   162         50
   163         70
   164         20
   173         20
   175         70
   176         50
   177         10
   185         10
   187         30
   188         10
   189        120
   190         50
   191         10
   201         50
   202         30
   203        510
   204        110
   205         10
   207         10
   215         20
   216         10
   217         30
   218         20
   228         10
   229         10
   230         20
   231        230
   232         40
   241        100
   242         10
   243         20
   245         10
   246         10
   256        340
   257         60
   258         30
   259        330
   260         50
   261         30
   274        340
   275         40
   276         10