##TITLE=Library Entry 32917
##JCAMP-DX=Revision 4.10 
##DATA TYPE=MASS SPECTRUM
##SAMPLE DESCRIPTION=Exported from NIST MS Search
##NAMES=HP
##CAS NAME=Pentalene, octahydro-, cis-
##MOLFORM=C8H14
##CAS REGISTRY NO=1755-05-1
##MP= -300
##BP= -300
##MW= 110
##$RETENTION INDEX=867
##$CONDENSED SPECTRUM=NO
##NPOINTS= 67
##XYDATA=(XY..XY) 1 
    25          1
    26         24
    27        203
    28         52
    29         64
    30          2
    37          6
    38         18
    39        245
    40         46
    41        296
    42         31
    43         13
    44          1
    45          2
    46          1
    49          1
    50         16
    51         35
    52         20
    53         81
    54        163
    55         75
    56          7
    57          1
    58          1
    60          2
    62          3
    63          9
    64          2
    65         27
    66        100
    67        999
    68        133
    69         38
    70          2
    74          2
    75          2
    76          1
    77         23
    78          6
    79         23
    80         13
    81        117
    82        624
    83         40
    84          1
    89          1
    90          1
    91          6
    92          1
    93          2
    94          1
    95         30
    96          3
   100          1
   101          1
   102          1
   103          1
   104          1
   105          1
   107          1
   108          1
   109          4
   110        146
   111         13
   112          1