##TITLE=Library Entry 42834
##JCAMP-DX=Revision 4.10 
##DATA TYPE=MASS SPECTRUM
##SAMPLE DESCRIPTION=M. HORNING
##NAMES=HP
##CAS NAME=11-Hydroxyetiocholanolone (3.alpha.,5.beta.,11.beta.)-, 2TMS deri
vative
##MOLFORM=C25H46O3Si2
##CAS REGISTRY NO=17562-89-9
##MP= -300
##BP= -300
##MW= 450
##$RETENTION INDEX=2693
##$CONDENSED SPECTRUM=NO
##NPOINTS= 100
##XYDATA=(XY..XY) 1 
    41        105
    42         25
    43        115
    44         25
    45         70
    47         25
    53         25
    55        110
    57         25
    59         55
    61         45
    67        110
    69         50
    73        999
    74        100
    75        635
    76         45
    77         65
    79        135
    81        125
    83         30
    91        115
    92         40
    93        130
    94         75
    95        110
    96         45
    97         55
   101         60
   103         50
   105        135
   106        130
   107        110
   108        320
   109         70
   116         25
   117         55
   118         80
   119         80
   120         30
   121         40
   129         70
   131         75
   132         25
   133         55
   134         25
   141         80
   142         35
   143        110
   144         35
   145         80
   146         30
   147         60
   148         25
   149         40
   155         30
   156        998
   157        170
   158         55
   159         60
   160         25
   161         25
   168         40
   169         70
   170         30
   171         50
   173         30
   174        110
   175         90
   181         25
   182         25
   183         45
   184        300
   185        110
   186         95
   187         45
   188         40
   189         40
   195         25
   197         25
   199         80
   207         30
   213         30
   214         50
   242         30
   253         40
   255         40
   270        150
   271         35
   290         55
   305         35
   359         40
   360        120
   361         35
   395         75
   396         25
   435         25
   450         85
   451         32
   452         11