##TITLE=Library Entry 43609
##JCAMP-DX=Revision 4.10 
##DATA TYPE=MASS SPECTRUM
##SAMPLE DESCRIPTION=STER PREG TMSI 00 0000 E M.HORN
##NAMES=HP
##CAS NAME=Tetrahydrocortisol, 3TMS derivative
##MOLFORM=C30H58O5Si3
##CAS REGISTRY NO=17563-00-7
##MP= -300
##BP= -300
##MW= 582
##$RETENTION INDEX=0
##$CONDENSED SPECTRUM=NO
##NPOINTS= 197
##XYDATA=(XY..XY) 1 
    41         90
    43        130
    44         40
    45        100
    47         40
    53         30
    55        150
    57         40
    58         20
    59         50
    61         40
    67        150
    68         20
    69         90
    70         20
    71         20
    72         30
    73        999
    74        150
    75        710
    76         50
    77         80
    78         30
    79        140
    80         20
    81        230
    82         20
    83         80
    85         20
    89         30
    91        180
    92         30
    93        200
    94         50
    95        220
    96         30
    97         40
    99         20
   101         30
   103        150
   104         30
   105        210
   106         50
   107        370
   108         60
   109        120
   111         20
   115         50
   116         20
   117        120
   118         30
   119        130
   120         40
   121        120
   122         30
   123         50
   127         20
   128         20
   129        140
   130         50
   131        140
   132         40
   133        170
   134         40
   135         90
   136         20
   137         20
   141         60
   142         50
   143        240
   144         60
   145        250
   146         50
   147        360
   148         60
   149        120
   150         20
   151         20
   155        100
   156         40
   157        140
   158         40
   159        150
   160         30
   161         90
   162         30
   163         50
   165         20
   167         20
   168         20
   169        150
   170         40
   171        140
   172         40
   173         60
   174         20
   175         40
   177         40
   181         40
   182         30
   183         60
   184         20
   185         50
   186         20
   187         40
   189         60
   191         40
   193         30
   195         40
   196         20
   197        100
   198         30
   199         40
   201         20
   203         20
   205         80
   206         20
   207         50
   208         20
   209         30
   211         80
   212         20
   213        120
   214         30
   215         30
   217         30
   218        100
   219         30
   221         30
   223         20
   225         30
   226         20
   227         40
   228        100
   229         40
   230         20
   231        110
   232         30
   233         30
   235         20
   237         30
   238         20
   239         20
   241         20
   243         30
   244         20
   245         20
   246         20
   247         80
   248         20
   249         20
   251         30
   252         20
   253        999
   254        220
   255         50
   269         20
   271        220
   272         50
   277          1
   281         20
   295         20
   301         20
   318         70
   319         20
   341          1
   343        400
   344        120
   345         40
   361        300
   362        100
   363          3
   369         20
   433         60
   434         30
   435         20
   436         40
   437          1
   449         40
   450         30
   451        540
   452        210
   453         80
   454          1
   459         20
   463         15
   464         20
   477         30
   492         30
   554          2
   555         15
   556          6
   567          7
   568          3
   582         25
   583          0
   584          5