##TITLE=Library Entry 42835
##JCAMP-DX=Revision 4.10 
##DATA TYPE=MASS SPECTRUM
##SAMPLE DESCRIPTION=M.HORNING
##NAMES=HP
##CAS NAME=11-Hydroxyetiocholanolone (3.alpha.,5.alpha.,11.beta.)-, 2TMS der
ivative
##MOLFORM=C25H46O3Si2
##CAS REGISTRY NO=17562-92-4
##MP= -300
##BP= -300
##MW= 450
##$RETENTION INDEX=2693
##$CONDENSED SPECTRUM=NO
##NPOINTS= 233
##XYDATA=(XY..XY) 1 
    41        140
    42         40
    43        120
    44         49
    45        120
    46         14
    47         54
    48         24
    49         20
    50         49
    51         60
    52        109
    53         49
    54         20
    55        169
    56         24
    57         34
    58         20
    59         80
    60         20
    61         80
    62          9
    63         14
    64         40
    65         29
    66         20
    67        160
    68         24
    69         69
    70         24
    71         20
    72         29
    73        999
    74        124
    75        789
    76         64
    77         89
    78         40
    79        274
    80         40
    81        169
    82         44
    83         40
    84         20
    85         24
    87          9
    89         40
    90          9
    91        180
    92         54
    93        180
    94         64
    95        114
    96         20
    97         49
    98         14
    99         20
   100          9
   101         64
   102          9
   103         54
   104         20
   105        164
   106         84
   107        144
   108         69
   109         80
   110         20
   111         24
   112          9
   113         20
   115         29
   116         34
   117         74
   118         44
   119        100
   120         40
   121         54
   122         20
   123         24
   124          9
   125         14
   127         29
   128         20
   129        100
   130         29
   131         89
   132         29
   133         84
   134         49
   135         40
   136         14
   137         14
   139         14
   140          9
   141        109
   142         44
   143        124
   144         49
   145        109
   146         40
   147        120
   148         40
   149         49
   150         14
   151         14
   152          9
   153         14
   154          9
   156        999
   157        189
   158         69
   159         84
   160         29
   161         34
   162         20
   163          9
   165         20
   166         14
   167         34
   168         69
   169        109
   170         34
   171         60
   172         40
   173         64
   174         49
   175         40
   176         14
   177          9
   179         20
   180         20
   181         40
   182         29
   183         60
   184        289
   185        109
   186        140
   187         94
   188         40
   189         20
   190          9
   191          9
   193         29
   194         20
   195         29
   196         29
   197         40
   198         34
   199        364
   200         69
   201         34
   202          9
   207         20
   208          9
   209         20
   210         49
   211         40
   212         24
   213         29
   214         64
   215         20
   219          9
   221          9
   223          9
   224         20
   225          9
   227         24
   228         14
   229         14
   233          9
   235         14
   237         20
   241          9
   242         20
   243          9
   249          9
   251          9
   252          9
   253         49
   254          9
   255         44
   256         29
   257          9
   263         20
   264          9
   265          9
   269         29
   270         54
   271         20
   283         20
   289         20
   299          9
   304         29
   305         14
   316         14
   317          9
   327         20
   332          9
   333          9
   334          9
   339         24
   340          9
   341          9
   342          9
   343          9
   345         29
   346          9
   352         20
   359         29
   360         69
   361         20
   362          9
   379         44
   380         20
   381          9
   394        129
   395         44
   396         20
   406          9
   407         29
   408          9
   417         24
   418          9
   422         29
   423         14
   432         14
   435         29
   436          9
   450        200
   451         80
   452         29
   453          9