##TITLE=Library Entry 66656
##JCAMP-DX=Revision 4.10 
##DATA TYPE=MASS SPECTRUM
##SAMPLE DESCRIPTION=Japan AIST/NIMC Database- Spectrum MS-IW-4413
##NAMES=HP
##CAS NAME=1-(p-Ethoxyphenyl)-3-phenyl-2-thiourea
##MOLFORM=C15H16N2OS
##CAS REGISTRY NO=1756-43-0
##MP= -300
##BP= -300
##MW= 272
##$RETENTION INDEX=0
##$CONDENSED SPECTRUM=NO
##NPOINTS= 177
##XYDATA=(XY..XY) 1 
    14          1
    15          3
    16          1
    25          2
    26         27
    27         90
    28         79
    29         58
    30          5
    31          1
    32         15
    33         11
    34         39
    35          1
    36          3
    37         19
    38         39
    39        135
    40         29
    41         33
    42          9
    43          9
    44         18
    45         22
    46         42
    47          8
    48          1
    49          6
    50         79
    51        202
    52         73
    53         61
    54         39
    55          9
    56          2
    57          6
    58          5
    59          3
    60          5
    61         17
    62         27
    63         94
    64         82
    65        269
    66        319
    67         46
    68         10
    69         12
    70         25
    71          5
    72          5
    73          6
    74         28
    75         31
    76         47
    77        621
    78         78
    79         21
    80        130
    81         58
    82         16
    83          8
    84         10
    85          3
    86          2
    87          2
    88          4
    89          4
    90         36
    91         90
    92        135
    93        999
    94         91
    95         14
    96         54
    97         10
    98          5
    99          2
   100          2
   101          1
   102          4
   103         21
   104         12
   105          5
   106          8
   107         26
   108        762
   109        553
   110         40
   111          7
   112          2
   113          2
   115          1
   116          1
   117          3
   118          5
   119        102
   120         16
   121          4
   122         98
   123         36
   124         14
   125         13
   126         45
   127         11
   128          5
   129          4
   130          1
   133          8
   134         31
   135        897
   136        127
   137        683
   138         65
   139          6
   140          3
   141          1
   145          1
   147          7
   148          3
   149          8
   150         88
   151        975
   152         98
   153         50
   154        325
   155         32
   156         16
   157          2
   162          6
   163          9
   164          3
   165          2
   166          2
   167          2
   168          1
   169          7
   170          1
   171          3
   178          3
   179        910
   180        117
   181         61
   182          9
   183          2
   184          2
   185          1
   192          1
   193          2
   194          5
   195          1
   208          1
   209        142
   210         95
   211         26
   212          3
   213          2
   214          1
   215          1
   225          3
   226          2
   227          1
   228          3
   229          1
   238        166
   239         93
   240         32
   241          7
   242          4
   243         13
   244          3
   245          1
   271         17
   272        355
   273         67
   274         22
   275          3