##TITLE=Library Entry 32270
##JCAMP-DX=Revision 4.10 
##DATA TYPE=MASS SPECTRUM
##SAMPLE DESCRIPTION=Asinex Ltd, Moscow, Russia
##NAMES=HP
##CAS NAME=Ethyl 3,3-di(trifluoromethyl)-2-azabicyclo[2.2.1]hept-5-ene-2-car
boxylate
##MOLFORM=C11H11F6NO2
##CAS REGISTRY NO=175689-98-2
##MP= -300
##BP= -300
##MW= 303
##$RETENTION INDEX=0
##$CONDENSED SPECTRUM=NO
##NPOINTS= 225
##XYDATA=(XY..XY) 1 
    33          5
    34          0
    35          0
    36          0
    37          4
    38         19
    39        177
    40         84
    41         36
    42         14
    43         21
    44         23
    45         87
    46          5
    47          8
    48          1
    49          0
    50         10
    51         49
    52         16
    53         39
    54         34
    55         19
    56         27
    57         14
    58          2
    59         10
    60          1
    61          1
    62          7
    63         18
    64         20
    65        227
    66        999
    67        174
    68         15
    69         79
    70          4
    71          3
    72          1
    73          3
    74          7
    75         12
    76          6
    77         30
    78         17
    79         42
    80         16
    81          6
    82         13
    83         18
    84          6
    85          7
    86          0
    87          1
    88          8
    89          8
    90          5
    91         12
    92         52
    93        118
    94         10
    95         23
    96         26
    97          7
    98          3
    99          3
   100          4
   101          7
   102          3
   103          1
   104          0
   105          0
   106          8
   107          4
   108          9
   109          4
   110          4
   111          6
   112          3
   113          9
   114         13
   115         39
   116         23
   117          1
   118          1
   119          6
   120         15
   121         19
   122         14
   123          5
   124         39
   125          4
   126          3
   127         26
   128          9
   129          1
   130          0
   131          1
   132          2
   133          9
   134          3
   135          9
   136         29
   137          5
   138          2
   139          3
   140         11
   141         21
   142        131
   143         11
   144          2
   145         37
   146         14
   147          9
   148          9
   149          1
   150          4
   151          4
   152          2
   153          2
   154          1
   155          1
   156          1
   157          3
   158         15
   159          2
   160         12
   161         42
   162        553
   163         55
   164         14
   165          6
   166         10
   167          0
   168          2
   169          3
   170         10
   171          2
   172          7
   173          4
   174          2
   175          2
   176          1
   177          5
   178         13
   179          1
   180          3
   181          0
   182          0
   183         10
   184          8
   185          1
   186          1
   188         12
   190        136
   191         15
   192         28
   193          6
   194          3
   195         25
   196          3
   197          1
   198          0
   200          0
   201          0
   202          0
   203          2
   204          9
   205          2
   206         13
   207          1
   208          5
   210         72
   211          9
   212         24
   214         42
   215         84
   216          8
   217          3
   218          1
   219          0
   220          1
   221          0
   222          0
   224          0
   225          0
   226          0
   227          0
   228          0
   229          3
   230         47
   231         88
   232         12
   233          1
   234         10
   235          1
   236          1
   237          0
   238          4
   239          1
   240          4
   241          0
   242          0
   244         10
   245          1
   246          0
   255          2
   256          3
   258         31
   259         22
   260          5
   261          0
   273          0
   274          1
   275         23
   276          7
   277          0
   281          0
   283          0
   284          0
   301          0
   303         87
   304          9
   305          1