##TITLE=Library Entry 34676
##JCAMP-DX=Revision 4.10 
##DATA TYPE=MASS SPECTRUM
##SAMPLE DESCRIPTION=Japan AIST/NIMC Database- Spectrum MS-NW-5634
##NAMES=HP
##CAS NAME=Cyclopentanone, 3-methyl-
##MOLFORM=C6H10O
##CAS REGISTRY NO=1757-42-2
##MP= -300
##BP= -300
##MW= 98
##$RETENTION INDEX=853
##$CONDENSED SPECTRUM=NO
##NPOINTS= 64
##XYDATA=(XY..XY) 1 
    13          1
    14         11
    15         29
    18          2
    25          3
    26         52
    27        280
    28        436
    29        157
    30          3
    31          6
    32          4
    33          2
    34          4
    35          2
    36          1
    37         18
    38         40
    39        302
    40         81
    41        638
    42        912
    43         70
    44          3
    45          1
    48          1
    49          6
    50         27
    51         32
    52         12
    53         60
    54         28
    55        713
    56        464
    57         28
    58          4
    60          1
    61          4
    62          4
    63          5
    64          1
    65          5
    66          3
    67         14
    68          5
    69        999
    70        110
    71          9
    72          1
    74          1
    77          2
    79          7
    80          6
    81          4
    82          1
    83        107
    84          7
    85          1
    95          1
    96          2
    97         11
    98        736
    99         53
   100          3