##TITLE=Library Entry 38212
##JCAMP-DX=Revision 4.10 
##DATA TYPE=MASS SPECTRUM
##SAMPLE DESCRIPTION=B. Derendyaev, Novosibirsk Institute of Organic Chemist
ry
##NAMES=HP
##CAS NAME=1-Propene, 1-methoxy-2-methyl-
##MOLFORM=C5H10O
##CAS REGISTRY NO=17574-84-4
##MP= -300
##BP= -300
##MW= 86
##$RETENTION INDEX=0
##$CONDENSED SPECTRUM=NO
##NPOINTS= 41
##XYDATA=(XY..XY) 1 
    12          3
    13          4
    14         13
    15        110
    16          9
    17         12
    18         48
    25          5
    26         40
    27        414
    28         78
    29        270
    30          9
    31         30
    37         22
    38         50
    39        381
    40         49
    41        862
    42         71
    43        318
    44          9
    45         85
    50         30
    51         31
    52         10
    53        104
    54         54
    55        357
    56         56
    57         10
    58         16
    59         19
    69         36
    70         17
    71        999
    72         47
    85         98
    86        630
    87         36
    88          2