##TITLE=Library Entry 73857
##JCAMP-DX=Revision 4.10 
##DATA TYPE=MASS SPECTRUM
##SAMPLE DESCRIPTION=Exported from NIST MS Search
##NAMES=HP
##CAS NAME=1-Propene, 1,3,3-trimethoxy-
##MOLFORM=C6H12O3
##CAS REGISTRY NO=17576-35-1
##MP= -300
##BP= -300
##MW= 132
##$RETENTION INDEX=0
##$CONDENSED SPECTRUM=NO
##NPOINTS= 91
##XYDATA=(XY..XY) 1 
    12          6
    13         12
    14         50
    15        435
    16         14
    17         37
    18        128
    19          2
    24          1
    25          7
    26         58
    27        187
    28        194
    29        556
    30         69
    31        602
    32        323
    33         52
    34          1
    35          1
    36          8
    37          6
    38         18
    39          7
    40         17
    41        145
    42         86
    43        133
    44        177
    45        824
    46         22
    47        110
    48          2
    49          2
    50          2
    51          2
    52          2
    53         28
    54         34
    55        142
    56         28
    57         88
    58         60
    59        126
    60         12
    61         25
    62          2
    68         10
    69        126
    70          8
    71         62
    72          6
    73          4
    74          7
    75        349
    76         12
    77          4
    78          2
    79          1
    80          2
    81          1
    85        152
    86         27
    87         52
    88         41
    89          2
    90          1
    91          4
    92          3
    93          1
    94          1
    99          3
   100          2
   101        999
   102         81
   103         41
   104          2
   105        147
   106          8
   107          3
   108          3
   109          1
   115          3
   116          1
   117         47
   118          3
   119          1
   130         20
   131         14
   132        101
   133          6