##TITLE=Library Entry 1021
##JCAMP-DX=Revision 4.10 
##DATA TYPE=MASS SPECTRUM
##SAMPLE DESCRIPTION=NIST Mass Spectrometry Data Center
##NAMES=HP
##CAS NAME=Ethanamine, 2-phenoxy-
##MOLFORM=C8H11NO
##CAS REGISTRY NO=1758-46-9
##MP= -300
##BP= -300
##MW= 137
##$RETENTION INDEX=0
##$CONDENSED SPECTRUM=NO
##NPOINTS= 62
##XYDATA=(XY..XY) 1 
    14          2
    15         20
    16          2
    17          8
    18        121
    19          1
    25          1
    26         13
    27         63
    28        114
    30        999
    31         16
    32          4
    37         15
    38         45
    39        159
    40         30
    41         26
    42        116
    43        157
    44        866
    45         19
    50         64
    51        178
    52         17
    53         10
    54          2
    55         11
    58          1
    59          1
    61          6
    62         20
    63         43
    64         16
    65         91
    66         49
    67          4
    68          2
    70          1
    73          3
    74         17
    75         10
    77        173
    78         52
    79         26
    80          4
    91         20
    92          4
    93         14
    94         82
    95          8
   105          1
   106          6
   107         15
   108         57
   109          5
   118          1
   119          3
   120          2
   135          2
   137         98
   138         10