##TITLE=Library Entry 6722
##JCAMP-DX=Revision 4.10 
##DATA TYPE=MASS SPECTRUM
##SAMPLE DESCRIPTION=NIST Mass Spectrometry Data Center, 1990.
##NAMES=HP
##CAS NAME=Oxirane, 2,3-dimethyl-, cis-
##MOLFORM=C4H8O
##CAS REGISTRY NO=1758-33-4
##MP= -300
##BP= -300
##MW= 72
##$RETENTION INDEX=555
##$CONDENSED SPECTRUM=NO
##NPOINTS= 40
##XYDATA=(XY..XY) 1 
    12          1
    13          7
    14         30
    15         96
    16          6
    18          1
    19         30
    24          2
    25         18
    26        160
    27        313
    28        190
    29        320
    30          5
    31          7
    32          0
    36          2
    37         10
    38         14
    39         40
    40          7
    41         61
    42          0
    43        999
    44        451
    45        345
    46          8
    48          1
    49          5
    50         13
    51          8
    52          2
    53          7
    54          1
    55         10
    56          3
    57         11
    71          3
    72         13
    73          0