##TITLE=Library Entry 100337
##JCAMP-DX=Revision 4.10 
##DATA TYPE=MASS SPECTRUM
##SAMPLE DESCRIPTION=Japan AIST/NIMC Database- Spectrum MS-NW-3488
##NAMES=HP
##CAS NAME=Benzene, 2-ethyl-1,4-dimethyl-
##MOLFORM=C10H14
##CAS REGISTRY NO=1758-88-9
##MP= -300
##BP= -300
##MW= 134
##$RETENTION INDEX=1074
##$CONDENSED SPECTRUM=NO
##NPOINTS= 73
##XYDATA=(XY..XY) 1 
    15          4
    26          2
    27         22
    28          1
    29          5
    37          1
    38          4
    39         37
    40          4
    41         35
    42          2
    43          7
    50         11
    51         30
    52          9
    53         17
    54          1
    55          5
    56          2
    57          5
    58          5
    59          2
    61          2
    62          6
    63         18
    64          9
    65         34
    66         10
    67          3
    69          1
    70          2
    71          2
    74          5
    75          5
    76          3
    77         62
    78         22
    79         30
    80          2
    85          2
    86          1
    87          2
    89          8
    90          2
    91        122
    92         12
    93         12
    94          1
   101          1
   102          9
   103         38
   104         27
   105        118
   106         22
   107          3
   109          1
   115         43
   116         15
   117         60
   118         21
   119        999
   120        101
   121          5
   127          2
   128          5
   129          3
   130          1
   131          9
   132          3
   133         30
   134        332
   135         37
   136          2