##TITLE=Library Entry 23253
##JCAMP-DX=Revision 4.10 
##DATA TYPE=MASS SPECTRUM
##SAMPLE DESCRIPTION=Japan AIST/NIMC Database- Spectrum MS-NW-6389
##NAMES=HP
##CAS NAME=3,5-Octanedione, 6,6,7,7,8,8,8-heptafluoro-2,2-dimethyl-
##MOLFORM=C10H11F7O2
##CAS REGISTRY NO=17587-22-3
##MP= -300
##BP= -300
##MW= 296
##$RETENTION INDEX=0
##$CONDENSED SPECTRUM=NO
##NPOINTS= 109
##XYDATA=(XY..XY) 1 
    14          1
    15          7
    18          2
    20          9
    26          1
    27         24
    28         16
    29        132
    30          3
    31          6
    32          1
    36          2
    38          3
    39         41
    40          8
    41        205
    42         11
    43        101
    44         14
    45          6
    47          1
    50          2
    51          5
    52          1
    53          8
    54          1
    55         16
    56         29
    57        999
    58         44
    59          6
    61          1
    63          1
    64          1
    65          4
    66          3
    67          6
    68          1
    69         68
    70          4
    71          4
    73          1
    75          5
    77          2
    79          3
    81         10
    82          1
    83         10
    84          2
    85          6
    91         13
    92          1
    93          1
    94          1
    95          2
    97          8
    98          1
    99          4
   100          8
   109          4
   110          4
   111          7
   112          9
   113          2
   115          1
   116          1
   119          7
   120          7
   121          1
   122          2
   123          1
   125          1
   127         40
   128          3
   131          2
   141          3
   144          4
   145          2
   150          4
   151          2
   157          1
   159          1
   163          1
   169          9
   177          1
   191         12
   193          1
   195          2
   205          1
   219          6
   220          2
   223          3
   225          3
   229          1
   235          1
   238          2
   239         97
   240          7
   241          7
   253         26
   254          3
   259          3
   263          2
   268         22
   269          2
   279          1
   281          5
   296         16
   297          2