##TITLE=Library Entry 45245
##JCAMP-DX=Revision 4.10 
##DATA TYPE=MASS SPECTRUM
##SAMPLE DESCRIPTION=F. AULINGER INSTITUTE FOR SPECTROCHEMISTRY, DORTMUND, G
ERMANY
##NAMES=HP
##CAS NAME=Silane, methylenebis-
##MOLFORM=CH8Si2
##CAS REGISTRY NO=1759-88-2
##MP= -300
##BP= -300
##MW= 76
##$RETENTION INDEX=0
##$CONDENSED SPECTRUM=NO
##NPOINTS= 24
##XYDATA=(XY..XY) 1 
    29         90
    31         50
    41         40
    43        420
    44        430
    45        550
    46         50
    47         20
    56         30
    57         50
    58         30
    59         20
    60         20
    68         80
    69        570
    70        260
    71        300
    72        810
    73        440
    74        760
    75        999
    76        170
    77         70
    78         10