##TITLE=Library Entry 109319
##JCAMP-DX=Revision 4.10 
##DATA TYPE=MASS SPECTRUM
##SAMPLE DESCRIPTION=Japan AIST/NIMC Database- Spectrum MS-IW-1304
##NAMES=HP
##CAS NAME=Thiazole, 5-ethenyl-4-methyl-
##MOLFORM=C6H7NS
##CAS REGISTRY NO=1759-28-0
##MP= -300
##BP= -300
##MW= 125
##$RETENTION INDEX=1043
##$CONDENSED SPECTRUM=NO
##NPOINTS= 77
##XYDATA=(XY..XY) 1 
    15          2
    26          9
    27         36
    28         15
    31          3
    32          3
    33          1
    34          1
    36          2
    37          9
    38         17
    39        101
    40         12
    41         10
    42          7
    43          3
    44          9
    45        127
    46          9
    47         10
    48          1
    49          5
    50         11
    51         19
    52         15
    53         60
    54         27
    55          2
    56          1
    57          6
    58        333
    59         62
    60         17
    61          9
    62         10
    63         20
    64          9
    65         47
    66         10
    67          4
    68          5
    69         60
    70         40
    71         69
    72         13
    73          4
    75          1
    76          2
    77          1
    78          1
    79          3
    80         28
    81         13
    82          9
    83         41
    84         32
    85         13
    86          3
    91          1
    92         24
    93          5
    94          1
    95          4
    96          8
    97        425
    98        244
    99         36
   100         11
   110          3
   112          7
   113          3
   123          1
   124        145
   125        999
   126         89
   127         51
   128          4