##TITLE=Library Entry 22515
##JCAMP-DX=Revision 4.10 
##DATA TYPE=MASS SPECTRUM
##SAMPLE DESCRIPTION=Exported from NIST MS Search
##NAMES=HP
##CAS NAME=Cyclopentane, 1,3-dimethyl-, trans-
##MOLFORM=C7H14
##CAS REGISTRY NO=1759-58-6
##MP= -300
##BP= -300
##MW= 98
##$RETENTION INDEX=689
##$CONDENSED SPECTRUM=NO
##NPOINTS= 73
##XYDATA=(XY..XY) 1 
     1          5
     2          2
    12          1
    13          1
    14          3
    15         69
    16          2
    25          1
    26         23
    27        332
    28        122
    29        236
    30          8
    31          1
    32          1
    33          1
    34          1
    35          1
    37          4
    38         16
    39        330
    40         70
    41        798
    42        294
    43        119
    44          4
    45          1
    46          2
    47          1
    49          1
    50         14
    51         28
    52         13
    53         79
    54         65
    55        733
    56        999
    57        145
    58          5
    61          1
    62          1
    63          4
    64          1
    65         12
    66          6
    67         34
    68         25
    69        294
    70        968
    71         53
    72          1
    74          1
    75          1
    76          1
    77         10
    78          2
    79         10
    80          2
    81         18
    82         20
    83        250
    84         17
    85          1
    89          1
    91          1
    92          1
    93          1
    95          1
    96          1
    97         11
    98        145
    99         11
   100          1