##TITLE=Library Entry 10546
##JCAMP-DX=Revision 4.10 
##DATA TYPE=MASS SPECTRUM
##SAMPLE DESCRIPTION=Chemical Concepts
##NAMES=HP
##CAS NAME=1,2-Cyclohexanediol diacetate, trans-
##MOLFORM=C10H16O4
##CAS REGISTRY NO=1759-71-3
##MP= -300
##BP= -300
##MW= 200
##$RETENTION INDEX=0
##$CONDENSED SPECTRUM=NO
##NPOINTS= 79
##XYDATA=(XY..XY) 1 
    25          0
    26          3
    27         22
    29         10
    30          1
    31          4
    33          0
    34          0
    38          1
    39         21
    40          0
    41         52
    42         15
    43        999
    44         24
    45          5
    49          0
    50          0
    51          2
    52          2
    53          5
    54          7
    55         17
    56          3
    57         17
    58          4
    60          2
    61         73
    62          1
    63          1
    65          3
    66          2
    67         19
    68          4
    69         28
    70         69
    71          5
    73          0
    74          2
    75          0
    76          1
    77          5
    78          6
    79         59
    80         42
    81         25
    82          4
    83         39
    84          5
    85          1
    86          2
    87          0
    91          0
    93          0
    94          0
    95          2
    96          3
    97        178
    98        406
    99         41
   100          3
   103          0
   105          0
   111          1
   112         20
   113          3
   115         11
   116          7
   117          1
   122          1
   130          1
   135          1
   139          1
   140         36
   141          5
   157          6
   158          7
   159          1
   179          0