##TITLE=Library Entry 33044
##JCAMP-DX=Revision 4.10 
##DATA TYPE=MASS SPECTRUM
##SAMPLE DESCRIPTION=NIST Mass Spectrometry Data Center, 1990.
##NAMES=HP
##CAS NAME=Cyclohexene, 1,6-dimethyl-
##MOLFORM=C8H14
##CAS REGISTRY NO=1759-64-4
##MP= -300
##BP= -300
##MW= 110
##$RETENTION INDEX=838
##$CONDENSED SPECTRUM=NO
##NPOINTS= 45
##XYDATA=(XY..XY) 1 
    15         32
    26         21
    27        143
    28         63
    29         54
    37          8
    39        350
    40         66
    41        355
    42         33
    43         19
    44          6
    50         54
    51        118
    52         51
    53        189
    54         84
    55        198
    56         33
    62         17
    63         42
    65        125
    67        999
    68        384
    69        248
    70         14
    74          8
    77        173
    78         47
    79        200
    80         91
    81        736
    82        182
    83         11
    89          6
    91        129
    92         16
    93         95
    94          6
    95        936
    96         72
   105          7
   106          9
   110        419
   111         39