##TITLE=Library Entry 19639
##JCAMP-DX=Revision 4.10 
##DATA TYPE=MASS SPECTRUM
##SAMPLE DESCRIPTION=Exported from NIST MS Search
##NAMES=HP
##CAS NAME=6-Heptenoic acid, 3-oxo-, ethyl ester
##MOLFORM=C9H14O3
##CAS REGISTRY NO=17605-06-0
##MP= -300
##BP= -300
##MW= 170
##$RETENTION INDEX=0
##$CONDENSED SPECTRUM=NO
##NPOINTS= 24
##XYDATA=(XY..XY) 1 
    41        460
    42        390
    43        829
    53        210
    54        619
    55        999
    60        100
    68        130
    69        589
    79         60
    81        110
    82        559
    83        430
    87        390
    96        160
   101         40
   115        190
   124        140
   125         60
   130         10
   142         20
   152         10
   156         10
   170        110