##TITLE=Library Entry 39953
##JCAMP-DX=Revision 4.10 
##DATA TYPE=MASS SPECTRUM
##SAMPLE DESCRIPTION=Chemical Concepts
##NAMES=HP
##CAS NAME=Benzyl alcohol, .alpha.-(1-(dimethylamino)ethyl)-
##MOLFORM=C11H17NO
##CAS REGISTRY NO=17605-71-9
##MP= -300
##BP= -300
##MW= 179
##$RETENTION INDEX=0
##$CONDENSED SPECTRUM=NO
##NPOINTS= 104
##XYDATA=(XY..XY) 1 
    26          1
    27          5
    29         31
    30          4
    31          1
    33          5
    37          0
    38          1
    39          7
    40          3
    41          5
    42         29
    43         10
    44         46
    45          3
    46          1
    49          0
    50          7
    51         16
    52          5
    53          2
    54          2
    55          4
    56         24
    57         19
    58         17
    59          0
    61          0
    62          1
    63          2
    65          4
    66          0
    68          1
    69          0
    70         32
    71         19
    72        999
    73         51
    74          4
    75          3
    76          3
    77         47
    78          9
    79         14
    80          1
    81          0
    82          0
    83          0
    84          1
    85          1
    86          0
    87          1
    89          3
    90          1
    91         13
    92          2
    93          1
    94          0
    95          0
    97          0
    99          0
   102          1
   103          4
   104          1
   105         30
   106         19
   107          7
   108          3
   109          0
   111          0
   112          0
   114          0
   115          8
   116          2
   117         14
   118         10
   119          3
   120          3
   121          0
   123          0
   125          0
   128          0
   129          0
   130          1
   131          2
   132          2
   133          4
   134         11
   135          2
   136          0
   138          0
   144          1
   146          3
   147          1
   148          1
   149          0
   158          1
   159          0
   160          2
   161          2
   162          2
   163          0
   164          0
   178          2