##TITLE=Library Entry 35333
##JCAMP-DX=Revision 4.10 
##DATA TYPE=MASS SPECTRUM
##SAMPLE DESCRIPTION=BAY 0375
##NAMES=HP
##CAS NAME=9,19-Cyclolanost-24-en-3-ol, (3.beta.)-, TMS derivative
##MOLFORM=C33H58OSi
##CAS REGISTRY NO=17608-55-8
##MP= -300
##BP= -300
##MW= 498
##$RETENTION INDEX=3409
##$CONDENSED SPECTRUM=NO
##NPOINTS= 118
##XYDATA=(XY..XY) 1 
    53         40
    55        440
    56         30
    57         90
    59         20
    67        230
    68         40
    69        999
    70         60
    71         30
    73        700
    74         60
    75        300
    76         20
    77         80
    78         30
    79        200
    80         30
    81        380
    82         80
    83        130
    91        210
    92         40
    93        310
    94         60
    95        460
    96         80
    97         50
   101         20
   103         20
   105        250
   106         60
   107        330
   108         70
   109        360
   110         40
   111         30
   115         20
   117         90
   118         30
   119        200
   120         80
   121        270
   122        130
   123        150
   129        140
   130         30
   131        100
   132         40
   133        190
   134        140
   135         20
   136         70
   141         20
   143         60
   144         40
   145        130
   146         40
   147        200
   148        100
   149        180
   150         30
   155         20
   157         70
   158         20
   159        140
   160         50
   161        140
   162         40
   163         70
   171         40
   173        140
   174         40
   175        170
   176         30
   177         70
   185         30
   187        100
   188         30
   189         80
   190         20
   191         50
   199         20
   201         90
   202         80
   203        150
   204         60
   205         80
   206         30
   209         20
   213         20
   215         50
   217         40
   227         30
   229         50
   231         60
   241         20
   243         30
   244         20
   255         20
   257         30
   271         60
   286         60
   295         20
   297         30
   326         20
   339        210
   340         60
   365        200
   366         60
   393        270
   394         80
   395         20
   408        260
   409         80
   410         20
   483         30
   498         10