##TITLE=Library Entry 79844
##JCAMP-DX=Revision 4.10 
##DATA TYPE=MASS SPECTRUM
##SAMPLE DESCRIPTION=A.A.Kutin, Moscow, Russia
##NAMES=HP
##CAS NAME=5(4H)-Oxazolone, 2-phenyl-4-(phenylmethylene)-, (Z)-
##MOLFORM=C16H11NO2
##CAS REGISTRY NO=17606-70-1
##MP= -300
##BP= -300
##MW= 249
##$RETENTION INDEX=0
##$CONDENSED SPECTRUM=NO
##NPOINTS= 74
##XYDATA=(XY..XY) 1 
    33          4
    37          2
    38          5
    39         18
    40          7
    41          0
    43          1
    44          1
    45          0
    50         31
    51         90
    52          8
    53          1
    61          1
    62          6
    63         15
    64          4
    65          3
    66          0
    72          0
    74          7
    75         10
    77        397
    78         19
    79          0
    86          0
    87          1
    88          3
    89         21
    90          4
    91          2
    98          0
    99          0
   100          0
   102         10
   105        999
   106         68
   107          4
   108          0
   111          0
   113          0
   114          1
   116         12
   117          1
   118          0
   121          0
   122          0
   125         11
   137          0
   139          1
   140          0
   141          0
   151          0
   159          0
   163          0
   164          0
   165          1
   176          0
   179          0
   190          0
   191          0
   192          0
   193          0
   203          0
   204          0
   205          0
   220          0
   221          0
   222          0
   247          2
   249        243
   250         40
   251          4
   252          0