##TITLE=Library Entry 6051
##JCAMP-DX=Revision 4.10 
##DATA TYPE=MASS SPECTRUM
##SAMPLE DESCRIPTION=J. MADSEN,DEP. ORG. CHEM.,TECH. UNIV. DENMARK,LYNGBY,DE
NMARK
##NAMES=HP
##CAS NAME=4-Methylpentyl isothiocyanate
##MOLFORM=C7H13NS
##CAS REGISTRY NO=17608-07-0
##MP= -300
##BP= -300
##MW= 143
##$RETENTION INDEX=1164
##$CONDENSED SPECTRUM=NO
##NPOINTS= 69
##XYDATA=(XY..XY) 1 
    37          2
    38          9
    39        162
    40         70
    41        588
    42        122
    43        999
    44         61
    45         42
    46          8
    47          2
    50          4
    51          8
    52          4
    53         23
    54         10
    55        115
    56        290
    57         91
    58         15
    59         30
    60         37
    61          2
    62          7
    63          1
    64          5
    65          3
    67         20
    68         15
    69        179
    70         19
    71         17
    72        210
    73         57
    74         63
    75         53
    76          5
    77          2
    81          5
    82         51
    83         16
    84         10
    85         17
    86         21
    87         13
    88          7
    89          3
    94          6
    95          3
    96          3
    98          2
    99          4
   100         38
   101         43
   102          5
   103          2
   110        101
   111          9
   114         15
   115         39
   116          3
   117          2
   128        175
   129         13
   130          8
   142         20
   143        168
   144         16
   145          8