##TITLE=Library Entry 109671
##JCAMP-DX=Revision 4.10 
##DATA TYPE=MASS SPECTRUM
##SAMPLE DESCRIPTION=NIST Mass Spectrometry Data Center, 1994
##NAMES=HP
##CAS NAME=2-(4-Chlorophenethyl) isothiocyanate
##MOLFORM=C9H8ClNS
##CAS REGISTRY NO=17608-10-5
##MP= -300
##BP= -300
##MW= 197
##$RETENTION INDEX=0
##$CONDENSED SPECTRUM=NO
##NPOINTS= 87
##XYDATA=(XY..XY) 1 
    26         10
    27         51
    28          2
    32         14
    35          2
    36          3
    37         12
    38         25
    39         79
    40         14
    41          4
    44         18
    45         39
    46          6
    47          3
    49         13
    50         81
    51        108
    52         18
    53          5
    57          2
    58         17
    59         13
    60          7
    61         16
    62         38
    63        118
    64         22
    65         15
    66          2
    67          2
    69          3
    70          8
    72        124
    73         39
    74         47
    75         94
    76         28
    77        142
    78         24
    79          2
    80          2
    83          1
    84          5
    85         12
    86         10
    87         10
    88          1
    89        183
    90         48
    91          9
    97          5
    98          6
    99         60
   100          7
   101         44
   102         42
   103        113
   104         22
   111          8
   112          8
   113          3
   114          3
   116          2
   121          2
   122          2
   123          5
   124          2
   125        999
   126         89
   127        333
   128         26
   134          3
   136          2
   137          5
   138         10
   139         31
   140          5
   141          9
   162          3
   164          1
   165          6
   197        266
   198         31
   199        101
   200         10
   201          4