##TITLE=Library Entry 61804
##JCAMP-DX=Revision 4.10 
##DATA TYPE=MASS SPECTRUM
##SAMPLE DESCRIPTION=NIST Mass Spectrometry Data Center, 1994
##NAMES=HP
##CAS NAME=2-Methoxybenzyl isothiocyanate
##MOLFORM=C9H9NOS
##CAS REGISTRY NO=17608-09-2
##MP= -300
##BP= -300
##MW= 179
##$RETENTION INDEX=0
##$CONDENSED SPECTRUM=NO
##NPOINTS= 81
##XYDATA=(XY..XY) 1 
     4          2
    14          5
    15         50
    26         12
    27         26
    28         25
    29         14
    32         15
    37         13
    38         34
    39        113
    40         12
    41         17
    43          3
    44         10
    45         24
    46          3
    50         83
    51        184
    52         90
    53         22
    54          4
    55          4
    58         24
    59          9
    60          3
    61         12
    62         31
    63         84
    64         33
    65        211
    66         16
    69          7
    70          8
    71          7
    72         50
    73          6
    74         22
    75         23
    76         30
    77        142
    78        140
    79         13
    82          4
    84          2
    85          2
    86         11
    87          5
    88          2
    89         51
    90          2
    91        999
    92         84
    93        140
    94         12
    96          4
   102          3
   103          5
   104         15
   105         13
   106          5
   107          4
   108         10
   109         11
   116          5
   119         20
   121        948
   122         79
   123          5
   132          7
   134          3
   135          3
   136          9
   137          2
   146          5
   147          6
   151          2
   164         10
   179        150
   180         16
   181          7