##TITLE=Library Entry 47627
##JCAMP-DX=Revision 4.10 
##DATA TYPE=MASS SPECTRUM
##SAMPLE DESCRIPTION=NIST Mass Spectrometry Data Center, 1994
##NAMES=HP
##CAS NAME=4-Methyl-2-nitrophenyl isothiocyanate
##MOLFORM=C8H6N2O2S
##CAS REGISTRY NO=17614-74-3
##MP= -300
##BP= -300
##MW= 194
##$RETENTION INDEX=0
##$CONDENSED SPECTRUM=NO
##NPOINTS= 113
##XYDATA=(XY..XY) 1 
    14         12
    15          3
    16         10
    26         38
    27         91
    28         60
    29          1
    30        142
    31         12
    32         37
    37         50
    38         95
    39        306
    40         39
    41         44
    43         19
    44        123
    45        211
    46         53
    47          4
    48         34
    49         26
    50        182
    51        365
    52        143
    53         57
    54         28
    57         14
    58         37
    59          8
    60         34
    61         69
    62        172
    63        466
    64        194
    65        155
    66         22
    67         19
    68          8
    69         97
    70         83
    71         39
    72         41
    73         20
    74         64
    75         97
    76        194
    77        999
    78        355
    79         57
    80          6
    81         13
    82         35
    83         37
    84         42
    85         29
    86         47
    87         63
    88         53
    89        272
    90        155
    91        593
    92        133
    93         17
    94         30
    95         56
    96         79
    97         34
    98         18
    99         12
   102        104
   103        133
   104        378
   105        118
   106         24
   107         20
   108         51
   109         60
   110         23
   111         32
   115         10
   116         44
   117         69
   118        561
   119         56
   120        122
   121        233
   122         83
   123         89
   124         22
   132          3
   133         56
   134         18
   135         17
   136         63
   137         49
   138         35
   139         20
   146        103
   147         14
   148         86
   149        124
   150        132
   151         31
   152         72
   162         17
   164        192
   165         19
   166        112
   194        989
   195        102
   196         48
   197          4