##TITLE=Library Entry 55693
##JCAMP-DX=Revision 4.10 
##DATA TYPE=MASS SPECTRUM
##SAMPLE DESCRIPTION=Chemical Concepts
##NAMES=HP
##CAS NAME=Flurazepam
##MOLFORM=C21H23ClFN3O
##CAS REGISTRY NO=17617-23-1
##MP= -300
##BP= -300
##MW= 387
##$RETENTION INDEX=2781
##$CONDENSED SPECTRUM=NO
##NPOINTS= 167
##XYDATA=(XY..XY) 1 
    27          5
    29         26
    30         75
    31          0
    42         14
    44          4
    51          0
    52          0
    54          0
    56         12
    58         49
    59          1
    63          1
    70          4
    71          7
    72          4
    74          0
    75          4
    76          0
    77          0
    84          9
    85          1
    86        999
    87         54
    88          1
    89          6
    90          2
    94          0
    95          1
    98          1
    99         72
   100          7
   101          1
   102          4
   103          1
   106          0
   107          2
   108          1
   109          9
   110          1
   111          2
   112          0
   113          0
   116          2
   117          6
   118          1
   120          0
   121          0
   122          1
   123          1
   124          1
   125          4
   126          1
   127          1
   128          0
   130          1
   131          1
   132          0
   133          1
   134          2
   135          1
   136          1
   137          1
   138          1
   140          0
   141          1
   142          0
   143          0
   144          1
   145          0
   150          3
   151          2
   152          4
   153          1
   154          1
   155          0
   156          0
   157          2
   158          1
   161          0
   162          1
   163          4
   164          3
   165          1
   166          3
   167          0
   168          2
   169          2
   170          2
   171          0
   172          1
   173          0
   174          0
   175          0
   176          2
   177          4
   178          1
   179          1
   180          1
   181          5
   182          5
   183         19
   184          4
   190          2
   191          1
   192          0
   193          0
   194          1
   195          2
   196          2
   197          1
   198          0
   199          0
   202          0
   203          1
   204          0
   208          3
   209          3
   210          4
   211          8
   212          1
   217          2
   218          1
   219          1
   222          2
   223          2
   224          2
   225          1
   226          0
   236          1
   237          1
   238          0
   239          0
   244          1
   245          6
   246          3
   247          2
   248          1
   249          0
   253          2
   254          0
   255          0
   256          0
   257          1
   258          2
   259          3
   260          2
   261          1
   271          2
   272          1
   273          5
   274          1
   275          1
   285          1
   286          0
   287          2
   288          0
   289          0
   314          0
   315         13
   316          3
   317          4
   318          0
   387         23
   388          5
   389          8
   390          1