##TITLE=Library Entry 1431
##JCAMP-DX=Revision 4.10 
##DATA TYPE=MASS SPECTRUM
##SAMPLE DESCRIPTION=R.E.Ardrey ET AL.Pharmaceutical Mass Spectra,L.,1985
##NAMES=HP
##CAS NAME=Didesethylflurazepam
##MOLFORM=C17H15ClFN3O
##CAS REGISTRY NO=17617-59-3
##MP= -300
##BP= -300
##MW= 331
##$RETENTION INDEX=2660
##$CONDENSED SPECTRUM=NO
##NPOINTS= 256
##XYDATA=(XY..XY) 1 
    26         30
    27        140
    29         50
    30        999
    31         15
    37         70
    39         70
    40         90
    41         60
    42        110
    43         90
    44        120
    50         50
    51         70
    52         40
    53         70
    54        110
    55         40
    56         10
    57         40
    61         10
    62         40
    63         80
    64         30
    65         20
    67         10
    68         20
    69         20
    70         20
    73         30
    74         40
    75        210
    76         60
    77         40
    78         20
    79         10
    81         50
    82         20
    83         50
    84         10
    85         20
    86         20
    87         30
    88         30
    89        160
    90         60
    91         50
    92         40
    93         10
    94         40
    95        130
    96         20
    97         20
    98         20
    99         40
   100         40
   101         40
   102        100
   103         30
   104         10
   105         50
   106         10
   107         40
   108         30
   109        240
   110         40
   111         90
   112         40
   113         30
   114         20
   115         20
   116         40
   117        130
   118         30
   119         20
   120         20
   121         70
   122         70
   123        130
   124         60
   125        100
   126         30
   127         40
   128         20
   129         30
   130         30
   131         20
   132         20
   133         30
   134         30
   135         30
   136         50
   137        140
   138         80
   139         70
   140         30
   141         10
   142         10
   143         10
   144         20
   145         10
   146         10
   148         40
   149         40
   150         60
   151         50
   152        110
   153         30
   154         40
   155         30
   156         50
   157         50
   158         20
   161         10
   162         20
   163         70
   164         80
   165         60
   166         60
   167         20
   168         30
   169         40
   170         40
   171         10
   175         30
   176         30
   177         50
   178         20
   179         20
   180         30
   181         90
   182         80
   183        280
   184         70
   185         10
   188         20
   189         20
   190         50
   191         60
   192         20
   193         30
   194         20
   195         50
   196         30
   197         20
   198         20
   199         20
   201         10
   202         20
   203         10
   204         20
   205         20
   206         20
   207         40
   208         70
   209         60
   210         70
   211        440
   212         70
   213         10
   214         20
   215         10
   216         20
   217         50
   218         20
   219         30
   220         10
   221         20
   222         30
   223         60
   224         30
   225         10
   226         10
   229         10
   230         10
   231         10
   232         30
   233         10
   234         20
   235         10
   236         20
   237         30
   238         30
   239         30
   240         10
   242         10
   244         30
   245        260
   246        680
   247        180
   248        220
   249         60
   250         90
   251         20
   252         20
   253         50
   254         30
   255        130
   256         50
   257         90
   258         50
   259        230
   260         80
   261         90
   262         70
   263         30
   264         20
   265         10
   267         10
   269         20
   270         20
   271         60
   272         40
   273        350
   274        300
   275        170
   276        100
   277         30
   278         30
   279         10
   283         30
   284         40
   285         40
   286         30
   287         50
   288         30
   289        150
   290         30
   291         50
   292         30
   293         10
   294         30
   295         10
   296         20
   297         20
   298         40
   299         40
   300         20
   301         60
   302        290
   303         70
   304        100
   305         20
   308         10
   310         30
   311         20
   312        160
   313        800
   314        190
   315        230
   316         50
   326         20
   327         10
   328         10
   329         10
   330         10