##TITLE=Library Entry 8153
##JCAMP-DX=Revision 4.10 
##DATA TYPE=MASS SPECTRUM
##SAMPLE DESCRIPTION=Exported from NIST MS Search
##NAMES=HP
##CAS NAME=Oxirane, 2,2-dimethyl-3-propyl-
##MOLFORM=C7H14O
##CAS REGISTRY NO=17612-35-0
##MP= -300
##BP= -300
##MW= 114
##$RETENTION INDEX=0
##$CONDENSED SPECTRUM=NO
##NPOINTS= 31
##XYDATA=(XY..XY) 1 
    41        850
    42        337
    43        999
    44        119
    45         50
    50          4
    51         18
    52          4
    53         41
    54         18
    55        372
    56        195
    57        310
    58        275
    59        983
    60         46
    67          6
    69         16
    71        137
    72        172
    80          2
    81         11
    83         13
    84          9
    85        839
    86         64
    87          6
    97          6
    99         80
   114         18
   115         11