##TITLE=Library Entry 22247
##JCAMP-DX=Revision 4.10 
##DATA TYPE=MASS SPECTRUM
##SAMPLE DESCRIPTION=Japan AIST/NIMC Database- Spectrum MS-NW-5587
##NAMES=HP
##CAS NAME=Cyclohexanamine, 4,4'-methylenebis-
##MOLFORM=C13H26N2
##CAS REGISTRY NO=1761-71-3
##MP= -300
##BP= -300
##MW= 210
##$RETENTION INDEX=0
##$CONDENSED SPECTRUM=NO
##NPOINTS= 121
##XYDATA=(XY..XY) 1 
    15          9
    16          4
    17          1
    26          1
    27         33
    28         76
    29         47
    30        151
    31          2
    39         38
    40          6
    41        112
    42         69
    43        276
    44         49
    45         10
    51          5
    52          5
    53         35
    54         23
    55         82
    56        999
    57         71
    58          9
    65         12
    66          7
    67         84
    68         22
    69         66
    70         40
    71          9
    72          3
    73          1
    77         22
    78          9
    79         47
    80         35
    81        101
    82         81
    83         15
    84         19
    85          3
    91         18
    92          8
    93         28
    94         33
    95         62
    96         98
    97         47
    98         32
    99         92
   100          9
   104          1
   105          9
   106         10
   107         15
   108         21
   109         17
   110         60
   111         22
   112         42
   113          6
   114          1
   115          1
   119          7
   120          8
   121          9
   122         12
   123          9
   124         10
   125          6
   126          6
   127          1
   133          9
   134          7
   135         10
   136          8
   137         19
   138         41
   139          9
   140         15
   141          1
   142          3
   146          1
   147         18
   148          7
   149          2
   150         11
   151          6
   152         27
   153          8
   154         10
   155         24
   156          2
   161          4
   162          1
   163          1
   164         74
   165         14
   166          6
   167          3
   168         27
   169          4
   175          1
   176         72
   177         11
   178          8
   179          1
   180          5
   181         23
   182          6
   183          2
   191          2
   192         73
   193        209
   194         35
   195          6
   209          9
   210        123
   211         20
   212          2