##TITLE=Library Entry 3371
##JCAMP-DX=Revision 4.10 
##DATA TYPE=MASS SPECTRUM
##SAMPLE DESCRIPTION=Chemical Concepts
##NAMES=HP
##CAS NAME=3-Methyl-2-hexene
##MOLFORM=C7H14
##CAS REGISTRY NO=17618-77-8
##MP= -300
##BP= -300
##MW= 98
##$RETENTION INDEX=702
##$CONDENSED SPECTRUM=NO
##NPOINTS= 67
##XYDATA=(XY..XY) 1 
    25          7
    26         36
    27        208
    28         64
    29        162
    30          6
    31          6
    33          3
    34          2
    36          7
    37          8
    38         29
    39        243
    40         38
    41        999
    42         83
    43         72
    44          7
    45          3
    46          4
    47          2
    48          4
    50         21
    51         34
    52         17
    53         71
    54         20
    55        526
    56        200
    57         26
    58          3
    59          1
    60          1
    61          4
    62          4
    63          9
    65         19
    66          9
    67         68
    68         19
    69        807
    70        253
    71         14
    73          3
    74          2
    75          3
    76          3
    77         10
    78          9
    79         10
    80          3
    81         10
    82          9
    83        109
    84         10
    85          1
    86          3
    88          2
    90          2
    91          5
    92          4
    93          4
    94          2
    95          2
    96          1
    98        109
    99          9