##TITLE=Library Entry 99651
##JCAMP-DX=Revision 4.10 
##DATA TYPE=MASS SPECTRUM
##SAMPLE DESCRIPTION=A.A.Kutin, Moscow, Russia
##NAMES=HP
##CAS NAME=Benzeneacetaldehyde, 4-methyl-.alpha.-oxo-, aldoxime
##MOLFORM=C9H9NO2
##CAS REGISTRY NO=17628-76-1
##MP= -300
##BP= -300
##MW= 163
##$RETENTION INDEX=0
##$CONDENSED SPECTRUM=NO
##NPOINTS= 75
##XYDATA=(XY..XY) 1 
    34         28
    36         13
    37         21
    38          9
    40         56
    41         70
    42          7
    43         86
    44         21
    45         23
    50         27
    51         43
    52         13
    53         27
    54          7
    55         57
    56         20
    57          6
    58         16
    62         19
    63        108
    64         33
    65        169
    66         24
    69         28
    70         21
    71         44
    73          5
    74          5
    75         11
    76          8
    77         96
    78          9
    81         13
    82          8
    83         36
    84         12
    85          4
    87         11
    89        102
    90         13
    91        520
    92         60
    93         27
    94          6
    95         12
    97         33
   102         20
   103         30
   104         39
   105        143
   106         21
   108          5
   111         10
   112         23
   113         12
   115         30
   116         14
   117         51
   118         79
   119        999
   120        185
   121         45
   129          2
   130         18
   131         24
   134          7
   135         62
   136          7
   144         14
   145         78
   146         17
   147          0
   163        259
   164         34