##TITLE=Library Entry 81364
##JCAMP-DX=Revision 4.10 
##DATA TYPE=MASS SPECTRUM
##SAMPLE DESCRIPTION=D.HENNEBERG, MAX-PLANCK INSTITUTE, MULHEIM, WEST GERMAN
Y
##NAMES=HP
##CAS NAME=Naphthalene, 1,2,4a,5,6,8a-hexahydro-4,7-dimethyl-1-(1-methylethy
l)-,[1R-(1.alpha.,4a.alpha.,8a.alpha.)]-
##MOLFORM=C15H24
##CAS REGISTRY NO=17627-24-6
##MP= -300
##BP= -300
##MW= 204
##$RETENTION INDEX=0
##$CONDENSED SPECTRUM=NO
##NPOINTS= 149
##XYDATA=(XY..XY) 1 
    26         47
    27         34
    28         90
    29         47
    37          1
    38          3
    39         30
    40         11
    41        209
    42         16
    43        150
    44         11
    45          1
    49          1
    50          7
    51          7
    52          4
    53         48
    54          7
    55        139
    56         13
    57         46
    58          7
    59          3
    63          2
    64          1
    65         20
    66         11
    67         70
    68         12
    69        112
    70         12
    71          9
    72          0
    74          1
    75          2
    76          1
    77         82
    78         21
    79        133
    80         26
    81        311
    82         32
    83         17
    84          3
    85          4
    87          0
    88          2
    89          3
    90          2
    91        176
    92         58
    93        288
    94        177
    95         75
    96         11
    97          7
    98          2
    99          2
   100          1
   101          1
   102          2
   103         14
   104         17
   105        999
   106        143
   107        126
   108         41
   109         25
   110          9
   111          3
   112          1
   113          1
   114          1
   115         18
   116         16
   117         49
   118         23
   119        194
   120         47
   121         85
   122         27
   123        127
   124         13
   125          2
   126          2
   127          7
   128         12
   129         25
   130         16
   131         44
   132         20
   133         97
   134        106
   135         35
   136         17
   137          5
   138          2
   139          0
   140          1
   141          5
   142          8
   143          9
   144          8
   145         52
   146         16
   147         62
   148         50
   149         73
   150         12
   151          2
   153          2
   155          2
   156          1
   157         10
   158          4
   159         20
   160         79
   161        584
   162        115
   163         12
   164          2
   165          1
   166          0
   169          2
   170          1
   171          1
   173          2
   174          1
   175         33
   176         12
   177         13
   178          1
   180          0
   184          1
   187          1
   188          1
   189        108
   190         17
   191          2
   193          1
   196          2
   200          1
   202          2
   203          3
   204        264
   205         48
   206          3
   207          1