##TITLE=Library Entry 69470
##JCAMP-DX=Revision 4.10 
##DATA TYPE=MASS SPECTRUM
##SAMPLE DESCRIPTION=T.NISHIWAKI, KAO SOAP CO. LTD., WAKAYAMA CITY, JAPAN
##NAMES=HP
##CAS NAME=1H-Pyrazole, 1-ethyl-3,5-dimethyl-
##MOLFORM=C7H12N2
##CAS REGISTRY NO=17629-26-4
##MP= -300
##BP= -300
##MW= 124
##$RETENTION INDEX=0
##$CONDENSED SPECTRUM=NO
##NPOINTS= 36
##XYDATA=(XY..XY) 1 
    15         60
    26         50
    27        180
    28        140
    29        100
    38         50
    39        320
    40        100
    41        300
    42        380
    43         70
    50         20
    51         40
    52         50
    53         70
    54        100
    55         90
    56         40
    63         20
    64         20
    65         70
    66         80
    67         70
    68        190
    79         40
    80         40
    81         90
    82         90
    95        660
    96        999
    97         80
   109        840
   110         70
   123         80
   124        780
   125         70