##TITLE=Library Entry 86711
##JCAMP-DX=Revision 4.10 
##DATA TYPE=MASS SPECTRUM
##SAMPLE DESCRIPTION=CARL DJERASSI DEPT OF CHEM STANFORD UNIV STANFORD CALIF
 94305
##NAMES=HP
##CAS NAME=1(2H)-Naphthalenone, octahydro-8a-methyl-2-(phenylmethylene)-, tr
ans-
##MOLFORM=C18H22O
##CAS REGISTRY NO=17622-48-9
##MP= -300
##BP= -300
##MW= 254
##$RETENTION INDEX=0
##$CONDENSED SPECTRUM=NO
##NPOINTS= 133
##XYDATA=(XY..XY) 1 
    41        350
    42         20
    43         80
    44         10
    50         20
    51         80
    52         20
    53        120
    54         30
    55        260
    56         20
    57         10
    58         10
    62         10
    63         40
    64         20
    65         90
    66         30
    67        390
    68         50
    69         30
    71         10
    74         20
    75         20
    76         30
    77        140
    78         60
    79        120
    80         30
    81        170
    82         20
    83         10
    88         10
    89         60
    90         20
    91        380
    92         70
    93         90
    94         50
    95         80
    96         10
   101         10
   102         80
   103         40
   104         20
   105         50
   106         30
   107         60
   108         90
   109        999
   110         90
   111         10
   113         10
   114         10
   115        570
   116        400
   117        280
   118         70
   119         30
   120         10
   121         40
   122        100
   123         10
   126         10
   127         60
   128        150
   129        210
   130        110
   131        350
   132         60
   133         30
   134        100
   135        160
   136         20
   139         10
   141         60
   142         40
   143         50
   144         50
   145        120
   146         60
   147         30
   148         20
   149         10
   152         20
   153         20
   154         20
   155         40
   156         20
   157         40
   158         50
   159         20
   161         10
   162         10
   163        170
   164         30
   165         30
   166         10
   167         20
   168         10
   169         50
   170         30
   171         40
   172         60
   173         10
   178         10
   179         10
   181         10
   183         70
   184        150
   185        120
   186         20
   197         50
   198         30
   199        100
   200         20
   211        310
   212         70
   213         10
   221         10
   223         10
   225         30
   226        680
   227        140
   228         10
   236         20
   237         10
   239         30
   240         20
   253         90
   254        520
   255        120
   256         30