##TITLE=Library Entry 68471
##JCAMP-DX=Revision 4.10 
##DATA TYPE=MASS SPECTRUM
##SAMPLE DESCRIPTION=CARL DJERASSI DEPT OF CHEM STANFORD UNIV STANFORD CALIF
 94305
##NAMES=HP
##CAS NAME=2-Cyclohexen-1-one, 4-ethyl-3,4-dimethyl-
##MOLFORM=C10H16O
##CAS REGISTRY NO=17622-46-7
##MP= -300
##BP= -300
##MW= 152
##$RETENTION INDEX=1150
##$CONDENSED SPECTRUM=NO
##NPOINTS= 37
##XYDATA=(XY..XY) 1 
    41        390
    42         20
    43         70
    50         20
    51         90
    52         40
    53        200
    54         20
    55        270
    63         20
    65         70
    66         30
    67        320
    68         20
    69         30
    77        120
    78         20
    79        160
    80         30
    81        200
    82         60
    91         60
    93         60
    94         20
    95        999
    96        100
   107         20
   109        480
   110        550
   111         40
   122         20
   123        300
   124        230
   125         10
   137         30
   152        190
   153         10