##TITLE=Library Entry 13298
##JCAMP-DX=Revision 4.10 
##DATA TYPE=MASS SPECTRUM
##SAMPLE DESCRIPTION=Chemical Concepts
##NAMES=HP
##CAS NAME=6-Acetyl-5-chloro-8-(2-chloroethyl)-6,7-diazaspiro[3.5]non-7-ene
##MOLFORM=C11H16Cl2N2O
##CAS REGISTRY NO=176214-75-8
##MP= -300
##BP= -300
##MW= 262
##$RETENTION INDEX=0
##$CONDENSED SPECTRUM=NO
##NPOINTS= 48
##XYDATA=(XY..XY) 1 
    36          9
    37          6
    39        107
    40         36
    41         61
    43        999
    49         24
    51         32
    53         43
    54          4
    55          6
    63          9
    64          5
    65         22
    67         26
    68          9
    77         33
    79         54
    80         11
    90          5
    91         25
    93         16
    94         13
    96        268
   106          9
   120          4
   121         27
   138          4
   147         23
   149         34
   156         20
   157         36
   158          9
   159          7
   171         39
   173          9
   183         59
   185        503
   187        103
   220        183
   222        116
   223          4
   224         12
   227        155
   228         17
   229         41
   262         77
   264         53