##TITLE=Library Entry 39322
##JCAMP-DX=Revision 4.10 
##DATA TYPE=MASS SPECTRUM
##SAMPLE DESCRIPTION=ASES Database, Dalian Institute, P.R. China
##NAMES=HP
##CAS NAME=4-Ethyl-1,3-thiazole
##MOLFORM=C5H7NS
##CAS REGISTRY NO=17626-72-1
##MP= -300
##BP= -300
##MW= 113
##$RETENTION INDEX=880
##$CONDENSED SPECTRUM=NO
##NPOINTS= 20
##XYDATA=(XY..XY) 1 
    39        420
    45        521
    58        422
    59        308
    60         19
    61         10
    71        999
    72         40
    73        201
    74         20
    86        241
    87         20
    88         20
    98        693
    99         39
   100         39
   112        694
   113        751
   114         80
   115         39