##TITLE=Library Entry 81766
##JCAMP-DX=Revision 4.10 
##DATA TYPE=MASS SPECTRUM
##SAMPLE DESCRIPTION=A.A.Kutin, Moscow, Russia
##NAMES=HP
##CAS NAME=Benzamide, N-(4-aminophenyl)-
##MOLFORM=C13H12N2O
##CAS REGISTRY NO=17625-83-1
##MP= -300
##BP= -300
##MW= 212
##$RETENTION INDEX=0
##$CONDENSED SPECTRUM=NO
##NPOINTS= 92
##XYDATA=(XY..XY) 1 
    34          3
    39         15
    40          1
    41          8
    42          3
    43         13
    44          0
    45          0
    50         17
    51         65
    52         29
    53         47
    54         13
    55          9
    56          2
    57          8
    59         10
    60          1
    62          0
    63          7
    64          1
    65          8
    66          3
    67          3
    68          0
    69          4
    70          3
    71          3
    72          1
    73          5
    74          3
    75          3
    76         11
    77        367
    78         30
    79         23
    80        108
    81          8
    83          3
    84          2
    85          0
    87          0
    90          5
    91          3
    92          3
    93          1
    95          0
    96          1
    97          1
    98          1
   100          0
   101          0
   103          0
   105        999
   106         91
   107        331
   108         35
   109         94
   110          7
   111          1
   112          1
   113          0
   120         12
   121          1
   123          0
   127          1
   128          2
   129          0
   134          2
   139          4
   141          1
   143          0
   156          0
   166          3
   167          1
   168          1
   171          1
   173          0
   178          0
   181          1
   182          3
   183          3
   184          0
   194          1
   195          3
   196          1
   203          7
   204          1
   210          3
   212        873
   213        128
   214         11