##TITLE=Library Entry 59559
##JCAMP-DX=Revision 4.10 
##DATA TYPE=MASS SPECTRUM
##SAMPLE DESCRIPTION=Chemical Concepts
##NAMES=HP
##CAS NAME=1,3,5-Cycloheptatriene, 7-ethyl-
##MOLFORM=C9H12
##CAS REGISTRY NO=17634-51-4
##MP= -300
##BP= -300
##MW= 120
##$RETENTION INDEX=0
##$CONDENSED SPECTRUM=NO
##NPOINTS= 85
##XYDATA=(XY..XY) 1 
    25          1
    26         11
    27         48
    28         10
    29         13
    30          0
    31          2
    37          2
    38         10
    39         95
    40         21
    41         41
    42          5
    43          4
    44          0
    45          2
    47          0
    49          1
    50         19
    51         49
    52         23
    53         11
    54          2
    55          6
    56          2
    57          3
    58          4
    59          1
    60          0
    61          2
    62          9
    63         32
    64          6
    65        110
    66          8
    67          1
    68          0
    69          1
    70          0
    71          1
    72          0
    73          1
    74          3
    75          5
    76          4
    77         58
    78         90
    79         42
    80          3
    81          0
    82          1
    83          0
    84          5
    85          0
    86          1
    87          1
    88          0
    89         18
    90          6
    91        999
    92         83
    93          4
    94          0
    95          0
    98          0
   101          0
   102          3
   103         21
   104          9
   105         59
   106          4
   107          0
   109          0
   110          0
   111          0
   113          0
   114          0
   115         11
   116          2
   117          7
   118          1
   119          7
   120         46
   121          4
   122          0