##TITLE=Library Entry 46541
##JCAMP-DX=Revision 4.10 
##DATA TYPE=MASS SPECTRUM
##SAMPLE DESCRIPTION=E.SANTORO MONTEDISON S.P.A., RESEARCH CENTRE, MILAN, IT
ALY
##NAMES=HP
##CAS NAME=1,5-Hexadiene, 3,3,4,4-tetrafluoro-
##MOLFORM=C6H6F4
##CAS REGISTRY NO=1763-21-9
##MP= -300
##BP= -300
##MW= 154
##$RETENTION INDEX=0
##$CONDENSED SPECTRUM=NO
##NPOINTS= 17
##XYDATA=(XY..XY) 1 
    27         39
    31         13
    33          3
    39         16
    51        216
    57         29
    69          5
    75         27
    77        999
    78         33
    95         11
   115         32
   134          8
   135          3
   139          1
   153          4
   154          3