##TITLE=Library Entry 45981
##JCAMP-DX=Revision 4.10 
##DATA TYPE=MASS SPECTRUM
##SAMPLE DESCRIPTION=H. PORADOWSKA, INST. ORG. CHEM., POLITECH. UNIV., KRAKO
W, POL.
##NAMES=HP
##CAS NAME=5-Bromo-2,3-dimethylquinoxaline
##MOLFORM=C10H9BrN2
##CAS REGISTRY NO=17635-22-2
##MP= -300
##BP= -300
##MW= 236
##$RETENTION INDEX=0
##$CONDENSED SPECTRUM=NO
##NPOINTS= 28
##XYDATA=(XY..XY) 1 
    73         40
    74        393
    75        999
    76        136
    77         45
    88        101
    89         96
   100         59
   101         59
   114         56
   115         94
   116        473
   117         78
   118         38
   153        209
   154         99
   155         56
   156        118
   157         40
   195        529
   196         61
   197        546
   198         59
   223         31
   236        515
   237         66
   238        492
   239         59