##TITLE=Library Entry 8852
##JCAMP-DX=Revision 4.10 
##DATA TYPE=MASS SPECTRUM
##SAMPLE DESCRIPTION=Exported from NIST MS Search
##NAMES=HP
##CAS NAME=Propionic acid, 2,2-dichloro-, pentyl ester
##MOLFORM=C8H14Cl2O2
##CAS REGISTRY NO=17640-08-3
##MP= -300
##BP= -300
##MW= 212
##$RETENTION INDEX=0
##$CONDENSED SPECTRUM=NO
##NPOINTS= 56
##XYDATA=(XY..XY) 1 
    15         14
    18          9
    26         21
    27        147
    28         68
    29        239
    30          7
    31         14
    32         10
    36         19
    38         11
    39         73
    40         14
    41        305
    42        125
    43        999
    44         39
    45         69
    50          9
    51         16
    53         21
    54         21
    55        332
    56         59
    57        255
    58         14
    59         39
    61         63
    62         67
    63         36
    64         23
    65          7
    67          8
    68         10
    69         66
    70        239
    71        547
    72         38
    73         22
    77         32
    82         22
    83         10
    85          7
    87         10
    89         12
    90         67
    91         17
    92         24
    97        149
    99         97
   101         17
   105         37
   106         12
   107         28
   108         12
   109         12