##TITLE=Library Entry 23294
##JCAMP-DX=Revision 4.10 
##DATA TYPE=MASS SPECTRUM
##SAMPLE DESCRIPTION=Exported from NIST MS Search
##NAMES=HP
##CAS NAME=Propanoic acid, 2,2-dichloro-, butyl ester
##MOLFORM=C7H12Cl2O2
##CAS REGISTRY NO=17640-07-2
##MP= -300
##BP= -300
##MW= 198
##$RETENTION INDEX=0
##$CONDENSED SPECTRUM=NO
##NPOINTS= 100
##XYDATA=(XY..XY) 1 
    14          2
    15          9
    17          1
    18          7
    25          1
    26         20
    27        121
    28         46
    29        419
    30         11
    31         13
    32          3
    35          2
    36          8
    37          2
    38          5
    39         43
    40          7
    41        438
    42         24
    43         48
    44          5
    45          8
    47          2
    48          2
    49          2
    50         22
    51         23
    53          8
    54          4
    55         77
    56        144
    57        999
    58         45
    59          7
    60          3
    61         51
    62         49
    63         26
    64         17
    65          3
    70          1
    71          5
    73          8
    75          1
    76          3
    77          2
    78          1
    79          3
    81          1
    82          2
    83          6
    84          2
    85          4
    87          1
    89          9
    90         35
    91         15
    92         13
    93          4
    96          2
    97        110
    98          4
    99         71
   100          2
   101         12
   106          3
   107         17
   108          7
   109          7
   110          4
   111          2
   112          1
   113          2
   117          1
   118          1
   119          1
   121          1
   125         10
   126          3
   127          9
   128          2
   129          3
   133          1
   135          1
   143          4
   145          3
   155          3
   157          2
   162          4
   163          4
   164          3
   165          2
   169          4
   171          2
   183          2
   185          2
   198          4
   200          3
   202          1