##TITLE=Library Entry 16813
##JCAMP-DX=Revision 4.10 
##DATA TYPE=MASS SPECTRUM
##SAMPLE DESCRIPTION=V.Zaikin,Topchiev Inst.Petrochem.Synth.,Moscow
##NAMES=HP
##CAS NAME=CH3OCH2C(O)OCH(CH3)2
##MOLFORM=C6H12O3
##CAS REGISTRY NO=17640-21-0
##MP= -300
##BP= -300
##MW= 132
##$RETENTION INDEX=0
##$CONDENSED SPECTRUM=NO
##NPOINTS= 46
##XYDATA=(XY..XY) 1 
    25          2
    26         16
    27         38
    28          2
    29         67
    30         10
    31         26
    32          2
    33          2
    35          9
    36         72
    37          4
    38         25
    39         33
    40          8
    41        104
    42         32
    43        325
    44         12
    45        999
    46         24
    47         18
    48          1
    49          6
    56          2
    57          1
    58          2
    59         10
    60         89
    61         11
    63          2
    72          2
    73          4
    74          1
    75          5
    76          4
    77          1
    82          1
    87          3
    89         67
    90         11
    91          6
   102         88
   103          8
   117          4
   132          2