##TITLE=Library Entry 76295
##JCAMP-DX=Revision 4.10 
##DATA TYPE=MASS SPECTRUM
##SAMPLE DESCRIPTION=P. VAINIOTALO, DEPT. CHEM., UNIV. JOENSUU, JOENSUU, FIN
LAND
##NAMES=HP
##CAS NAME=2-Benzyl-2-methyl-1,3-oxathiolane
##MOLFORM=C11H14OS
##CAS REGISTRY NO=17642-77-2
##MP= -300
##BP= -300
##MW= 194
##$RETENTION INDEX=0
##$CONDENSED SPECTRUM=NO
##NPOINTS= 30
##XYDATA=(XY..XY) 1 
    27         22
    39         38
    43        811
    45         70
    51         25
    58         24
    59        116
    60        126
    61         66
    63         25
    65         87
    77         22
    89         22
    91        347
    92        130
   103        999
   104         58
   105         69
   131          3
   132          2
   134        138
   135         17
   136          2
   147          4
   148          3
   149          4
   165          5
   179          2
   192          4
   194          4