##TITLE=Library Entry 83456
##JCAMP-DX=Revision 4.10 
##DATA TYPE=MASS SPECTRUM
##SAMPLE DESCRIPTION=KONINKLIJKE SHELL LABORATORIUM AMSTERDAM
##NAMES=HP
##CAS NAME=Ether, 2-chloroethyl 1-methylundecyl
##MOLFORM=C14H29ClO
##CAS REGISTRY NO=17648-35-0
##MP= -300
##BP= -300
##MW= 248
##$RETENTION INDEX=0
##$CONDENSED SPECTRUM=NO
##NPOINTS= 132
##XYDATA=(XY..XY) 1 
    29        221
    30          5
    31         37
    32         12
    35          2
    36          6
    37          1
    38          2
    39         62
    40         13
    41        303
    42         81
    43        276
    44         21
    45        174
    46          4
    47          0
    48          0
    49          6
    50          6
    51          4
    52          2
    53         18
    54         18
    55        205
    56         71
    57        148
    58         36
    59         36
    60          1
    61          0
    62          6
    63        414
    64         10
    65        130
    66          3
    67         21
    68         12
    69        133
    70         43
    71         65
    72          8
    73          4
    74          0
    75          0
    76          0
    77          3
    78          1
    79          3
    80          1
    81         11
    82         11
    83        120
    84         27
    85         30
    86          2
    87          1
    88          0
    91          1
    92          0
    93         11
    94          0
    95          7
    96          5
    97         72
    98         14
    99          7
   100          0
   101          0
   103          0
   104          0
   105          0
   106         11
   107        999
   108         46
   109        313
   110         15
   111         18
   112          6
   113          4
   114          0
   115          0
   119          8
   120          3
   121        129
   122          8
   123         40
   124          3
   125          5
   126          6
   127          2
   128          0
   133          1
   134          0
   135         22
   136          1
   137          7
   138          0
   139          2
   140          4
   141          0
   142          0
   147          0
   149          4
   150          0
   151          1
   153          0
   155          1
   156          0
   157          0
   163          1
   165          0
   166          0
   168         17
   169         12
   170          1
   177          0
   179          0
   184          0
   185          0
   191          1
   193          0
   205          3
   206          0
   207          1
   219         15
   220          1
   221          4
   222          0
   233          6
   234          0
   235          1