##TITLE=Library Entry 30811
##JCAMP-DX=Revision 4.10 
##DATA TYPE=MASS SPECTRUM
##SAMPLE DESCRIPTION=Exported from NIST MS Search
##NAMES=HP
##CAS NAME=2-Methyl-1,3-oxathiolane
##MOLFORM=C4H8OS
##CAS REGISTRY NO=17642-74-9
##MP= -300
##BP= -300
##MW= 104
##$RETENTION INDEX=841
##$CONDENSED SPECTRUM=NO
##NPOINTS= 76
##XYDATA=(XY..XY) 1 
    12         17
    13         22
    14         86
    15        237
    16         28
    17          7
    24         12
    25         53
    26        332
    27        502
    28        789
    29        397
    30         12
    31         23
    32         54
    33         35
    34         79
    35         94
    36         10
    37          6
    38         14
    39         15
    40          7
    41         99
    42         63
    43        352
    44        212
    45        593
    46         83
    47         64
    48         10
    49          4
    50          2
    51          1
    52          1
    53          1
    54          1
    55          2
    56          4
    57         30
    58        119
    59        507
    60        999
    61        383
    62         55
    63         16
    64          3
    65          1
    66          1
    67          1
    68          1
    69          2
    70          1
    71         33
    72          2
    73         10
    74         35
    75          2
    76        168
    77          6
    78         15
    79          1
    84          1
    85          4
    86          6
    87          3
    88          1
    89        148
    90          7
    91          8
   102          1
   103         12
   104        445
   105         26
   106         22
   107          1