##TITLE=Library Entry 70002
##JCAMP-DX=Revision 4.10 
##DATA TYPE=MASS SPECTRUM
##SAMPLE DESCRIPTION=Exported from NIST MS Search
##NAMES=HP
##CAS NAME=Propanoic acid, 2,2-dichloro-, methyl ester
##MOLFORM=C4H6Cl2O2
##CAS REGISTRY NO=17640-02-7
##MP= -300
##BP= -300
##MW= 156
##$RETENTION INDEX=871
##$CONDENSED SPECTRUM=NO
##NPOINTS= 79
##XYDATA=(XY..XY) 1 
    13          1
    14          4
    15        159
    16          2
    18          2
    25          9
    26         55
    27        124
    28         13
    29         28
    30          6
    31         15
    35          5
    36          5
    37          3
    38          2
    39          5
    41          7
    42          2
    43         74
    44          4
    45          8
    46          1
    47          8
    48          4
    49          8
    50          2
    51          6
    53         15
    54          4
    55          4
    57          1
    59        756
    60         31
    61        322
    62        189
    63        120
    64         60
    65          6
    71          2
    76          2
    77         23
    78          2
    79          8
    82          5
    83         17
    84          3
    85         12
    87          2
    89         34
    90         21
    91         15
    92          8
    93         40
    94          2
    95         14
    96         31
    97        999
    98         43
    99        652
   100         18
   101        105
   102          3
   109          2
   110          2
   111          2
   113          6
   115          4
   121         83
   122          4
   123         27
   124          1
   125          6
   127          4
   137          2
   141          2
   156          2
   157          1
   158          2