##TITLE=Library Entry 12343
##JCAMP-DX=Revision 4.10 
##DATA TYPE=MASS SPECTRUM
##SAMPLE DESCRIPTION=Humboldt-Universitat zu Berlin, Department of Chemistry
, Analytical Group
##NAMES=HP
##CAS NAME=4-Pyrimidinol, 2-acetonylthio-
##MOLFORM=C7H8N2O2S
##CAS REGISTRY NO=17649-28-4
##MP= -300
##BP= -300
##MW= 184
##$RETENTION INDEX=0
##$CONDENSED SPECTRUM=NO
##NPOINTS= 123
##XYDATA=(XY..XY) 1 
    12          5
    13         10
    14         39
    15        146
    16          6
    17         23
    18         66
    19          5
    25          9
    26        106
    27        126
    28        112
    29        127
    30         11
    31         51
    32         21
    33          5
    34          2
    35          8
    37         11
    38         34
    39        119
    40        311
    41        122
    42        141
    43        999
    44         64
    45        225
    46        130
    47         73
    48          9
    49          4
    50          4
    51         20
    52         76
    53        154
    54         44
    55         50
    56         17
    57         88
    58         99
    59         41
    60         23
    61         17
    62          4
    64          5
    65         14
    66         21
    67        169
    68        177
    69        161
    70        178
    71         74
    72        160
    73         35
    74         18
    75         28
    76          5
    77          5
    78          5
    79          6
    80         24
    81         26
    82        270
    83         49
    84         94
    85         17
    86         34
    87         11
    88          6
    89          4
    90         24
    92          3
    93         22
    94         35
    95        619
    96        346
    97         78
    98         17
    99         13
   100         32
   101         53
   102          8
   103          4
   108          6
   109         38
   110         28
   111          8
   112         63
   113         71
   114        110
   115         24
   116          7
   124          4
   125         14
   126          5
   127          5
   128          4
   129          5
   137         18
   138          8
   139          3
   140          5
   141        335
   142        754
   143         60
   144         37
   145          3
   151        176
   152         18
   153          3
   155          4
   156          3
   165          4
   166         44
   167        234
   168         24
   169        351
   170         30
   171         20
   184        430
   185         43
   186         21