##TITLE=Library Entry 24228
##JCAMP-DX=Revision 4.10 
##DATA TYPE=MASS SPECTRUM
##SAMPLE DESCRIPTION=Chemical Concepts
##NAMES=HP
##CAS NAME=1-Eicosanol, 2-hexadecyl-
##MOLFORM=C36H74O
##CAS REGISTRY NO=17658-63-8
##MP= -300
##BP= -300
##MW= 522
##$RETENTION INDEX=3782
##$CONDENSED SPECTRUM=NO
##NPOINTS= 328
##XYDATA=(XY..XY) 1 
    25          0
    26          1
    27         19
    29         83
    30          2
    31          4
    36          0
    37          0
    38          0
    39         11
    41        181
    42         37
    43        608
    44         17
    45          2
    50          0
    51          0
    52          0
    53          6
    54         36
    55        383
    56        260
    57        999
    58         42
    59         11
    60          1
    61          1
    65          1
    66         10
    67         78
    68         84
    69        354
    70        157
    71        567
    72         32
    73          3
    74          0
    75          0
    77          2
    78          0
    79          7
    80         10
    81         91
    82        161
    83        403
    84         99
    85        357
    86         22
    87          1
    88          0
    89          0
    90          0
    91          1
    92          0
    93          4
    94          7
    95         64
    96        132
    97        439
    98         67
    99        143
   100         12
   101          1
   102          0
   103          0
   104          0
   105          1
   106          0
   107          1
   108          4
   109         35
   110         55
   111        240
   112         55
   113        101
   114          9
   115          1
   117          0
   118          0
   119          0
   120          0
   121          2
   122          4
   123         25
   124         37
   125        145
   126         36
   127         73
   128          7
   129          1
   131          0
   132          0
   133          0
   135          2
   136          2
   137         18
   138         29
   139         85
   140         28
   141         57
   142          7
   143          0
   144          0
   145          0
   147          0
   149          0
   151          6
   152         21
   153         62
   154         22
   155         45
   156          6
   157          0
   158          0
   161          0
   162          0
   163          0
   164          0
   165          2
   166         16
   167         49
   168         20
   169         38
   170          4
   171          0
   172          0
   175          0
   177          0
   178          0
   179          2
   180         12
   181         34
   182         16
   183         31
   184          4
   185          0
   187          0
   189          0
   191          0
   192          0
   193          2
   194         11
   195         29
   196         14
   197         24
   198          4
   199          0
   201          0
   206          0
   207          1
   208         15
   209         23
   210         21
   211         17
   212          2
   213          1
   218          0
   219          0
   220          0
   221          1
   222         16
   223         23
   224         25
   225         18
   226          2
   227          0
   228          0
   234          0
   235          1
   236         16
   237         15
   238         25
   239         14
   240          2
   241          0
   242          0
   243          0
   247          0
   248          0
   249          2
   250         42
   251         52
   252         80
   253         49
   254         10
   255          2
   256          0
   262          0
   263          1
   264         10
   265         12
   266         44
   267         26
   268          7
   269          8
   270          1
   271          0
   276          0
   277          1
   278         37
   279         45
   280         55
   281         47
   282          9
   283          3
   284          0
   285          0
   290          0
   291          1
   292         11
   293         10
   294         37
   295         24
   296          6
   297          8
   298          1
   301          0
   305          0
   306          7
   307         10
   308         10
   309          9
   310          2
   311          1
   312          0
   313          0
   318          0
   319          1
   320          8
   321          8
   322          5
   323          7
   324          1
   325          0
   326          0
   332          0
   333          0
   334          6
   335          5
   336          5
   337          5
   338          1
   346          0
   348          4
   349          4
   350          3
   351          4
   352          0
   353          0
   361          0
   362          3
   363          4
   364          4
   365          3
   366          0
   375          0
   376          3
   377          3
   378          2
   379          3
   380          0
   390          2
   391          2
   392          3
   393          2
   394          0
   395          0
   397          0
   404          1
   405          2
   406          2
   407          3
   408          0
   409          0
   417          0
   418          1
   419          2
   420          3
   421          2
   422          1
   423          0
   424          0
   431          0
   432          1
   433          2
   434          3
   435          3
   436          1
   437          0
   438          0
   439          0
   446          1
   447          2
   448          3
   449          3
   450          1
   451          0
   460          1
   461          2
   462          4
   463          4
   464          1
   466          0
   474          0
   475          2
   476         14
   477         10
   478          3
   479          0
   480          0
   487          0
   488          0
   489          1
   490          5
   491         13
   492          5
   493          1
   494          0
   498          0
   501          0
   502          7
   503          4
   504        170
   505         68
   506         15
   507          3
   508          1
   509          0