##TITLE=Library Entry 67299
##JCAMP-DX=Revision 4.10 
##DATA TYPE=MASS SPECTRUM
##SAMPLE DESCRIPTION=NIST Mass Spectrometry Data Center
##NAMES=HP
##CAS NAME=Tropic acid, 6-hydroxy-3-tropanyl ester
##MOLFORM=C17H23NO4
##CAS REGISTRY NO=17659-49-3
##MP= -300
##BP= -300
##MW= 305
##$RETENTION INDEX=2484
##$CONDENSED SPECTRUM=NO
##NPOINTS= 82
##XYDATA=(XY..XY) 1 
    27          1
    28          3
    29          3
    30          2
    31          8
    38          1
    39          6
    40          2
    41         11
    42         77
    43          9
    44         21
    45          2
    50          2
    51          8
    52          4
    53          9
    56         12
    57         22
    58         19
    62          1
    63          5
    64          3
    65         15
    66          2
    68          7
    70         16
    71          5
    72          7
    73         14
    77         44
    78         15
    79         19
    81         13
    82         52
    83          9
    84         19
    86          2
    89         17
    90         23
    91         55
    92          4
    93          4
    94        999
    95        816
    96        112
    97          6
    98         19
    99          9
   100          1
   102          3
   103         63
   104         11
   107          8
   108          3
   110         32
   111          5
   112         36
   113          7
   114          2
   118         12
   120          5
   121         29
   122         41
   124          7
   139          8
   140        379
   141         29
   156         14
   230          1
   247          1
   257          1
   260          1
   261         95
   262         15
   276          1
   277          1
   288          2
   290          1
   305         76
   306         16
   307          1