##TITLE=Library Entry 57401
##JCAMP-DX=Revision 4.10 
##DATA TYPE=MASS SPECTRUM
##SAMPLE DESCRIPTION=LDDRD, NCI, NIH-FCRDC, Frederick, MD 21702
##NAMES=HP
##CAS NAME=Allomycin
##MOLFORM=C29H42N6O9
##CAS REGISTRY NO=17650-86-1
##MP= -300
##BP= -300
##MW= 618
##$RETENTION INDEX=0
##$CONDENSED SPECTRUM=NO
##NPOINTS= 178
##XYDATA=(XY..XY) 1 
    41        191
    42        143
    43        136
    44        121
    45         60
    46         36
    47          2
    48          0
    50          2
    51          5
    52          4
    53         26
    54          9
    55         59
    56         42
    57         88
    58        126
    59         10
    60         10
    61          6
    63          2
    64          2
    65         10
    66          5
    67         30
    68         23
    69         64
    70        101
    71         58
    72        182
    73         75
    74        126
    75          5
    76          1
    77          9
    78          2
    79         20
    80          3
    81         37
    82         14
    83         19
    84         78
    85        320
    86        107
    87        999
    88         53
    89          5
    90          2
    91          3
    92          4
    93          2
    94          3
    95         14
    96         16
    97        111
    98         18
    99          7
   100        130
   101        272
   102         64
   103          5
   104          4
   105          1
   107          1
   108          1
   109          3
   110          5
   111         37
   112         28
   113          6
   114         17
   115         10
   116         45
   117          5
   118          2
   119          3
   120         20
   121          3
   122          1
   123          1
   124          1
   125          3
   126          2
   127          6
   128         14
   129          4
   130         22
   131          3
   132          5
   133          1
   136          2
   137          5
   138          2
   139          1
   140          1
   141          1
   142          1
   143          1
   144         92
   145         10
   146         16
   147          1
   148          1
   149          1
   150          2
   151          1
   152          0
   153          0
   154          2
   155          1
   156          5
   157          1
   158          0
   159          2
   160          3
   161          0
   162          1
   163          1
   164          1
   165          1
   168          0
   169          1
   171          1
   172          3
   173         52
   174         58
   175          6
   176          1
   178          1
   183          9
   184          2
   185          1
   187          1
   188          0
   189          2
   190          6
   191          2
   192          3
   193          0
   196          2
   198          1
   201          2
   202          0
   203          1
   207          1
   208          0
   212         26
   213          5
   214          1
   218          0
   219          3
   220          1
   221          5
   222          0
   224          0
   225          0
   226          2
   227          0
   230          8
   231          2
   233          0
   241          3
   242          0
   244          3
   256          1
   258          0
   270          0
   273          0
   274          0
   284          0
   286          2
   287        157
   288         44
   289          6
   290          0
   303          0
   312          0
   332          1