##TITLE=Library Entry 48836
##JCAMP-DX=Revision 4.10 
##DATA TYPE=MASS SPECTRUM
##SAMPLE DESCRIPTION=D.HENNEBERG, MAX-PLANCK INSTITUTE, MULHEIM, WEST GERMAN
Y
##NAMES=HP
##CAS NAME=3-Hexen-1-yne, (Z)-
##MOLFORM=C6H8
##CAS REGISTRY NO=17669-38-4
##MP= -300
##BP= -300
##MW= 80
##$RETENTION INDEX=0
##$CONDENSED SPECTRUM=NO
##NPOINTS= 36
##XYDATA=(XY..XY) 1 
    26         43
    27        156
    29         16
    30          1
    32          5
    37         12
    38         54
    39        429
    40         39
    41         78
    42          8
    43          2
    44         13
    49          7
    50        110
    51        189
    52        329
    53         84
    54         32
    55          5
    57          0
    61          7
    62         37
    63         85
    64         16
    65        308
    66         23
    67          2
    74          9
    75         17
    76          6
    77        314
    78         78
    79        999
    80        607
    81         35