##TITLE=Library Entry 58152
##JCAMP-DX=Revision 4.10 
##DATA TYPE=MASS SPECTRUM
##SAMPLE DESCRIPTION=A.A.Kutin, Moscow, Russia
##NAMES=HP
##CAS NAME=Acetamide, 2-(dimethylaminothiocarbonylthio)-N-(2-ethyl-6-methylp
henyl)-
##MOLFORM=C14H20N2OS2
##CAS REGISTRY NO=176688-16-7
##MP= -300
##BP= -300
##MW= 296
##$RETENTION INDEX=0
##$CONDENSED SPECTRUM=NO
##NPOINTS= 130
##XYDATA=(XY..XY) 1 
    33          7
    34          6
    35          2
    36          8
    38         10
    39         34
    40         59
    41         27
    42         80
    43         34
    44        117
    45         25
    46         11
    47         21
    48          2
    50         10
    51         20
    52         13
    53         11
    54          5
    55          6
    56         20
    57          5
    58          3
    59          4
    60          2
    61          7
    63         18
    64         14
    65         31
    66          6
    67          3
    68          1
    69          3
    70          3
    71          3
    72         27
    73         49
    74         26
    75          8
    76         23
    77         76
    78         18
    79         23
    80          3
    81          1
    83          1
    85          2
    88        999
    89         65
    90         70
    91         95
    92         16
    93         10
    94          2
    97          0
    99          0
   100          1
   102         11
   103         15
   104         15
   105         15
   106         16
   107          7
   108          4
   112          0
   115         31
   116         16
   117         37
   118         34
   119         43
   120         90
   121         18
   122          8
   123          1
   125          0
   127          0
   128          2
   129          2
   130         12
   131          8
   132         40
   133         45
   134         65
   135         57
   136         10
   137          4
   138          3
   139          0
   141          0
   142          3
   143          2
   144          7
   145          4
   146         22
   147         10
   148         17
   149          7
   150          3
   151          0
   152          0
   156          1
   158         53
   159          9
   160         21
   162        317
   163         23
   164         25
   165          2
   166          4
   171          0
   174         15
   175          4
   176          5
   177          5
   178          3
   180          0
   190          1
   191          2
   192          2
   193          0
   202          0
   207          1
   208          4
   209          1
   219          1
   267          1
   296         17
   297          2
   298          1