##TITLE=Library Entry 37492
##JCAMP-DX=Revision 4.10 
##DATA TYPE=MASS SPECTRUM
##SAMPLE DESCRIPTION=Japan AIST/NIMC Database- Spectrum MS-IW- 891
##NAMES=HP
##CAS NAME=1-Hexanol, 4-methyl-, (S)-
##MOLFORM=C7H16O
##CAS REGISTRY NO=1767-46-0
##MP= -300
##BP= -300
##MW= 116
##$RETENTION INDEX=0
##$CONDENSED SPECTRUM=NO
##NPOINTS= 54
##XYDATA=(XY..XY) 1 
    15          4
    17          1
    18          2
    26          3
    27         60
    28         21
    29        196
    30          6
    31         98
    32          1
    38          1
    39         49
    40          9
    41        665
    42        275
    43        201
    44         14
    45         61
    46          1
    50          1
    51          3
    52          1
    53         16
    54          9
    55        357
    56        386
    57        351
    58         19
    59         19
    60         22
    61          1
    65          2
    66          1
    67         27
    68         40
    69        978
    70        999
    71         70
    72          2
    73          1
    79          1
    81          4
    82          2
    83         85
    84          6
    85          3
    86          1
    87         20
    88          1
    96          1
    97         12
    98         42
    99          5
   115          2