##TITLE=Library Entry 24414
##JCAMP-DX=Revision 4.10 
##DATA TYPE=MASS SPECTRUM
##SAMPLE DESCRIPTION=A.P. TULLOCH, PRAIRIE REG. LAB., NRC, SASKATOON, SASK.,
 CANA
##NAMES=HP
##CAS NAME=Docosanoic acid, docosyl ester
##MOLFORM=C44H88O2
##CAS REGISTRY NO=17671-27-1
##MP= -300
##BP= -300
##MW= 648
##$RETENTION INDEX=4547
##$CONDENSED SPECTRUM=NO
##NPOINTS= 107
##XYDATA=(XY..XY) 1 
    41        430
    42        150
    43        800
    44         50
    45         20
    53         30
    54         90
    55        520
    56        260
    57        999
    58         50
    59         30
    60         80
    61         90
    66         20
    67        130
    68        140
    69        470
    70        260
    71        620
    73        660
    74         60
    75         40
    77         10
    79         20
    80         20
    81        130
    82        210
    83        440
    84        170
    85        360
    86         30
    87         40
    89         10
    91         10
    93         20
    94         20
    95        100
    97        440
    98        130
    99        100
   100         20
   101         30
   103         10
   106         10
   108         10
   109         60
   110         60
   111        230
   112         70
   113         70
   114         10
   115         50
   116         30
   117         10
   121         20
   123         30
   124         40
   125        140
   126         40
   127         30
   129        100
   130         10
   133         10
   135         20
   137         20
   138         30
   139         70
   140         30
   141         30
   142         20
   143         30
   144         20
   147         40
   149         20
   151         10
   153         40
   154         20
   155         20
   157         10
   166         10
   167         20
   168         10
   169         10
   171         20
   177         20
   181         20
   185         30
   191         10
   193         10
   199         10
   206         40
   208         10
   209         10
   241         20
   274         10
   275         20
   276         20
   280         10
   297         20
   308         30
   323         20
   340        130
   341        290
   342         70
   353         20
   648         80