##TITLE=Library Entry 48773
##JCAMP-DX=Revision 4.10 
##DATA TYPE=MASS SPECTRUM
##SAMPLE DESCRIPTION=D.HENNEBERG, MAX-PLANCK INSTITUTE, MULHEIM, WEST GERMAN
Y
##NAMES=HP
##CAS NAME=1,3,5-Heptatriene, (E,E)-
##MOLFORM=C7H10
##CAS REGISTRY NO=17679-93-5
##MP= -300
##BP= -300
##MW= 94
##$RETENTION INDEX=781
##$CONDENSED SPECTRUM=NO
##NPOINTS= 63
##XYDATA=(XY..XY) 1 
    24          0
    25          1
    26         18
    27        154
    28         20
    29         29
    30          0
    37         13
    38         35
    39        278
    40         57
    41        107
    42         14
    43         13
    44          5
    45         22
    46         27
    47         20
    48          0
    49          4
    50         42
    51         96
    52         54
    53        104
    54         40
    55         21
    56          1
    57          1
    59          1
    60          1
    61          8
    62         19
    63         40
    64         11
    65        105
    66         68
    67         32
    68          3
    69          0
    70          0
    71          0
    73          3
    74          6
    75         20
    76          4
    77        545
    78         95
    79        999
    80         67
    81          2
    84          0
    85          2
    86          3
    87          2
    88          0
    89          8
    90          2
    91        185
    92         27
    93        119
    94        510
    95         39
    96          1