##TITLE=Library Entry 49854
##JCAMP-DX=Revision 4.10 
##DATA TYPE=MASS SPECTRUM
##SAMPLE DESCRIPTION=CARL DJERASSI DEPT OF CHEM STANFORD UNIV STANFORD CALIF
 94305
##NAMES=HP
##CAS NAME=Ethanone, 1-(2-methyl-2-cyclopenten-1-yl)-
##MOLFORM=C8H12O
##CAS REGISTRY NO=1767-84-6
##MP= -300
##BP= -300
##MW= 124
##$RETENTION INDEX=0
##$CONDENSED SPECTRUM=NO
##NPOINTS= 21
##XYDATA=(XY..XY) 1 
    41        160
    42         20
    43        410
    50         20
    51         50
    52         10
    53        210
    54         10
    55         30
    63         10
    65         30
    66         20
    67         20
    77         80
    78         10
    79        290
    80        130
    81        999
    82         50
   109         50
   124        140