##TITLE=Library Entry 68622
##JCAMP-DX=Revision 4.10 
##DATA TYPE=MASS SPECTRUM
##SAMPLE DESCRIPTION=NIST Mass Spectrometry Data Center
##NAMES=HP
##CAS NAME=Furyl hydroxymethyl ketone
##MOLFORM=C6H6O3
##CAS REGISTRY NO=17678-19-2
##MP= -300
##BP= -300
##MW= 126
##$RETENTION INDEX=1087
##$CONDENSED SPECTRUM=NO
##NPOINTS= 18
##XYDATA=(XY..XY) 1 
    29         19
    31         35
    37         23
    38         43
    39        158
    40         10
    49          5
    50         11
    66          8
    67         53
    68         23
    69          6
    95        999
    96         92
    97          9
   110          4
   126        210
   127         12