##TITLE=Library Entry 51595
##JCAMP-DX=Revision 4.10 
##DATA TYPE=MASS SPECTRUM
##SAMPLE DESCRIPTION=R.T.HOLMAN,UNIVERSITY OF MINNESOTA
##NAMES=HP
##CAS NAME=Octadecanoic acid, 9-octadecenyl ester, (Z)-
##MOLFORM=C36H70O2
##CAS REGISTRY NO=17673-50-6
##MP= -300
##BP= -300
##MW= 534
##$RETENTION INDEX=3721
##$CONDENSED SPECTRUM=NO
##NPOINTS= 350
##XYDATA=(XY..XY) 1 
    28         63
    29        100
    30          5
    31          5
    32         11
    33          3
    34          2
    35          2
    36          4
    37          7
    38          6
    39         38
    40         11
    41        320
    42         84
    43        590
    44         27
    45          8
    46          2
    47          3
    50          4
    51          6
    52          4
    53         30
    54        230
    55        760
    56        180
    57        600
    58         32
    59         11
    60         53
    61         30
    62          8
    63          5
    64         30
    65         11
    66         48
    67        420
    68        380
    69        690
    70        140
    71        310
    72         21
    73         88
    74         13
    75          8
    76          8
    77         16
    78         10
    79         56
    80         74
    81        480
    82        999
    83        730
    84        110
    85        180
    86         15
    87         27
    88          5
    89          6
    90          2
    91         19
    92          8
    93         36
    94         46
    95        500
    96        999
    97        560
    98        110
    99         38
   100          9
   101         30
   102          6
   103          6
   104          4
   105          9
   106          5
   107         21
   108         28
   109        340
   110        480
   111        250
   112         48
   113         24
   114          9
   115         31
   116          9
   117          6
   118          3
   119          6
   120          3
   121         25
   122         32
   123        250
   124        340
   125        120
   126         22
   127         14
   128          6
   129         39
   130          7
   131          6
   132          3
   133          4
   134          2
   135         22
   136         24
   137        160
   138        220
   139         58
   140         14
   141         13
   142          7
   143         11
   144          3
   145          4
   146          2
   147          4
   148          3
   149         20
   150         13
   151         72
   152        130
   153         36
   154         14
   155          9
   156          4
   157          8
   158          2
   159          3
   161          2
   162          2
   163          8
   164          5
   165         36
   166         81
   167         26
   168         21
   169          9
   170          4
   171         10
   172          4
   173          4
   174          3
   175          2
   176          2
   177          6
   178          4
   179         24
   180         62
   181         20
   182         11
   183          7
   184          3
   185         17
   186          4
   187          3
   188          1
   189          2
   190          1
   191          4
   192          4
   193         31
   194         69
   195         17
   196          7
   197          6
   198          4
   199          7
   200          3
   201          6
   202          2
   203          2
   204          1
   205          3
   206          3
   207         23
   208         50
   209         11
   210          5
   211          4
   212          2
   213          4
   214          2
   215          2
   216          2
   217          3
   218          3
   219          8
   220          5
   221         20
   222         88
   223         19
   224          6
   225          3
   226          2
   227          5
   228          2
   229          4
   230          2
   231          1
   232          2
   233          1
   234          1
   235          5
   236          3
   237          2
   238          3
   239          4
   240          2
   241         15
   242          4
   243          1
   244          1
   245          2
   246          2
   247          6
   248         13
   249         15
   250        780
   251        170
   252         18
   253          4
   254          2
   255          5
   256          3
   257          5
   258          2
   259          1
   260          1
   261          1
   262          1
   263          3
   264         14
   265         13
   266         21
   267        190
   268         37
   269          7
   270          2
   271          3
   272          1
   276          1
   277          1
   278          1
   279          3
   280          3
   281          3
   282          4
   283         10
   284         36
   285        350
   286         68
   287          9
   288          2
   289          1
   290          1
   291          1
   292          3
   293          1
   294          1
   295          6
   296          2
   297          2
   298          1
   299          2
   300          1
   301          1
   302          1
   303          1
   304          1
   305          1
   306          1
   307          1
   308          1
   309          1
   310          5
   311          4
   312          2
   313          2
   314          1
   315          1
   320          1
   321          1
   322          1
   323          2
   324          1
   325          2
   326          1
   335          2
   336          2
   337          2
   338          1
   339          1
   340          1
   349          2
   350          2
   351          3
   352          2
   353          2
   354          2
   360          1
   361          1
   363          2
   364          2
   365          2
   366          2
   367          1
   377          2
   378          2
   379          2
   380          2
   381          1
   391          2
   392          2
   393          3
   394          2
   395          2
   405          2
   406          2
   407          2
   408          2
   409          2
   419          2
   420          1
   421          2
   422          2
   424          1
   433          2
   434          1
   435          2
   436          1
   437          1
   447          2
   448          2
   449          2
   450          1
   463          1
   464          1
   469          1
   477          1
   491          1
   505          1
   516          2
   517          1
   532          2
   533          3
   534          9
   535          4
   536          3