##TITLE=Library Entry 48730
##JCAMP-DX=Revision 4.10 
##DATA TYPE=MASS SPECTRUM
##SAMPLE DESCRIPTION=D.HENNEBERG, MAX-PLANCK INSTITUTE, MULHEIM, WEST GERMAN
Y
##NAMES=HP
##CAS NAME=1-Octen-3-yne
##MOLFORM=C8H12
##CAS REGISTRY NO=17679-92-4
##MP= -300
##BP= -300
##MW= 108
##$RETENTION INDEX=0
##$CONDENSED SPECTRUM=NO
##NPOINTS= 81
##XYDATA=(XY..XY) 1 
    21          1
    22          0
    23          5
    24          3
    25          2
    26         33
    27        526
    28         54
    29        112
    30          5
    31          3
    32          3
    33          3
    34          4
    35          4
    36          1
    37         33
    38         93
    39        829
    40        253
    41        697
    42         44
    43        405
    44         14
    45          2
    46          1
    47          1
    48          2
    49         13
    50        113
    51        224
    52        164
    53        155
    54         58
    55         63
    56         89
    57          4
    58          5
    59          2
    60          3
    61         24
    62         64
    63        173
    64         83
    65        627
    66        732
    67        205
    68         20
    69          6
    71          0
    72          0
    73          5
    74         24
    75         47
    76         14
    77        968
    78        173
    79        999
    80        165
    81         39
    82          1
    85          0
    86          3
    87          3
    88          0
    89         23
    90          5
    91        422
    92         42
    93        718
    94         55
    95          2
   102          2
   103         13
   104          9
   105         22
   106         10
   107         43
   108        408
   109         34
   110          0