##TITLE=Library Entry 24974
##JCAMP-DX=Revision 4.10 
##DATA TYPE=MASS SPECTRUM
##SAMPLE DESCRIPTION=Exported from NIST MS Search
##NAMES=HP
##CAS NAME=l-Homoserine, O-butyl-
##MOLFORM=C8H17NO3
##CAS REGISTRY NO=17673-71-1
##MP= -300
##BP= -300
##MW= 175
##$RETENTION INDEX=0
##$CONDENSED SPECTRUM=NO
##NPOINTS= 40
##XYDATA=(XY..XY) 1 
    14         64
    15         23
    17         30
    18        109
    26         26
    27        125
    28          5
    29        336
    30        189
    33         19
    39         79
    41        336
    42        109
    43        125
    44        185
    45         75
    54         64
    55        151
    56        355
    57        999
    58        679
    59         49
    69         11
    70         30
    72         57
    73        102
    74        321
    75        128
    83        106
    85         53
    86         45
    87         68
    88         64
   100         49
   101        174
   102         72
   118         72
   130        355
   131         57
   158         49