##TITLE=Library Entry 50167
##JCAMP-DX=Revision 4.10 
##DATA TYPE=MASS SPECTRUM
##SAMPLE DESCRIPTION=G.R.WALLER OKLAHOMA STATE UNIVERSITY, OKLAHOMA, USA
##NAMES=HP
##CAS NAME=Cyclopenta[c]pyran-1(3H)-one, hexahydro-4,7-dimethyl-, (4.alpha.,
4a.alpha.,7.alpha.,7a.alpha.)-
##MOLFORM=C10H16O2
##CAS REGISTRY NO=17672-96-7
##MP= -300
##BP= -300
##MW= 168
##$RETENTION INDEX=1414
##$CONDENSED SPECTRUM=NO
##NPOINTS= 92
##XYDATA=(XY..XY) 1 
    30          4
    31          7
    37          1
    38          9
    39        206
    40         37
    41        415
    42         45
    43         57
    45          9
    50          9
    51         31
    52         18
    53        131
    54         64
    55        212
    56        135
    57         60
    58         63
    59          9
    62          1
    63          6
    65         37
    66         54
    67        617
    68        195
    69        317
    70         18
    72          1
    73          3
    74          3
    75          3
    76          3
    77         52
    78         15
    79         99
    80         66
    81        999
    82        227
    83         34
    84          6
    85          4
    86        138
    87         16
    91         27
    92          1
    93         46
    94         18
    95        270
    96         43
    97          6
    98         42
    99          6
   100         61
   101          4
   102          1
   103          1
   105          4
   106          1
   107         48
   108         66
   109        118
   110         60
   111         85
   112          7
   113        512
   114         78
   115          3
   120          3
   121          7
   122         13
   123         84
   124         15
   125         82
   126        266
   127        134
   128         10
   135         27
   136          1
   138         22
   139         43
   140         22
   141          3
   149          1
   150          3
   151         19
   153        355
   154         34
   156          3
   167         28
   168        150
   169         19