##TITLE=Library Entry 18919
##JCAMP-DX=Revision 4.10 
##DATA TYPE=MASS SPECTRUM
##SAMPLE DESCRIPTION=Chuck Anderson, Aldrich Chemical Co.
##NAMES=HP
##CAS NAME=2H-Pyran, 4-chlorotetrahydro-
##MOLFORM=C5H9ClO
##CAS REGISTRY NO=1768-64-5
##MP= -300
##BP= -300
##MW= 120
##$RETENTION INDEX=0
##$CONDENSED SPECTRUM=NO
##NPOINTS= 75
##XYDATA=(XY..XY) 1 
    14          4
    15         16
    16          1
    18          1
    25          3
    26         55
    27        354
    28        144
    29        418
    30         22
    31         40
    32          1
    35          2
    36          6
    37         12
    38         26
    39        295
    40         23
    41        211
    42         18
    43         72
    44         60
    45         26
    47          1
    48          1
    49         42
    50         31
    51         56
    52         14
    53        146
    54        363
    55        999
    56        137
    57         51
    58          3
    60          1
    61         11
    62        128
    63         20
    64         41
    65          8
    66          1
    67         36
    68          1
    69         25
    70          0
    71         57
    72          3
    73          2
    75         57
    76          4
    77         19
    79        193
    80          3
    81         68
    82          1
    83         21
    84        132
    85         51
    86          2
    88          0
    89          6
    90        126
    91          6
    92         40
    93          1
    94          1
   102         12
   104          4
   118          2
   119         49
   120        168
   121         24
   122         54
   123          2