##TITLE=Library Entry 16141
##JCAMP-DX=Revision 4.10 
##DATA TYPE=MASS SPECTRUM
##SAMPLE DESCRIPTION=V.A.Korolev, Moscow, Russia
##NAMES=HP
##CAS NAME=4-Pyrimidinecarboxylic acid, 1,2,3,6-tetrahydro-5-nitro-2,6-dioxo
-
##MOLFORM=C5H3N3O6
##CAS REGISTRY NO=17687-24-0
##MP= -300
##BP= -300
##MW= 201
##$RETENTION INDEX=0
##$CONDENSED SPECTRUM=NO
##NPOINTS= 58
##XYDATA=(XY..XY) 1 
    30         63
    35          6
    36         20
    37          8
    38         57
    39        142
    40        338
    41         92
    42         76
    43        211
    44        999
    45         35
    46         79
    48         21
    50         12
    51         29
    52         20
    53         99
    54         49
    55         65
    56         97
    57         14
    59         25
    60          5
    64         19
    67        282
    68         22
    69         50
    70        125
    71        117
    72          5
    73         14
    76         10
    77         29
    82          8
    84          5
    88         11
    89         10
    97          6
    98         20
    99         33
   103         26
   104          9
   111          7
   115          7
   116         17
   127        415
   128        406
   139          5
   140         23
   141          8
   142          5
   157        282
   158          9
   159         19
   201        211
   202         19
   203          5