##TITLE=Library Entry 64743
##JCAMP-DX=Revision 4.10 
##DATA TYPE=MASS SPECTRUM
##SAMPLE DESCRIPTION=Div. of Experiment Therapeutics WRAIR, WRAMC, Washingto
n DC 20307
##NAMES=HP
##CAS NAME=N-[[2,4-Dihydroxyphenyl-p-methoxybenzyl]methylene benzylamine
##MOLFORM=C22H21NO3
##CAS REGISTRY NO=17683-14-6
##MP= -300
##BP= -300
##MW= 347
##$RETENTION INDEX=0
##$CONDENSED SPECTRUM=NO
##NPOINTS= 124
##XYDATA=(XY..XY) 1 
    41         14
    42          1
    43          3
    50          4
    51         22
    52         16
    53          9
    55          7
    62          2
    63         16
    64          9
    65         82
    66          8
    67          2
    69          8
    75          2
    76          4
    77         42
    78         43
    79         13
    80          5
    81          4
    82          1
    89         31
    90         36
    91        999
    92         78
    93          6
    94          3
    95          1
   102          2
   103          2
   104          3
   105          4
   106         13
   107         11
   108          6
   115          6
   116          2
   117          2
   119          2
   120          3
   121        135
   122         14
   123          2
   125          0
   126          3
   127          3
   128          3
   129          2
   130          1
   132          4
   134          3
   135         13
   136          5
   137         25
   138          2
   139          3
   140          2
   141          3
   146          2
   147         10
   148          8
   150          2
   151          2
   152          4
   153          2
   154          2
   155          2
   156          2
   157          2
   162          2
   164          5
   165          3
   166          2
   167          3
   168          4
   169          3
   170          1
   173          1
   181          2
   182          2
   183          2
   184          2
   185          3
   186          3
   195          2
   196          7
   197        145
   198         24
   199          4
   210          2
   211          3
   212          6
   213          6
   214          2
   224          4
   225         15
   226         46
   227         13
   228          4
   229         13
   230          2
   238          7
   239          3
   240          6
   241          7
   242          2
   255          2
   256         29
   257          5
   258          5
   303          3
   305          3
   318          6
   319          0
   330         31
   331          7
   332          5
   346         23
   347        552
   348        149
   349         21
   350          2