##TITLE=Library Entry 53114
##JCAMP-DX=Revision 4.10 
##DATA TYPE=MASS SPECTRUM
##SAMPLE DESCRIPTION=KONINKLIJKE SHELL LABORATORIUM AMSTERDAM
##NAMES=HP
##CAS NAME=2-Propanone, 1,1,1,3,3-pentachloro-
##MOLFORM=C3HCl5O
##CAS REGISTRY NO=1768-31-6
##MP= -300
##BP= -300
##MW= 228
##$RETENTION INDEX=1059
##$CONDENSED SPECTRUM=NO
##NPOINTS= 150
##XYDATA=(XY..XY) 1 
    35        382
    36        271
    37        157
    38         79
    39          2
    40         15
    41         45
    42         26
    43          2
    44         14
    45          0
    46          0
    47        412
    48        281
    49        223
    50         91
    51         29
    52          9
    53         18
    54          2
    55          1
    56          0
    57          0
    58          0
    59         48
    60        114
    61         30
    62         37
    63         40
    64          2
    65         16
    66          5
    67          2
    68          0
    69          0
    70          4
    71         15
    72         18
    73          7
    74          5
    75          2
    76        177
    77        180
    78         60
    79         57
    80          3
    81          1
    82        229
    83        999
    84        158
    85        635
    86         30
    87        113
    88          2
    89          5
    90          0
    91          0
    92          0
    93          0
    94         27
    95         52
    96         22
    97         33
    98          5
    99          5
   100          0
   103          0
   104          0
   105          0
   106          3
   107          4
   108          2
   109          3
   110         50
   111        272
   112         37
   113        172
   114          9
   115         30
   116          0
   117        675
   118          7
   119        646
   120          7
   121        205
   122          3
   123         34
   124          1
   125          8
   126          0
   127          2
   128          0
   129         18
   130         42
   131         29
   132         40
   133         17
   134         12
   135          4
   136          1
   137          0
   141          1
   142          0
   143          0
   144          0
   145          5
   146          0
   147          4
   148          0
   149          1
   150          1
   152          0
   154          0
   155          0
   156          0
   157          6
   158          0
   159         13
   160          0
   161         10
   162          0
   163          3
   164          3
   165         80
   166          6
   167        102
   168          4
   169         49
   170         10
   171          0
   172          0
   177          1
   179          1
   181          0
   183          0
   192          0
   193         12
   194          4
   195         15
   196          4
   197          7
   198          1
   199          2
   200          0
   201          0
   203          0
   228          3
   230          5
   232          3
   234          0