##TITLE=Library Entry 61742
##JCAMP-DX=Revision 4.10 
##DATA TYPE=MASS SPECTRUM
##SAMPLE DESCRIPTION=Div. of Experiment Therapeutics WRAIR, WRAMC, Washingto
n DC 20307
##NAMES=HP
##CAS NAME=N1-[N-Benzyl-N-methylaminoethyl]-N3-m-tolylurea
##MOLFORM=C18H23N3O
##CAS REGISTRY NO=17683-00-0
##MP= -300
##BP= -300
##MW= 297
##$RETENTION INDEX=0
##$CONDENSED SPECTRUM=NO
##NPOINTS= 71
##XYDATA=(XY..XY) 1 
    41         20
    42         74
    43          6
    44         50
    45          1
    49          1
    50          8
    51         31
    52         13
    53          8
    54          1
    56          1
    58          1
    62          2
    63         15
    64          4
    65        107
    66          7
    67          0
    69          2
    73          0
    75          1
    76          3
    77         53
    78         19
    79         24
    80          3
    84          0
    88          5
    89         14
    91        999
    92         78
    93          6
    97          0
    98          0
   103          1
   104         11
   105         25
   106         39
   107         51
   108          6
   118         23
   119         19
   120        111
   121         13
   122          0
   127          5
   132          6
   133          8
   134          7
   146          2
   147         10
   148          7
   149          2
   161          4
   162          0
   163          2
   180          2
   181          8
   182          5
   194          3
   196         77
   197         39
   198          5
   205          1
   206          6
   207          0
   296          8
   297         93
   298         20
   299          6