##TITLE=Library Entry 46729
##JCAMP-DX=Revision 4.10 
##DATA TYPE=MASS SPECTRUM
##SAMPLE DESCRIPTION=V.Zaikin,Topchiev Inst.Petrochem.Synth.,Moscow
##NAMES=HP
##CAS NAME=Acetic acid, chloro-, 1-methylpropyl ester
##MOLFORM=C6H11ClO2
##CAS REGISTRY NO=17696-64-9
##MP= -300
##BP= -300
##MW= 150
##$RETENTION INDEX=941
##$CONDENSED SPECTRUM=NO
##NPOINTS= 86
##XYDATA=(XY..XY) 1 
    25          5
    26         50
    27        150
    28         19
    29        277
    30          9
    31         22
    35         19
    36         77
    37         10
    38         24
    39        129
    40         19
    41        354
    42        116
    43        136
    44         25
    45         71
    46          2
    47         12
    48         21
    49        263
    50        151
    51        120
    52        168
    53         37
    54         10
    55         72
    56        309
    57        729
    58         33
    59         61
    60         15
    61          2
    62          2
    63          5
    64          2
    65          2
    66          2
    67          3
    68          1
    69          4
    70          2
    71          3
    72          6
    73         48
    74          2
    75          6
    76         25
    77        999
    78         50
    79        413
    80         20
    81          2
    83          5
    84          3
    85         12
    86          2
    87          2
    88          4
    91          5
    92          2
    93          7
    94         12
    95         14
    96          6
    97          4
    99          8
   101          8
   105          4
   106          3
   115          7
   120          5
   121        600
   122         28
   123        198
   124          8
   127          2
   133          2
   135        142
   136          8
   137         48
   138          2
   149          2
   150          2
   151          1