##TITLE=Library Entry 65854
##JCAMP-DX=Revision 4.10 
##DATA TYPE=MASS SPECTRUM
##SAMPLE DESCRIPTION=A.A.Kutin, Moscow, Russia
##NAMES=HP
##CAS NAME=Acetamide, 2-(hydroxyimino)-N-phenyl-
##MOLFORM=C8H8N2O2
##CAS REGISTRY NO=1769-41-1
##MP= -300
##BP= -300
##MW= 164
##$RETENTION INDEX=0
##$CONDENSED SPECTRUM=NO
##NPOINTS= 99
##XYDATA=(XY..XY) 1 
    33         12
    37        109
    38        375
    39        773
    40        208
    41        115
    44        987
    45         35
    46         21
    47          0
    50        270
    51        452
    52        170
    53         39
    54         81
    55         33
    56          8
    57         13
    58          3
    60         10
    61         41
    62        133
    63        281
    64        361
    65        796
    66        215
    67         24
    69         10
    70         11
    72        193
    74         84
    75         38
    77        671
    78         48
    79          8
    80          5
    81          3
    82          3
    83          2
    84          3
    85          1
    86          4
    87          8
    88          8
    89          6
    91        312
    92        503
    93        999
    94         87
    95          5
    96          1
    97          2
    99          0
   100          0
   101          0
   102          4
   103          5
   104         21
   105         23
   106         17
   107          2
   108          0
   109          2
   111          0
   112          2
   113          0
   115          2
   116          2
   117          9
   119        382
   120        188
   121         21
   122          2
   123          0
   127          1
   128          3
   129         19
   130          2
   131          4
   133        153
   134         54
   135          6
   136          6
   137          0
   145         12
   147        366
   148         42
   149          6
   150          1
   151          0
   152          0
   154          0
   157          0
   160          1
   161          2
   164        551
   165         45
   166          2
   167          0