##TITLE=Library Entry 31046
##JCAMP-DX=Revision 4.10 
##DATA TYPE=MASS SPECTRUM
##SAMPLE DESCRIPTION=Japan AIST/NIMC Database- Spectrum MS-IW- 558
##NAMES=HP
##CAS NAME=8-Bromooctanoic acid
##MOLFORM=C8H15BrO2
##CAS REGISTRY NO=17696-11-6
##MP= -300
##BP= -300
##MW= 222
##$RETENTION INDEX=0
##$CONDENSED SPECTRUM=NO
##NPOINTS= 117
##XYDATA=(XY..XY) 1 
    15          2
    26          4
    27         82
    28         25
    29         71
    30          4
    31          8
    38          2
    39         62
    40         11
    41        213
    42         48
    43        119
    44          5
    45         58
    46          2
    47          3
    48          2
    50          1
    51          3
    52          2
    53         20
    54         17
    55        412
    56         34
    57         33
    58          5
    59         32
    60        999
    61         71
    62          6
    63          2
    65          3
    66          2
    67         51
    68         17
    69         90
    70         10
    71          9
    72          1
    73        445
    74         46
    75          3
    77          2
    79         10
    80          4
    81         40
    82         51
    83        442
    84         29
    85         10
    86          2
    87         43
    88          3
    91          1
    93          5
    95         12
    96         24
    97        178
    98         17
    99          9
   100          6
   101         23
   102          1
   106          2
   107         22
   108          2
   109         20
   111          1
   113          8
   114          3
   115         25
   116          2
   119          1
   121          9
   122          1
   123          9
   124         37
   125        866
   126         76
   127          5
   129          7
   133          1
   134          1
   135         12
   136          1
   137         10
   141          1
   142          3
   143        377
   144         33
   145          3
   149          1
   160          2
   162         36
   163        134
   164         41
   165        130
   166          9
   176          1
   178          1
   179         18
   180          1
   181         17
   182          1
   193         20
   194          2
   195         20
   196          2
   205         10
   206          1
   207          9
   222          8
   223         14
   224          9
   225         14
   226          1