##TITLE=Library Entry 27449
##JCAMP-DX=Revision 4.10 
##DATA TYPE=MASS SPECTRUM
##SAMPLE DESCRIPTION=Chemical Concepts
##NAMES=HP
##CAS NAME=1-Butene, 1,1-dibromo-4-phenyl-(3S)-3-[(t-butoxycarbonyl)amino]-
##MOLFORM=C15H19Br2NO2
##CAS REGISTRY NO=176962-18-8
##MP= -300
##BP= -300
##MW= 403
##$RETENTION INDEX=0
##$CONDENSED SPECTRUM=NO
##NPOINTS= 185
##XYDATA=(XY..XY) 1 
    25          0
    26          2
    27         21
    28         28
    29        145
    30          4
    31         10
    36          0
    37          0
    38          3
    39         42
    40          7
    41        199
    42         10
    43         18
    44          6
    45          1
    50          5
    51         23
    52         10
    53          4
    54         18
    55         11
    56         23
    57        999
    58         54
    59         81
    60          2
    61          0
    62          7
    63         10
    64         13
    65         55
    66          3
    67          0
    68          0
    71          0
    72          0
    73          3
    74          1
    75          2
    76          2
    77         14
    78          6
    79          1
    80          1
    81          0
    82          1
    86          0
    87          0
    88          0
    89         10
    90          6
    91        204
    92         67
    93          5
    94          0
    96          0
    97          0
    98          1
   101          2
   102          5
   103          7
   104          5
   105          2
   106          1
   107          1
   108          1
   109          0
   110          1
   114          1
   115          7
   116          2
   117          3
   118          2
   119          2
   120         16
   121          1
   126          2
   127         12
   128         84
   129         21
   130          2
   131          1
   132          6
   133          5
   134          5
   135          3
   136          1
   140          0
   141          0
   142          1
   143          4
   144          5
   145          1
   146          1
   147          0
   148          0
   154          0
   160          0
   162          0
   163          0
   164          2
   165          0
   168          1
   170          1
   171          0
   172          0
   173          0
   176          3
   177          2
   178          4
   179          2
   180          0
   183          0
   184          0
   185          1
   186          1
   187          0
   188          1
   189          0
   195          0
   196          0
   206          1
   207          8
   208          3
   209         10
   210          1
   211          0
   212         97
   213          3
   214        193
   215          7
   216         94
   217          3
   222          0
   224          1
   225          0
   226          0
   238          1
   240          1
   242          1
   250          0
   252          0
   256        122
   257          5
   258        245
   259         10
   260        112
   261          5
   262          0
   268         21
   269          2
   270         22
   271          3
   272          0
   279          0
   286          3
   287          5
   288          8
   289         12
   290          4
   291          6
   292          0
   304          0
   312         62
   313          6
   314        125
   315         11
   316         64
   317          5
   318          0
   324          3
   325          0
   326          4
   327          0
   332          0
   334          0
   345          0
   347          3
   348          0
   349          4
   350          0
   351          2
   352          0