##TITLE=Library Entry 27448
##JCAMP-DX=Revision 4.10 
##DATA TYPE=MASS SPECTRUM
##SAMPLE DESCRIPTION=Chemical Concepts
##NAMES=HP
##CAS NAME=1-Hexene, 1,1-dibromo-5-methyl-(3S)-[(t-butoxycarbonyl)amino]-
##MOLFORM=C12H21Br2NO2
##CAS REGISTRY NO=176962-20-2
##MP= -300
##BP= -300
##MW= 369
##$RETENTION INDEX=0
##$CONDENSED SPECTRUM=NO
##NPOINTS= 208
##XYDATA=(XY..XY) 1 
    25          1
    26          4
    27         52
    28         33
    29        179
    30         29
    31         14
    36          0
    37          0
    38          3
    39         44
    40          4
    41        281
    42         28
    43        114
    44         19
    45          2
    50          3
    51         14
    52          8
    53         10
    54         18
    55         31
    56         39
    57        999
    58         48
    59        132
    60          3
    61         10
    62         10
    63          1
    64          1
    65          4
    66          2
    67          9
    68          7
    69          7
    70          5
    71          0
    72          1
    73          4
    74         14
    75          0
    76          0
    77          9
    78          4
    79          8
    80          4
    81          2
    82          1
    83          2
    84          4
    85          1
    86         42
    87          2
    88          8
    89          1
    91          4
    92          2
    93         22
    94         12
    95          5
    96          1
    97          0
    98          1
   100          0
   101          1
   102          1
   104          1
   105          1
   106          2
   107          5
   108          4
   109          1
   110          6
   111         11
   112          2
   113          1
   114          2
   116          1
   117          3
   119          4
   120          2
   121          1
   122          0
   124          0
   128          6
   129          7
   130         39
   131          7
   132         10
   133         11
   134         13
   135          9
   136          4
   137          3
   139          0
   142          2
   143          3
   144          4
   145          3
   146          1
   147         17
   148          4
   149          1
   150          2
   154          4
   155          0
   156          0
   158          2
   159          0
   160          3
   161          0
   162          1
   165          1
   167          0
   168          2
   170          3
   172          2
   173         16
   174          3
   175         14
   176          7
   177          2
   178         22
   179          3
   180         18
   181          0
   184          0
   185          1
   186          5
   187          1
   188          0
   190          8
   191          1
   192          6
   193          1
   194          2
   197         10
   198          0
   199         22
   200          1
   201         12
   202          0
   204          1
   205          0
   209          0
   210          4
   211         11
   212         87
   213         28
   214        171
   215         16
   216         74
   217          2
   218          0
   223          0
   224          0
   225          0
   226          1
   228          2
   229          0
   230          0
   234        262
   235         21
   236        263
   237         20
   238          2
   239          2
   240          3
   241          0
   242          1
   252          1
   253         11
   254          3
   255         20
   256        252
   257         20
   258        489
   259         23
   260        222
   261         12
   262          2
   268          1
   269          2
   270          3
   271          2
   272          3
   273          0
   274          0
   286          0
   298          1
   300          2
   302          1
   310          1
   311          2
   312         28
   313         83
   314         67
   315        155
   316         44
   317         74
   318          9
   319          0
   329          0
   369          0
   371          0
   373          0