##TITLE=Library Entry 27215
##JCAMP-DX=Revision 4.10 
##DATA TYPE=MASS SPECTRUM
##SAMPLE DESCRIPTION=Chemical Concepts
##NAMES=HP
##CAS NAME=1-Butene, 1,1-dibromo-(3S)-3-[t-butoxycarbonyl)amino]-
##MOLFORM=C9H15Br2NO2
##CAS REGISTRY NO=176962-17-7
##MP= -300
##BP= -300
##MW= 327
##$RETENTION INDEX=0
##$CONDENSED SPECTRUM=NO
##NPOINTS= 171
##XYDATA=(XY..XY) 1 
    25          1
    26         11
    27         75
    28         60
    29        186
    30          5
    31         18
    36          0
    37          1
    38          5
    39         59
    40         12
    41        277
    42         76
    43         48
    44         58
    45          2
    46          0
    49          0
    50          7
    51         51
    52         24
    53         37
    54          8
    55         20
    56         50
    57        999
    58         41
    59        237
    60          7
    61          0
    62         10
    63          0
    64          0
    65          0
    66          4
    67         10
    68         18
    69         40
    70          7
    71          0
    72          0
    73          4
    74          2
    75          0
    77          0
    79          1
    80          1
    81          1
    82          2
    84          0
    86          0
    87          2
    88         54
    89          2
    90          0
    91          0
    93          1
    94          2
    95          1
    96          1
    97          0
    98          0
   100          0
   104          4
   105          5
   106          7
   107          7
   108          3
   109          2
   110          1
   112          4
   113          0
   114          0
   116          0
   117          2
   118          1
   119          3
   120          1
   121          2
   122          1
   123          0
   124          0
   129          0
   130          3
   131         33
   132         12
   133         31
   134         11
   135          1
   136          2
   144          0
   146          0
   147          2
   148         51
   149         29
   150         50
   151         26
   152          1
   157          0
   165          0
   166          0
   167          0
   169          0
   170          0
   171          0
   172          0
   173          1
   174          9
   175          0
   176         10
   177          1
   178          1
   183          1
   184          0
   185          2
   186          1
   187          1
   188          0
   189          0
   190          0
   192        471
   193         26
   194        464
   195         26
   196          2
   210          2
   211         52
   212         32
   213        102
   214         51
   215         51
   216         25
   217          1
   226          1
   227          0
   228          4
   229          1
   230          1
   231          0
   235          0
   237          0
   238          1
   240          3
   242          1
   244          0
   249          0
   251          0
   253          1
   255          0
   256         31
   257          1
   258         60
   259          2
   260         30
   261          1
   263          0
   269          6
   270          1
   271        105
   272         10
   273        184
   274         14
   275         88
   276          6
   277          0
   312          2
   314          3
   315          0
   316          1
   329          0