##TITLE=Library Entry 27450
##JCAMP-DX=Revision 4.10 
##DATA TYPE=MASS SPECTRUM
##SAMPLE DESCRIPTION=Chemical Concepts
##NAMES=HP
##CAS NAME=1-Pentene, 1,1-dibromo-4-methyl-(3S)-[(t-butoxycarbonyl)amino]-
##MOLFORM=C11H19Br2NO2
##CAS REGISTRY NO=176962-19-9
##MP= -300
##BP= -300
##MW= 355
##$RETENTION INDEX=0
##$CONDENSED SPECTRUM=NO
##NPOINTS= 195
##XYDATA=(XY..XY) 1 
    25          0
    26          3
    27         41
    28         37
    29        111
    30          5
    31         13
    37          0
    38          3
    39         35
    40          1
    41        183
    42         11
    43         25
    44          4
    45          1
    50          1
    51          5
    52          7
    53         10
    54         16
    55         29
    56         37
    57        999
    58         40
    59        176
    60          6
    61          0
    62          6
    63          1
    64          0
    65          7
    66          3
    67          0
    68          1
    69          2
    70          2
    71          0
    72         23
    73          6
    74          2
    76          0
    77          6
    78          2
    79         14
    80         17
    81         11
    82          1
    83          0
    84          0
    85          0
    86          0
    94          1
    95          2
    96          4
    97          5
    98          3
    99          0
   101          0
   102          1
   103          0
   104          2
   105          2
   106          1
   107          3
   108          2
   109          0
   110          1
   111          0
   114          0
   115          0
   116         13
   117          2
   118          0
   119          3
   121          1
   122          0
   125          0
   129          0
   130          1
   131          1
   132          7
   133          5
   134          9
   135          4
   136          1
   137          0
   139          0
   140          4
   141          3
   142          0
   143          0
   144          0
   145          0
   146          0
   147          0
   148          0
   149          0
   150          0
   153          0
   157          0
   158          0
   159          7
   160          7
   161          8
   162          5
   163          0
   167          0
   168          1
   170          1
   176          6
   177          3
   178         14
   179          3
   180          8
   183          0
   184          0
   185          0
   186          1
   187          1
   188          0
   189          0
   195          0
   197          5
   198          0
   199          9
   200          0
   201          4
   202          0
   204          0
   205          0
   206          0
   210          0
   211          0
   212         89
   213          5
   214        180
   215          7
   216         81
   217          8
   218          0
   219          7
   220         97
   221          4
   222         93
   223          4
   224          0
   226          0
   238          2
   239         12
   240          5
   241         23
   242          3
   243         11
   244          0
   255          0
   256        198
   257          3
   258        401
   259          5
   260        191
   261          2
   262          1
   268          0
   270          1
   272          0
   276          2
   277          0
   278          2
   279          0
   284          0
   286          1
   288          0
   297          0
   298          0
   299         51
   300          3
   301        103
   302          6
   303         49
   304          2
   312         42
   313          2
   314         84
   315          3
   316         40
   317          2
   318          0
   340          0
   342          0
   344          0
   355          0
   357          0
   358          0
   359          0