##TITLE=Library Entry 65826
##JCAMP-DX=Revision 4.10 
##DATA TYPE=MASS SPECTRUM
##SAMPLE DESCRIPTION=Chemical Concepts
##NAMES=HP
##CAS NAME=Bicyclo[3.1.0]hexan-2-ol, 2-methyl-5-(1-methylethyl)-, (1.alpha.,
2.alpha.,5.alpha.)-
##MOLFORM=C10H18O
##CAS REGISTRY NO=17699-16-0
##MP= -300
##BP= -300
##MW= 154
##$RETENTION INDEX=1070
##$CONDENSED SPECTRUM=NO
##NPOINTS= 74
##XYDATA=(XY..XY) 1 
    26          6
    27        116
    28         15
    33          9
    34          3
    38          6
    39        153
    40         21
    41        201
    42          7
    43        497
    44         12
    45         15
    50         22
    51         64
    52         16
    53        106
    54          6
    55        143
    57          9
    58         52
    59          3
    63         16
    65        100
    66          7
    67         87
    68         46
    69        145
    70         24
    71        308
    72          7
    77        345
    78         47
    79        275
    80         61
    81        185
    82          5
    83         47
    84         45
    85         10
    86         42
    89          1
    91        443
    92        208
    93        999
    94        165
    95         50
    96         22
    97         46
    98          7
   103          6
   105         72
   106         14
   107         97
   108         35
   109          3
   110          8
   111        179
   112         27
   113          4
   117          1
   119         22
   121        287
   122         33
   123          7
   125         21
   134          1
   135          6
   136        293
   137         26
   139         98
   141          2
   154         30
   155          2