##TITLE=Library Entry 57037
##JCAMP-DX=Revision 4.10 
##DATA TYPE=MASS SPECTRUM
##SAMPLE DESCRIPTION=NIST Mass Spectrometry Data Center
##NAMES=HP
##CAS NAME=4-Piperidinone ethyl ketal
##MOLFORM=C7H13NO2
##CAS REGISTRY NO=177-11-7
##MP= -300
##BP= -300
##MW= 143
##$RETENTION INDEX=0
##$CONDENSED SPECTRUM=NO
##NPOINTS= 79
##XYDATA=(XY..XY) 1 
    13          2
    14         18
    15        116
    16          4
    18         13
    19          9
    26         40
    27        198
    28        462
    29        260
    30        184
    31         20
    34          2
    35         17
    37          1
    38          5
    39         53
    40         24
    41        101
    42        689
    43        589
    44         49
    45         45
    46          1
    49          1
    50          8
    51         16
    52         16
    53         50
    54         42
    55        182
    56        562
    57        532
    58         38
    59          5
    60          1
    61          1
    65          2
    66          1
    67          9
    68         38
    69         19
    70         33
    71         87
    72         12
    73         18
    74         13
    78          1
    80         29
    81         11
    82        175
    83        114
    84         40
    85         38
    86        127
    87        999
    88         45
    89          4
    94          1
    95          1
    96          6
    98        513
    99        168
   100         27
   101          5
   108          1
   110          2
   112         83
   113         22
   114         18
   115          3
   116          1
   125         33
   126         11
   128          1
   142         39
   143        240
   144         22
   145          2