##TITLE=Library Entry 31030
##JCAMP-DX=Revision 4.10 
##DATA TYPE=MASS SPECTRUM
##SAMPLE DESCRIPTION=P. Vainiotalo, Dep. Chem., Univ. Joensuu, Joensuu, Finl
and
##NAMES=HP
##CAS NAME=1-Oxa-4-thiaspiro[4.5]decane
##MOLFORM=C8H14OS
##CAS REGISTRY NO=177-15-1
##MP= -300
##BP= -300
##MW= 158
##$RETENTION INDEX=0
##$CONDENSED SPECTRUM=NO
##NPOINTS= 72
##XYDATA=(XY..XY) 1 
    15         11
    26         25
    27        171
    29         51
    34         12
    35         16
    38          9
    39        144
    40         38
    41        281
    42        228
    43        110
    44         21
    45        180
    46         35
    47         21
    48         15
    50          8
    51         18
    52          8
    53         52
    54         57
    55        694
    56         83
    57         30
    58         62
    59        224
    60        999
    61        121
    62         48
    63          8
    64         19
    65         12
    66          6
    67         35
    68         24
    69        224
    70        202
    71         31
    73          8
    74         10
    77         16
    79         37
    80         86
    81        186
    82         16
    83         93
    84         13
    85          9
    87         11
    88          7
    89          9
    96         13
    97         61
    98        687
    99        235
   100         23
   102        132
   103         10
   104          8
   113          9
   115        894
   116         74
   117         49
   129         67
   130        148
   131         17
   132          8
   156          8
   158        477
   159         61
   160         32