##TITLE=Library Entry 72000
##JCAMP-DX=Revision 4.10 
##DATA TYPE=MASS SPECTRUM
##SAMPLE DESCRIPTION=Japan AIST/NIMC Database- Spectrum MS-NW-7541
##NAMES=HP
##CAS NAME=1,4-Dioxaspiro[4.5]decane
##MOLFORM=C8H14O2
##CAS REGISTRY NO=177-10-6
##MP= -300
##BP= -300
##MW= 142
##$RETENTION INDEX=0
##$CONDENSED SPECTRUM=NO
##NPOINTS= 67
##XYDATA=(XY..XY) 1 
    14          2
    15         17
    16          1
    17          1
    18          6
    19          2
    26         10
    27         81
    28         37
    29         29
    30          3
    31          4
    37          2
    38          5
    39         79
    40         15
    41        141
    42        131
    43         63
    44          5
    45         11
    50          4
    51          9
    52          6
    53         21
    54         22
    55        230
    56         18
    57          5
    58          1
    63          2
    65          4
    66          3
    67         27
    68          5
    69         19
    70         14
    71          7
    73          3
    77          5
    78          1
    79         11
    80          5
    81         20
    82          2
    83         10
    84         25
    85          2
    86        204
    87          9
    88          1
    90          1
    95          1
    97         19
    98         13
    99        999
   100         75
   101          7
   111         11
   112         16
   113        105
   114          8
   115          1
   127          1
   141          4
   142         76
   143          7