##TITLE=Library Entry 8576
##JCAMP-DX=Revision 4.10 
##DATA TYPE=MASS SPECTRUM
##SAMPLE DESCRIPTION=U.ANTHONI COPENHAGEN UNIVERSITY, DENMARK.
##NAMES=HP
##CAS NAME=Diethylamine, N-isothiocyanato-1,1'-dimethyl-
##MOLFORM=C7H14N2S
##CAS REGISTRY NO=17709-98-7
##MP= -300
##BP= -300
##MW= 158
##$RETENTION INDEX=0
##$CONDENSED SPECTRUM=NO
##NPOINTS= 18
##XYDATA=(XY..XY) 1 
    27        370
    28        130
    39        240
    41        550
    42        700
    43        999
    44        110
    58        100
    60         80
    69        980
    70        180
    74         70
    84        180
   101        720
   111         80
   126        150
   143        350
   158        280