##TITLE=Library Entry 28740
##JCAMP-DX=Revision 4.10 
##DATA TYPE=MASS SPECTRUM
##SAMPLE DESCRIPTION=Dr. Jiri Zamecnik, DCIEM, North York, Canada, GP Librar
y
##NAMES=HP
##CAS NAME=4-Benzyloxy-N-methylamphetamine
##MOLFORM=C17H21NO
##CAS REGISTRY NO=177079-66-2
##MP= -300
##BP= -300
##MW= 255
##$RETENTION INDEX=0
##$CONDENSED SPECTRUM=NO
##NPOINTS= 24
##XYDATA=(XY..XY) 1 
    39          4
    42         18
    43          7
    56         24
    58        999
    59         33
    65         24
    77          3
    78          4
    89          3
    91        148
    92          9
   106          1
   107          3
   120          1
   148          1
   149          1
   163          1
   197          0
   198         10
   199          1
   221          0
   240          1
   254          0