##TITLE=Library Entry 58182
##JCAMP-DX=Revision 4.10 
##DATA TYPE=MASS SPECTRUM
##SAMPLE DESCRIPTION=NIST Mass Spectrometry Data Center, 1994
##NAMES=HP
##CAS NAME=N,N-Dimethyl phenyl(thioacetamide)
##MOLFORM=C10H13NS
##CAS REGISTRY NO=17709-95-4
##MP= -300
##BP= -300
##MW= 179
##$RETENTION INDEX=0
##$CONDENSED SPECTRUM=NO
##NPOINTS= 120
##XYDATA=(XY..XY) 1 
    13          2
    15        217
    16          3
    17          2
    26          9
    27         37
    28         45
    29          1
    30         49
    32          4
    33          3
    34          3
    35          1
    37          7
    38         26
    39        132
    40         20
    41         36
    42        233
    43         23
    44        116
    45         80
    46         27
    47         49
    48          2
    49          5
    50         62
    51        122
    52         26
    53          8
    54         15
    55         42
    56         75
    57         10
    58         38
    59         24
    60          4
    61         25
    62         32
    63         93
    64         24
    65        159
    66         15
    67          7
    68          8
    69         31
    70        187
    71         15
    72         37
    73        112
    74         29
    75         23
    76         22
    77         68
    78         25
    79         10
    80          2
    82         26
    83          4
    84          4
    85          3
    86          7
    87          2
    88        999
    89        150
    90         91
    91        312
    92         27
    93         10
    94          3
    95          5
    96          1
    97          2
    98          1
   100          2
   101          3
   102         26
   103         20
   104          9
   105         25
   106         20
   107          3
   108         12
   109          7
   110          2
   114          2
   116        101
   117         21
   118          9
   119          4
   120          2
   121         37
   122         11
   123         16
   124          1
   128          2
   129          4
   130         27
   131        175
   132         26
   133          1
   134        107
   135         48
   136         10
   137          4
   144         51
   145         16
   146        162
   147         20
   148          6
   149          3
   161          1
   162          3
   163          3
   164          3
   176          3
   179        419
   180         52
   181         18
   182          2