##TITLE=Library Entry 23726
##JCAMP-DX=Revision 4.10 
##DATA TYPE=MASS SPECTRUM
##SAMPLE DESCRIPTION=NIST Mass Spectrometry Data Center, 1994
##NAMES=HP
##CAS NAME=Pentane, 2-isothiocyanato-2,4,4-trimethyl-
##MOLFORM=C9H17NS
##CAS REGISTRY NO=17701-76-7
##MP= -300
##BP= -300
##MW= 171
##$RETENTION INDEX=0
##$CONDENSED SPECTRUM=NO
##NPOINTS= 78
##XYDATA=(XY..XY) 1 
    12          0
    15         90
    16          1
    25          0
    27        167
    28         38
    29        233
    30          5
    32         16
    33          2
    34          1
    37          4
    39        270
    41        587
    42         37
    43        100
    44          8
    45          9
    46          1
    47          1
    48          0
    50          8
    51         17
    52         11
    53         42
    54          0
    55        174
    56          0
    57        999
    58         88
    59        117
    60         23
    61          5
    62          2
    63          2
    64          1
    65          8
    66          5
    67         12
    68          8
    69         25
    70          8
    71         19
    72         65
    73          3
    74          6
    75          0
    76          0
    77          5
    78          2
    79          8
    80          2
    81          5
    82          2
    83         12
    84         13
    85          3
    86          6
    87          0
    91          1
    92          1
    93          0
    95          1
    97         37
    98          6
   100        421
   101         24
   102         18
   103          0
   108          0
   113        177
   114         17
   115          4
   116          1
   156          2
   171         27
   172          3
   173          1