##TITLE=Library Entry 61521
##JCAMP-DX=Revision 4.10 
##DATA TYPE=MASS SPECTRUM
##SAMPLE DESCRIPTION=L.A. SUMMERS, DEP. CHEM., UNIV. NEWCASTLE, N.S.W., AUST
.
##NAMES=HP
##CAS NAME=3-Methyl-4-(N,2-dimethylphenylhydrazono)isoxazol-5-one
##MOLFORM=C12H13N3O2
##CAS REGISTRY NO=17703-22-9
##MP= -300
##BP= -300
##MW= 231
##$RETENTION INDEX=0
##$CONDENSED SPECTRUM=NO
##NPOINTS= 20
##XYDATA=(XY..XY) 1 
    63        110
    65        470
    77        300
    78        240
    89         60
    91        999
    92        150
   104        150
   105        160
   106        110
   117         80
   118        960
   119        670
   120        770
   121        130
   131         90
   145         60
   146         50
   173         80
   231        260