##TITLE=Library Entry 49659
##JCAMP-DX=Revision 4.10 
##DATA TYPE=MASS SPECTRUM
##SAMPLE DESCRIPTION=John Halket,Royal Holloway, University of London, UK
##NAMES=HP
##CAS NAME=Desmethylcotinine
##MOLFORM=C9H10N2O
##CAS REGISTRY NO=17708-87-1
##MP= -300
##BP= -300
##MW= 162
##$RETENTION INDEX=1807
##$CONDENSED SPECTRUM=NO
##NPOINTS= 73
##XYDATA=(XY..XY) 1 
    15         10
    26         77
    27        162
    28        516
    29         55
    30         27
    37         22
    38         64
    39        178
    40         38
    41        180
    42         43
    43         26
    44         23
    45          7
    49         23
    50        201
    51        418
    52        272
    53         96
    54         87
    55        131
    56        154
    57         24
    58         11
    61         15
    62         42
    63        125
    64         58
    65        124
    66         46
    67         19
    74         14
    75         33
    76         59
    77         76
    78        320
    79        480
    80        999
    81         58
    82          7
    84        467
    85         25
    87          5
    89         44
    90         37
    91        168
    92         89
    93         70
    94          8
   103          7
   104         78
   105        366
   106        303
   107        791
   108         56
   116         34
   117        148
   118        492
   119        101
   120         19
   121          5
   131         18
   132         16
   133        145
   134        930
   135         79
   136          4
   145         29
   146          4
   161        208
   162        313
   163         33