##TITLE=Library Entry 16762
##JCAMP-DX=Revision 4.10 
##DATA TYPE=MASS SPECTRUM
##SAMPLE DESCRIPTION=NIST Mass Spectrometry Data Center, 1994
##NAMES=HP
##CAS NAME=3-Methoxypropyl isothiocyanate
##MOLFORM=C5H9NOS
##CAS REGISTRY NO=17702-11-3
##MP= -300
##BP= -300
##MW= 131
##$RETENTION INDEX=0
##$CONDENSED SPECTRUM=NO
##NPOINTS= 65
##XYDATA=(XY..XY) 1 
     4          2
    13          3
    14         14
    15        126
    16          2
    17          2
    18          1
    26         38
    27        155
    28        121
    29        264
    30         24
    31         52
    32         28
    33         12
    34          4
    37          8
    38         24
    39        155
    40         49
    41        509
    42        111
    43         72
    44          4
    45        999
    46         40
    47         10
    51          4
    52          7
    53          3
    54         16
    55          9
    56          9
    57         64
    58         47
    59         72
    60         54
    61          4
    62         12
    64          1
    66          2
    67         20
    68         18
    69          1
    70         38
    71        137
    72        465
    73         58
    74         28
    75          4
    83          2
    84          8
    85          9
    86         24
    87          3
    88          1
    98         51
    99        355
   100        101
   101        424
   102         31
   103         21
   131         75
   132          6
   133          3