##TITLE=Library Entry 86914
##JCAMP-DX=Revision 4.10 
##DATA TYPE=MASS SPECTRUM
##SAMPLE DESCRIPTION=NIST Mass Spectrometry Data Center, 1994
##NAMES=HP
##CAS NAME=Ethanol, 2-(di-2-propenylamino)-
##MOLFORM=C8H15NO
##CAS REGISTRY NO=17719-79-8
##MP= -300
##BP= -300
##MW= 141
##$RETENTION INDEX=0
##$CONDENSED SPECTRUM=NO
##NPOINTS= 61
##XYDATA=(XY..XY) 1 
     4          0
    14          2
    15         24
    18          3
    19          8
    26          9
    27         53
    28         66
    29         35
    30         44
    31         40
    32          2
    37          3
    39        205
    41        728
    42        231
    43         41
    44         32
    45         48
    51          3
    52          4
    53         25
    54         33
    55         65
    56         40
    57          4
    58         27
    65          6
    66          4
    67         20
    68        136
    69         22
    70         67
    71          4
    72          6
    74          3
    77          4
    79         76
    80         18
    81         98
    82         23
    83          2
    84          6
    91          1
    93          2
    94          7
    95          4
    96          3
    97          1
    98          4
    99          1
   100          7
   108          9
   110        999
   111         81
   112         20
   113          1
   114         32
   115          2
   141         30
   142          3