##TITLE=Library Entry 5037
##JCAMP-DX=Revision 4.10 
##DATA TYPE=MASS SPECTRUM
##SAMPLE DESCRIPTION=Japan AIST/NIMC Database- Spectrum MS-NW-5667
##NAMES=HP
##CAS NAME=Oxazole, 4,5-dihydro-2,4,4-trimethyl-
##MOLFORM=C6H11NO
##CAS REGISTRY NO=1772-43-6
##MP= -300
##BP= -300
##MW= 113
##$RETENTION INDEX=0
##$CONDENSED SPECTRUM=NO
##NPOINTS= 54
##XYDATA=(XY..XY) 1 
    14          7
    15         70
    16          1
    18          1
    25          1
    26         15
    27         69
    28         20
    29         61
    30          9
    31          4
    32          3
    37          5
    38         12
    39         82
    40         34
    41        125
    42        999
    43         98
    44          4
    45          1
    49          6
    50          2
    51          3
    52          6
    53          5
    54          8
    55         13
    56         23
    57        138
    58          9
    60          2
    64          1
    65          1
    66          5
    67          3
    68         11
    69          3
    70         95
    71         10
    72          8
    73          1
    74          1
    82         14
    83        321
    84         21
    85          1
    97          3
    98        669
    99         42
   100          5
   112          1
   113         72
   114          7