##TITLE=Library Entry 85990
##JCAMP-DX=Revision 4.10 
##DATA TYPE=MASS SPECTRUM
##SAMPLE DESCRIPTION=Chemical Concepts
##NAMES=HP
##CAS NAME=5,5,10,10-Tetrachlorotricyclo[7.1.0.0(4,6)]decane
##MOLFORM=C10H12Cl4
##CAS REGISTRY NO=17725-81-4
##MP= -300
##BP= -300
##MW= 272
##$RETENTION INDEX=0
##$CONDENSED SPECTRUM=NO
##NPOINTS= 193
##XYDATA=(XY..XY) 1 
    26         26
    27        296
    28         40
    29         38
    35          7
    36         22
    37         15
    38         57
    39        656
    40         72
    41        325
    42         17
    43          7
    44          3
    47         14
    48          3
    49        104
    50        110
    51        462
    52         98
    53        210
    54        181
    55         40
    56          4
    57          4
    60         11
    61         64
    62         59
    63        158
    64         84
    65        670
    66         89
    67        213
    68         24
    69         12
    70          3
    72          9
    73        181
    74         38
    75        256
    76         27
    77        612
    78        101
    79        383
    80         79
    81         39
    82         15
    83        102
    84         14
    85        109
    86         34
    87        312
    88         64
    89        138
    90         27
    91        904
    92         97
    93        120
    94         11
    95          3
    96         17
    97         13
    98         15
    99        159
   100         67
   101        368
   102         69
   103        136
   104         20
   105         73
   106         15
   107         22
   108          5
   109        999
   110         36
   111        735
   112         47
   113        335
   114         75
   115        184
   116         43
   117        140
   118         20
   119         27
   120          5
   121         13
   122        310
   123         78
   124        196
   125        177
   126         53
   127        530
   128         89
   129        315
   130         63
   131         19
   133          9
   134          5
   135         83
   136         52
   137         71
   138         40
   139         70
   140         18
   141         75
   142         14
   143         21
   144          4
   145          8
   146          8
   147         87
   148         41
   149        143
   150         37
   151         73
   152         16
   153        132
   154         17
   155         52
   156         16
   157          6
   158         13
   159         67
   160         17
   161        135
   162         42
   163        133
   164         30
   165        270
   166         36
   167         83
   168         11
   169          6
   170          5
   171          8
   172          8
   173         31
   174         15
   175         55
   176         18
   177         28
   178          8
   179          5
   181          3
   182          4
   183          7
   184          7
   185          6
   186          4
   187         11
   188          3
   189        202
   190         21
   191        126
   192         13
   193         21
   194          4
   195         37
   196          7
   197         36
   198          6
   199         14
   200          9
   201        189
   202         27
   203        122
   204         15
   205         21
   206          2
   208          4
   209         12
   210          7
   211         12
   212          5
   213          4
   223          3
   225          2
   231         12
   232          2
   233         15
   234          2
   235          7
   236          5
   237         73
   238         13
   239         70
   240          9
   241         23
   242          3
   243          3
   272          5
   274          7
   276          3