##TITLE=Library Entry 3334
##JCAMP-DX=Revision 4.10 
##DATA TYPE=MASS SPECTRUM
##SAMPLE DESCRIPTION=W.T.RAINEY OAK RIDGE NATIONAL LABORATORY,OAK RIDGE,TN.U
SA
##NAMES=HP
##CAS NAME=Piperidine, 2,6-dimethyl-1-nitroso-
##MOLFORM=C7H14N2O
##CAS REGISTRY NO=17721-95-8
##MP= -300
##BP= -300
##MW= 142
##$RETENTION INDEX=0
##$CONDENSED SPECTRUM=NO
##NPOINTS= 33
##XYDATA=(XY..XY) 1 
    30        155
    39        389
    40         97
    41        999
    42        831
    43        168
    44        597
    53         90
    54        181
    55        649
    56        454
    58        168
    67         81
    68        149
    69        896
    70        558
    71         54
    81         61
    82         83
    83        155
    84         62
    96        129
    97        505
    98        114
   111         77
   112        176
   113         29
   125        155
   126         15
   127         74
   128         11
   142        779
   143         67