##TITLE=Library Entry 83557
##JCAMP-DX=Revision 4.10 
##DATA TYPE=MASS SPECTRUM
##SAMPLE DESCRIPTION=NIST Mass Spectrometry Data Center, 2012
##NAMES=HP
##CAS NAME=Picolinamidoxime
##MOLFORM=C6H7N3O
##CAS REGISTRY NO=1772-01-6
##MP= -300
##BP= -300
##MW= 137
##$RETENTION INDEX=0
##$CONDENSED SPECTRUM=NO
##NPOINTS= 68
##XYDATA=(XY..XY) 1 
    25          1
    26         18
    27         34
    29          4
    30         11
    31          4
    33          1
    36          1
    37         14
    38         28
    39         41
    40         13
    41         11
    42         18
    43         22
    44          9
    48          2
    49         17
    50        107
    51        274
    52        270
    53        244
    54         15
    55          2
    58          1
    59          5
    60          1
    61          3
    62          6
    63         13
    64         17
    65         11
    66         11
    67          6
    68          2
    69          1
    74          2
    75         22
    76         42
    77         29
    78        345
    79        208
    80        344
    81         20
    82          1
    88          1
    89          1
    90          5
    91          3
    92          5
    93          2
    94          1
   101          1
   103          3
   104         18
   105        272
   106         44
   107        999
   108         72
   109          3
   119          3
   120          7
   121          8
   122          1
   136          1
   137        339
   138         26
   139          2