##TITLE=Library Entry 6523
##JCAMP-DX=Revision 4.10 
##DATA TYPE=MASS SPECTRUM
##SAMPLE DESCRIPTION=NIST Mass Spectrometry Data Center, 2010
##NAMES=HP
##CAS NAME=N,N,O-Triacetylhydroxylamine
##MOLFORM=C6H9NO4
##CAS REGISTRY NO=17720-63-7
##MP= -300
##BP= -300
##MW= 159
##$RETENTION INDEX=0
##$CONDENSED SPECTRUM=NO
##NPOINTS= 28
##XYDATA=(XY..XY) 1 
    14          3
    15         22
    26          1
    27          2
    28          5
    29          3
    30          2
    31          1
    38          1
    39          1
    40          3
    41          6
    42         25
    43        999
    44         25
    45          3
    56          1
    57          1
    58          2
    60          1
    61          1
    70          2
    75          9
    76          2
    85          1
   117         20
   118          2
   159          5