##TITLE=Library Entry 48789
##JCAMP-DX=Revision 4.10 
##DATA TYPE=MASS SPECTRUM
##SAMPLE DESCRIPTION=D.HENNEBERG, MAX-PLANCK INSTITUTE, MULHEIM, WEST GERMAN
Y
##NAMES=HP
##CAS NAME=Cyclopropane, 1,1-dichloro-2-propenyl-
##MOLFORM=C6H8Cl2
##CAS REGISTRY NO=17725-76-7
##MP= -300
##BP= -300
##MW= 150
##$RETENTION INDEX=0
##$CONDENSED SPECTRUM=NO
##NPOINTS= 87
##XYDATA=(XY..XY) 1 
    26         56
    27        235
    28         39
    29         34
    35          3
    36         14
    37          4
    38         23
    39        354
    40         44
    41        116
    42         10
    43          4
    44          3
    47          4
    49         20
    50         34
    51        173
    52         89
    53        208
    54         47
    55         21
    56          2
    60          3
    61         27
    62         11
    63         40
    64          5
    65         52
    66         16
    67         33
    68         11
    69          1
    72          2
    73         46
    74          6
    75        102
    76          7
    77        543
    78         83
    79        999
    80         95
    81          4
    82          4
    83         13
    84          4
    85         15
    86          6
    87         60
    88          8
    89         22
    90          3
    91          3
    96         14
    97          2
    98         10
    99        146
   100         41
   101         54
   102         14
   103          1
   109         32
   110          2
   111         22
   112          3
   113         14
   114         17
   115        431
   116         37
   117        125
   118         10
   121          1
   122         26
   123          3
   124         17
   126          3
   135         58
   136          4
   137         33
   138          2
   139          4
   149          2
   150         76
   151          4
   152         45
   153          3
   154          9