##TITLE=Library Entry 20259
##JCAMP-DX=Revision 4.10 
##DATA TYPE=MASS SPECTRUM
##SAMPLE DESCRIPTION=NIST Mass Spectrometry Data Center
##NAMES=HP
##CAS NAME=cis-13-Eicosenoic acid
##MOLFORM=C20H38O2
##CAS REGISTRY NO=17735-94-3
##MP= -300
##BP= -300
##MW= 310
##$RETENTION INDEX=2366
##$CONDENSED SPECTRUM=NO
##NPOINTS= 237
##XYDATA=(XY..XY) 1 
    26          1
    27         31
    28          7
    29         77
    30          3
    31          3
    39         59
    40         13
    41        408
    42         88
    43        312
    44         10
    45         45
    46          1
    47          1
    50          1
    51          6
    52          5
    53         67
    54        191
    55        999
    56        279
    57        273
    58         16
    59         30
    60        184
    61         16
    62          1
    63          1
    65         27
    66         21
    67        279
    68        154
    69        669
    70        248
    71        126
    72          8
    73        122
    74         12
    75          5
    76          1
    77         27
    78         10
    79         84
    80         43
    81        218
    82        201
    83        552
    84        274
    85         91
    86          9
    87         43
    88          5
    89          1
    90          1
    91         39
    92         10
    93         45
    94         39
    95        173
    96        241
    97        505
    98        243
    99         47
   100         34
   101         56
   102          8
   103          3
   104          4
   105         22
   106         10
   107         32
   108         32
   109        105
   110        148
   111        249
   112         99
   113         37
   114         71
   115         43
   116         13
   117         10
   118          5
   119         30
   120         11
   121         38
   122         23
   123         96
   124         94
   125        126
   126         53
   127         62
   128         18
   129         46
   130          8
   131          8
   132          3
   133         29
   134         26
   135         37
   136         18
   137         66
   138         68
   139         60
   140         28
   141         17
   142          6
   143         15
   144          4
   145          4
   146          2
   147         23
   148         23
   149         25
   150         13
   151         49
   152         47
   153         36
   154         18
   155         12
   156          4
   157         10
   158          4
   159          3
   160          1
   161         16
   162          9
   163         13
   164          9
   165         33
   166         25
   167         19
   168         10
   169          9
   170          2
   171          8
   172          3
   173          2
   174          1
   175         12
   176          4
   177          8
   178          6
   179         23
   180         17
   181         12
   182          7
   183          6
   184          2
   185          7
   186          2
   187          2
   189          8
   190          3
   191          4
   192          5
   193         16
   194         17
   195          8
   196          4
   197          5
   198          1
   199          2
   200          2
   201          1
   202          1
   203          4
   204          2
   205          3
   206          3
   207         16
   208         25
   209          8
   210          4
   211          4
   212          1
   213          3
   214          3
   215          1
   217          3
   218          1
   219          2
   220          2
   221         16
   222         14
   223          5
   224          2
   225          2
   226          1
   227          3
   228          2
   229          1
   231          1
   232          1
   233          1
   234          1
   235         18
   236         12
   237          4
   238          1
   239          1
   240          1
   241          2
   242          1
   243          1
   245          1
   246          1
   247          1
   248         16
   249         21
   250         22
   251          5
   252          1
   253          1
   255          1
   263         14
   264          8
   265          2
   267          2
   268          1
   269          1
   273          1
   274          5
   275          2
   277          2
   278          1
   282          1
   283          1
   292         97
   293         26
   294          4
   302          1
   304          1
   308          1
   310         13
   311          3
   312          1