##TITLE=Library Entry 1397
##JCAMP-DX=Revision 4.10 
##DATA TYPE=MASS SPECTRUM
##SAMPLE DESCRIPTION=ORMSBG,10(8)595(1975); H. SCHWARZ
##NAMES=HP
##CAS NAME=Benzenehexanamine
##MOLFORM=C12H19N
##CAS REGISTRY NO=17734-20-2
##MP= -300
##BP= -300
##MW= 177
##$RETENTION INDEX=0
##$CONDENSED SPECTRUM=NO
##NPOINTS= 7
##XYDATA=(XY..XY) 1 
    30        999
    86         20
    91        110
    92         40
   104         30
   160         20
   177        140