##TITLE=Library Entry 1244
##JCAMP-DX=Revision 4.10 
##DATA TYPE=MASS SPECTRUM
##SAMPLE DESCRIPTION=Exported from NIST MS Search
##NAMES=HP
##CAS NAME=Benzenepentanamine
##MOLFORM=C11H17N
##CAS REGISTRY NO=17734-21-3
##MP= -300
##BP= -300
##MW= 163
##$RETENTION INDEX=0
##$CONDENSED SPECTRUM=NO
##NPOINTS= 10
##XYDATA=(XY..XY) 1 
    30        999
    45         80
    59        100
    65         60
    72         50
    77         50
    91        200
   104         90
   117         60
   163        200