##TITLE=Library Entry 21510
##JCAMP-DX=Revision 4.10 
##DATA TYPE=MASS SPECTRUM
##SAMPLE DESCRIPTION=CARL DJERASSI DEPT OF CHEM STANFORD UNIV STANFORD CALIF
 94305
##NAMES=HP
##CAS NAME=Ethanone, 1-(2-hydroxyphenyl)-, (2,4-dinitrophenyl)hydrazone
##MOLFORM=C14H12N4O5
##CAS REGISTRY NO=17744-50-2
##MP= -300
##BP= -300
##MW= 316
##$RETENTION INDEX=0
##$CONDENSED SPECTRUM=NO
##NPOINTS= 68
##XYDATA=(XY..XY) 1 
    39        380
    41         80
    42        650
    43        270
    51        200
    52        120
    55        999
    62        220
    63        700
    64        470
    65        370
    75        330
    77        390
    78        280
    79        210
    88        210
    89        200
    90        550
    91        370
    92        220
   101         90
   102         90
   104        110
   105        250
   106        120
   119        440
   120        360
   121        260
   133        270
   134        800
   135        320
   137        300
   151         50
   152        140
   153         80
   154         60
   165        180
   166         70
   179         30
   180         90
   181        110
   182         80
   193         30
   194         90
   195         60
   196         60
   206         20
   207         50
   208         50
   221         30
   223         50
   224         40
   225         40
   235         20
   240         20
   241         20
   253         20
   254         20
   255         10
   269         60
   270         20
   280         70
   299        320
   300         60
   315         80
   316        420
   317        300
   318         30