##TITLE=Library Entry 70955
##JCAMP-DX=Revision 4.10 
##DATA TYPE=MASS SPECTRUM
##SAMPLE DESCRIPTION=Japan AIST/NIMC Database- Spectrum MS-NW-5149
##NAMES=HP
##CAS NAME=Undecanoyl chloride
##MOLFORM=C11H21ClO
##CAS REGISTRY NO=17746-05-3
##MP= -300
##BP= -300
##MW= 204
##$RETENTION INDEX=0
##$CONDENSED SPECTRUM=NO
##NPOINTS= 126
##XYDATA=(XY..XY) 1 
    14          1
    15          9
    17          3
    18          9
    26         15
    27        342
    28         40
    29        353
    30          9
    31          1
    32          1
    35         21
    36        121
    37          9
    38         40
    39        244
    40         45
    41        784
    42        216
    43        666
    44         23
    45          6
    49          4
    50          7
    51         18
    52          8
    53         70
    54        140
    55        832
    56        232
    57        299
    58         17
    59          4
    60         41
    61          8
    62          2
    63         12
    64          1
    65         11
    66         11
    67        119
    68        124
    69        292
    70        214
    71        125
    72          9
    73         43
    74          7
    75          2
    77         12
    78         31
    79         44
    80         26
    81         89
    82        108
    83        273
    84        561
    85         86
    86         11
    87          8
    88          2
    89          1
    91         26
    92          3
    93         31
    94         25
    95         78
    96         60
    97        243
    98        999
    99         74
   100          9
   101          6
   102         15
   103          2
   104          7
   105          8
   106          2
   107         19
   108          9
   109         18
   110          7
   111        143
   112        187
   113         20
   114          2
   115          4
   116         13
   117          1
   118          6
   119          4
   120          1
   121         28
   122          9
   123          4
   124        114
   125         46
   126         21
   127          5
   128          1
   129         12
   130          2
   133          3
   135          4
   136          1
   137          3
   138          2
   139         13
   140          5
   141          1
   143         10
   144          2
   147          2
   149          4
   150         15
   151          9
   152          1
   153          1
   155          1
   157          3
   167          2
   168          9
   169        124
   170         15
   186          6
   188          2