##TITLE=Library Entry 99757
##JCAMP-DX=Revision 4.10 
##DATA TYPE=MASS SPECTRUM
##SAMPLE DESCRIPTION=NIST Mass Spectrometry Data Center, 1998.
##NAMES=HP
##CAS NAME=o-Anisaldehyde, azine
##MOLFORM=C16H16N2O2
##CAS REGISTRY NO=17745-81-2
##MP= -300
##BP= -300
##MW= 268
##$RETENTION INDEX=0
##$CONDENSED SPECTRUM=NO
##NPOINTS= 162
##XYDATA=(XY..XY) 1 
    15          4
    26          2
    27         12
    28         12
    29          4
    30          4
    31          2
    32         63
    37          5
    38         21
    39         66
    40          7
    41         10
    42         13
    43          4
    45          1
    49          2
    50         66
    51        253
    52         36
    53         24
    54          3
    55          5
    61          4
    62         25
    63        133
    64        154
    65        109
    66         16
    67          3
    68          1
    73          2
    74         14
    75         30
    76         58
    77        450
    78        104
    79         61
    80          8
    81          3
    82          1
    83          1
    86          2
    87          2
    88          4
    89        119
    90         89
    91        880
    92        255
    93         36
    94         16
    95          2
    96          1
    97          3
    99          1
   101          3
   102         40
   103         61
   104        140
   105         67
   106         49
   107        141
   108         21
   109          5
   111          2
   113          1
   115          9
   116         39
   117         19
   118         80
   119        999
   120        104
   121         39
   122          8
   123         10
   124          1
   126          2
   127          3
   128          4
   129         18
   130          4
   131        264
   132         70
   133         68
   134        157
   135         26
   136         40
   137          3
   139          6
   140          3
   141          3
   142          1
   144          1
   145          3
   146         24
   147          6
   148          4
   149         56
   150        235
   151         26
   152         13
   153          6
   154          5
   155          4
   156          1
   159          2
   160         12
   161        147
   162         15
   163          3
   164          3
   165         21
   166         13
   167         17
   168         10
   169          3
   176          3
   177          4
   178          9
   179          6
   180          5
   181         15
   182          5
   183          4
   184          2
   191          1
   192          4
   193         14
   194         23
   195          9
   196          4
   197          3
   198          1
   205          9
   206         21
   207          6
   208          4
   209          6
   210         11
   211          4
   212          1
   220          2
   221         23
   222         18
   223         13
   224          5
   225          3
   226          2
   235          2
   236          4
   237        598
   238        114
   239         12
   240          5
   251          8
   252         12
   253         69
   254         11
   267         81
   268        113
   269         19
   270          3