##TITLE=Library Entry 30772
##JCAMP-DX=Revision 4.10 
##DATA TYPE=MASS SPECTRUM
##SAMPLE DESCRIPTION=R RYHAGE MS-LAB KAROLINSKA INSTITUTET STOCKHOLM SWEDEN
##NAMES=HP
##CAS NAME=2,4,6,8-Tetrathiatricyclo[3.3.1.1(3,7)]decane, 1,3,5,7,9-pentamet
hyl-
##MOLFORM=C11H18S4
##CAS REGISTRY NO=17749-59-6
##MP= -300
##BP= -300
##MW= 278
##$RETENTION INDEX=0
##$CONDENSED SPECTRUM=NO
##NPOINTS= 93
##XYDATA=(XY..XY) 1 
    18         13
    27         24
    28         21
    29         22
    39         44
    40          7
    41         55
    45         47
    47         17
    53         43
    55         36
    58         28
    59        999
    60         30
    61         49
    65         21
    66          8
    67         21
    71         15
    73         17
    75          7
    77         13
    79         15
    81         12
    85         25
    87        122
    88         16
    89         13
    91          9
    97         25
    98         28
    99        101
   100         18
   101         19
   111         18
   112         11
   113         90
   114         12
   115         33
   116          5
   117        147
   118         10
   119         25
   121         14
   122         10
   125         63
   126        235
   127        379
   128         38
   129         30
   130         12
   131        600
   132         55
   133        107
   134          9
   135          8
   139         84
   140        101
   141         92
   142         12
   143          8
   145        128
   146         25
   147         27
   150         18
   153        122
   154         17
   155         12
   157         30
   158         36
   159        167
   160         19
   161         15
   171         24
   172          8
   173         35
   185          8
   187         11
   191        133
   192         13
   193         17
   205         32
   213        103
   214         17
   215         10
   245        188
   246         28
   247         28
   278        980
   279        149
   280        185
   281         27
   282         13