##TITLE=Library Entry 67825
##JCAMP-DX=Revision 4.10 
##DATA TYPE=MASS SPECTRUM
##SAMPLE DESCRIPTION=NIST Mass Spectrometry Data Center
##NAMES=HP
##CAS NAME=3-Hydroxypyridine monoacetate
##MOLFORM=C7H7NO2
##CAS REGISTRY NO=17747-43-2
##MP= -300
##BP= -300
##MW= 137
##$RETENTION INDEX=1127
##$CONDENSED SPECTRUM=NO
##NPOINTS= 56
##XYDATA=(XY..XY) 1 
    14          4
    15         15
    25          1
    26          5
    27          4
    28         11
    29          4
    32          1
    36          2
    37         28
    38         74
    39        215
    40         63
    41         50
    42         31
    43        493
    44         12
    45          2
    48          1
    49          9
    50         41
    51         49
    52         12
    53          7
    54          3
    55         16
    56          1
    61          1
    62          1
    63          4
    64          9
    65          7
    66         77
    67        171
    68         70
    69          5
    74          1
    75          5
    76          5
    77          3
    78         18
    79          2
    80          5
    81          2
    82          1
    93          2
    94         25
    95        999
    96         98
    97          6
   108          2
   109        115
   110          8
   137        249
   138         24
   139          2