##TITLE=Library Entry 47670
##JCAMP-DX=Revision 4.10 
##DATA TYPE=MASS SPECTRUM
##SAMPLE DESCRIPTION=P. BRUCK, MAGYAR TUDOMANYOS AKADEMIA, HUNGARY
##NAMES=HP
##CAS NAME=2-Propen-1-one, 3-(4-bromophenyl)-1-phenyl-
##MOLFORM=C15H11BrO
##CAS REGISTRY NO=1774-66-9
##MP= -300
##BP= -300
##MW= 286
##$RETENTION INDEX=0
##$CONDENSED SPECTRUM=NO
##NPOINTS= 52
##XYDATA=(XY..XY) 1 
    50        180
    51        450
    52         70
    62         27
    63         70
    74         80
    75        250
    76        350
    77        999
    78         80
    88         50
    89        270
    90         46
    91         15
   101        180
   102        900
   103        110
   104         30
   105        900
   106         65
   130        360
   131         75
   176         45
   177         55
   178        380
   179        450
   180         85
   181        130
   183        130
   207        999
   208        180
   209        400
   210         45
   211        380
   212         40
   237         13
   238         14
   239         10
   241         13
   242         14
   243         13
   244         11
   245         11
   258         47
   260         45
   261         15
   271         15
   285        450
   286        999
   287        600
   288        990
   289        160