##TITLE=Library Entry 16981
##JCAMP-DX=Revision 4.10 
##DATA TYPE=MASS SPECTRUM
##SAMPLE DESCRIPTION=V.A.Korolev, Moscow, Russia
##NAMES=HP
##CAS NAME=3,5-Dibromo-4-oxopentanoic acid
##MOLFORM=C5H6Br2O3
##CAS REGISTRY NO=1775-46-8
##MP= -300
##BP= -300
##MW= 272
##$RETENTION INDEX=0
##$CONDENSED SPECTRUM=NO
##NPOINTS= 119
##XYDATA=(XY..XY) 1 
    36         16
    37         59
    38         93
    39        311
    40         63
    41        249
    42        529
    43        457
    44         96
    45        999
    46          9
    47          1
    48          2
    49         17
    50         53
    51         46
    52         18
    53         81
    54         52
    55        673
    56         25
    57          8
    60          1
    62          1
    64          1
    66          1
    68         12
    69         39
    71        461
    72         47
    73         68
    74          1
    79         93
    80         91
    81        102
    82         99
    83          1
    85          5
    87          1
    91         12
    92         25
    93        280
    94         39
    95        261
    96          7
    97          3
    99        145
   100         32
   101         26
   104          2
   105         28
   106        385
   107        103
   108        357
   109         79
   111          7
   113          2
   114          1
   115          1
   119          8
   120         32
   121        416
   122         41
   123        435
   124          8
   125         15
   128          1
   131          1
   133         17
   134         85
   135         21
   136         87
   137          2
   141          1
   146          2
   147          2
   148          1
   149         25
   150          2
   151         38
   152          9
   153         16
   154          4
   155          1
   161          1
   163          2
   165        331
   166         20
   167        322
   168         12
   173          2
   175         22
   177         20
   179        166
   180          7
   181        175
   182          6
   191          1
   192          2
   193        121
   194          7
   195        113
   196          3
   200          1
   209          1
   213          7
   214          1
   215         15
   216          2
   217          7
   227         18
   229         37
   231         18
   272         48
   273          5
   274         98
   275         10
   276         48
   277          5