##TITLE=Library Entry 1250
##JCAMP-DX=Revision 4.10 
##DATA TYPE=MASS SPECTRUM
##SAMPLE DESCRIPTION=MASS SPECTROMETRY CENTER, UNIV. OF UTAH EPA-PTSEL 1170
##NAMES=HP
##CAS NAME=Acetamide, 2-chloro-N-(2-cyanoethyl)-
##MOLFORM=C5H7ClN2O
##CAS REGISTRY NO=17756-81-9
##MP= -300
##BP= -300
##MW= 146
##$RETENTION INDEX=0
##$CONDENSED SPECTRUM=NO
##NPOINTS= 41
##XYDATA=(XY..XY) 1 
    15         32
    17         10
    18         39
    26         32
    27        104
    28         39
    29         22
    30        999
    31          9
    36         42
    38         20
    39         19
    40         52
    41         56
    42        160
    43         90
    44        106
    48          4
    49        200
    51         75
    52         31
    53          3
    54        387
    55         71
    56         83
    66          3
    69         42
    70         23
    76         16
    77        110
    79         34
    88          4
    97        726
    98         40
   106        186
   108         57
   111        292
   112         16
   119          9
   146         14
   148          3