##TITLE=Library Entry 22776
##JCAMP-DX=Revision 4.10 
##DATA TYPE=MASS SPECTRUM
##SAMPLE DESCRIPTION=Exported from NIST MS Search
##NAMES=HP
##CAS NAME=4(3H)-Pyrimidinone, 2,3-dimethyl-
##MOLFORM=C6H8N2O
##CAS REGISTRY NO=17758-38-2
##MP= -300
##BP= -300
##MW= 124
##$RETENTION INDEX=0
##$CONDENSED SPECTRUM=NO
##NPOINTS= 25
##XYDATA=(XY..XY) 1 
    26        104
    27         67
    28        190
    29         40
    39         40
    40         99
    41         49
    42         70
    52         38
    53         40
    54         90
    55         99
    56        999
    57         31
    66          9
    67         27
    68         11
    81         22
    82         31
    83          9
    95         54
    96         81
   109         43
   124        457
   125         38