##TITLE=Library Entry 5648
##JCAMP-DX=Revision 4.10 
##DATA TYPE=MASS SPECTRUM
##SAMPLE DESCRIPTION=J. SHAW, BORRISTON RESEARCH, ROCKVILLE, MD, USA
##NAMES=HP
##CAS NAME=Carboxin 4-oxide
##MOLFORM=C12H13NO3S
##CAS REGISTRY NO=17757-70-9
##MP= -300
##BP= -300
##MW= 251
##$RETENTION INDEX=0
##$CONDENSED SPECTRUM=NO
##NPOINTS= 120
##XYDATA=(XY..XY) 1 
    12          4
    15        124
    16          8
    17         20
    18         54
    19          2
    26         72
    27        182
    28        260
    29         43
    30          4
    31          9
    32          6
    33          2
    34          2
    35          2
    39        286
    40         26
    41         26
    43        999
    44         35
    45         78
    46         13
    47         16
    48         19
    49          5
    50         28
    51         72
    52         25
    53         15
    54          8
    55          8
    56          2
    58         27
    59         35
    60          7
    61         11
    63         66
    65        248
    66         41
    67         35
    69         21
    70          8
    71         26
    72         15
    73          4
    74          6
    75          7
    77        102
    78         11
    79          2
    80          1
    81          1
    82          2
    83          9
    84          3
    85          5
    87         53
    88          9
    89         16
    91         46
    92         77
    93        125
    94         10
    97          2
    99          1
   101          2
   102          3
   103         12
   104         13
   105          3
   106          3
   108          1
   109          3
   110          1
   111          5
   113          1
   114          1
   115          7
   116          1
   117          2
   119         21
   120          7
   121          1
   125          1
   128          1
   129          4
   131        256
   132         17
   133         16
   134          2
   135          9
   136          3
   139          1
   140          2
   143         22
   144          2
   145          1
   146          1
   147          1
   157          9
   158          7
   159        180
   160         17
   161          9
   162          3
   163          2
   164          1
   175         63
   176          6
   177          1
   180          1
   189          1
   206          1
   223          2
   234          6
   235          2
   251         47
   252          8
   253          3