##TITLE=Library Entry 18755
##JCAMP-DX=Revision 4.10 
##DATA TYPE=MASS SPECTRUM
##SAMPLE DESCRIPTION=J.STREITH, ORGANIC PHOTOCHEMISTRY LAB., MULHOUSE, FRANC
E.
##NAMES=HP
##CAS NAME=Pyrimidine, 5-methyl-, 1-oxide
##MOLFORM=C5H6N2O
##CAS REGISTRY NO=17758-50-8
##MP= -300
##BP= -300
##MW= 110
##$RETENTION INDEX=0
##$CONDENSED SPECTRUM=NO
##NPOINTS= 13
##XYDATA=(XY..XY) 1 
    27        250
    28        100
    29        520
    30        250
    51        110
    52        250
    53        110
    54        999
    55        820
    56        100
    81        960
    82        380
   110        880