##TITLE=Library Entry 98444
##JCAMP-DX=Revision 4.10 
##DATA TYPE=MASS SPECTRUM
##SAMPLE DESCRIPTION=P. Vainiotalo, Dep. Chem., Univ. Joensuu, Joensuu, Finl
and
##NAMES=HP
##CAS NAME=2H-1,3-Oxazine, tetrahydro-2-phenyl-
##MOLFORM=C10H13NO
##CAS REGISTRY NO=17762-72-0
##MP= -300
##BP= -300
##MW= 163
##$RETENTION INDEX=0
##$CONDENSED SPECTRUM=NO
##NPOINTS= 71
##XYDATA=(XY..XY) 1 
    15         24
    26         24
    27         88
    29         69
    30         77
    31        148
    37          7
    38         18
    39         92
    40         17
    41         93
    42         39
    43         32
    44         23
    49         10
    50         56
    51        150
    52         41
    53          9
    54         19
    55         11
    56         25
    57         14
    58         46
    59         22
    62         15
    63         49
    64         19
    65         80
    66          7
    68          5
    70         12
    74         12
    75         16
    76         43
    77        248
    78         82
    79         45
    84         12
    85          8
    86        127
    87          9
    89         74
    90         70
    91        709
    92         72
   102          5
   103         64
   104        351
   105        260
   106        124
   107         19
   115          9
   116         10
   117         76
   118        999
   119        839
   120         81
   128          8
   130         13
   131          5
   132        126
   133        208
   134         25
   143          7
   144         22
   145         20
   146          6
   162         96
   163         22
   164         11