##TITLE=Library Entry 56222
##JCAMP-DX=Revision 4.10 
##DATA TYPE=MASS SPECTRUM
##SAMPLE DESCRIPTION=Darrick Lee, Cayman Chemical, Ann Arbor, MI
##NAMES=HP
##CAS NAME=bk-DMBDB
##MOLFORM=C13H17NO3
##CAS REGISTRY NO=17763-12-1
##MP= -300
##BP= -300
##MW= 235
##$RETENTION INDEX=0
##$CONDENSED SPECTRUM=NO
##NPOINTS= 95
##XYDATA=(XY..XY) 1 
    40          3
    41         17
    42         73
    43         13
    44         24
    45          1
    46          1
    50          5
    51          7
    52          2
    53          7
    54          3
    55          7
    56         34
    57          3
    58         15
    59          1
    60          1
    61          3
    62         16
    63         47
    64          6
    65         58
    66          5
    67          1
    68          8
    69          8
    70         34
    71        107
    72          6
    74          4
    75          2
    76          2
    77          7
    78          2
    79          4
    80          1
    81          1
    82          2
    84         30
    86        999
    87         59
    88          2
    89          2
    90          2
    91         18
    92          4
    93          1
    94          1
   102          1
   103          2
   104          1
   105          2
   106          1
   107          1
   115          1
   116          1
   117          1
   118          1
   119          4
   121         34
   122          4
   123          1
   131          1
   132          1
   133          1
   135         10
   136          1
   145          1
   146          1
   147          4
   149         41
   150          4
   160          1
   161          1
   162          1
   163          1
   164          1
   174          1
   175          2
   176          2
   177          2
   178          3
   188          1
   189          1
   190          2
   191          1
   192          1
   204          3
   205          1
   206          5
   207          1
   233          1
   234          1
   235          1