##TITLE=Library Entry 88327
##JCAMP-DX=Revision 4.10 
##DATA TYPE=MASS SPECTRUM
##SAMPLE DESCRIPTION=Chemical Concepts
##NAMES=HP
##CAS NAME=2-Pentenanilide, 4,4-dimethyl-
##MOLFORM=C13H17NO
##CAS REGISTRY NO=17767-01-0
##MP= -300
##BP= -300
##MW= 203
##$RETENTION INDEX=0
##$CONDENSED SPECTRUM=NO
##NPOINTS= 101
##XYDATA=(XY..XY) 1 
    26          7
    27         64
    28          3
    29         44
    30          1
    37          3
    38         12
    39         98
    41        198
    42         14
    43        163
    44          3
    45          2
    50         11
    51         45
    52         16
    53         48
    54          7
    55        271
    56         15
    57         17
    61          1
    62          5
    63         18
    64         15
    65        103
    66         42
    67         91
    68         12
    69         55
    70          4
    71          1
    74          1
    75          1
    76          4
    77         84
    78         10
    79          6
    80          3
    81         43
    82          3
    83         70
    84          7
    85          0
    86          1
    87          1
    89          1
    90          2
    91         37
    92         35
    93        957
    94        102
    95         43
    96         22
    97          1
   103          2
   104          9
   105          2
   106          2
   109          5
   110          5
   111        999
   112         70
   113          4
   115          3
   116          1
   117          5
   118          6
   119          3
   120         10
   127          1
   128          5
   129          1
   130          6
   131          2
   132          7
   133          3
   134          3
   135          1
   143          3
   144         11
   145          6
   146        264
   147         26
   148          2
   158          3
   159          2
   160          6
   162          1
   170          3
   172          2
   173          2
   174          2
   186          2
   187          1
   188         59
   189          6
   202          3
   203        364
   204         53
   205          4