##TITLE=Library Entry 3045
##JCAMP-DX=Revision 4.10 
##DATA TYPE=MASS SPECTRUM
##SAMPLE DESCRIPTION=LAC, NIDDK, NIH, Bethesda, MD 20892
##NAMES=HP
##CAS NAME=Carbamic acid, N-aminocarbonylmethyl-, isobutyl(ester)
##MOLFORM=C7H14N2O3
##CAS REGISTRY NO=177657-34-0
##MP= -300
##BP= -300
##MW= 174
##$RETENTION INDEX=0
##$CONDENSED SPECTRUM=NO
##NPOINTS= 26
##XYDATA=(XY..XY) 1 
    41        999
    42        141
    43        341
    44        852
    45         49
    47         20
    49        121
    51         23
    55         83
    56        231
    57        941
    58         98
    59         47
    73        153
    74        117
    75        345
    76         47
    84         73
    86         25
    87         16
   101        194
   114         14
   130        727
   131        566
   132         20
   174         15