##TITLE=Library Entry 62978
##JCAMP-DX=Revision 4.10 
##DATA TYPE=MASS SPECTRUM
##SAMPLE DESCRIPTION=NIST Mass Spectrometry Data Center
##NAMES=HP
##CAS NAME=Benzenehexanenitrile
##MOLFORM=C12H15N
##CAS REGISTRY NO=17777-31-0
##MP= -300
##BP= -300
##MW= 173
##$RETENTION INDEX=1568
##$CONDENSED SPECTRUM=NO
##NPOINTS= 72
##XYDATA=(XY..XY) 1 
    26          1
    27         10
    29          5
    30          1
    37          1
    38          3
    39         39
    40          5
    41         37
    42          4
    43          5
    50         11
    51         38
    52         15
    53         10
    54         14
    55         12
    56          3
    62          6
    63         27
    64          9
    65        136
    66          9
    67          4
    68          2
    69         34
    70          2
    74          4
    75          6
    76          6
    77         61
    78         43
    79         24
    80          2
    81          3
    82         26
    86          1
    87          1
    89         22
    90          8
    91        999
    92        157
    93         12
    94          2
    95          6
    96          8
   101          1
   102          8
   103         31
   104         30
   105         68
   106          6
   115         36
   116         10
   117         23
   118          5
   127          3
   128         11
   129         37
   130        128
   131         20
   132         17
   141          3
   144        110
   145         85
   146          8
   156          4
   158         33
   159          3
   172        211
   173        194
   174         25