##TITLE=Library Entry 54820
##JCAMP-DX=Revision 4.10 
##DATA TYPE=MASS SPECTRUM
##SAMPLE DESCRIPTION=TNO Volatile Compounds in Food - Chemical Concepts
##NAMES=HP
##CAS NAME=2,5-Thiophenedicarboxylic acid, tetrahydro-
##MOLFORM=C6H8O4S
##CAS REGISTRY NO=17773-22-7
##MP= -300
##BP= -300
##MW= 176
##$RETENTION INDEX=0
##$CONDENSED SPECTRUM=NO
##NPOINTS= 54
##XYDATA=(XY..XY) 1 
    26         18
    27        104
    29         14
    31          2
    33          2
    34          3
    36          2
    38          2
    39         47
    41         45
    42          6
    43          4
    44          1
    45        171
    46         14
    47         19
    50          5
    51         10
    52          2
    53         19
    55         31
    57          8
    58         87
    59         63
    60         16
    61          6
    63          2
    68         13
    69          9
    71          8
    73         17
    84          9
    85        999
    86         68
    87         31
    91          2
    97         29
   102          8
   103          9
   104          5
   112         22
   113         27
   114         17
   125          7
   130         27
   131         80
   132          5
   140         25
   158        100
   159          7
   160          5
   176        103
   177          7
   178          5