##TITLE=Library Entry 34148
##JCAMP-DX=Revision 4.10 
##DATA TYPE=MASS SPECTRUM
##SAMPLE DESCRIPTION=COMPAGNIE FRANCAISE DE RAFFINAGE, FRANCE.
##NAMES=HP
##CAS NAME=1-Butene, 2-chloro-3-methyl-
##MOLFORM=C5H9Cl
##CAS REGISTRY NO=17773-64-7
##MP= -300
##BP= -300
##MW= 104
##$RETENTION INDEX=628
##$CONDENSED SPECTRUM=NO
##NPOINTS= 46
##XYDATA=(XY..XY) 1 
    26         40
    27        240
    28         29
    29         27
    30          1
    31          9
    35          4
    36         22
    37         17
    38         35
    39        197
    40         44
    41        648
    42         72
    43         56
    49         24
    50         46
    51         76
    52         23
    53        548
    54         32
    55         39
    61         39
    62         17
    63         42
    64          4
    65         21
    66          6
    67         67
    68         18
    69        999
    70         59
    71          2
    75         17
    76         12
    77          7
    78          4
    87          3
    88          5
    89        290
    90         14
    91         95
   103          5
   104        206
   105         13
   106         66