##TITLE=Library Entry 5853
##JCAMP-DX=Revision 4.10 
##DATA TYPE=MASS SPECTRUM
##SAMPLE DESCRIPTION=COMPAGNIE FRANCAISE DE RAFFINAGE, FRANCE.
##NAMES=HP
##CAS NAME=Butane, 2,2-dichloro-3-methyl-
##MOLFORM=C5H10Cl2
##CAS REGISTRY NO=17773-66-9
##MP= -300
##BP= -300
##MW= 140
##$RETENTION INDEX=793
##$CONDENSED SPECTRUM=NO
##NPOINTS= 73
##XYDATA=(XY..XY) 1 
    25          1
    26         19
    27        207
    28         18
    29         35
    30          0
    31          2
    35          8
    36         57
    37          9
    38         30
    39        110
    40         13
    41        378
    42        331
    43        999
    44         35
    47          1
    48          1
    49         13
    50         16
    51         32
    52          8
    53        128
    54         10
    55         44
    56          2
    57          7
    60          2
    61         30
    62         13
    63         59
    64          4
    65         20
    66          2
    67         20
    69        271
    70         19
    71          4
    73          4
    75         11
    76          4
    77         12
    78          1
    79          2
    83          2
    85          2
    87          2
    88          1
    89         67
    90          8
    91         22
    92          2
    96          6
    97         43
    98          5
    99         27
   101          4
   103          2
   104         24
   105        176
   106         17
   107         57
   108          3
   109          1
   125         19
   126          1
   127         12
   129          2
   139          1
   140          1
   141          1
   142          0