##TITLE=Library Entry 13459
##JCAMP-DX=Revision 4.10 
##DATA TYPE=MASS SPECTRUM
##SAMPLE DESCRIPTION=A.A.Kutin, Moscow, Russia
##NAMES=HP
##CAS NAME=Penta-2,4-dien-1-one, 5,5-dichloro-1-(5-methyl-2-furyl)-
##MOLFORM=C10H8Cl2O2
##CAS REGISTRY NO=177754-30-2
##MP= -300
##BP= -300
##MW= 230
##$RETENTION INDEX=0
##$CONDENSED SPECTRUM=NO
##NPOINTS= 153
##XYDATA=(XY..XY) 1 
    33          5
    34          4
    35         22
    36         30
    37         48
    38         79
    39         95
    40         52
    41         28
    43        999
    44         35
    45          4
    47         12
    50        496
    51        491
    52        252
    53        573
    54         62
    55         25
    56          6
    57         10
    58          0
    59          6
    60         77
    61         47
    62         53
    63         69
    64         10
    65         36
    66         26
    67          9
    68          9
    69         15
    70          8
    71          6
    72         18
    73         40
    74         29
    75         28
    76         18
    77        125
    78         40
    79         80
    81        112
    82         61
    83         30
    85        505
    86         92
    87        161
    88         25
    89         75
    90          7
    91         23
    92          9
    93          3
    95         40
    97         89
    98         44
    99         28
   100          6
   101         59
   103        462
   104         64
   105         28
   106         24
   107         16
   109        471
   110         34
   111         13
   113         43
   115         28
   116          8
   117         19
   118          9
   120        133
   121        180
   122         79
   123        145
   124         31
   125         59
   126         11
   127         15
   128          4
   129         10
   131        195
   132        191
   133         26
   134          4
   135         12
   136          1
   137         17
   139        400
   141        160
   142         12
   143          2
   144          1
   145          1
   147          8
   148         19
   149         98
   151         46
   152         97
   153         51
   154         20
   155         12
   156          0
   157          6
   159        127
   160         35
   161         37
   162          4
   163          5
   165         35
   167        320
   168         38
   169         88
   170          7
   171          5
   173          1
   175          1
   176          3
   177          5
   179          2
   181          1
   186          1
   187         19
   188         18
   189         18
   190         12
   191          5
   192          5
   193         10
   195        826
   197        341
   198         27
   199          3
   201          6
   202         63
   203         10
   204         38
   205          2
   206          1
   207          0
   215         15
   216          1
   217          6
   219          1
   223          1
   227          2
   230        689
   232        520
   234        115
   235          7