##TITLE=Library Entry 43479
##JCAMP-DX=Revision 4.10 
##DATA TYPE=MASS SPECTRUM
##SAMPLE DESCRIPTION=Chuck Anderson, Aldrich Chemical Co.
##NAMES=HP
##CAS NAME=1,3-Dioxolane, 2-(3-bromophenyl)-
##MOLFORM=C9H9BrO2
##CAS REGISTRY NO=17789-14-9
##MP= -300
##BP= -300
##MW= 228
##$RETENTION INDEX=0
##$CONDENSED SPECTRUM=NO
##NPOINTS= 117
##XYDATA=(XY..XY) 1 
    14          2
    15         11
    16          1
    19          6
    29         62
    30          6
    31          0
    36          1
    37         17
    38         46
    39        113
    40          6
    41          4
    42         12
    43         75
    44         20
    45        404
    46          9
    47          1
    48          1
    49         13
    50        187
    51        139
    52         11
    53          7
    55          1
    59         10
    60          4
    61         14
    62         55
    63        141
    64         14
    65         25
    66          3
    71          1
    73        999
    74        117
    75        167
    76        189
    77        247
    78         33
    79          7
    81          3
    82          1
    83          1
    84          2
    85          7
    86         15
    87         18
    88         18
    89        331
    90         64
    91        139
    92         16
    93          4
    94          1
    95          1
    99          1
   100          1
   101          1
   102          3
   103          8
   104         49
   105        229
   106         18
   107          5
   114         12
   115         12
   116          1
   117          9
   118          6
   119        132
   120         11
   121          3
   122          1
   128          3
   129          6
   130          1
   131          6
   141          1
   143          3
   145          2
   147          1
   148         20
   149        357
   150         30
   151          5
   153          2
   154          1
   155        125
   156        165
   157        134
   158        152
   159         12
   167          1
   168          3
   169         59
   170          7
   171         54
   172          5
   183        303
   184         26
   185        274
   186         25
   187          3
   197         28
   198          5
   199         28
   200          7
   201          1
   202          3
   227        699
   228        273
   229        657
   230        242
   231         24
   232          2