##TITLE=Library Entry 14503
##JCAMP-DX=Revision 4.10 
##DATA TYPE=MASS SPECTRUM
##SAMPLE DESCRIPTION=LAC, NIDDK, NIH, Bethesda, MD 20892
##NAMES=HP
##CAS NAME=Pregnenolone acetate
##MOLFORM=C23H34O3
##CAS REGISTRY NO=1778-02-5
##MP= -300
##BP= -300
##MW= 358
##$RETENTION INDEX=0
##$CONDENSED SPECTRUM=NO
##NPOINTS= 197
##XYDATA=(XY..XY) 1 
    41         81
    43        999
    44         14
    45         10
    47          2
    49         13
    51          8
    53         33
    55         82
    57          9
    58          1
    59          1
    61          4
    65         12
    67         69
    68          7
    69         24
    71         50
    72          0
    73          0
    77         42
    78         13
    79        104
    81        116
    83         12
    84         16
    85         53
    86          6
    88          1
    91        108
    92         17
    93         61
    94         17
    95         57
    96          1
    97         10
    98          0
    99          3
   103          8
   105        121
   106         45
   107        128
   108         35
   109         26
   111          5
   113          2
   115         15
   116          8
   117         40
   118         14
   119         42
   120         33
   121         93
   122         18
   123         11
   124          1
   125          8
   127          4
   128          9
   129         17
   130         10
   131         46
   132          8
   133         67
   134         14
   135         26
   136          2
   137          7
   138          2
   139          2
   141         11
   142          9
   143         42
   144         16
   145         66
   146         19
   147         82
   148         19
   149         21
   150          1
   151          6
   152          1
   153          2
   154          1
   155          5
   156          4
   157         19
   158         24
   159         74
   160         33
   161         47
   162          9
   163          5
   164          0
   165          1
   166          0
   167          2
   168          1
   169         10
   170          4
   171         16
   172          7
   173         16
   174          5
   175         11
   176          4
   177         24
   178          1
   179          5
   181          3
   183          8
   184          3
   185         18
   186          5
   187          9
   188          1
   189         11
   190          4
   191          5
   192          2
   193          2
   194          0
   195          5
   196          1
   197          8
   198          3
   199          8
   200          3
   201          5
   202          1
   203          2
   204          2
   205          2
   206          0
   207          1
   209          7
   210          2
   211          7
   212          1
   213         65
   214         14
   215         10
   216          2
   217          1
   223          3
   224          1
   225          5
   226          1
   227          7
   228          7
   229          2
   230          1
   231          0
   237          1
   238          0
   239          5
   240          6
   241          6
   242          2
   243          1
   244          2
   246          0
   251          3
   252          1
   253          7
   254          2
   255         26
   256         12
   257          4
   258          1
   265         11
   266          2
   267          1
   269          4
   270          1
   271          0
   275          0
   279          1
   280          3
   281          5
   283         64
   284         14
   285          4
   295          5
   296          5
   298        315
   299         76
   300         17
   301          3
   302          1
   312          0
   314          1
   315          1
   341          2
   342          1
   358          4
   359          1