##TITLE=Library Entry 49294
##JCAMP-DX=Revision 4.10 
##DATA TYPE=MASS SPECTRUM
##SAMPLE DESCRIPTION=J. SHAW, BORRISTON RESEARCH, ROCKVILLE, MD, USA
##NAMES=HP
##CAS NAME=Parinol
##MOLFORM=C18H13Cl2NO
##CAS REGISTRY NO=17781-31-6
##MP= -300
##BP= -300
##MW= 329
##$RETENTION INDEX=0
##$CONDENSED SPECTRUM=NO
##NPOINTS= 183
##XYDATA=(XY..XY) 1 
    12          1
    14          2
    15          6
    16          3
    17         23
    18         83
    19          1
    25          1
    26         17
    27         50
    28         56
    29         12
    30          1
    31         14
    32          1
    35          4
    36         12
    37          5
    38         18
    39         50
    40          4
    41          7
    42          3
    43         14
    44          2
    45          7
    46          2
    50        148
    51        326
    52         74
    53         45
    54          3
    55          3
    56          1
    57          2
    58          1
    60          1
    61          9
    62         16
    63         43
    64          6
    65          4
    66          1
    67          1
    68          2
    69          2
    71          1
    73         16
    74         43
    75        251
    76         76
    77         94
    78        539
    79        999
    80         72
    81          9
    82          1
    84          4
    85         22
    86         13
    87         25
    88         11
    89         12
    90          6
    92          2
    93         23
    94         16
    96          1
    97          3
    98          6
    99         16
   100         10
   101         20
   102          9
   103          3
   104         21
   106        695
   107        106
   108         25
   111        383
   112         52
   113        127
   114         23
   115          6
   116          1
   120          5
   121         25
   122          1
   123          4
   124          2
   125         12
   126         19
   127         26
   128         12
   129          7
   135          1
   136          4
   137          9
   139        723
   140         60
   141        213
   142         16
   143          1
   147         19
   148          7
   149          7
   150         10
   151         13
   152         37
   153         14
   154         17
   155          5
   156          1
   160          2
   161          4
   162          6
   163         13
   164          9
   165          5
   166         14
   167          2
   173          4
   174          3
   175          3
   176          6
   177          1
   182         22
   183          4
   185          2
   186          6
   187         14
   188         13
   190        103
   191         12
   192         25
   193          2
   197          1
   199         10
   200         10
   201          7
   202          6
   203          2
   211          3
   213         15
   214          5
   215          9
   216          9
   218        210
   220         85
   222         23
   223         14
   224         10
   225          8
   226          2
   227          1
   228          1
   233          1
   235          1
   238          2
   240         13
   241         16
   242          7
   243          1
   249          1
   251        187
   253        132
   254         13
   255         16
   256          1
   275          1
   276          9
   277          6
   278          3
   279          1
   294         17
   296          6
   312          9
   314          5
   329         96
   331         84
   332         16
   333          8
   334          2