##TITLE=Library Entry 36710
##JCAMP-DX=Revision 4.10 
##DATA TYPE=MASS SPECTRUM
##SAMPLE DESCRIPTION=Japan AIST/NIMC Database- Spectrum MS-NW-2978
##NAMES=HP
##CAS NAME=1,1,1,5,5,5-Hexafluoroacetylacetone iron(III) salt
##MOLFORM=C15H3F18FeO6
##CAS REGISTRY NO=17786-67-3
##MP= -300
##BP= -300
##MW= 677
##$RETENTION INDEX=0
##$CONDENSED SPECTRUM=NO
##NPOINTS= 127
##XYDATA=(XY..XY) 1 
    28          4
    31          9
    44          3
    47          9
    50          6
    51          4
    55          1
    56         10
    57          1
    59          1
    61          1
    63          9
    64          1
    67          1
    68          2
    69        999
    70         30
    71         15
    72          5
    73          2
    74          2
    75         78
    76          2
    78          1
    79          2
    83          3
    84          1
    85          1
    87          1
    88          4
    89          3
    90          1
    91         33
    92          1
    93          2
    94          1
    95          1
    97          6
   100          1
   102          2
   103          1
   106          1
   113          1
   114          1
   116         13
   117          1
   118          1
   119        107
   120          7
   121          3
   122          2
   125          2
   137          3
   138          1
   139        104
   140          5
   141          1
   143          3
   144          3
   145          2
   161          4
   163          7
   165          2
   166         23
   167          1
   169        175
   170          9
   171          1
   181          3
   182          1
   191          1
   193          1
   194          4
   201          5
   203          3
   207          1
   208          6
   211         29
   212          3
   213        451
   214         30
   215          4
   216         16
   217          1
   230         16
   231          2
   232         37
   233          2
   234          1
   235         17
   261          3
   263         43
   264          3
   266          6
   269          5
   270          1
   280          2
   282         29
   283          3
   331          1
   339          1
   351          5
   369          1
   370          2
   377          7
   399          4
   400          1
   401         57
   402          7
   403          1
   404          6
   408          1
   418          3
   420         45
   421          6
   422          1
   441          1
   451          1
   468          7
   469          1
   470         94
   471         12
   472          2
   473          1
   608          5
   609          1
   677          6