##TITLE=Library Entry 31834
##JCAMP-DX=Revision 4.10 
##DATA TYPE=MASS SPECTRUM
##SAMPLE DESCRIPTION=Patti Price, Georgia Bureau of Investigation, Decatur,
 Georgia
##NAMES=HP
##CAS NAME=Sulfacytine
##MOLFORM=C12H14N4O3S
##CAS REGISTRY NO=17784-12-2
##MP= -300
##BP= -300
##MW= 294
##$RETENTION INDEX=0
##$CONDENSED SPECTRUM=NO
##NPOINTS= 51
##XYDATA=(XY..XY) 1 
    32         25
    37         20
    38         76
    39        436
    40        238
    41        272
    42        218
    43         66
    44         92
    45         23
    46         11
    48         78
    50         46
    51         79
    52        352
    53        265
    54        147
    55         85
    56         77
    57          7
    61         12
    62         44
    63        166
    64        153
    65        999
    66        179
    67        113
    68         88
    69         68
    70         22
    74         13
    75         14
    78         27
    79        108
    80        214
    81         76
    82        101
    83         14
    90         18
    91         43
    92        304
    93         48
    94         23
    95         83
   106         15
   107         22
   108        153
   134         14
   140         23
   158         18
   201          5