##TITLE=Library Entry 345
##JCAMP-DX=Revision 4.10 
##DATA TYPE=MASS SPECTRUM
##SAMPLE DESCRIPTION=Chemical Concepts
##NAMES=HP
##CAS NAME=Tetracobalt dodecacarbonyl
##MOLFORM=C12Co4O12
##CAS REGISTRY NO=17786-31-1
##MP= -300
##BP= -300
##MW= 572
##$RETENTION INDEX=0
##$CONDENSED SPECTRUM=NO
##NPOINTS= 83
##XYDATA=(XY..XY) 1 
    28        999
    29         13
    30          2
    40          1
    41          0
    44          0
    59         31
    66          0
    71          1
    73          0
    75          0
    87         17
   115          5
   118         55
   124          0
   130          6
   132          0
   134          1
   138          0
   142          0
   143          0
   146          2
   147          2
   148          0
   160          0
   174          1
   177         60
   189          4
   193          0
   202          0
   205          6
   230          0
   233          4
   236         84
   248          2
   258          0
   261          3
   264         58
   265          0
   276          0
   289          3
   292         68
   293          1
   294          0
   304          0
   317          7
   318          0
   320         99
   321          3
   322          0
   345         11
   346          0
   348         73
   349          3
   350          0
   373          1
   376         65
   377          3
   378          0
   401          0
   404         64
   405          4
   406          0
   422          0
   432        184
   433         14
   434          2
   460         91
   461          8
   462          1
   488         12
   489          1
   490          0
   516         14
   517          1
   518          0
   544         55
   545          6
   546          1
   572         82
   573         11
   574          2
   575          0