##TITLE=Library Entry 142
##JCAMP-DX=Revision 4.10 
##DATA TYPE=MASS SPECTRUM
##SAMPLE DESCRIPTION=NIST Mass Spectrometry Data Center, 1990.
##NAMES=HP
##CAS NAME=1,3,6-Trioxocane
##MOLFORM=C5H10O3
##CAS REGISTRY NO=1779-19-7
##MP= -300
##BP= -300
##MW= 118
##$RETENTION INDEX=0
##$CONDENSED SPECTRUM=NO
##NPOINTS= 26
##XYDATA=(XY..XY) 1 
    14         21
    15        116
    16         10
    18          7
    19         16
    26         56
    27        194
    28        999
    29        404
    30        219
    31        266
    32         10
    41          9
    42         35
    43        200
    44        262
    45        197
    57        163
    58        387
    59         22
    60          7
    73         14
    87         36
    88        318
    89         12
   118          8