##TITLE=Library Entry 4651
##JCAMP-DX=Revision 4.10 
##DATA TYPE=MASS SPECTRUM
##SAMPLE DESCRIPTION=Exported from NIST MS Search
##NAMES=HP
##CAS NAME=1,3-Dioxane, 4,5-dimethyl-
##MOLFORM=C6H12O2
##CAS REGISTRY NO=1779-22-2
##MP= -300
##BP= -300
##MW= 116
##$RETENTION INDEX=0
##$CONDENSED SPECTRUM=NO
##NPOINTS= 36
##XYDATA=(XY..XY) 1 
    18          6
    26         44
    27        259
    29        307
    30         39
    31        159
    39        215
    40         68
    41        443
    42        999
    43        413
    44         67
    45        819
    53         23
    54          9
    55         56
    56        119
    57         44
    58         11
    59          9
    67          4
    68          4
    69        100
    70         13
    71         82
    72          7
    73         13
    75         82
    83          1
    84          1
    85          7
    86        262
    87         31
   101         12
   115         44
   116         26