##TITLE=Library Entry 48329
##JCAMP-DX=Revision 4.10 
##DATA TYPE=MASS SPECTRUM
##SAMPLE DESCRIPTION=Chemical Concepts
##NAMES=HP
##CAS NAME=Phenylphosphonous acid
##MOLFORM=C6H7O2P
##CAS REGISTRY NO=1779-48-2
##MP= -300
##BP= -300
##MW= 142
##$RETENTION INDEX=0
##$CONDENSED SPECTRUM=NO
##NPOINTS= 89
##XYDATA=(XY..XY) 1 
    25          1
    26         11
    27         46
    28          7
    29          2
    30          1
    31          1
    32          0
    34          0
    35          0
    36          5
    37         13
    38         21
    39         75
    40          6
    41          5
    42          1
    43          3
    44          2
    45          1
    47        144
    48         11
    49         20
    50        170
    51        385
    52         91
    53          6
    54          0
    55          3
    56          5
    57          5
    60          1
    61          4
    62          7
    63         18
    64          7
    65        164
    66         10
    67          3
    68          4
    69          8
    70          1
    71          0
    72          0
    73         12
    74         49
    75         27
    76         36
    77        521
    78        999
    79         79
    80          7
    81          3
    82          6
    83          2
    84          0
    85          0
    88          0
    91          1
    92          2
    93          3
    94         15
    95          6
    96          4
    97          1
    98          0
    99          1
   103          0
   104          1
   105          1
   107          4
   108          3
   109          1
   110          4
   111          1
   112          0
   113          1
   115          0
   123          3
   124         19
   125         23
   126          2
   139          2
   140          4
   141        187
   142        575
   143        105
   144         10
   145          1