##TITLE=Library Entry 22096
##JCAMP-DX=Revision 4.10 
##DATA TYPE=MASS SPECTRUM
##SAMPLE DESCRIPTION=Div. of Experiment Therapeutics WRAIR, WRAMC, Washingto
n DC 20307
##NAMES=HP
##CAS NAME=6-Ethyl-5-[4-morpholinyl]-2,4(1H,3H)-pyrimidinedione
##MOLFORM=C10H15N3O3
##CAS REGISTRY NO=177941-50-3
##MP= -300
##BP= -300
##MW= 225
##$RETENTION INDEX=0
##$CONDENSED SPECTRUM=NO
##NPOINTS= 125
##XYDATA=(XY..XY) 1 
    41        938
    42        762
    43        439
    44        472
    45        243
    46         10
    47         11
    49         52
    51         84
    52        188
    53        281
    54        690
    55        358
    56        999
    57        104
    58         54
    59         11
    60          5
    61          5
    62         11
    64         27
    65         18
    66        189
    67        193
    68        484
    69        204
    70        273
    71         31
    72         26
    73          3
    75         14
    76         13
    77         15
    78         36
    79         34
    80        104
    81        152
    82        118
    83         84
    84         98
    85          6
    86         96
    87          5
    88          4
    90         21
    91          6
    92         12
    93         34
    94         61
    96        750
    97        144
    99          5
   100          1
   103          1
   104          2
   105          5
   106         17
   107         29
   109        255
   110         79
   111         86
   112         92
   113         24
   114          8
   118          1
   119         11
   121         67
   122         63
   123        168
   124         87
   125         32
   126         41
   127          7
   128          1
   129          1
   133          3
   134          5
   135         66
   136         47
   137         67
   139        468
   140        118
   141         14
   142          0
   147         10
   149         44
   151         84
   152         93
   153         91
   154        139
   155         16
   156          2
   160          2
   161          4
   162          0
   164         73
   166        934
   167        166
   168        138
   169         12
   170          1
   175          2
   178        108
   179         67
   180        111
   181        257
   182        141
   183         13
   190          4
   192        163
   193        535
   194         68
   195         35
   196          4
   207        397
   208         34
   209          4
   210          5
   211          5
   212          1
   222          0
   223          1
   225        257
   226         31
   227          1