##TITLE=Library Entry 19690
##JCAMP-DX=Revision 4.10 
##DATA TYPE=MASS SPECTRUM
##SAMPLE DESCRIPTION=LAC, NIDDK, NIH, Bethesda, MD 20892
##NAMES=HP
##CAS NAME=Ergost-5,8(14)-dien-3-ol
##MOLFORM=C28H46O
##CAS REGISTRY NO=177962-83-3
##MP= -300
##BP= -300
##MW= 398
##$RETENTION INDEX=0
##$CONDENSED SPECTRUM=NO
##NPOINTS= 150
##XYDATA=(XY..XY) 1 
    41        503
    43        925
    44          7
    45         49
    47         16
    49          8
    51          2
    53        106
    55        999
    57        312
    58          5
    59         17
    65         46
    67        420
    69        842
    70         44
    71        105
    77        135
    79        350
    81        736
    82         96
    83        340
    84         59
    85         35
    86         17
    91        398
    93        442
    94         47
    95        491
    96          9
    97        132
    98         19
    99         26
   103         31
   105        404
   107        638
   108         36
   109        304
   110         33
   111         31
   115         43
   117        158
   119        267
   121        246
   122         20
   123        120
   125        199
   126          5
   127         18
   128         35
   129         56
   131        173
   133        253
   134         67
   135        167
   136          7
   137         67
   138          9
   141         23
   143         83
   145        215
   147        342
   148         26
   149        108
   150         21
   151         53
   152         19
   153          4
   155         26
   156          4
   157         70
   159        171
   161        191
   162         23
   163         39
   164         37
   165         12
   169         23
   171         47
   173        103
   174         14
   175         79
   176         16
   177         16
   178          4
   183         14
   185         51
   187         74
   188          8
   189         31
   191          6
   197         23
   199         55
   200          7
   201         52
   203         31
   211         24
   213        115
   215         66
   217         24
   218          8
   219         17
   225         10
   227         50
   228         36
   229        140
   231        101
   232         25
   233         12
   239         18
   241         31
   243         28
   245          8
   246        193
   247         51
   253         49
   255        243
   256         25
   257         96
   258         23
   259         35
   261          5
   267          7
   269         22
   271        495
   272         63
   273        223
   274         34
   283         14
   285         40
   286         20
   287          6
   299         51
   300         98
   301         30
   313          4
   327         11
   337         15
   355         35
   356          6
   365         17
   380          5
   381          5
   383         90
   384         22
   385          4
   397          4
   398        238
   399         69
   400          7