##TITLE=Library Entry 22418
##JCAMP-DX=Revision 4.10 
##DATA TYPE=MASS SPECTRUM
##SAMPLE DESCRIPTION=D.HENNEBERG, MAX-PLANCK INSTITUTE, MULHEIM, WEST GERMAN
Y
##NAMES=HP
##CAS NAME=1-Heptene, 2-pentyl-
##MOLFORM=C12H24
##CAS REGISTRY NO=17799-46-1
##MP= -300
##BP= -300
##MW= 168
##$RETENTION INDEX=0
##$CONDENSED SPECTRUM=NO
##NPOINTS= 79
##XYDATA=(XY..XY) 1 
    22          0
    23          0
    24          1
    25          2
    26          9
    27        175
    28        138
    29        349
    30         16
    31          0
    32         12
    33          0
    34          0
    36          0
    37          2
    38          3
    39        129
    40         32
    41        538
    42         98
    43        185
    44          9
    45          0
    47          0
    48          0
    49          0
    50          1
    51         10
    52          6
    53         55
    54         41
    55        626
    56        999
    57        862
    58         37
    59          0
    62          0
    63          4
    64          0
    65          9
    66          5
    67         52
    68         54
    69        453
    70        246
    71         69
    72          2
    75          1
    77          9
    78          2
    79         10
    80          1
    81         23
    82          6
    83        102
    84        176
    85         12
    91          2
    92          0
    93          1
    94          0
    95          8
    96         34
    97        194
    98         36
    99          2
   109          1
   110          1
   111          3
   112         92
   113         20
   114          0
   125          2
   126          0
   139          0
   140          1
   168         43
   169          5
   170          0