##TITLE=Library Entry 13503
##JCAMP-DX=Revision 4.10 
##DATA TYPE=MASS SPECTRUM
##SAMPLE DESCRIPTION=Humboldt-Universitat zu Berlin, Department of Chemistry
, Analytical Group
##NAMES=HP
##CAS NAME=Chloro-(phenylhydrazono)acetic acid, 2-methyl ester
##MOLFORM=C13H17ClN2O2
##CAS REGISTRY NO=177981-93-0
##MP= -300
##BP= -300
##MW= 268
##$RETENTION INDEX=0
##$CONDENSED SPECTRUM=NO
##NPOINTS= 141
##XYDATA=(XY..XY) 1 
    12          2
    13          1
    14          4
    15         30
    16          4
    17         30
    18        105
    19          1
    25          1
    26         26
    27        299
    28         80
    29        576
    30         20
    31         17
    35          3
    36         13
    37         13
    38         62
    39        464
    40         57
    41        453
    42         58
    43        999
    44         43
    45          9
    46          1
    47          3
    48          1
    49          3
    50         25
    51         83
    52         43
    53         28
    54         28
    55        107
    56         10
    57         72
    58          5
    59          1
    60          1
    61          7
    62         34
    63         84
    64        123
    65        670
    66         62
    67          9
    68          2
    69         24
    70         10
    71        199
    72         11
    73          2
    74          4
    75          5
    76          7
    77         87
    78         12
    79          4
    81          2
    82          1
    83          3
    84          1
    85          2
    86          1
    87          1
    88          3
    89          8
    91        738
    92        589
    93        117
    94          9
    95          2
    96          1
    97          3
    98          1
    99          3
   100          1
   101          1
   102          1
   103          1
   104          1
   105         10
   106          3
   107         11
   108          2
   109          1
   111          2
   112          1
   113          1
   114         28
   115          3
   116         11
   117         12
   118         84
   119        120
   120         66
   121          6
   123          2
   124          3
   125          6
   126          3
   127         10
   128          1
   129          3
   132          2
   133          4
   134          2
   140          1
   141          2
   144          6
   145         74
   146          7
   147          3
   149          1
   152        470
   153        101
   154        161
   155         32
   156          3
   162         57
   163          7
   180         34
   181         59
   182         16
   183         18
   184          1
   196          3
   198        938
   199         95
   200        294
   201         31
   202          3
   225          1
   239          1
   268        201
   269         32
   270         66
   271          9
   272          1