##TITLE=Library Entry 32193
##JCAMP-DX=Revision 4.10 
##DATA TYPE=MASS SPECTRUM
##SAMPLE DESCRIPTION=NIST Mass Spectrometry Data Center, 1994
##NAMES=HP
##CAS NAME=cis-1,2-Dihydrocatechol
##MOLFORM=C6H8O2
##CAS REGISTRY NO=17793-95-2
##MP= -300
##BP= -300
##MW= 112
##$RETENTION INDEX=0
##$CONDENSED SPECTRUM=NO
##NPOINTS= 54
##XYDATA=(XY..XY) 1 
    13          9
    14          9
    17         17
    18          7
    26         59
    27        197
    28         26
    29        269
    30         24
    37        102
    38        180
    39        655
    40        236
    41         90
    42         62
    43         24
    44          6
    47         44
    49         30
    50        146
    51        180
    52         55
    53        181
    54         39
    55        406
    56         27
    57         40
    60         12
    61         48
    62         69
    63        128
    64         42
    65        405
    66        999
    67        106
    68        208
    69         26
    75         14
    76         18
    77        102
    78         49
    79         20
    80         14
    81         68
    82         27
    83        255
    84         26
    94        724
    95         82
    97         23
   111         10
   112        130
   113          8
   114          0