##TITLE=Library Entry 99879
##JCAMP-DX=Revision 4.10 
##DATA TYPE=MASS SPECTRUM
##SAMPLE DESCRIPTION=Chemical Concepts
##NAMES=HP
##CAS NAME=4,4'-Thiobis[2-methyl-6-(1-methyl-1-phenylethyl)phenol]
##MOLFORM=C32H34O2S
##CAS REGISTRY NO=17818-01-8
##MP= -300
##BP= -300
##MW= 482
##$RETENTION INDEX=0
##$CONDENSED SPECTRUM=NO
##NPOINTS= 230
##XYDATA=(XY..XY) 1 
    34          9
    35          4
    36          4
    37          9
    39        141
    40         77
    41        480
    43        133
    44         50
    45         52
    47          7
    50         24
    51        129
    53         99
    55         99
    57         85
    59         36
    60          6
    61          4
    62          6
    63         32
    65         89
    66         15
    67         34
    69         57
    70         25
    71         36
    73         21
    75         20
    77        316
    78         95
    79        139
    80         17
    81         13
    82         13
    83         25
    84         15
    85         15
    86          8
    88          6
    89         21
    91        783
    92         57
    93         15
    94          8
    95         15
    96          8
    97         31
    98         20
    99          8
   100          3
   103        610
   104         79
   105         75
   106         12
   107         44
   108         50
   109         24
   111         32
   112         18
   113         11
   114          9
   115        115
   116         23
   117         45
   119        999
   120         87
   121         44
   122         18
   124          8
   125          7
   126         10
   127         30
   128         59
   129         34
   130          9
   131         34
   132         27
   133         46
   134         21
   135         46
   136         13
   137         10
   138          6
   139         36
   140         11
   141         56
   142         23
   143         10
   144          4
   145         10
   146          8
   147         31
   148         51
   149         49
   150         16
   151         34
   152         90
   153         51
   154         22
   155         26
   156         11
   157          8
   158          4
   159          4
   161          5
   163         15
   164         47
   165        304
   166        131
   167         63
   168         14
   169          9
   170          6
   171         27
   172          5
   173          5
   175          5
   176         13
   177         33
   178        102
   179        116
   180        131
   181         80
   182         33
   183         23
   184         35
   185         21
   186          7
   187         46
   188         11
   189         17
   190         15
   191         47
   192         24
   193         29
   194         93
   195        175
   196         43
   197         58
   198         53
   199         15
   200          6
   201          6
   202         39
   203          8
   205          8
   206          9
   207         41
   208        137
   209        327
   210        145
   211        673
   212        107
   213         25
   214          6
   215          8
   217          3
   218          3
   219          6
   220          3
   221          6
   222         10
   223         28
   224         70
   225         80
   226        629
   227        152
   228         21
   229          6
   233          7
   234          5
   239          7
   240          8
   241         52
   242         15
   243         39
   244          9
   245          5
   246         12
   247          3
   252          2
   253          4
   254          3
   255          6
   256          5
   257         40
   258         15
   259          7
   269          3
   271          3
   283          5
   285          3
   286          3
   287         14
   288          4
   301          4
   315          3
   343          3
   346          2
   347          7
   349        138
   350         28
   351         10
   358          9
   359          4
   362          3
   363         10
   364         42
   365         12
   366          4
   405          4
   462          3
   463          3
   464          5
   466          9
   467        167
   468         70
   469         18
   470          4
   476          4
   477          6
   478         13
   479          9
   480         15
   482        734
   483        271
   484         75
   485         16
   486          2