##TITLE=Library Entry 17615
##JCAMP-DX=Revision 4.10 
##DATA TYPE=MASS SPECTRUM
##SAMPLE DESCRIPTION=Chemical Concepts
##NAMES=HP
##CAS NAME=9,12,15,18,21,24-Hexaoxa(2,16)[30]paracyclophane
##MOLFORM=C24H32O6
##CAS REGISTRY NO=178160-10-6
##MP= -300
##BP= -300
##MW= 416
##$RETENTION INDEX=0
##$CONDENSED SPECTRUM=NO
##NPOINTS= 251
##XYDATA=(XY..XY) 1 
    25          4
    27         50
    28         70
    29         53
    30         15
    31        104
    36          0
    38          0
    39         11
    41         52
    42         18
    43        214
    44         79
    45        999
    46         22
    47          1
    50          2
    51         15
    52         23
    53          8
    54          1
    55         20
    56          2
    57         20
    58         26
    59         81
    60          3
    61          2
    62          0
    63          9
    64         10
    65         18
    66          8
    67         36
    68          0
    69         15
    70          1
    71         71
    72         34
    73        143
    74          6
    76         17
    77         75
    78        338
    79         43
    80          4
    81          1
    82          4
    83          6
    85          1
    86          6
    87        166
    88         16
    89        549
    90        578
    91        168
    92         49
    93         15
    94         33
    95          3
    96          2
    97          5
    98          2
    99          3
   100          0
   101          8
   102          8
   103         34
   104         35
   105         80
   106        392
   107        614
   108         76
   109          8
   110          1
   111         19
   112         14
   113          6
   114          1
   115         60
   116         11
   117         41
   118         17
   119         49
   120        130
   121        114
   122         13
   123          1
   125          0
   126          1
   127         28
   128         13
   129          8
   130          1
   131         59
   132         23
   133        886
   134        304
   135        220
   136         23
   137          2
   138          0
   139          5
   140          1
   141         11
   142          4
   143          0
   144          3
   145         16
   146         11
   147         69
   148         11
   149         70
   150         19
   151         63
   152         30
   153         14
   154          3
   155          6
   156          1
   157          5
   158          2
   159        277
   160         42
   161         37
   162          5
   163         23
   164          9
   165         60
   166         16
   167          9
   168          3
   169          2
   170          1
   171          1
   172          0
   173          4
   174          0
   175          7
   176          5
   177        311
   178         74
   179         64
   180          9
   181          6
   182          2
   183          4
   184          3
   185         17
   186          2
   187          1
   188          0
   189          1
   190          2
   191          5
   192          2
   193          7
   194          4
   195        103
   196         20
   197         26
   198          4
   199          0
   201          0
   202          0
   203         58
   204         10
   205          4
   206          0
   207          3
   208         15
   209          7
   210          4
   211          9
   212         13
   213          3
   214          2
   215          0
   216          0
   217          0
   219          1
   220          1
   221        135
   222         29
   223         12
   224          2
   225          5
   226          2
   228          0
   234          0
   235          0
   236          0
   237          4
   238          3
   239         42
   240         12
   241          2
   247          3
   248          1
   249          0
   251          2
   252          0
   253          3
   254          0
   255          1
   256          2
   258          0
   265         10
   266          3
   267          1
   269          1
   270          0
   281          0
   282          0
   283         10
   284          5
   285          1
   286          0
   291          0
   295          0
   297          0
   299          0
   300          2
   301          0
   306          0
   309          2
   310          4
   311          0
   312          0
   313          2
   314          0
   327          0
   328         55
   329         11
   330          2
   343          0
   344          0
   357          0
   372          1
   373          0
   383          0
   384          2
   385          0
   388          0
   414          1
   415          1
   416        847
   417        218
   418         44
   419          5
   420          0