##TITLE=Library Entry 70381
##JCAMP-DX=Revision 4.10 
##DATA TYPE=MASS SPECTRUM
##SAMPLE DESCRIPTION=Chemical Concepts
##NAMES=HP
##CAS NAME=5-Hexenoic acid, (9-decen-2-yl) ester
##MOLFORM=C16H28O2
##CAS REGISTRY NO=178110-79-7
##MP= -300
##BP= -300
##MW= 252
##$RETENTION INDEX=0
##$CONDENSED SPECTRUM=NO
##NPOINTS= 148
##XYDATA=(XY..XY) 1 
    26          2
    27         66
    28          6
    29        122
    30          3
    31          2
    38          0
    39         91
    41        610
    42         66
    43        133
    44          5
    45         18
    50          0
    51          3
    52          2
    53         41
    54        270
    55        774
    56         74
    57         93
    58         13
    59          8
    60         79
    61          2
    62          0
    63          0
    65          8
    66         28
    67        277
    68        535
    69        740
    70         55
    71         60
    72         11
    73        144
    74          6
    77          4
    78          1
    79         29
    80         25
    81        309
    82        313
    83        394
    84         44
    85         11
    86          8
    87          3
    91          3
    92          2
    93          9
    94         22
    95        173
    96        585
    97        999
    98         83
    99         32
   100          3
   101          1
   104          0
   106          2
   107          6
   108         20
   109        143
   110        187
   111         26
   112         14
   113         20
   114        836
   115        268
   116         21
   117          2
   119          2
   120          0
   121         11
   122          9
   123         29
   124         49
   125         29
   126         11
   127          4
   128          2
   129          0
   131          0
   132          0
   133          1
   134          0
   135          6
   136         13
   137         20
   138        180
   139         61
   140         11
   141         10
   142          3
   147          0
   148          0
   149          7
   150         20
   151         16
   152         14
   153          7
   154         21
   155          8
   156          3
   159          0
   161          0
   163         27
   164         21
   165         18
   166         12
   167         11
   168         29
   169          5
   170          0
   173          0
   175          0
   177         12
   178          5
   179          4
   180          1
   181          9
   182         17
   183          4
   184          0
   187          0
   190          0
   191          7
   192         15
   193          4
   195          5
   196          8
   197          1
   198          0
   205          8
   206         19
   207          4
   209          6
   210          9
   211          1
   223          6
   224          2
   234          6
   235          0
   237          7
   238          1
   252         18
   253          5