##TITLE=Library Entry 109714
##JCAMP-DX=Revision 4.10 
##DATA TYPE=MASS SPECTRUM
##SAMPLE DESCRIPTION=A.A.Kutin, Moscow, Russia
##NAMES=HP
##CAS NAME=Propenoic acid, 3-(trans-3-phenyl-2-oxiranyl)-, ethyl ester
##MOLFORM=C13H14O3
##CAS REGISTRY NO=178150-32-8
##MP= -300
##BP= -300
##MW= 218
##$RETENTION INDEX=0
##$CONDENSED SPECTRUM=NO
##NPOINTS= 134
##XYDATA=(XY..XY) 1 
    34          2
    35          0
    37          2
    39         97
    40          5
    41        282
    42        143
    43        117
    44          7
    45         98
    46          2
    47          3
    48         28
    49         40
    50          5
    51         11
    52          6
    53         38
    54         11
    55        442
    56         46
    57         30
    58          9
    59         37
    60        168
    61         96
    62          4
    63         31
    65         38
    66         10
    67         78
    68        163
    69        500
    70        209
    71         55
    73        232
    74         21
    75          3
    77         14
    78          4
    79         94
    80         26
    81         54
    82         12
    83        257
    84         19
    85         16
    86         28
    87         58
    88        348
    89         38
    91        253
    92         37
    93          2
    94          1
    95         33
    96        115
    97        418
    98        113
    99         34
   101        537
   102         40
   103          4
   104         14
   105         21
   106          4
   107         19
   108          6
   109          1
   110          1
   111          4
   112          2
   113         30
   114        170
   115         98
   116         29
   117         15
   118          9
   119          3
   120         12
   121          2
   122          0
   123         23
   124        248
   125        999
   126        115
   127         25
   128        109
   129        719
   130         65
   131         16
   132         10
   133          7
   134          8
   135          0
   136          0
   137          0
   138          1
   139          2
   141         38
   142        277
   143        255
   144         57
   145         13
   146          6
   147          7
   151          0
   153         33
   154          5
   155          4
   156          0
   157          1
   159          6
   160          4
   161          2
   170        148
   171        675
   172         72
   173         24
   174         18
   175          2
   178          1
   181          1
   183          1
   187         42
   188         10
   189          5
   198          4
   199          3
   200          0
   215          1
   216          2
   217         12
   218          2