##TITLE=Library Entry 37956
##JCAMP-DX=Revision 4.10 
##DATA TYPE=MASS SPECTRUM
##SAMPLE DESCRIPTION=A.A.Kutin, Moscow, Russia
##NAMES=HP
##CAS NAME=[3-Nitro-5-(pyrrolidine-1-carbonyl)-phenyl]-pyrrolidin-1-yl-metha
none
##MOLFORM=C16H19N3O4
##CAS REGISTRY NO=178159-96-1
##MP= -300
##BP= -300
##MW= 317
##$RETENTION INDEX=0
##$CONDENSED SPECTRUM=NO
##NPOINTS= 229
##XYDATA=(XY..XY) 1 
    34          0
    37          0
    38          1
    39         18
    40         12
    41         50
    42         68
    43         30
    44         11
    45          1
    46          0
    48          0
    50          6
    51          5
    52          2
    53          7
    55        124
    56         77
    57          8
    58          2
    59          0
    60          2
    61          0
    62          3
    63         12
    64          7
    65          6
    66          2
    67          4
    68         14
    70        999
    71         50
    72         63
    74         31
    75        204
    76         48
    77         14
    78          6
    79          4
    80          2
    81          2
    82          2
    83          3
    84          3
    86          7
    87          3
    88          3
    89         21
    90         31
    91         19
    92         12
    93          4
    94          2
    95          2
    96          1
    98        108
    99          7
   100          9
   101          8
   102          8
   103         73
   104         67
   105         16
   106          9
   107          4
   108          3
   109          3
   110          3
   111          1
   112          4
   113          2
   114          2
   115         13
   116         17
   117         32
   118         31
   119         16
   120         12
   121          8
   122          4
   123         16
   124          2
   125          1
   127          7
   128          7
   129          7
   130         12
   131         11
   132         30
   133         15
   134          5
   135          5
   136          2
   137          1
   138          0
   139          1
   140          1
   141          2
   142          3
   143          8
   144         53
   145         33
   146         11
   147         20
   148         11
   149         58
   150         32
   151          3
   152          1
   153          0
   154          4
   155          2
   156          1
   157          2
   158          6
   159         14
   160          5
   161          2
   162          7
   163          5
   164          4
   165          1
   166          0
   167          0
   168          0
   169          0
   170          2
   171         14
   172         47
   173         51
   174         74
   175         15
   176          4
   178        521
   179         43
   180          5
   181          0
   182          0
   183          0
   185          4
   186          3
   187          4
   188          2
   189          3
   190         17
   191          8
   192         39
   193          5
   194          1
   195          0
   196          0
   197          0
   198          0
   199          2
   200          4
   201         29
   202         14
   203          6
   204          7
   205         10
   206          1
   207          0
   213          0
   214          1
   215          2
   216          9
   217         40
   218         80
   219         66
   220        326
   221         36
   222          4
   223          0
   225          0
   226          0
   227          0
   228          1
   229          7
   230          2
   231         10
   232         10
   233          2
   234          9
   235          1
   236          0
   241          0
   242          3
   243          1
   244          2
   245         18
   246          9
   247         96
   248         20
   249          3
   255          0
   256          0
   257          0
   258          0
   259          1
   260          2
   261          3
   262          2
   263          1
   264          0
   270         19
   271          4
   272          2
   274          5
   275          5
   276          1
   279          3
   280          0
   281          0
   283          1
   284          0
   286          0
   288         53
   289         34
   290          5
   291          0
   299          2
   300         48
   301         10
   302          1
   303          0
   316         43
   317         82
   318         15
   319          1