##TITLE=Library Entry 65169
##JCAMP-DX=Revision 4.10 
##DATA TYPE=MASS SPECTRUM
##SAMPLE DESCRIPTION=Exported from NIST MS Search
##NAMES=HP
##CAS NAME=1,4:5,12:6,11:7,10-Tetramethanodibenzo[b,h]biphenylene, 1,4,4a,5,
5a,5b,6,6a,7,10,10a,11,11a,11b,12,12a-hexadecahydro-
##MOLFORM=C24H28
##CAS REGISTRY NO=17829-32-2
##MP= -300
##BP= -300
##MW= 316
##$RETENTION INDEX=0
##$CONDENSED SPECTRUM=NO
##NPOINTS= 97
##XYDATA=(XY..XY) 1 
    26         39
    27        150
    37         15
    38         31
    39        365
    40        111
    41        373
    42        134
    43         31
    50         39
    51        142
    52         71
    53        150
    54         15
    55         31
    62         23
    63         79
    64         31
    65        341
    66        666
    67        460
    68         28
    76         15
    77        547
    78        253
    79        761
    80        230
    81         55
    89         47
    90         23
    91        912
    92        999
    93        761
    94         79
    95         39
   103         39
   104        190
   105        317
   106        111
   107         39
   115        349
   116        190
   117        611
   118        444
   119        317
   120         39
   127         47
   128        285
   129        499
   130        380
   131        603
   132        142
   133         47
   140         95
   141        219
   142        222
   143        230
   144        325
   145        119
   146         19
   152         47
   153         63
   154         47
   155        190
   156        187
   157        230
   158        277
   159         95
   165         55
   167         79
   168         39
   169        111
   170        119
   171         79
   172         23
   179         15
   180         23
   181         55
   182         31
   183        158
   184        277
   185         79
   195         31
   196         15
   209         31
   221         31
   223        127
   224        230
   225         31
   235         23
   236         87
   237         47
   249        325
   250        293
   251         63
   316        190
   317         50