##TITLE=Library Entry 51653
##JCAMP-DX=Revision 4.10 
##DATA TYPE=MASS SPECTRUM
##SAMPLE DESCRIPTION=A.A.Kutin, Moscow, Russia
##NAMES=HP
##CAS NAME=Benzene, 1-methyl-4-(4-morpholyl)ethenylsulfonyl-
##MOLFORM=C13H17NO3S
##CAS REGISTRY NO=17825-95-5
##MP= -300
##BP= -300
##MW= 267
##$RETENTION INDEX=0
##$CONDENSED SPECTRUM=NO
##NPOINTS= 175
##XYDATA=(XY..XY) 1 
    33         23
    34         25
    35          1
    36          6
    37         15
    38         48
    39        351
    40        160
    41        454
    42        586
    43        147
    44        110
    45        149
    46         15
    47         20
    48         28
    49         12
    50         72
    51        127
    52        108
    53        205
    54        422
    55        615
    56        230
    57        112
    58         56
    59         55
    60         11
    61         17
    62         53
    63        160
    64         88
    65        467
    66         51
    67         75
    68        119
    69         60
    70         68
    72        181
    73         20
    74         20
    75         42
    76         18
    77         95
    78         49
    79         55
    80         90
    81        110
    82        999
    83        111
    84        141
    85        300
    86        118
    87         32
    88         15
    89        122
    90         74
    91        523
    92        190
    93         34
    94         67
    95         26
    97         29
    98         41
   100         41
   102         34
   103         29
   104         16
   105         90
   106         26
   107         31
   108         25
   109         36
   110         50
   111        296
   112        824
   113        100
   114         22
   115         50
   116         26
   117         46
   118         93
   119        137
   120         16
   121         13
   122          9
   123         25
   124         32
   125          8
   126          9
   127         10
   128         31
   129         22
   130        122
   131         48
   132         28
   133          7
   134          6
   135          6
   136          3
   137         11
   139         90
   140         22
   141         14
   142         24
   143         35
   144        160
   145         42
   146         11
   147          4
   148          3
   149          7
   150          2
   151          5
   152          1
   153          2
   155         23
   156         15
   157         14
   158         35
   159         56
   160         13
   161          5
   162          2
   163          7
   164          1
   165         13
   166          1
   168          0
   170          2
   171          5
   172         37
   173          6
   174          2
   175          1
   176         17
   177          4
   178          2
   179          2
   181          3
   182          2
   183          2
   184          1
   188          9
   189          2
   190          2
   191          1
   196          5
   197          2
   200          2
   201          5
   202         40
   203         56
   204          7
   205          0
   210          4
   220          8
   221          1
   222          8
   224         94
   225         12
   226          5
   233          0
   234          2
   235          3
   236         17
   237          3
   238          0
   250          6
   263          1
   265         23
   267        257
   268         38
   269         15
   270          1