##TITLE=Library Entry 15822
##JCAMP-DX=Revision 4.10 
##DATA TYPE=MASS SPECTRUM
##SAMPLE DESCRIPTION=NIST Mass Spectrometry Data Center, 1994
##NAMES=HP
##CAS NAME=Methanimidamide, N,N-dimethyl-N'-phenyl-
##MOLFORM=C9H12N2
##CAS REGISTRY NO=1783-25-1
##MP= -300
##BP= -300
##MW= 148
##$RETENTION INDEX=1385
##$CONDENSED SPECTRUM=NO
##NPOINTS= 76
##XYDATA=(XY..XY) 1 
    12          1
    13          4
    14         20
    15        276
    16          2
    17          0
    18         67
    26         20
    27         63
    28        169
    29         15
    30        226
    37         25
    38         55
    39        126
    40         43
    41         73
    42        497
    43         68
    44        999
    45        180
    46          6
    50        187
    51        470
    52         67
    53         12
    54          9
    55          8
    56         11
    57         80
    61         13
    62         21
    63         55
    64         45
    65         55
    66         14
    67          6
    68          2
    69          6
    71          6
    73         46
    74         71
    75         47
    76         91
    77        909
    78        113
    79         90
    80          7
    81          2
    83          5
    87          2
    88          3
    89          3
    90         11
    91         57
    92         23
    93          8
   104        373
   105         84
   106        519
   107         46
   116          7
   117         10
   118         29
   119         17
   120        114
   121         11
   131         40
   132         60
   133        306
   134         32
   145         11
   147        453
   148        686
   149         68
   150          3