##TITLE=Library Entry 57920
##JCAMP-DX=Revision 4.10 
##DATA TYPE=MASS SPECTRUM
##SAMPLE DESCRIPTION=Japan AIST/NIMC Database- Spectrum MS-IW-8042
##NAMES=HP
##CAS NAME=3-Chloro-2,2-bis(chloromethyl)propanoic acid
##MOLFORM=C5H7Cl3O2
##CAS REGISTRY NO=17831-70-8
##MP= -300
##BP= -300
##MW= 204
##$RETENTION INDEX=0
##$CONDENSED SPECTRUM=NO
##NPOINTS= 143
##XYDATA=(XY..XY) 1 
    12          3
    13          1
    14          4
    15          4
    16         11
    17          5
    18         29
    22          4
    25          4
    26         39
    27        219
    28         35
    29         21
    30          6
    31          8
    35         30
    36        276
    37         38
    38        108
    39        392
    40         59
    41         67
    42          6
    43          9
    44        529
    45         60
    46          4
    47         13
    48         12
    49        226
    50         63
    51        187
    52         59
    53        768
    54         50
    55         34
    56          2
    57          8
    59          1
    60          8
    61         47
    62        122
    63         52
    64         39
    65         16
    66          1
    67          4
    68          5
    69         38
    70          3
    71          7
    72          5
    73         43
    74         14
    75        432
    76         19
    77        143
    78          7
    79         14
    80          1
    81          1
    83        216
    84         10
    85         34
    86          3
    87        124
    88        999
    89        773
    90        381
    91        249
    92         11
    93          7
    94          1
    95          2
    96          9
    97        110
    98          8
    99         12
   101          2
   102          5
   103        324
   104         16
   105        115
   106          6
   107          4
   108          1
   109         29
   110          3
   111         19
   112          1
   113          5
   115          7
   117          2
   119        337
   120         16
   121        110
   122         15
   123         81
   124        168
   125         59
   126        105
   127         14
   128         17
   129          1
   132         10
   133        312
   134         21
   135        101
   136          9
   137          7
   138         86
   139          8
   140         55
   141          4
   142          9
   143          2
   149          2
   151          1
   153          1
   155        529
   156         23
   157        341
   158         30
   159         64
   160         17
   161          9
   162          5
   163          5
   164          1
   165          1
   168          3
   169        150
   170          9
   171         97
   172          6
   173         16
   174          1
   177          1
   187          3
   189          3
   191          1
   205          1
   207          2