##TITLE=Library Entry 83005
##JCAMP-DX=Revision 4.10 
##DATA TYPE=MASS SPECTRUM
##SAMPLE DESCRIPTION=NIST Mass Spectrometry Data Center, 1998.
##NAMES=HP
##CAS NAME=Benzenamine, 3-(methylthio)-
##MOLFORM=C7H9NS
##CAS REGISTRY NO=1783-81-9
##MP= -300
##BP= -300
##MW= 139
##$RETENTION INDEX=0
##$CONDENSED SPECTRUM=NO
##NPOINTS= 99
##XYDATA=(XY..XY) 1 
    14          1
    15          6
    26          2
    27          6
    28         19
    29          1
    30          3
    32          1
    33          1
    36          1
    37          9
    38         31
    39         97
    40         13
    41         29
    42         12
    43          1
    44          2
    45         70
    46         20
    47         15
    48          3
    49          4
    50         20
    51         31
    52         61
    53         75
    54         27
    55          2
    56          2
    57         13
    58         10
    59          5
    60          8
    61         15
    62         40
    63         90
    64         50
    65        174
    66         88
    67         29
    68          2
    69         45
    70         32
    71         15
    72          5
    73          3
    74          9
    75          6
    76          7
    77         46
    78         28
    79         47
    80        426
    81         33
    82         15
    83          7
    84         14
    85          6
    86          2
    87          2
    88          2
    89          6
    90         19
    91         38
    92         46
    93        191
    94        129
    95         30
    96         42
    97         75
    98          7
    99          5
   100          1
   102          1
   104         17
   106        999
   107         84
   108          6
   109          6
   110          3
   111         44
   112          6
   113          2
   119          1
   120          1
   121         10
   122         15
   123         22
   124         65
   125          6
   126          3
   136          5
   137          2
   138         21
   139        934
   140         86
   141         46
   142          3