##TITLE=Library Entry 57784
##JCAMP-DX=Revision 4.10 
##DATA TYPE=MASS SPECTRUM
##SAMPLE DESCRIPTION=Chemical Concepts
##NAMES=HP
##CAS NAME=D-Aspartic acid
##MOLFORM=C4H7NO4
##CAS REGISTRY NO=1783-96-6
##MP= -300
##BP= -300
##MW= 133
##$RETENTION INDEX=0
##$CONDENSED SPECTRUM=NO
##NPOINTS= 74
##XYDATA=(XY..XY) 1 
    26         47
    27        115
    28        648
    29         72
    30         75
    31         16
    33          0
    34          1
    35          1
    36          6
    37          3
    38          9
    39         20
    41        118
    42        430
    43        652
    44        112
    45        175
    46        286
    47          6
    50          0
    51          3
    52          4
    53         17
    54         14
    55         25
    56          8
    57          3
    58          1
    59          2
    60         49
    61          2
    62          1
    64          0
    65          0
    66          0
    67          0
    68         17
    69         14
    70        664
    71         30
    72         10
    73         10
    74        129
    75          6
    77          1
    78          1
    79          1
    81          2
    82          2
    86         10
    87         76
    88        999
    89         43
    90          5
    91          2
    94          1
    95          1
    96          1
    97          2
    98          4
    99          6
   105          1
   106          1
   107          2
   108          1
   115         10
   116          4
   117          1
   120          1
   123          1
   126          1
   130          1
   134          8