##TITLE=Library Entry 48667
##JCAMP-DX=Revision 4.10 
##DATA TYPE=MASS SPECTRUM
##SAMPLE DESCRIPTION=NIST Mass Spectrometry Data Center
##NAMES=HP
##CAS NAME=8,11,14-Eicosatrienoic acid, (Z,Z,Z)-
##MOLFORM=C20H34O2
##CAS REGISTRY NO=1783-84-2
##MP= -300
##BP= -300
##MW= 306
##$RETENTION INDEX=2346
##$CONDENSED SPECTRUM=NO
##NPOINTS= 213
##XYDATA=(XY..XY) 1 
    15          1
    26          3
    27         62
    28         12
    29        137
    30          4
    31          7
    37          1
    38          1
    39        110
    40         18
    41        527
    42         53
    43        195
    44          7
    45         60
    46          1
    47          1
    50          4
    51         19
    52         16
    53        118
    54        190
    55        584
    56         44
    57        114
    58          9
    59         21
    60         66
    61          5
    62          1
    63          5
    64          3
    65        110
    66        153
    67        893
    68        188
    69        243
    70         25
    71         62
    72          5
    73        115
    74         10
    75          4
    77        291
    78        178
    79        999
    80        863
    81        610
    82        196
    83        109
    84         20
    85         66
    86          5
    87         47
    88          4
    89          3
    91        406
    92        106
    93        580
    94        387
    95        395
    96        150
    97         74
    98         16
    99         11
   100          2
   101         24
   102          5
   103         19
   104         15
   105        118
   106         47
   107        241
   108        122
   109        109
   110         52
   111         25
   112          6
   113         11
   114          5
   115         25
   116          9
   117         49
   118         10
   119         53
   120         19
   121        187
   122         70
   123         46
   124         35
   125         15
   126         10
   127         14
   128         10
   129         23
   130          6
   131         22
   132          6
   133         37
   134         12
   135        130
   136         57
   137         46
   138         17
   139         10
   140         13
   141          4
   142          1
   143         11
   144          4
   145          9
   146          4
   147         18
   148         21
   149         51
   150        219
   151         35
   152          7
   153          8
   154          7
   155          2
   156          1
   157          7
   158          2
   159         16
   160          3
   161         21
   162          8
   163         33
   164         22
   165          8
   166          5
   167          6
   168          6
   169          1
   170          1
   171         11
   172          3
   173          4
   174          1
   175         10
   176          3
   177         36
   178         15
   179          9
   180          4
   181          4
   182          6
   183          1
   184          1
   185         11
   186          2
   187          1
   188          1
   189          6
   190          2
   191         12
   192          4
   193          4
   194          5
   195         14
   196          5
   197          1
   199          3
   200          1
   201          1
   202          1
   203          8
   204          1
   205          4
   206          2
   207          5
   208        111
   209         20
   210          3
   211          1
   213          1
   217          2
   218          1
   219          2
   220          1
   221         12
   222          8
   223          2
   224          1
   231          1
   233          1
   234          1
   235         15
   236          9
   237          2
   238          2
   239          1
   246          1
   247          1
   249          9
   250          3
   251          1
   252          8
   253          2
   263          3
   264          2
   265          3
   266          1
   277          2
   278          2
   279          1
   289          1
   292          1
   306         35
   307          8
   308          1