##TITLE=Library Entry 57757
##JCAMP-DX=Revision 4.10 
##DATA TYPE=MASS SPECTRUM
##SAMPLE DESCRIPTION=GAZ DE FRANCE DETN., BP 33, 93-LA PLAINE SAINT-DENIS, F
RANCE
##NAMES=HP
##CAS NAME=Thietane, 2-methyl-
##MOLFORM=C4H8S
##CAS REGISTRY NO=17837-41-1
##MP= -300
##BP= -300
##MW= 88
##$RETENTION INDEX=723
##$CONDENSED SPECTRUM=NO
##NPOINTS= 49
##XYDATA=(XY..XY) 1 
    15         17
    25          8
    26         80
    27        298
    37         17
    38         23
    39        172
    41        155
    42         97
    43         27
    45        425
    46        609
    47        258
    48         38
    49         20
    50         20
    51         21
    52          6
    53         50
    54        143
    55        229
    56         23
    57         31
    58         80
    59        206
    60        873
    61         47
    62         40
    63          2
    64          2
    69         15
    70          4
    71         23
    72          6
    73        155
    74          8
    75          8
    76          8
    81          3
    82          3
    83          4
    84          3
    85         16
    86          2
    87         24
    88        999
    89         54
    90         44
    91          3