##TITLE=Library Entry 32673
##JCAMP-DX=Revision 4.10 
##DATA TYPE=MASS SPECTRUM
##SAMPLE DESCRIPTION=NIST Mass Spectrometry Data Center
##NAMES=HP
##CAS NAME=5-Hexenal, 4-methylene-
##MOLFORM=C7H10O
##CAS REGISTRY NO=17844-21-2
##MP= -300
##BP= -300
##MW= 110
##$RETENTION INDEX=897
##$CONDENSED SPECTRUM=NO
##NPOINTS= 39
##XYDATA=(XY..XY) 1 
    26          3
    27         84
    29         27
    37          5
    38         17
    39        195
    40         65
    41        211
    42         40
    50         69
    51        117
    52         54
    53        336
    54        101
    55         64
    62         11
    63         28
    65        124
    66         63
    67        999
    68        770
    69         49
    74         13
    75          4
    77        105
    79        176
    80         15
    81        120
    82        269
    83         21
    87          3
    91         34
    92         13
    94          3
    95         78
    96          3
   109         10
   110         66
   111          5