##TITLE=Library Entry 114881
##JCAMP-DX=Revision 4.10 
##DATA TYPE=MASS SPECTRUM
##SAMPLE DESCRIPTION=Zaikin V.G., TIPS RAS, Moscow, Russia
##NAMES=HP
##CAS NAME=Benzoic acid, 4-cyano-, phenyl ester
##MOLFORM=C14H9NO2
##CAS REGISTRY NO=17847-33-5
##MP= -300
##BP= -300
##MW= 223
##$RETENTION INDEX=1884
##$CONDENSED SPECTRUM=NO
##NPOINTS= 25
##XYDATA=(XY..XY) 1 
    28          1
    38          3
    39         19
    50         11
    51         22
    52          3
    63          6
    64          3
    65         21
    66          3
    74          5
    75         31
    76         20
    77          6
    93          3
    94          7
   101          5
   102        229
   103         20
   130        999
   131         75
   132          4
   147          5
   223        100
   224         16