##TITLE=Library Entry 63785
##JCAMP-DX=Revision 4.10 
##DATA TYPE=MASS SPECTRUM
##SAMPLE DESCRIPTION=V.G.Zaikin,TIPS,Russian Acad.Sci.Moscow
##NAMES=HP
##CAS NAME=Tripropylsilyloxymethylbenzene
##MOLFORM=C16H28OSi
##CAS REGISTRY NO=17841-19-9
##MP= -300
##BP= -300
##MW= 264
##$RETENTION INDEX=0
##$CONDENSED SPECTRUM=NO
##NPOINTS= 74
##XYDATA=(XY..XY) 1 
    26         25
    27        162
    28         24
    29         32
    30          6
    31         12
    37         11
    38         12
    39        137
    40         29
    41        209
    42        175
    43         75
    44         28
    45        219
    46         13
    47         69
    50          9
    51         25
    52          6
    55          9
    57          8
    58          8
    59         41
    60         15
    61         52
    62          5
    63         22
    64          9
    65        149
    66          7
    67          6
    68          6
    71         17
    72          5
    73         55
    74         22
    75         32
    76          6
    77         18
    78          6
    79         19
    87         13
    89         39
    90         19
    91        999
    92         93
   105         29
   106          9
   107         33
   115          9
   121          7
   131          5
   132          5
   135         39
   136         15
   137        345
   138         42
   139          9
   145         29
   149         61
   150          7
   151          7
   177         12
   178         11
   179        250
   180         49
   181         11
   218          8
   219          8
   220          8
   221        433
   222         75
   223         21