##TITLE=Library Entry 76639
##JCAMP-DX=Revision 4.10 
##DATA TYPE=MASS SPECTRUM
##SAMPLE DESCRIPTION=V.G.Zaikin, TIPS RAS, Moscow, Russia
##NAMES=HP
##CAS NAME=Silane, methoxytripropyl-
##MOLFORM=C10H24OSi
##CAS REGISTRY NO=17841-46-2
##MP= -300
##BP= -300
##MW= 188
##$RETENTION INDEX=0
##$CONDENSED SPECTRUM=NO
##NPOINTS= 63
##XYDATA=(XY..XY) 1 
    26         15
    27        109
    28          5
    29         39
    31         19
    37          3
    38          9
    39         74
    40         17
    41        118
    42         38
    43         56
    44         49
    45        113
    46          7
    47         19
    51          3
    52          7
    53          9
    55         18
    56          7
    57         18
    58         32
    59        385
    60         37
    61        521
    62         37
    63         23
    66          6
    67          4
    69          9
    70          7
    71         25
    72          9
    73         38
    74         31
    75        205
    76         18
    77         12
    78          3
    79          9
    83          4
    85          7
    86          4
    87         38
    88         35
    89         12
   101         17
   102         29
   103        999
   104        101
   105         42
   115          4
   116          4
   117          7
   129          4
   144          9
   145        753
   146        108
   147         38
   148          4
   188          4
   189          1