##TITLE=Library Entry 78754
##JCAMP-DX=Revision 4.10 
##DATA TYPE=MASS SPECTRUM
##SAMPLE DESCRIPTION=G. Lange, Inst. Org. Chem., Univ. Wurzburg, Germany
##NAMES=HP
##CAS NAME=2H-Pyran-2-one, 3-(4-nitrophenyl)-6-phenyl-
##MOLFORM=C17H11NO4
##CAS REGISTRY NO=178413-75-7
##MP= -300
##BP= -300
##MW= 293
##$RETENTION INDEX=0
##$CONDENSED SPECTRUM=NO
##NPOINTS= 62
##XYDATA=(XY..XY) 1 
    38          8
    39         16
    44         22
    47         16
    49          6
    50         36
    51        118
    52         12
    56         10
    62         27
    63         19
    64          7
    65         10
    66         10
    74          8
    75         23
    76         55
    77        522
    78         37
    82         21
    84          7
    87          9
    88         37
    89         13
    92          6
    94          7
    95          6
   102         18
   103         24
   104         20
   105        999
   106         77
   107          5
   113          7
   114         18
   115         12
   117         50
   119         46
   120          8
   121         22
   131          8
   134          6
   150         13
   151          7
   152          5
   160          5
   165         17
   178          7
   189         29
   190         14
   191         24
   207          6
   218          5
   219         31
   220          5
   235         25
   236          5
   265         96
   266         16
   293        111
   294         20
   295         19