##TITLE=Library Entry 26973
##JCAMP-DX=Revision 4.10 
##DATA TYPE=MASS SPECTRUM
##SAMPLE DESCRIPTION=A.A.Kutin, Moscow, Russia
##NAMES=HP
##CAS NAME=Propanediamide, N-ethylthiothiocarbonyl-N',N'-di(2-methylpropyl)-
##MOLFORM=C14H26N2O2S2
##CAS REGISTRY NO=178408-08-7
##MP= -300
##BP= -300
##MW= 318
##$RETENTION INDEX=0
##$CONDENSED SPECTRUM=NO
##NPOINTS= 124
##XYDATA=(XY..XY) 1 
    33         24
    35         37
    36          1
    37          1
    39         74
    41        451
    42        150
    43        217
    44         35
    45         17
    46         13
    47         23
    48          0
    49          0
    50          1
    51          3
    53          8
    55         93
    57        999
    58         56
    59         37
    60         54
    61         23
    62         32
    63         23
    64          5
    65          5
    66          1
    67          5
    69         61
    70         20
    72         96
    73          7
    75          7
    76         18
    77         17
    78          3
    79          2
    82          4
    84         29
    86        286
    87         13
    88          6
    89          3
    91          2
    92          3
    93         11
    94          1
    96          1
    98         20
   100        121
   101          7
   102          1
   103          1
   105         27
   106          2
   107          2
   112         11
   113          8
   114         18
   115          2
   116          1
   118          1
   119          2
   120          4
   122         14
   123          0
   124          3
   125          0
   126          2
   128         35
   129          3
   130          5
   131          2
   133          2
   134          2
   135          1
   136          0
   140          6
   142        108
   143          5
   144          0
   147          1
   148          1
   154         14
   156        586
   157         44
   159          0
   161          2
   162          0
   163          0
   169          1
   171          2
   182          9
   184         17
   185          0
   189          0
   190         14
   192          0
   196          7
   198         94
   199          9
   201          2
   213         14
   215          1
   241          1
   242          0
   243         42
   244          4
   245          1
   254          0
   255          2
   257        323
   258         40
   259         17
   260          1
   288          0
   304         11
   305          1
   306          0
   318         83
   319         12
   320          7
   321          0