##TITLE=Library Entry 46814
##JCAMP-DX=Revision 4.10 
##DATA TYPE=MASS SPECTRUM
##SAMPLE DESCRIPTION=Japan AIST/NIMC Database- Spectrum MS-NW-7146
##NAMES=HP
##CAS NAME=Benzenemethanol, 2-chloro-
##MOLFORM=C7H7ClO
##CAS REGISTRY NO=17849-38-6
##MP= -300
##BP= -300
##MW= 142
##$RETENTION INDEX=0
##$CONDENSED SPECTRUM=NO
##NPOINTS= 102
##XYDATA=(XY..XY) 1 
    14          2
    15          1
    18          2
    25          2
    26         12
    27         49
    28         24
    29         62
    30          7
    31         53
    32          2
    35          4
    36         18
    37         32
    38         54
    39        106
    40          8
    41          3
    42          2
    43         16
    44         11
    45          3
    47          3
    48          3
    49         23
    50        178
    51        289
    52         60
    53         79
    54          2
    55          7
    56          2
    57          1
    58          1
    59          1
    60          6
    61         27
    62         46
    63         87
    64         13
    65          8
    66          3
    67          1
    68          1
    69          3
    70         23
    71          8
    72          7
    73         33
    74         65
    75        123
    76         53
    77        999
    78        123
    79        866
    80         58
    81          3
    84         11
    85         22
    86         15
    87         13
    88          3
    89        109
    90         23
    91         10
    92          1
    96          1
    97          5
    98          1
    99         24
   100          2
   101          8
   102          1
   103          1
   104          3
   105        176
   106         89
   107        717
   108         57
   109          4
   110          2
   111         53
   112         25
   113        145
   114         17
   115         43
   116          3
   118          1
   123          6
   124         10
   125        105
   126         14
   127         34
   128          4
   139         30
   140          8
   141        113
   142        432
   143         66
   144        139
   145         11
   146          1