##TITLE=Library Entry 33429
##JCAMP-DX=Revision 4.10 
##DATA TYPE=MASS SPECTRUM
##SAMPLE DESCRIPTION=TNO Volatile Compounds in Food - Chemical Concepts
##NAMES=HP
##CAS NAME=2H-Pyran, 3,6-dihydro-4-methyl-2-(2-methyl-1-propenyl)-
##MOLFORM=C10H16O
##CAS REGISTRY NO=1786-08-9
##MP= -300
##BP= -300
##MW= 152
##$RETENTION INDEX=1153
##$CONDENSED SPECTRUM=NO
##NPOINTS= 66
##XYDATA=(XY..XY) 1 
    26         20
    27        442
    29         81
    30          5
    31         41
    37          7
    38         10
    39        382
    41        561
    42         89
    43        120
    44          1
    45          4
    46          3
    50         23
    51         70
    52         42
    53        262
    54         37
    55        307
    56         63
    57         23
    58          7
    59          6
    62          9
    63         17
    65         49
    66         28
    67        564
    68        999
    69        220
    70         10
    71         51
    77         54
    78         19
    79         59
    80         13
    81         97
    82         87
    83        542
    84         39
    85        196
    86         16
    91         49
    92          4
    93         31
    94         26
    95         87
    96         78
    97         47
    98         13
   105          7
   106         11
   107          3
   108          7
   109         40
   110         59
   111         21
   119         57
   123         21
   124          7
   134         38
   135         10
   137         15
   152         84
   153          9