##TITLE=Library Entry 17377
##JCAMP-DX=Revision 4.10 
##DATA TYPE=MASS SPECTRUM
##SAMPLE DESCRIPTION=NIST Mass Spectrometry Data Center, 2007
##NAMES=HP
##CAS NAME=3,6,9,12,15-Pentaoxanonadecan-1-ol
##MOLFORM=C14H30O6
##CAS REGISTRY NO=1786-94-3
##MP= -300
##BP= -300
##MW= 294
##$RETENTION INDEX=2031
##$CONDENSED SPECTRUM=NO
##NPOINTS= 108
##XYDATA=(XY..XY) 1 
    14          1
    15          7
    16          1
    19         10
    26          4
    27         38
    28         62
    29        137
    30         13
    31         45
    32          2
    33          1
    39         12
    40          3
    41        150
    42         29
    43        128
    44        122
    45        999
    46         24
    47          3
    51          1
    53          3
    54          1
    55         40
    56         95
    57        388
    58         97
    59        157
    60         10
    61          9
    62          1
    63          2
    67          1
    68          1
    69          8
    70         18
    71         30
    72        117
    73        110
    74          9
    75         78
    76          5
    77         15
    78          1
    80          1
    81          1
    82          3
    83         12
    84          2
    85         79
    86         20
    87        199
    88         99
    89        472
    90         27
    91          4
    98          8
    99         10
   100         58
   101        191
   102         29
   103         99
   104          9
   105          5
   107          6
   113          1
   114          2
   115         20
   116          8
   117         43
   118          4
   119         22
   120          1
   121         22
   122          1
   128          1
   129          5
   130          2
   131         47
   132          7
   133        100
   134          7
   135          2
   143          1
   144          6
   145         31
   146          3
   147         11
   148          1
   149          1
   151          4
   159          2
   160          1
   161          7
   162          1
   163         12
   164         10
   165          1
   175          8
   176          1
   177          5
   179          5
   188          1
   189          2
   205          2
   207          5
   251          2