##TITLE=Library Entry 19948
##JCAMP-DX=Revision 4.10 
##DATA TYPE=MASS SPECTRUM
##SAMPLE DESCRIPTION=H. SALVATORI, SNAM PROGETTI-LRSR, SAN DONATO, MILANESE,
 ITALY
##NAMES=HP
##CAS NAME=Cyclotetradecane, 1,7,11-trimethyl-4-(1-methylethyl)-
##MOLFORM=C20H40
##CAS REGISTRY NO=1786-12-5
##MP= -300
##BP= -300
##MW= 280
##$RETENTION INDEX=0
##$CONDENSED SPECTRUM=NO
##NPOINTS= 66
##XYDATA=(XY..XY) 1 
    27         93
    28         65
    29        250
    39         74
    40         28
    41        759
    42        148
    43        778
    44         28
    53         46
    54         37
    55        999
    56        361
    57        907
    58         46
    67        120
    68        102
    69        852
    70        269
    71        481
    72         37
    79         19
    80          9
    81        139
    82        120
    83        639
    84        120
    85        259
    86         19
    95        120
    96         74
    97        667
    98         74
    99         74
   109         83
   110         83
   111        389
   112         65
   113         46
   123         65
   124         46
   125        231
   126         64
   127         28
   137         28
   138         19
   139        102
   140         37
   141         46
   151         28
   152          9
   153         74
   154          9
   155         19
   165         19
   166          9
   167         56
   168          9
   179         19
   180          9
   181         37
   182          9
   236        231
   237        130
   238         28
   280          9