##TITLE=Library Entry 43543
##JCAMP-DX=Revision 4.10 
##DATA TYPE=MASS SPECTRUM
##SAMPLE DESCRIPTION=Tox21 Consortium/NIST Mass Spectrometry Data Center, 20
12
##NAMES=HP
##CAS NAME=Pyrogallol, 3TMS derivative
##MOLFORM=C15H30O3Si3
##CAS REGISTRY NO=17864-23-2
##MP= -300
##BP= -300
##MW= 342
##$RETENTION INDEX=1557
##$CONDENSED SPECTRUM=NO
##NPOINTS= 170
##XYDATA=(XY..XY) 1 
    28          1
    29          2
    31          1
    39          1
    42          1
    43         14
    44         13
    45        142
    46          9
    47          6
    51          2
    52          1
    53          2
    55          4
    56          1
    57          6
    58          7
    59         19
    60          2
    61          3
    63          2
    64          1
    65          1
    67          1
    69          2
    70          2
    71          4
    73        999
    74         85
    75         50
    76          3
    77         16
    78          4
    79          6
    80          1
    81          1
    82          1
    83         12
    84          1
    85          4
    87          2
    89          4
    90          1
    91         17
    92          2
    93         30
    94          2
    95          4
    96          1
    97          3
    98          1
    99          2
   101          1
   102          1
   103         14
   104          3
   105         15
   106          2
   107          4
   108          1
   109          5
   110          1
   111          1
   112          1
   113          1
   115          9
   116          2
   117          6
   118          2
   119         31
   120          4
   121          6
   122          1
   123          3
   127          1
   129          2
   131         15
   132          2
   133        120
   134         17
   135         19
   136          3
   137         14
   138          2
   139          1
   141          1
   143          6
   144          1
   145          3
   147         47
   148          8
   149         13
   150          2
   151          6
   152          2
   153          6
   154          1
   155          1
   157          5
   158          1
   159          1
   161          3
   162          1
   163          4
   164          2
   165          3
   166          2
   167          3
   168          1
   169          1
   171          1
   175          1
   177          4
   178          1
   179         26
   180          4
   181          6
   182          2
   183          2
   189          2
   190          1
   191          6
   192          1
   193         13
   194          3
   195          7
   196          9
   197          4
   198          1
   205          2
   207          4
   208          1
   209          7
   210          2
   211         48
   212         10
   213          4
   214          1
   221          1
   223          2
   225          2
   233          1
   235          1
   237          6
   239        619
   240        132
   241         55
   242          8
   243          2
   251          3
   252          1
   253          4
   254         18
   255          4
   256          2
   267          5
   268          1
   269          4
   270          1
   311          1
   312          1
   327         47
   328         14
   329          6
   330          2
   342        334
   343        104
   344         50
   345         11
   346          3