##TITLE=Library Entry 15954
##JCAMP-DX=Revision 4.10 
##DATA TYPE=MASS SPECTRUM
##SAMPLE DESCRIPTION=Drug Lab
##NAMES=HP
##CAS NAME=3-Methoxyamphetamine
##MOLFORM=C10H15NO
##CAS REGISTRY NO=17862-85-0
##MP= -300
##BP= -300
##MW= 165
##$RETENTION INDEX=0
##$CONDENSED SPECTRUM=NO
##NPOINTS= 63
##XYDATA=(XY..XY) 1 
    40          3
    41          7
    42         28
    43          9
    44        999
    45         25
    50          8
    51         17
    52         14
    53          6
    54          1
    55          2
    56          2
    57          2
    59          2
    60          2
    62          4
    63         15
    64          6
    65         22
    66          3
    67          1
    74          1
    75          5
    76          3
    77         36
    78         44
    79         15
    80          5
    89         13
    90          7
    91         48
    92         10
    93          2
    94          2
   102          1
   103          4
   104          4
   105          4
   106          7
   107         11
   108          6
   115          4
   116          1
   117          4
   118          7
   119          2
   120          1
   121         34
   122         26
   123          4
   131          1
   132          2
   133          2
   134          4
   135          2
   147          1
   148          3
   149          1
   150          6
   163          1
   164          1
   165          5