##TITLE=Library Entry 45218
##JCAMP-DX=Revision 4.10 
##DATA TYPE=MASS SPECTRUM
##SAMPLE DESCRIPTION=Chemical Concepts
##NAMES=HP
##CAS NAME=Silanol, tris(1-methylethyl)-
##MOLFORM=C9H22OSi
##CAS REGISTRY NO=17877-23-5
##MP= -300
##BP= -300
##MW= 174
##$RETENTION INDEX=0
##$CONDENSED SPECTRUM=NO
##NPOINTS= 87
##XYDATA=(XY..XY) 1 
    24          2
    25          2
    26          8
    27         89
    29         11
    30          3
    31          7
    33          4
    35          2
    36          7
    37          5
    38          8
    39         48
    40         19
    41        122
    42         27
    43         77
    44         11
    45        372
    46         28
    47        101
    48          5
    49          5
    50          2
    51          5
    53          3
    55          7
    56          4
    57          3
    58          4
    59         25
    60         80
    61        569
    62         43
    63         26
    64          2
    65          2
    67          1
    69         12
    70          3
    71         16
    72          6
    73         17
    75        999
    76         81
    77         41
    78          2
    79          3
    80          3
    81          2
    83          3
    84          3
    85         10
    86          1
    87         31
    88         30
    89        110
    90         10
    91          3
    93          3
    95          2
    96          2
   101          8
   103        568
   104         45
   105         26
   106          4
   107          1
   113          5
   115         12
   116          2
   117         13
   119          2
   125          2
   128          2
   129          5
   131        542
   132         57
   133         26
   143          2
   145         20
   147          3
   148          1
   157          3
   174         53
   175         10
   176          2