##TITLE=Library Entry 34478
##JCAMP-DX=Revision 4.10 
##DATA TYPE=MASS SPECTRUM
##SAMPLE DESCRIPTION=James Little,Eastman Chem.Co.,Kingsport,TN
##NAMES=HP
##CAS NAME=Propionic acid, 2,2-bis(hydroxymethyl)-, methyl ester
##MOLFORM=C6H12O4
##CAS REGISTRY NO=17872-55-8
##MP= -300
##BP= -300
##MW= 148
##$RETENTION INDEX=0
##$CONDENSED SPECTRUM=NO
##NPOINTS= 34
##XYDATA=(XY..XY) 1 
    27        135
    29        427
    30        230
    31        235
    39        418
    40        165
    41        922
    43         90
    44         96
    45        108
    55         74
    56         32
    57         62
    58         42
    59        167
    68         35
    69        999
    70         61
    71         84
    73         22
    81         31
    82         24
    84        183
    85        235
    87         16
    88         52
    98         31
    99        183
   100        715
   101        147
   102         14
   117         47
   118        142
   130         13