##TITLE=Library Entry 43049
##JCAMP-DX=Revision 4.10 
##DATA TYPE=MASS SPECTRUM
##SAMPLE DESCRIPTION=Japan AIST/NIMC Database- Spectrum MS-IW-5092
##NAMES=HP
##CAS NAME=Silane, trimethyl[(phenylthio)methyl]-
##MOLFORM=C10H16SSi
##CAS REGISTRY NO=17873-08-4
##MP= -300
##BP= -300
##MW= 196
##$RETENTION INDEX=0
##$CONDENSED SPECTRUM=NO
##NPOINTS= 109
##XYDATA=(XY..XY) 1 
    27          3
    28          9
    29          9
    31         10
    32          3
    38          1
    39         11
    40          1
    41          1
    42          4
    43         53
    44         36
    45        101
    46          7
    47          3
    50          6
    51         35
    52          3
    53          7
    54          1
    55          8
    56          2
    57         12
    58         11
    59         47
    60          4
    61          5
    62          1
    63          4
    64          1
    65         25
    66          3
    67          2
    69          8
    70          4
    71          6
    72         51
    73        999
    74        105
    75         56
    76          6
    77         61
    78          9
    79          9
    81          1
    82          3
    83          4
    84          1
    85          1
    87          1
    89          7
    90         10
    91        152
    92         11
    93          3
    95          1
    97          1
   103          4
   104          2
   105         67
   106          7
   107          9
   108          4
   109         14
   110          3
   111          1
   117          1
   119          7
   120          1
   121         10
   122          1
   123          9
   124          5
   125          1
   131          3
   133          3
   134          1
   135        117
   136         16
   137         27
   138          3
   139          2
   145          1
   149          4
   150          3
   151         40
   152          6
   153          9
   154          2
   155          1
   163          1
   164          2
   165        182
   166         29
   167         22
   168          3
   169          1
   179          1
   180          2
   181        398
   182         62
   183         35
   184          4
   185          1
   195          9
   196        348
   197         59
   198         29
   199          3