##TITLE=Library Entry 5615
##JCAMP-DX=Revision 4.10 
##DATA TYPE=MASS SPECTRUM
##SAMPLE DESCRIPTION=J.H.BOWIE UNIVERSITY OF ADELAIDE, AUSTRALIA
##NAMES=HP
##CAS NAME=Acetamide, N-acetyl-N-(2-methylpropyl)-
##MOLFORM=C8H15NO2
##CAS REGISTRY NO=1787-52-6
##MP= -300
##BP= -300
##MW= 157
##$RETENTION INDEX=0
##$CONDENSED SPECTRUM=NO
##NPOINTS= 24
##XYDATA=(XY..XY) 1 
    15        210
    27        140
    28         80
    29        140
    30        870
    39        100
    41        200
    42        100
    43        999
    55         80
    56         90
    57         60
    58        100
    60        160
    72        820
    73        150
    84        380
   100        110
   102        360
   103         30
   114         90
   115         50
   142         30
   157         20