##TITLE=Library Entry 27123
##JCAMP-DX=Revision 4.10 
##DATA TYPE=MASS SPECTRUM
##SAMPLE DESCRIPTION=RADIAN CORP
##NAMES=HP
##CAS NAME=Silane, tert-butyldichlorophenyl-
##MOLFORM=C10H14Cl2Si
##CAS REGISTRY NO=17887-41-1
##MP= -300
##BP= -300
##MW= 232
##$RETENTION INDEX=0
##$CONDENSED SPECTRUM=NO
##NPOINTS= 80
##XYDATA=(XY..XY) 1 
    15          8
    26          3
    27         40
    29         81
    38          8
    39        106
    40         19
    41        246
    42         27
    50         56
    51        148
    52         19
    53         32
    54          7
    55         32
    56        520
    57        999
    58         51
    62          2
    63        206
    64         15
    65         79
    66          8
    67          7
    74         14
    75         15
    76         35
    77        330
    78        158
    79         17
    81          2
    88          5
    89          8
    90          1
    91         16
    93          5
    95          3
    98         13
    99         18
   100         10
   101         15
   102          5
   103         14
   105         10
   112          5
   113         39
   114          7
   115         34
   116          2
   117         12
   118          7
   119          5
   122          2
   123         27
   125         22
   127          7
   133          2
   136          4
   139         45
   140         27
   141         26
   142         10
   143          5
   147          2
   149          9
   151          4
   154         14
   174          1
   175        606
   176        124
   177        418
   178         80
   179         79
   180         14
   181          4
   232        163
   233         27
   234        111
   235         17
   236         19