##TITLE=Library Entry 97098
##JCAMP-DX=Revision 4.10 
##DATA TYPE=MASS SPECTRUM
##SAMPLE DESCRIPTION=NIST Mass Spectrometry Data Center
##NAMES=HP
##CAS NAME=Propylene glycol, 2TMS derivative
##MOLFORM=C9H24O2Si2
##CAS REGISTRY NO=17887-27-3
##MP= -300
##BP= -300
##MW= 220
##$RETENTION INDEX=1007
##$CONDENSED SPECTRUM=NO
##NPOINTS= 86
##XYDATA=(XY..XY) 1 
    15          1
    27          2
    28          1
    29          7
    30          1
    31          3
    39          4
    40          1
    41         11
    42          4
    43         28
    44         14
    45         78
    46          5
    47         23
    48          1
    51          3
    52          6
    53          2
    54          1
    55          6
    56          2
    57          8
    58         20
    59         63
    60          8
    61         18
    62          1
    63          1
    66        100
    69          1
    70          3
    71          5
    72         18
    73        656
    74         61
    75         86
    76          5
    77          6
    81         41
    83          1
    85          5
    86          1
    87          9
    88          4
    89          6
    90          1
    91          1
    94          1
    95          7
    99          3
   101         22
   102          6
   103         18
   104          2
   105          7
   106          1
   107          1
   113          2
   115         25
   116         12
   117        999
   118        113
   119         47
   120          3
   129          3
   130          3
   131         43
   132          7
   133         67
   134          9
   135          5
   145          1
   147        630
   148        101
   149         55
   150          6
   151          1
   161          1
   176          1
   177          1
   189          2
   205         31
   206          6
   207          3
   219          1