##TITLE=Library Entry 43773
##JCAMP-DX=Revision 4.10 
##DATA TYPE=MASS SPECTRUM
##SAMPLE DESCRIPTION=D.HENNEBERG, MAX-PLANCK INSTITUTE, MULHEIM, WEST GERMAN
Y
##NAMES=HP
##CAS NAME=Cyclotetrasiloxane, (iodomethyl)heptamethyl-
##MOLFORM=C8H23IO4Si4
##CAS REGISTRY NO=17882-88-1
##MP= -300
##BP= -300
##MW= 422
##$RETENTION INDEX=0
##$CONDENSED SPECTRUM=NO
##NPOINTS= 268
##XYDATA=(XY..XY) 1 
    27          1
    28         36
    29          1
    36          0
    39          1
    40          0
    41          1
    42          1
    43          3
    44          2
    45         23
    46          1
    47          1
    49          0
    50          1
    53          0
    54          0
    55          1
    57          0
    58          1
    59         36
    60          2
    61          1
    65          0
    66          0
    67          0
    69          0
    70          0
    71          0
    72          1
    73        999
    74         81
    75         37
    76          1
    77          0
    78          0
    79          0
    80          0
    83          0
    85          3
    86          0
    87          8
    88          1
    89          0
    91          0
    93          0
    98          0
   104          0
   105          0
   110          0
   115          0
   117          0
   118          0
   119          1
   125          2
   126          3
   127          1
   128          1
   131          0
   133         26
   134          5
   135          0
   141          0
   147          1
   149          0
   153          0
   155          0
   156          0
   157          0
   161          0
   163          1
   164          0
   165          1
   166          0
   167          0
   168          0
   169          1
   170          4
   171          2
   172          0
   173          0
   175          0
   176          0
   177         11
   178          2
   179         13
   180          2
   181          1
   182          7
   183          1
   185          4
   186          0
   187          0
   189          3
   190          0
   191         37
   192          7
   193         39
   194          7
   195          4
   196         17
   197          3
   198          0
   199          0
   201          5
   202          3
   203          7
   204          2
   205         33
   206          8
   207         45
   208         11
   209          6
   210          0
   211          0
   214          0
   217          1
   218          0
   219          3
   220          1
   221          6
   222          1
   223          3
   224          1
   225          0
   226          0
   227          0
   229          0
   232          0
   234          4
   235         26
   236          7
   237         15
   238          3
   239          2
   240          0
   241          0
   242          0
   243          0
   244          0
   245          0
   246          0
   247          3
   248          2
   249        127
   250         33
   251         71
   252         17
   253         15
   254          3
   255          1
   256          0
   258          0
   259          0
   261          1
   262          0
   263         11
   264          4
   265        122
   266         35
   267        317
   268         81
   269         50
   270          9
   271          4
   273          0
   274          0
   275          0
   277          2
   278          1
   279         15
   280          5
   281        937
   282        267
   283        165
   284         31
   285         11
   286          1
   287          1
   288          0
   289          0
   291          0
   292          0
   293          1
   295          0
   301          0
   303          0
   305          3
   306          0
   307          1
   309          3
   310          1
   311          0
   315          0
   316          0
   317          0
   319          6
   320          1
   321          2
   322          0
   323         15
   324          5
   325         14
   326          3
   327          2
   328          0
   329          0
   332          0
   333          0
   337          0
   339         34
   340         12
   341          8
   342          2
   343          1
   344          0
   347          0
   348          0
   349          0
   350          0
   354         10
   355        533
   356        186
   357        119
   358         30
   359         10
   360          2
   361          1
   362          1
   363          8
   364          2
   365         15
   366          3
   367          2
   368          1
   369          0
   370          0
   371          0
   372          0
   375          1
   377          4
   378          3
   379        209
   380         53
   381         32
   382          7
   383          2
   384          0
   385          0
   389          0
   390          0
   391         11
   392          3
   393          7
   394          2
   395          1
   396          0
   398          0
   401          0
   405          0
   407        506
   408        140
   409         87
   410         17
   411          5
   412          0
   413          0
   421          0