##TITLE=Library Entry 14995
##JCAMP-DX=Revision 4.10 
##DATA TYPE=MASS SPECTRUM
##SAMPLE DESCRIPTION=Div. of Experiment Therapeutics WRAIR, WRAMC, Washingto
n DC 20307
##NAMES=HP
##CAS NAME=.alpha.-Bromomethyl-6,8-dichloro-2-[4-fluorophenyl]-4-quinolineme
thanol
##MOLFORM=C17H11BrCl2FNO
##CAS REGISTRY NO=17887-95-5
##MP= -300
##BP= -300
##MW= 413
##$RETENTION INDEX=0
##$CONDENSED SPECTRUM=NO
##NPOINTS= 219
##XYDATA=(XY..XY) 1 
    41          6
    42         21
    43        999
    44         27
    45         12
    49          9
    50         44
    51         41
    52          9
    55          8
    56          2
    57         39
    61         15
    62         27
    63         42
    64          5
    68         12
    69         18
    70         17
    71          2
    73         23
    74        113
    75        125
    76         19
    77          5
    79          2
    80         11
    81         23
    82         10
    83         14
    84         37
    85         34
    86         33
    87         43
    88         14
    89          8
    90          2
    91          8
    92          5
    93         39
    94         47
    95        105
    96         48
    97         51
    98        126
    99        153
   100         40
   101         22
   102         23
   104         31
   105         15
   106         11
   107         27
   108         30
   109         92
   110        106
   111         65
   112          7
   113         33
   114         42
   115         14
   116         48
   118         41
   119         12
   120         25
   121         41
   122         34
   123         62
   124         25
   125         24
   126         15
   127         54
   128         70
   129         23
   131         19
   132         11
   133        140
   134         67
   135         67
   136         34
   137          6
   138          6
   139          2
   140         16
   141          3
   142         26
   143          9
   144         18
   145         28
   146         22
   147         21
   148         16
   149         34
   150         14
   151         11
   152          3
   157          9
   158          5
   159         14
   160         62
   161         42
   162         13
   163          6
   166          7
   167         18
   168         38
   169         26
   170         12
   171         11
   173          9
   174         20
   175         11
   176          5
   181          4
   182          2
   185          5
   186          9
   188          5
   192         20
   193         27
   194         22
   195          9
   196         49
   197          5
   198         33
   199         13
   200         28
   201         14
   202          8
   205          2
   206          5
   207         17
   208         13
   209          2
   214          5
   217          9
   218         19
   219        163
   220         78
   221         81
   222         55
   223          7
   228          6
   230          2
   232         25
   233         13
   234         28
   235         34
   236         14
   237         12
   243          2
   245         16
   246         13
   250          2
   253          7
   254         34
   255        166
   256        127
   257        100
   258         44
   259         14
   264          6
   268         12
   269         18
   270         28
   271         18
   272         12
   273          2
   281          5
   282         18
   284         17
   285         27
   286         10
   287          6
   290        285
   291        122
   292        498
   293        125
   294        217
   295         41
   296         27
   297          7
   298         64
   299         14
   300         20
   303          5
   305        320
   306         74
   307        222
   308         38
   309         32
   310          3
   316         26
   317          3
   318        216
   319         15
   320        367
   321         67
   322        184
   323         32
   324         22
   325          5
   332         52
   333        808
   334        302
   335        536
   336        184
   337         82
   338         32
   339          2
   412         44
   413        556
   414         67
   415        897
   416        194
   417        426
   418         81
   419         56
   420         11