##TITLE=Library Entry 13378
##JCAMP-DX=Revision 4.10 
##DATA TYPE=MASS SPECTRUM
##SAMPLE DESCRIPTION=A.A.Kutin, Moscow, Russia
##NAMES=HP
##CAS NAME=D-Friedoolean-14-ene-3.beta.,28-diol, diacetate
##MOLFORM=C34H54O4
##CAS REGISTRY NO=17884-89-8
##MP= -300
##BP= -300
##MW= 526
##$RETENTION INDEX=0
##$CONDENSED SPECTRUM=NO
##NPOINTS= 228
##XYDATA=(XY..XY) 1 
    39          8
    41        100
    43        999
    44         15
    45          3
    53         14
    55        108
    56         12
    57         25
    59          3
    61          9
    65          6
    67         60
    69        146
    71         23
    73          6
    77         24
    79         74
    81         94
    82         12
    83         24
    84          8
    85         11
    91         69
    93        108
    94         22
    95         78
    96         13
    97         18
    99          2
   103          6
   105         96
   106         26
   107        108
   109         73
   110          6
   111         11
   115         10
   116          6
   117         29
   119        100
   121        100
   122         24
   123         34
   124          4
   125          4
   127          5
   128          9
   129         18
   131         64
   132         23
   133         90
   134         33
   135         89
   136         18
   137         19
   139          8
   141          9
   142         10
   143         20
   144         13
   145         53
   146         29
   147         49
   148         31
   149         38
   150          9
   151          4
   152          3
   153          5
   154          3
   155         10
   156          7
   157         25
   159         58
   160         16
   161         44
   162         14
   163         18
   164          3
   165          3
   167          4
   168          3
   169          9
   170          5
   171         20
   172         10
   173         44
   174         18
   175         37
   176         12
   177         15
   178          3
   179          2
   181          4
   182          2
   183          6
   184          3
   185         18
   187         86
   188         48
   189        221
   190         55
   191         53
   192          7
   193          3
   195          3
   196          2
   197          5
   198          2
   199         15
   200          9
   201         55
   202        194
   203        130
   204         34
   205         11
   206          1
   207          2
   209          2
   211          6
   212          2
   213         16
   214          9
   215         29
   216         41
   217         23
   218          4
   219          4
   220          3
   221          5
   225          5
   227         23
   228          9
   229         36
   230         10
   231          6
   233          2
   239          5
   240          3
   241         19
   242          8
   243         20
   244          5
   245          4
   247          6
   248          2
   249          5
   253          8
   255         36
   256         11
   257         14
   258          3
   259          2
   262         68
   263         22
   264          4
   267          6
   269         70
   270         17
   271          9
   272          2
   273          3
   274          2
   275          2
   276         24
   277          6
   281          6
   282          2
   283          7
   284         25
   285          9
   286          2
   287         10
   288          4
   289          3
   295          4
   297          3
   299          3
   301          6
   302          4
   303          1
   309          3
   315          8
   316         37
   317          9
   323          2
   329         90
   330         27
   331          3
   341          4
   344        211
   345         50
   346          7
   355          2
   363          2
   369          3
   391         24
   392          8
   393         16
   394          5
   395          2
   405          2
   406          8
   407          4
   409         18
   410          4
   411          3
   423         17
   424         40
   425         16
   426          3
   437          3
   438          3
   451         70
   452         27
   453         84
   454         26
   455          5
   466        131
   467         41
   468          9
   484          1
   511         14
   512          5
   526         52
   527         19
   528          2