##TITLE=Library Entry 45803
##JCAMP-DX=Revision 4.10 
##DATA TYPE=MASS SPECTRUM
##SAMPLE DESCRIPTION=Chemical Concepts
##NAMES=HP
##CAS NAME=Catechol, TMS derivative
##MOLFORM=C9H14O2Si
##CAS REGISTRY NO=17881-86-6
##MP= -300
##BP= -300
##MW= 182
##$RETENTION INDEX=0
##$CONDENSED SPECTRUM=NO
##NPOINTS= 138
##XYDATA=(XY..XY) 1 
    27         37
    28          3
    29         25
    30          2
    31          6
    33          0
    34          0
    37          2
    38         11
    39         37
    40          1
    41          2
    42         11
    43         68
    44         25
    45        196
    46         12
    47         94
    48          4
    49          4
    50         14
    51         28
    52         22
    53         33
    54          7
    55         16
    56          2
    57          9
    58          9
    59         14
    60         11
    61         67
    62         13
    63         33
    64         27
    65         37
    66          6
    67          3
    68          1
    69          6
    70          3
    71          4
    72          7
    73        269
    74         33
    75        999
    76         87
    77         62
    78          8
    79         11
    80          8
    81         21
    82          2
    83          4
    84          3
    85          5
    86          0
    87          1
    88          0
    89          7
    90          2
    91        182
    92         29
    93         12
    94          2
    95          4
    96          0
    97          1
    98          1
    99          1
   100          0
   101          0
   102          0
   103          1
   104          1
   105          7
   106          0
   107         16
   108          8
   109         10
   110          1
   111          1
   112          0
   119          0
   120          0
   121          3
   122          2
   123          6
   124          1
   125          1
   126          0
   130          0
   131          1
   132          0
   133          2
   134          2
   135          7
   136        156
   137         48
   138         11
   139          2
   140          0
   141          0
   142          0
   143          0
   144          0
   145          0
   146          0
   147          7
   148          4
   149         99
   150         16
   151        676
   152         85
   153         28
   154          2
   155          0
   156          0
   158          0
   159          0
   160          0
   161          2
   162          0
   163          2
   164          2
   165          5
   166        368
   167        441
   168         70
   169         17
   170          1
   179          0
   180          0
   181          1
   182        354
   183         52
   184         15
   185          1