##TITLE=Library Entry 24754
##JCAMP-DX=Revision 4.10 
##DATA TYPE=MASS SPECTRUM
##SAMPLE DESCRIPTION=G.Fauler ET AL, J.Mass Spectrom. 31, 655 (1996)
##NAMES=HP
##CAS NAME=Vitamin k1(20),heptafluorobutyric deriv.
##MOLFORM=C35H47F7O3
##CAS REGISTRY NO=178820-14-9
##MP= -300
##BP= -300
##MW= 648
##$RETENTION INDEX=0
##$CONDENSED SPECTRUM=NO
##NPOINTS= 177
##XYDATA=(XY..XY) 1 
    53        126
    55        954
    57        999
    58        186
    59         19
    60          4
    61          9
    63         24
    64         10
    65         31
    66         14
    68        184
    69        805
    70        486
    71        486
    72        441
    73        184
    74         24
    75         55
    76         54
    77         89
    79        118
    80         15
    81        247
    82        248
    83         62
    84        154
    85        149
    87         14
    88         28
    90          1
    91         60
    92         55
    93         27
    94        162
    95        161
    96        211
    97        212
    98         24
   100         75
   101          9
   102         39
   103         39
   105        107
   106          9
   107         57
   108        119
   109        115
   111        118
   112         27
   114         98
   115         62
   116         19
   117         22
   118         67
   120         19
   121         48
   122         48
   123          9
   124         34
   125         57
   126        127
   127        126
   128        123
   129         36
   130         20
   132        155
   134         53
   137         41
   138         24
   140        103
   141         77
   142         27
   143         10
   144         13
   145         10
   146         61
   147         59
   148         24
   150         38
   151         41
   152         38
   154         28
   156        249
   157         54
   158         36
   159          3
   160         33
   161         31
   163          1
   164         57
   165         21
   166         18
   168        214
   169        119
   170        132
   171        113
   172         30
   175          1
   177         50
   178         36
   179         31
   180         73
   181         72
   182         25
   183         15
   184         96
   185        132
   186        142
   187        254
   188         19
   189          2
   191        137
   192         94
   193         37
   194         65
   195         62
   196         36
   197         82
   198         79
   199         13
   200          9
   205         10
   207        320
   208        219
   209        117
   210         65
   211         85
   212         39
   213         24
   221         14
   223         30
   224         54
   225         53
   226         33
   227         33
   228         31
   238         10
   239         10
   241         19
   248         10
   251         15
   252         13
   253          6
   264         12
   265         10
   267         32
   268         28
   269         10
   281         63
   282         21
   283         19
   301         24
   302         24
   326         10
   327         24
   328          3
   341         13
   355         16
   370         20
   371          4
   383        692
   384        145
   385         16
   386          3
   421         27
   422         41
   423         61
   424         60
   425         12
   438         18
   439          3
   451         54
   452         13
   648        197
   649         74
   650         37