##TITLE=Library Entry 60682
##JCAMP-DX=Revision 4.10 
##DATA TYPE=MASS SPECTRUM
##SAMPLE DESCRIPTION=Chemical Concepts
##NAMES=HP
##CAS NAME=Dibenzyl ketoxime
##MOLFORM=C15H15NO
##CAS REGISTRY NO=1788-31-4
##MP= -300
##BP= -300
##MW= 225
##$RETENTION INDEX=0
##$CONDENSED SPECTRUM=NO
##NPOINTS= 149
##XYDATA=(XY..XY) 1 
    26          1
    27          5
    28          2
    29          1
    30          1
    31          1
    33          1
    36          2
    37          1
    38          6
    39         49
    40          5
    41         18
    42          2
    43          2
    44          1
    46          1
    47          1
    50          1
    51         16
    52         42
    53         13
    54          4
    55          1
    56          1
    57          1
    58          1
    59          1
    60          1
    61          2
    62         11
    63         45
    64         16
    65        170
    66         13
    67          1
    68          0
    69          1
    70          1
    71          1
    73          1
    74          6
    75          8
    76          9
    77         45
    78         14
    79         14
    80          3
    81          1
    82          1
    83          1
    84          1
    85          1
    86          2
    87          4
    88          6
    89         86
    90         80
    91        999
    92        280
    93         23
    94          4
    95          1
    96          1
    97          0
    98          1
    99          1
   101          2
   102         11
   103         33
   104         22
   105         16
   106         12
   107         13
   108          5
   109          2
   113          1
   114          3
   115         42
   116         68
   117        120
   118         47
   119          5
   120          1
   121          1
   122          2
   123          0
   126          1
   127          2
   128          5
   129          7
   130         84
   131         12
   132          4
   133          2
   134         41
   135          4
   136          0
   139          3
   140          1
   141          2
   146          5
   147          3
   148          1
   149          4
   150          2
   151          3
   152          7
   153          4
   154          1
   163          2
   164          2
   165         24
   166         14
   167         14
   168          3
   176          3
   177          3
   178         19
   179         17
   180          7
   181         21
   182          7
   183          1
   187          1
   188          1
   189          7
   190          4
   191         15
   192         17
   193         20
   194          5
   195          1
   196          0
   203          1
   204          6
   205          4
   206         78
   207         83
   208         53
   209         63
   210         13
   211          1
   221          1
   223          4
   224         43
   225        227
   226         46
   227          5