##TITLE=Library Entry 97053
##JCAMP-DX=Revision 4.10 
##DATA TYPE=MASS SPECTRUM
##SAMPLE DESCRIPTION=NIST Mass Spectrometry Data Center
##NAMES=HP
##CAS NAME=2-Hexanol, TMS derivative
##MOLFORM=C9H22OSi
##CAS REGISTRY NO=17888-63-0
##MP= -300
##BP= -300
##MW= 174
##$RETENTION INDEX=919
##$CONDENSED SPECTRUM=NO
##NPOINTS= 79
##XYDATA=(XY..XY) 1 
    15          2
    26          1
    27         18
    28          5
    29         37
    30          1
    31          2
    38          1
    39         16
    40          2
    41         33
    42          9
    43         43
    44         14
    45         76
    46          6
    47         35
    48          2
    49          1
    50          1
    51          2
    52          1
    53          5
    54          2
    55         20
    56          7
    57          9
    58         20
    59         40
    60         11
    61         55
    62          4
    63          2
    65          1
    67          2
    69         16
    70          4
    71          6
    72         21
    73        649
    74         71
    75        523
    76         40
    77         20
    78          1
    79          1
    81          1
    83          2
    84          3
    85          7
    86          3
    87         23
    88          3
    89          3
    91          3
    97          3
    99          5
   101         25
   102         18
   103         35
   104          4
   105          1
   113          3
   115         32
   117        999
   118        143
   119         53
   120          3
   129          6
   130          2
   131          1
   143          4
   144          1
   159        224
   160         32
   161         10
   162          1
   173          9
   174          2