##TITLE=Library Entry 43437
##JCAMP-DX=Revision 4.10 
##DATA TYPE=MASS SPECTRUM
##SAMPLE DESCRIPTION=D.HENNEBERG, MAX-PLANCK INSTITUTE, MULHEIM, WEST GERMAN
Y
##NAMES=HP
##CAS NAME=Disiloxanamine, 1,1,3,3,3-pentamethyl-N-(trimethylsilyl)-
##MOLFORM=C8H25NOSi3
##CAS REGISTRY NO=17883-25-9
##MP= -300
##BP= -300
##MW= 235
##$RETENTION INDEX=0
##$CONDENSED SPECTRUM=NO
##NPOINTS= 152
##XYDATA=(XY..XY) 1 
    25          2
    27          8
    28         31
    29          4
    31          8
    32          0
    33          0
    34          1
    36          3
    38          2
    40          2
    42          0
    43         19
    44         10
    45        111
    46         10
    47          8
    48          1
    50          2
    51          7
    54          1
    55          0
    57          7
    58          4
    59         85
    60         15
    61          9
    62          0
    65          3
    66          4
    67          1
    68          1
    69          1
    70          5
    71          8
    72         12
    73        999
    74        145
    75         57
    76          3
    81          5
    82          3
    84          1
    85          9
    86         15
    87         14
    88          9
    89          3
    90          2
    91          1
    92          0
    95          9
    96          2
    97          1
    98          3
    99          3
   100         48
   101         10
   102         20
   103         19
   104          5
   105          3
   106          1
   107          1
   108          1
   109          1
   111          1
   112          1
   113         12
   114         17
   115         28
   116         26
   117         15
   118         13
   119         10
   120          2
   121          1
   122          0
   124          0
   125          2
   126          1
   127          4
   128          4
   129          3
   130        101
   131         26
   132        544
   133         90
   134         46
   135          4
   136          2
   137          1
   138          0
   141          1
   142          2
   143          3
   144          3
   145          3
   146         18
   147         26
   148          5
   149          1
   150          1
   152          0
   153          1
   155          0
   156          1
   158          5
   159          4
   160          8
   161          2
   162          2
   166          2
   167          1
   169          2
   170          1
   171          4
   172          5
   174          9
   178          1
   180          1
   181          0
   184          1
   185          0
   187         17
   188         45
   189         15
   190         20
   191          8
   192          2
   195          1
   204         84
   205         21
   206         14
   207          2
   210          0
   212          1
   215          0
   216          1
   218          4
   220        801
   221        177
   222         94
   223         12
   224          3
   225          0
   227          0
   228          0
   230          0
   235          8
   236          2
   237          0