##TITLE=Library Entry 41046
##JCAMP-DX=Revision 4.10 
##DATA TYPE=MASS SPECTRUM
##SAMPLE DESCRIPTION=Chemical Concepts
##NAMES=HP
##CAS NAME=Silane, 2-hexenyltrimethyl-
##MOLFORM=C9H20Si
##CAS REGISTRY NO=17898-20-3
##MP= -300
##BP= -300
##MW= 156
##$RETENTION INDEX=0
##$CONDENSED SPECTRUM=NO
##NPOINTS= 84
##XYDATA=(XY..XY) 1 
    24          0
    26          2
    27         31
    28          3
    29         23
    30          1
    31         16
    33          0
    34          0
    37          0
    38          1
    39         29
    40          2
    41         40
    42          8
    43         70
    44         21
    45        109
    46          8
    47          4
    50          2
    51          4
    52          2
    53         12
    54         10
    55         21
    56          3
    57         13
    58         22
    59        124
    60          9
    61          5
    62          0
    63          1
    64          0
    65          2
    66          2
    67         11
    68          1
    69          8
    70          4
    71         14
    72         13
    73        999
    74         91
    75         40
    76          1
    77          2
    78          0
    79          2
    80          0
    81         13
    82          6
    83         10
    84          1
    85         24
    86          3
    87          1
    91          0
    93          1
    95          7
    96          1
    97         23
    98          3
    99         28
   100          3
   101          0
   109          1
   111          3
   112          1
   113         25
   114         11
   115          2
   116          0
   125          0
   127          1
   128          0
   139          0
   141         35
   142          4
   143          1
   156         64
   157         10
   158          3