##TITLE=Library Entry 35762
##JCAMP-DX=Revision 4.10 
##DATA TYPE=MASS SPECTRUM
##SAMPLE DESCRIPTION=V.Zaikin,Topchiev Inst.Petrochem.Synth.,Moscow
##NAMES=HP
##CAS NAME=Cyclopentanecarboxylic acid, allyl ester
##MOLFORM=C9H14O2
##CAS REGISTRY NO=178905-33-4
##MP= -300
##BP= -300
##MW= 154
##$RETENTION INDEX=0
##$CONDENSED SPECTRUM=NO
##NPOINTS= 63
##XYDATA=(XY..XY) 1 
    26          9
    27         42
    28         11
    29         12
    31          4
    36          4
    37          3
    38          8
    39        129
    40         24
    41        384
    42         24
    43          9
    44         12
    45          2
    47          2
    50          2
    51          4
    52          4
    53         16
    54          5
    55         57
    56          4
    57         28
    58          9
    63          2
    65         11
    66          9
    67        217
    68         43
    69        999
    70         57
    71          6
    73          9
    79          9
    80          2
    81          8
    82          5
    83          2
    85         10
    86          3
    93          3
    94          4
    95         70
    96         23
    97        416
    98         29
    99          3
   100          3
   107          1
   108          6
   109         26
   110          3
   111          4
   112         11
   113         72
   114          6
   115         10
   125          2
   126          2
   139          1
   154         21
   155          2