##TITLE=Library Entry 72410
##JCAMP-DX=Revision 4.10 
##DATA TYPE=MASS SPECTRUM
##SAMPLE DESCRIPTION=Exported from NIST MS Search
##NAMES=HP
##CAS NAME=Ethyldichlorosilane
##MOLFORM=C2H6Cl2Si
##CAS REGISTRY NO=1789-58-8
##MP= -300
##BP= -300
##MW= 128
##$RETENTION INDEX=622
##$CONDENSED SPECTRUM=NO
##NPOINTS= 88
##XYDATA=(XY..XY) 1 
    12          2
    13          2
    14         20
    15         12
    16          1
    24          2
    25          7
    26         68
    27        197
    28         17
    29        212
    30         13
    31          8
    35         22
    36         58
    37          7
    38         19
    40         10
    41         11
    42         15
    43         12
    44          4
    45          7
    47          4
    49          2
    52         10
    53         68
    54         15
    55         22
    56          6
    57          6
    58          3
    59          4
    62          2
    63        533
    64        110
    65        256
    66         43
    67         32
    68          2
    69          2
    73         15
    75          2
    76          5
    77         10
    78          4
    79          7
    80          2
    81          3
    82          2
    83          4
    85          2
    87          2
    88          7
    89          6
    90          8
    91         16
    92        161
    93         64
    94         61
    95         21
    96          4
    98        577
    99        999
   100        124
   101        650
   102         95
   103        117
   104          7
   105          3
   107          4
   109          5
   111          4
   112         11
   113         15
   114          8
   115         10
   116          2
   123          4
   125         11
   126         17
   127        577
   128        197
   129        387
   130        131
   131         77
   132         23
   133          7