##TITLE=Library Entry 70218
##JCAMP-DX=Revision 4.10 
##DATA TYPE=MASS SPECTRUM
##SAMPLE DESCRIPTION=LMC, NIDDK, NIH, Bethesda, MD 20892
##NAMES=HP
##CAS NAME=3,4-Dichlorophenylacetamide, N-[1-methylazacyclohex-3-yl]-N-methy
l-
##MOLFORM=C15H20Cl2N2O
##CAS REGISTRY NO=178936-10-2
##MP= -300
##BP= -300
##MW= 314
##$RETENTION INDEX=0
##$CONDENSED SPECTRUM=NO
##NPOINTS= 161
##XYDATA=(XY..XY) 1 
    41         24
    42        142
    43         71
    44         34
    45          1
    47          0
    48          0
    49          1
    50          1
    51          2
    52          0
    53          3
    54          7
    55         19
    56         18
    57         51
    58         90
    59          3
    61          0
    62          4
    63          9
    64          1
    65          1
    66          1
    67          4
    68         14
    69          9
    70         30
    71         22
    72          2
    73          5
    74          1
    75          3
    77          1
    78          1
    79          1
    80          2
    81          6
    82         88
    83         11
    84         79
    85          6
    86          2
    87          2
    88          2
    89         23
    90          2
    91          1
    93          0
    94          7
    95          0
    96        160
    97        999
    98         86
    99          8
   100          1
   101          1
   103          0
   104          0
   105          0
   107          1
   109          1
   110          1
   111          3
   112          1
   113          0
   114          0
   117          0
   118          0
   119          0
   120          0
   121          0
   123         21
   124         10
   125         11
   126          4
   127          4
   128          1
   130          0
   131          1
   133          4
   135          3
   137          0
   138          1
   139          0
   141          0
   143          0
   144          0
   147          0
   149          0
   152          0
   154          0
   155          0
   156          0
   157          0
   158          0
   159         67
   160          7
   161         43
   162          4
   163          7
   164          1
   165          1
   167          1
   170          0
   171          1
   174          0
   175          0
   176          0
   180          0
   182          0
   184          0
   185          0
   186          2
   188          1
   191          0
   194          0
   195          0
   197          0
   199          0
   200          0
   203          0
   204          0
   207          0
   209          0
   211          0
   214          0
   216          0
   218          0
   219          1
   220          0
   223          0
   228          0
   229          0
   231          0
   232          0
   234          0
   239          0
   242          0
   244          0
   248          0
   253          0
   256          0
   264          0
   265          0
   267          0
   268          0
   273          0
   274          0
   278          0
   282          0
   283          0
   299          0
   300          0
   312          0
   313          1
   314          1
   315          2
   316          1
   317          1
   318          0