##TITLE=Library Entry 76003
##JCAMP-DX=Revision 4.10 
##DATA TYPE=MASS SPECTRUM
##SAMPLE DESCRIPTION=Chemical Concepts
##NAMES=HP
##CAS NAME=.beta.-Alanine, 2TMS derivative
##MOLFORM=C9H23NO2Si2
##CAS REGISTRY NO=17891-86-0
##MP= -300
##BP= -300
##MW= 233
##$RETENTION INDEX=1190
##$CONDENSED SPECTRUM=NO
##NPOINTS= 100
##XYDATA=(XY..XY) 1 
    39          0
    40          7
    42          3
    43         38
    44         22
    45         83
    46          6
    47         14
    48          0
    51          1
    52          3
    54          1
    55         11
    56          4
    57          5
    58         17
    59         66
    60          8
    61          9
    65          2
    66         40
    67          4
    69          0
    70         12
    71          4
    72         30
    73        573
    74         69
    75         96
    76          5
    77          4
    84          1
    85          2
    86         54
    87          7
    88          4
    89          2
    98          1
    99          7
   100         42
   101         26
   102        999
   103         92
   104         38
   105          3
   111          0
   112          0
   113          0
   114          0
   115         13
   116         32
   117         95
   118          9
   119          6
   128          4
   129          8
   130          1
   131         23
   132         11
   133         29
   134          3
   135          1
   142          1
   144          2
   145          0
   146          1
   147        528
   148         84
   149         45
   150          3
   151          0
   157          0
   160          4
   161          0
   162          1
   164          0
   174          1
   175          2
   176        463
   177         75
   178         36
   179          4
   180          0
   188          1
   189          6
   190         10
   191          1
   192          0
   204         13
   205          2
   206          0
   207          0
   216          6
   217          3
   218        157
   219         28
   220         12
   221          1
   232          6
   233          3