##TITLE=Library Entry 41301
##JCAMP-DX=Revision 4.10 
##DATA TYPE=MASS SPECTRUM
##SAMPLE DESCRIPTION=NIST Mass Spectrometry Data Center
##NAMES=HP
##CAS NAME=Azelaic acid, 2TMS derivative
##MOLFORM=C15H32O4Si2
##CAS REGISTRY NO=17906-08-0
##MP= -300
##BP= -300
##MW= 332
##$RETENTION INDEX=1806
##$CONDENSED SPECTRUM=NO
##NPOINTS= 208
##XYDATA=(XY..XY) 1 
    15          2
    26          1
    27         11
    28          5
    29         17
    30          1
    31          3
    39         12
    40          3
    41         64
    42         21
    43         95
    44         24
    45        140
    46         11
    47         66
    48          3
    49          3
    50          1
    51          1
    52          1
    53         10
    54          8
    55        384
    56         28
    57         27
    58         30
    59         42
    60         12
    61         70
    62          5
    63          3
    65          2
    66          1
    67         68
    68         10
    69         55
    70          8
    71         12
    72         59
    73        999
    74        104
    75        869
    76         61
    77         41
    78          2
    79         59
    80         10
    81         71
    82         15
    83        110
    84         12
    85         18
    86         12
    87          7
    88         13
    89         16
    90          3
    91         15
    92          1
    93         53
    94          5
    95         19
    96         17
    97         94
    98         18
    99         24
   100          4
   101         23
   102          4
   103          9
   104          1
   105         14
   106          3
   107         74
   108          9
   109         27
   110         11
   111         57
   112          4
   113          3
   114          1
   115         11
   116         97
   117        258
   118         29
   119         13
   120          1
   121          2
   123         28
   124         54
   125         37
   126          4
   127          3
   128          3
   129        315
   130         43
   131         42
   132         26
   133         48
   134         10
   135         32
   136          3
   137          9
   138          1
   139          1
   141          5
   142          4
   143         23
   144          5
   145         34
   146          7
   147        207
   148         34
   149        186
   150         29
   151         28
   152        173
   153         37
   154          4
   155         10
   156          9
   157         18
   158          4
   159         15
   160          2
   161          2
   162          4
   163          3
   164          1
   165          3
   166          1
   167          3
   168          1
   169          6
   170          6
   171         58
   172         12
   173          8
   174          3
   175          1
   179          1
   181          4
   182          1
   183         41
   184          7
   185         37
   186         10
   187          6
   188         13
   189         11
   190          5
   191          6
   192          2
   193          1
   196          1
   197         13
   198          3
   199         47
   200         17
   201        256
   202         43
   203         21
   204        121
   205         28
   206         13
   207          2
   209         14
   210          2
   211          1
   213          1
   214         26
   215          6
   216          2
   217         77
   218         17
   219          6
   220          1
   225          6
   226          1
   227          3
   228          1
   231          5
   232          1
   233          1
   241          1
   242          5
   243         10
   244          2
   245          3
   246          1
   257          1
   259          2
   260          1
   271          1
   273         21
   274          6
   275          3
   276          2
   299          2
   301          3
   302          1
   317        268
   318         74
   319         30
   320          5
   321          1
   331          1