##TITLE=Library Entry 41383
##JCAMP-DX=Revision 4.10 
##DATA TYPE=MASS SPECTRUM
##SAMPLE DESCRIPTION=O.A.MAMER ROYAL VICTORIA HOSPITAL, MONTREAL, CANADA
##NAMES=HP
##CAS NAME=Ethyl 3-ethoxy-3-hydroxyprop-2-enoate, TMS derivative
##MOLFORM=C10H20O4Si
##CAS REGISTRY NO=17906-37-5
##MP= -300
##BP= -300
##MW= 232
##$RETENTION INDEX=0
##$CONDENSED SPECTRUM=NO
##NPOINTS= 86
##XYDATA=(XY..XY) 1 
    15         44
    26         24
    27        160
    28         75
    29        330
    30         10
    31         25
    32          8
    39          7
    41         34
    42         55
    43        169
    44         67
    45        308
    46         22
    47        108
    48          6
    51          6
    53          7
    55         34
    57         20
    58         36
    59        106
    60         23
    61         79
    62          8
    63          9
    69        244
    70         20
    71         15
    72        137
    73        999
    74        139
    75        812
    76         64
    77        119
    78          8
    79          7
    85         17
    86         50
    87         39
    88         11
    89          9
    90          9
    91         60
    92          7
    93         17
    99        164
   100         19
   101        105
   102         12
   103        298
   104         29
   105         16
   113         18
   114         18
   115         63
   116        138
   117        494
   118         60
   119        124
   120         13
   121         17
   129         13
   131          8
   132          5
   133         13
   143        266
   144         32
   145         32
   149         24
   160        107
   161        203
   162         27
   163         10
   171          6
   187        154
   188         24
   189         72
   190         10
   205         16
   217        109
   218         16
   219          6
   232         69
   233         13