##TITLE=Library Entry 38314
##JCAMP-DX=Revision 4.10 
##DATA TYPE=MASS SPECTRUM
##SAMPLE DESCRIPTION=Japan AIST/NIMC Database- Spectrum MS-NW-6927
##NAMES=HP
##CAS NAME=Tegafur
##MOLFORM=C8H9FN2O3
##CAS REGISTRY NO=17902-23-7
##MP= -300
##BP= -300
##MW= 200
##$RETENTION INDEX=0
##$CONDENSED SPECTRUM=NO
##NPOINTS= 91
##XYDATA=(XY..XY) 1 
    14          3
    15         11
    16          1
    17          1
    18          3
    25          2
    26         10
    27         99
    28         60
    29         51
    30          3
    31         48
    32          4
    33          3
    37          5
    38         13
    39        104
    40         22
    41        223
    42         55
    43        505
    44         58
    45          9
    46          6
    47          4
    50          2
    51         14
    52          9
    53         12
    54         13
    55          6
    56          2
    57         11
    58         55
    59         18
    60         26
    65          1
    66          1
    67          1
    68          6
    69         19
    70         48
    71        999
    72         57
    73          6
    74          5
    78          3
    79          1
    80          4
    81          1
    83          2
    84          2
    85          7
    86          5
    87         59
    88         14
    96          1
    97          2
    98         18
    99         18
   100          7
   101          2
   102          3
   110          2
   111          1
   112          1
   113          4
   114         15
   115          1
   116          2
   126          4
   127         23
   128          5
   129          1
   130         43
   131         14
   132          1
   137          2
   138          3
   143          1
   144          2
   155          1
   156          2
   157          1
   169          1
   170          4
   171          1
   172          3
   200        118
   201         12
   202          1