##TITLE=Library Entry 26389
##JCAMP-DX=Revision 4.10 
##DATA TYPE=MASS SPECTRUM
##SAMPLE DESCRIPTION=SERL) BSR 0399
##NAMES=HP
##CAS NAME=Cyclohexanecarboxylic acid, 4-(1,5-dimethyl-3-oxohexyl)-, methyl
 ester, cis-
##MOLFORM=C16H28O3
##CAS REGISTRY NO=17904-29-9
##MP= -300
##BP= -300
##MW= 268
##$RETENTION INDEX=0
##$CONDENSED SPECTRUM=NO
##NPOINTS= 64
##XYDATA=(XY..XY) 1 
    39        140
    40         40
    41        530
    42        100
    43        320
    45         30
    53        100
    54         80
    55        310
    56         50
    57        999
    58        160
    59        130
    65         30
    66         20
    67        520
    68         60
    69        170
    70         10
    71         70
    77         40
    78         50
    79        230
    80         60
    81        450
    82         60
    83         20
    84         30
    85        590
    86         50
    87        120
    91         50
    93         70
    94         20
    95         40
   100         20
   101         40
   105         10
   107        160
   108        960
   109        510
   110         60
   111         10
   123        150
   124         10
   126         10
   127        470
   128         40
   133        200
   134         20
   135         20
   136        330
   137        140
   138         10
   151        130
   152         10
   161         20
   167         20
   168        270
   169         80
   179        100
   193         30
   209         20
   211        100