##TITLE=Library Entry 14314
##JCAMP-DX=Revision 4.10 
##DATA TYPE=MASS SPECTRUM
##SAMPLE DESCRIPTION=A.A.Kutin, Moscow, Russia
##NAMES=HP
##CAS NAME=Pyridine-3-carbonitrile, 1,2-dihydro-5-acetyl-6-methyl-4-(2-thien
yl)-2-thioxo-
##MOLFORM=C13H10N2OS2
##CAS REGISTRY NO=179088-20-1
##MP= -300
##BP= -300
##MW= 274
##$RETENTION INDEX=0
##$CONDENSED SPECTRUM=NO
##NPOINTS= 37
##XYDATA=(XY..XY) 1 
    39        108
    40        184
    41        311
    43        999
    44        138
    45        149
    55         97
    56         37
    57         75
    60         62
    64         24
    67         43
    69         54
    70         32
    71         32
    73        206
    74         21
    77         70
    83         32
    84         59
    85         35
    88         56
    91         27
   100         24
   105         97
   121         54
   149         43
   157         19
   171         29
   198         46
   242         32
   259        934
   260        168
   261         51
   274        959
   275        124
   276         51