##TITLE=Library Entry 26951
##JCAMP-DX=Revision 4.10 
##DATA TYPE=MASS SPECTRUM
##SAMPLE DESCRIPTION=Institute of Organic Chemistry, Novosibirsk, USSR 1988
##NAMES=HP
##CAS NAME=Vinyldibutoxychlorosilane
##MOLFORM=C10H21ClO2Si
##CAS REGISTRY NO=17906-44-4
##MP= -300
##BP= -300
##MW= 236
##$RETENTION INDEX=0
##$CONDENSED SPECTRUM=NO
##NPOINTS= 34
##XYDATA=(XY..XY) 1 
    35         74
    36         19
    37         37
    57        999
    58        219
    59         17
    60          2
    89         13
    90          4
    97         50
    98          2
    99         18
   107        693
   108        100
   109        231
   137         23
   138          4
   139         17
   153        770
   154        129
   155        293
   156         28
   163         39
   164          9
   165         24
   193        385
   194         61
   195        123
   196         14
   201          4
   202          2
   209         39
   210         12
   211         19