##TITLE=Library Entry 65888
##JCAMP-DX=Revision 4.10 
##DATA TYPE=MASS SPECTRUM
##SAMPLE DESCRIPTION=Exported from NIST MS Search
##NAMES=HP
##CAS NAME=2,6,9,11-Dodecatetraenal, 2,6,10-trimethyl-, (E,E,E)-
##MOLFORM=C15H22O
##CAS REGISTRY NO=17909-77-2
##MP= -300
##BP= -300
##MW= 218
##$RETENTION INDEX=1752
##$CONDENSED SPECTRUM=NO
##NPOINTS= 57
##XYDATA=(XY..XY) 1 
    41        470
    42         20
    43        270
    44         10
    51         50
    52         20
    53        190
    54         40
    55        780
    56         50
    57         40
    64         80
    65         30
    66        120
    67         40
    68        120
    69         30
    70         40
    77        280
    78         70
    79        470
    80        200
    81        280
    82         70
    83         30
    84        100
    91        340
    92        100
    93        999
    94        130
    95         80
    96         20
    97         20
   105        220
   106         60
   107        380
   108         50
   109         30
   119        370
   120         80
   121        100
   133         40
   134        680
   135         30
   136         20
   137         50
   145         40
   146         10
   147         30
   160         20
   161         30
   162         20
   175         20
   176         10
   185         20
   203         20
   218         20