##TITLE=Library Entry 85310
##JCAMP-DX=Revision 4.10 
##DATA TYPE=MASS SPECTRUM
##SAMPLE DESCRIPTION=P.A. Leclercq, Lab. Instrum. Anal., Tech. Univ. Eindhov
en, Netherlands
##NAMES=HP
##CAS NAME=Benzofuran, 6-ethenyl-4,5,6,7-tetrahydro-3,6-dimethyl-5-isopropen
yl-, trans-
##MOLFORM=C15H20O
##CAS REGISTRY NO=17910-09-7
##MP= -300
##BP= -300
##MW= 216
##$RETENTION INDEX=1498
##$CONDENSED SPECTRUM=NO
##NPOINTS= 89
##XYDATA=(XY..XY) 1 
    14          3
    15         13
    18          4
    27        153
    28         16
    29         97
    39        198
    40         37
    41        198
    42         12
    43         90
    50         15
    51         62
    52         29
    53         96
    54         10
    55         60
    56          4
    57          5
    62          5
    63         29
    64         13
    65         87
    66         22
    67         30
    68          4
    69         28
    75          6
    77        172
    78         43
    79        214
    80         39
    81         19
    89         12
    91        182
    92         26
    93        115
    94         12
    95         17
   102          9
   103         34
   105        148
   106         21
   108        999
   109         97
   110         14
   115         80
   116         25
   117         66
   118         17
   119         82
   120         16
   121         21
   122          8
   127         20
   128         66
   129         42
   130         13
   131         63
   132         24
   133        124
   134         22
   135         10
   136          7
   141         20
   142         16
   143         59
   144         17
   145         78
   146         42
   147         80
   148        321
   149         35
   155          7
   157         17
   158         15
   159         63
   160         40
   161         42
   172          8
   173         50
   174         13
   183         10
   187         21
   188          8
   201         92
   202         13
   216        100
   217         14