##TITLE=Library Entry 73733
##JCAMP-DX=Revision 4.10 
##DATA TYPE=MASS SPECTRUM
##SAMPLE DESCRIPTION=V.G.Zaikin, TIPS, Russian Acad. Sci.
##NAMES=HP
##CAS NAME=2-n-Propylthiane
##MOLFORM=C8H16S
##CAS REGISTRY NO=17912-23-1
##MP= -300
##BP= -300
##MW= 144
##$RETENTION INDEX=1117
##$CONDENSED SPECTRUM=NO
##NPOINTS= 61
##XYDATA=(XY..XY) 1 
    38         12
    39        219
    40         31
    41        400
    42         43
    43         37
    44         21
    45        211
    46         44
    47        182
    48          3
    49          8
    50         10
    51         19
    52          6
    53         81
    54         56
    55        322
    56         19
    57          6
    58         31
    59        217
    60         74
    61         77
    62          5
    63          6
    65         20
    66          8
    67        325
    68         55
    69         50
    71         25
    72          7
    73        102
    74         21
    75          5
    77         10
    78          3
    79         14
    81         53
    82         14
    85         18
    87        134
    88         19
    89         12
    99         21
   100         23
   101        999
   102        132
   103         96
   104          3
   114          4
   115         97
   116          9
   117          4
   129          2
   143          5
   144        258
   145         25
   146         13
   147          1