##TITLE=Library Entry 9158
##JCAMP-DX=Revision 4.10 
##DATA TYPE=MASS SPECTRUM
##SAMPLE DESCRIPTION=Japan AIST/NIMC Database- Spectrum MS-NW-2466
##NAMES=HP
##CAS NAME=N-Acetyl-D-valine
##MOLFORM=C7H13NO3
##CAS REGISTRY NO=17916-88-0
##MP= -300
##BP= -300
##MW= 159
##$RETENTION INDEX=0
##$CONDENSED SPECTRUM=NO
##NPOINTS= 88
##XYDATA=(XY..XY) 1 
    13          1
    14          9
    15        103
    16          2
    17         10
    18         47
    19          2
    26         11
    27        122
    28        217
    29         61
    30         76
    31          5
    32          3
    36          1
    37          5
    38         11
    39         96
    40         18
    41        180
    42         81
    43        999
    44         35
    45         23
    46         23
    47          1
    50          3
    51          5
    52          7
    53         11
    54         20
    55        194
    56        129
    57        330
    58         70
    59         14
    60        299
    61          9
    62          1
    66          1
    67          2
    68          6
    69          9
    70         57
    71        175
    72        924
    73         47
    74        371
    75        105
    76         10
    77          1
    80          1
    81          2
    82         64
    83         11
    84         16
    85          6
    86          1
    87          2
    88         16
    89          1
    95          1
    96          2
    97         11
    98         18
    99        864
   100         64
   101         12
   102         19
   103          1
   109          1
   111          1
   112          1
   113         11
   114        412
   115         51
   116         18
   117        151
   118          9
   119          1
   126         14
   127          1
   140          1
   141         15
   142          1
   144          2
   159         11
   160          1