##TITLE=Library Entry 16976
##JCAMP-DX=Revision 4.10 
##DATA TYPE=MASS SPECTRUM
##SAMPLE DESCRIPTION=Chemical Concepts
##NAMES=HP
##CAS NAME=Butane, 1-chloro-4-methoxy-
##MOLFORM=C5H11ClO
##CAS REGISTRY NO=17913-18-7
##MP= -300
##BP= -300
##MW= 122
##$RETENTION INDEX=844
##$CONDENSED SPECTRUM=NO
##NPOINTS= 66
##XYDATA=(XY..XY) 1 
    27         62
    29         57
    30          1
    31         20
    33         10
    36          2
    37          1
    38          4
    39         30
    40          2
    41         34
    42          8
    43          9
    44          0
    45        999
    46         21
    47          2
    48          1
    49          9
    50          1
    51          4
    52          1
    53         10
    54         10
    55         63
    56          8
    57          1
    58          6
    59          4
    60          3
    61          2
    62         10
    63          6
    64          4
    65          1
    67          1
    69          0
    70          1
    71          7
    72          1
    73          0
    75          2
    76          1
    77          3
    78          1
    79          4
    81          1
    83          1
    84          1
    85          5
    86          1
    87          2
    89          1
    90         41
    91          3
    92         12
    93          1
    94          3
    96          1
    97          1
   107          1
   109          1
   121          1
   122         13
   123          1
   124          5