##TITLE=Library Entry 37454
##JCAMP-DX=Revision 4.10 
##DATA TYPE=MASS SPECTRUM
##SAMPLE DESCRIPTION=Japan AIST/NIMC Database- Spectrum MS-IW-4746
##NAMES=HP
##CAS NAME=cis-1,2-Cyclohexanediol
##MOLFORM=C6H12O2
##CAS REGISTRY NO=1792-81-0
##MP= -300
##BP= -300
##MW= 116
##$RETENTION INDEX=0
##$CONDENSED SPECTRUM=NO
##NPOINTS= 76
##XYDATA=(XY..XY) 1 
    14          2
    15         16
    16          1
    17          2
    18          7
    26         15
    27        163
    28         65
    29        183
    30         13
    31        113
    32          2
    33          1
    37          4
    38         10
    39        160
    40         33
    41        393
    42        398
    43        226
    44        348
    45         60
    46          2
    47         14
    49          1
    50          9
    51         15
    52          7
    53         39
    54        134
    55        294
    56        158
    57        828
    58         47
    59          6
    60         24
    61          3
    62          2
    63          3
    65          9
    66          6
    67         77
    68         48
    69        293
    70        999
    71         73
    72         24
    73         24
    74         27
    75          3
    76          1
    77         13
    78          9
    79         44
    80        132
    81         46
    82          8
    83        400
    84         23
    85         16
    86         12
    87          4
    88          6
    94          1
    95          2
    96          3
    97        110
    98        524
    99         65
   100          4
   101          1
   114          2
   115          5
   116        213
   117         14
   118          1