##TITLE=Library Entry 63207
##JCAMP-DX=Revision 4.10 
##DATA TYPE=MASS SPECTRUM
##SAMPLE DESCRIPTION=LAC, NIDDK, NIH, Bethesda, MD 20892
##NAMES=HP
##CAS NAME=o-Benzyloxyphenylacetic acid, benzyl ester
##MOLFORM=C22H20O3
##CAS REGISTRY NO=179257-54-6
##MP= -300
##BP= -300
##MW= 332
##$RETENTION INDEX=0
##$CONDENSED SPECTRUM=NO
##NPOINTS= 101
##XYDATA=(XY..XY) 1 
    41         11
    42          3
    43          6
    44          2
    45          6
    47         20
    52         10
    53          3
    55          7
    56          2
    57          4
    59          0
    60          2
    61          0
    62          3
    63         14
    65         83
    66          4
    67          2
    68          1
    69          4
    70          2
    71          3
    73          2
    74          1
    75          1
    77         37
    78         39
    79         11
    80          0
    81          2
    82          2
    88         12
    89         20
    91        999
    92         69
    93          3
    94          0
    95          1
    96          0
    97          3
    98          2
   102          0
   103          0
   104          0
   105          6
   106         23
   107         50
   108          5
   109          1
   110          1
   111          1
   112          0
   115          2
   119          1
   121          1
   123          1
   124          0
   125          0
   127          0
   129          2
   133          0
   134         41
   135          7
   136          2
   139          0
   141          1
   146          0
   149          2
   150          0
   152         17
   153          3
   154          1
   163          0
   165          5
   166          2
   167          4
   168          3
   169          0
   178          2
   179          7
   180         53
   181        132
   182         16
   183          1
   195          3
   196          1
   197          4
   198          2
   199          0
   224          3
   225          0
   241        126
   242         44
   243          6
   256          2
   270         14
   271          2
   332         29
   333          6
   334          0