##TITLE=Library Entry 32984
##JCAMP-DX=Revision 4.10 
##DATA TYPE=MASS SPECTRUM
##SAMPLE DESCRIPTION=Japan AIST/NIMC Database- Spectrum MS-NW-6268
##NAMES=HP
##CAS NAME=Bicyclo[3.3.1]nonan-9-one
##MOLFORM=C9H14O
##CAS REGISTRY NO=17931-55-4
##MP= -300
##BP= -300
##MW= 138
##$RETENTION INDEX=0
##$CONDENSED SPECTRUM=NO
##NPOINTS= 96
##XYDATA=(XY..XY) 1 
    14          1
    15         11
    18          2
    26         17
    27        207
    28         10
    29         83
    30          2
    31          2
    32          1
    37          5
    38         16
    39        250
    40         50
    41        395
    42         30
    43         20
    44          4
    45          3
    46          1
    49          2
    50         15
    51         36
    52         20
    53         99
    54        420
    55        156
    56         38
    57         14
    58          1
    59          1
    60          1
    61          1
    62          4
    63         10
    64          2
    65         35
    66         95
    67        999
    68        245
    69         93
    70         26
    71          9
    72          1
    73          1
    74          3
    75          2
    76          1
    77         31
    78         43
    79        123
    80         38
    81        261
    82        583
    83         58
    84         34
    85          2
    86          1
    88          1
    89          1
    90          1
    91        150
    92        163
    93         24
    94         41
    95        107
    96         35
    97         21
    98          3
    99          1
   103          1
   104          2
   105         31
   106          5
   107         11
   108          3
   109         33
   110        192
   111         17
   112          1
   115          2
   116          1
   117          3
   118          2
   119         10
   120        126
   121         15
   122          2
   123          8
   124          1
   135          1
   136          1
   137          4
   138        537
   139         61
   140          4