##TITLE=Library Entry 57983
##JCAMP-DX=Revision 4.10 
##DATA TYPE=MASS SPECTRUM
##SAMPLE DESCRIPTION=Zaikin V.G., TIPS RAS, Moscow, Russia
##NAMES=HP
##CAS NAME=3-Cyclopentylpropionic acid, ethyl ester
##MOLFORM=C10H18O2
##CAS REGISTRY NO=17931-64-5
##MP= -300
##BP= -300
##MW= 170
##$RETENTION INDEX=1250
##$CONDENSED SPECTRUM=NO
##NPOINTS= 87
##XYDATA=(XY..XY) 1 
    26         14
    27         73
    28          4
    29        144
    30          5
    31          5
    36          7
    38          3
    39         90
    40         24
    41        231
    42         36
    43         46
    44         15
    45         77
    46          3
    50          3
    51          8
    52          6
    53         47
    54         62
    55        341
    56         37
    57         36
    58          6
    59          5
    60        248
    61        223
    62          7
    63          3
    65         13
    66         14
    67        186
    68         89
    69        139
    70        173
    71         28
    72          3
    73        261
    74         94
    75         27
    77         12
    78          4
    79         81
    80         40
    81        152
    82        148
    83        298
    84         23
    85          8
    86          3
    87          4
    88        999
    89        203
    90         12
    91          7
    93          6
    95         77
    96         86
    97         52
    98          4
    99         28
   100          6
   101        831
   102         98
   103          9
   105          4
   106         13
   107        132
   108         12
   109          3
   113         11
   114         15
   115          6
   123         21
   124         57
   125        326
   126         30
   127         23
   128         37
   129          4
   141         54
   142         20
   143         10
   155          5
   170         19
   171          7