##TITLE=Library Entry 43175
##JCAMP-DX=Revision 4.10 
##DATA TYPE=MASS SPECTRUM
##SAMPLE DESCRIPTION=D.HENNEBERG, MAX-PLANCK INSTITUTE, MULHEIM, WEST GERMAN
Y
##NAMES=HP
##CAS NAME=Boronic acid, methanetetrayltetrakis-, octamethyl ester
##MOLFORM=C9H24B4O8
##CAS REGISTRY NO=17936-80-0
##MP= -300
##BP= -300
##MW= 304
##$RETENTION INDEX=0
##$CONDENSED SPECTRUM=NO
##NPOINTS= 152
##XYDATA=(XY..XY) 1 
    26         46
    28         77
    29        143
    30         44
    31        192
    33          1
    37          2
    38          2
    39          9
    40          4
    41         20
    42         95
    43        283
    44         11
    45         28
    46          0
    49          0
    50          3
    51          5
    52          4
    53         11
    54          4
    55         35
    56        160
    57        171
    58         16
    59         51
    64          0
    65          5
    66         13
    67         31
    68         46
    69        133
    70         87
    71         72
    72        301
    73        999
    74         22
    75          3
    76          1
    77          3
    78          9
    79         12
    80          5
    81         17
    82         26
    83         12
    84          4
    85         13
    86         20
    87          6
    88          2
    89         10
    91          4
    92          5
    93         10
    94         11
    95         42
    96        172
    97        311
    98         27
    99         16
   100         19
   101         38
   102          3
   103         29
   104         80
   105          5
   106          3
   107         13
   108         55
   109         77
   110          8
   111         14
   112         14
   113         19
   114         14
   115         14
   116          1
   117          3
   119          0
   120          2
   121          6
   122         19
   123         28
   124         13
   125         17
   126         26
   127         74
   128        143
   129        149
   130         70
   131        124
   132          3
   136          3
   137         29
   138        109
   139        162
   140         72
   141        140
   142         39
   143         29
   144         28
   145         25
   146          1
   149         35
   150          3
   151          2
   152          9
   153         28
   154         65
   155        100
   156         44
   157         62
   158          6
   159          6
   165          2
   166         26
   167        128
   168        306
   169        271
   170         28
   171         12
   172          8
   173          5
   176          0
   179          1
   180          0
   181          1
   182          3
   183          9
   184         28
   185         39
   186          6
   187          1
   190          0
   191          1
   197         16
   198        172
   199        686
   200        961
   201         91
   202         10
   205          0
   212          0
   213          0
   223          1
   270          6
   271         23
   272         41
   273         27
   274          1