##TITLE=Library Entry 93586
##JCAMP-DX=Revision 4.10 
##DATA TYPE=MASS SPECTRUM
##SAMPLE DESCRIPTION=KA71-60-1B
##NAMES=HP
##CAS NAME=Germane, tetraallyl-
##MOLFORM=C12H20Ge
##CAS REGISTRY NO=1793-91-5
##MP= -300
##BP= -300
##MW= 238
##$RETENTION INDEX=0
##$CONDENSED SPECTRUM=NO
##NPOINTS= 67
##XYDATA=(XY..XY) 1 
    26         37
    27         69
    28         69
    29         37
    31         37
    32         37
    38         37
    39        379
    40         69
    41        319
    42         37
    70         32
    71         46
    72         37
    73         50
    74         27
    75         64
    79         55
    81         27
    85        217
    86         37
    87        291
    88        120
    89        379
    91         83
    95         18
    97         55
    99         92
   101         88
   103         37
   105         18
   107         18
   108         13
   109         37
   110         18
   111        643
   112         78
   113        800
   114        259
   115        999
   116         37
   117        203
   124         55
   126         78
   127         37
   128        106
   129         46
   149         64
   151         92
   152        111
   153        125
   154        143
   155         83
   156        166
   157         27
   158         41
   193        361
   194         46
   195        393
   196        180
   197        643
   198         69
   199        125
   200         13
   234         23
   236         23
   238         23