##TITLE=Library Entry 30593
##JCAMP-DX=Revision 4.10 
##DATA TYPE=MASS SPECTRUM
##SAMPLE DESCRIPTION=James Little,Eastman Chem.Co.,Kingsport,TN
##NAMES=HP
##CAS NAME=Acetic acid, [(1-thioxoethyl)thio]-
##MOLFORM=C4H6O2S2
##CAS REGISTRY NO=17930-82-4
##MP= -300
##BP= -300
##MW= 150
##$RETENTION INDEX=0
##$CONDENSED SPECTRUM=NO
##NPOINTS= 32
##XYDATA=(XY..XY) 1 
    27         11
    28         14
    29         13
    31         18
    32         12
    42         22
    43         16
    44         25
    45         99
    46         42
    47         36
    57         46
    58        135
    59        999
    60         42
    61         51
    64          8
    74          7
    76         28
    77         11
    88          4
    89          4
    90          5
    91         36
    92         12
    93          5
   105          5
   117         12
   133          5
   150        290
   151         19
   152         28