##TITLE=Library Entry 73373
##JCAMP-DX=Revision 4.10 
##DATA TYPE=MASS SPECTRUM
##SAMPLE DESCRIPTION=H-W. FEHLHABER INST. ORGANIC CHEM., UNIV. OF BONN, W. G
ERMANY
##NAMES=HP
##CAS NAME=Butanamide, 2-(dimethylamino)-N-[5,8-dioxo-3-phenyl-7-(phenylmeth
yl)-2-oxa-6,9-diazabicyclo[10.2.2]hexadeca-10,12,14,15-tetraen-4-yl]-3-methy
l-, [3R-[3R*,4S*(S*),7S*]]-
##MOLFORM=C33H38N4O4
##CAS REGISTRY NO=17948-40-2
##MP= -300
##BP= -300
##MW= 554
##$RETENTION INDEX=0
##$CONDENSED SPECTRUM=NO
##NPOINTS= 257
##XYDATA=(XY..XY) 1 
    40          0
    41          6
    42         16
    43          7
    44         27
    45          4
    46          5
    50          0
    51         16
    52          1
    53          0
    54          0
    55         10
    56          3
    57          7
    59          6
    63          1
    64          0
    65          2
    66          0
    67          0
    68          1
    69          4
    70          7
    71          2
    72          1
    73          0
    74          0
    75          0
    76          0
    77          7
    78          2
    79          1
    80          0
    81          0
    82          1
    83          3
    84         14
    85         24
    86          6
    87          0
    89          2
    90          3
    91         19
    92          0
    93          0
    94          0
    95          0
    96          0
    97          0
    98          6
    99          4
   100        999
   101         75
   102          2
   103         16
   104          5
   105          3
   106          1
   107          2
   108          6
   109          5
   110          2
   111          4
   112          8
   113          6
   114         24
   115          2
   116          2
   117          6
   118          5
   119          5
   120         12
   121          1
   128          4
   129          1
   130          2
   131         34
   132          5
   133          2
   134          5
   135         11
   136          2
   141          1
   144          0
   145          1
   146          5
   147          2
   148          2
   151          0
   152          0
   153          0
   154          0
   155          0
   156          0
   157          0
   158          0
   159          0
   160          1
   161          1
   162          0
   163          0
   165          0
   166          0
   167          0
   168          0
   169          0
   170          0
   171          0
   172          0
   173          0
   174          0
   175          3
   176          0
   177          0
   178          0
   179          0
   180          0
   181          0
   182          0
   183          0
   184          0
   185          0
   186          0
   187          0
   188          0
   189          0
   190          0
   191          0
   192          0
   193          0
   194          0
   195          0
   196          0
   197          0
   199          0
   200          0
   201          1
   202          0
   203          0
   204          0
   205          0
   206          0
   207          0
   208          0
   209          0
   210          0
   214          0
   215          0
   216          0
   217          0
   218          0
   219          0
   220          0
   221          0
   222          0
   223          0
   224          2
   225          0
   226          0
   227          0
   228          0
   229          1
   230          0
   231          0
   232          0
   233          0
   234          0
   235          0
   236          0
   237          0
   238          0
   239          0
   241          0
   242          0
   243          0
   244          0
   245          0
   246          0
   247          0
   248          0
   249          0
   250          1
   251          0
   252          0
   256          0
   259          0
   261          0
   262          0
   263          0
   264          0
   265          0
   266          0
   275          0
   276          0
   277          0
   278          0
   279          0
   280          0
   281          0
   282          0
   283          0
   291          0
   292          0
   293          0
   294          0
   303          0
   304          0
   305          0
   306          0
   308          0
   309          0
   310          0
   331          0
   332          0
   333          0
   348          0
   349          0
   361          0
   371          1
   372          0
   375          0
   376          0
   377          0
   378          0
   393          0
   394          0
   412          0
   413          0
   421          0
   426          0
   434          0
   435          0
   436          0
   437          0
   438          0
   453          0
   455          0
   456          0
   466          0
   468          0
   477          0
   483          0
   496          0
   497          0
   509          0
   510          0
   511          3
   512          1
   513          0
   539          0
   540          0
   552          0
   553          0
   554          0
   555          0
   556          0