##TITLE=Library Entry 76009
##JCAMP-DX=Revision 4.10 
##DATA TYPE=MASS SPECTRUM
##SAMPLE DESCRIPTION=NIST Mass Spectrometry Data Center, 2010
##NAMES=HP
##CAS NAME=Heptylamine, TMS derivative
##MOLFORM=C10H25NSi
##CAS REGISTRY NO=17940-17-9
##MP= -300
##BP= -300
##MW= 187
##$RETENTION INDEX=1153
##$CONDENSED SPECTRUM=NO
##NPOINTS= 78
##XYDATA=(XY..XY) 1 
    27          6
    28          2
    29         11
    30          3
    31          2
    39          4
    40          1
    41         14
    42          3
    43         19
    44         11
    45         23
    46          3
    47          1
    53          1
    54          1
    55         12
    56          5
    57          5
    58         12
    59         44
    60          7
    61          2
    67          1
    68          1
    69          2
    70          4
    71          4
    72         16
    73        281
    74         50
    75         12
    76          2
    81          1
    82          1
    83          1
    84          3
    85          5
    86         25
    87         11
    88         56
    89          9
    90          4
    95          1
    96          1
    97          2
    98          6
    99          5
   100         14
   102        999
   103        101
   104         38
   105          2
   112          2
   113          1
   114         14
   115          3
   116          6
   117          2
   126          1
   128          6
   129          1
   130          1
   142          1
   144          5
   145          1
   157          2
   158         10
   159          1
   170          3
   172        236
   173         36
   174         10
   175          1
   186         12
   187         64
   188         11
   189          3