##TITLE=Library Entry 27769
##JCAMP-DX=Revision 4.10 
##DATA TYPE=MASS SPECTRUM
##SAMPLE DESCRIPTION=CONTINENTAL OIL CO., PONCA CITY, OKLA, USA
##NAMES=HP
##CAS NAME=Cyclopentanemethylamine, 2-isopropylidene-N,N,5-trimethyl-, (1R,5
R)-(-)-
##MOLFORM=C12H23N
##CAS REGISTRY NO=17943-83-8
##MP= -300
##BP= -300
##MW= 181
##$RETENTION INDEX=0
##$CONDENSED SPECTRUM=NO
##NPOINTS= 143
##XYDATA=(XY..XY) 1 
    13          3
    14         13
    15         76
    16          5
    17          4
    18         18
    25          0
    26          6
    27         76
    28         84
    29         58
    30         43
    31          2
    32          2
    36          0
    37          1
    38          7
    39         86
    40         21
    41        109
    42        120
    43         52
    44         53
    45         13
    46          5
    49          0
    50          7
    51         23
    52         11
    53         40
    54          7
    55         37
    56         12
    57         62
    58        999
    59         70
    60          2
    61          1
    62          2
    63          8
    64          3
    65         22
    66         10
    67         32
    68          9
    69         10
    70          3
    71          3
    72          4
    73          2
    74          1
    75          2
    76          2
    77         43
    78         13
    79         65
    80         14
    81         69
    82         11
    83          2
    84          3
    85          1
    86          0
    87          0
    89          2
    90          2
    91         54
    92         10
    93         53
    94         15
    95         14
    96          4
    97          1
    98          3
    99          0
   101          0
   102          1
   103          4
   104          2
   105         17
   106          6
   107         62
   108         21
   109         19
   110          3
   111          2
   112          0
   115          3
   116          1
   117          3
   118          1
   119         10
   120          5
   121         35
   122         30
   123          9
   124          8
   125          1
   126          0
   127          0
   128          0
   129          1
   130          1
   131          1
   132          3
   133          2
   134          6
   135          3
   136         17
   137          3
   138          3
   139          0
   143          0
   144          1
   145          2
   146          2
   147          0
   148          2
   149          1
   150          3
   151          1
   152          1
   153          0
   158          1
   159          1
   160          5
   161          1
   162          7
   163          1
   164         17
   165          2
   166          1
   172          0
   173          0
   174          1
   175          2
   176          1
   177          3
   178          2
   179         12
   180          4
   181          4
   182          0