##TITLE=Library Entry 29678
##JCAMP-DX=Revision 4.10 
##DATA TYPE=MASS SPECTRUM
##SAMPLE DESCRIPTION=TAT 0331
##NAMES=HP
##CAS NAME=14.alpha.-Morphinan-6.beta.-ol, 3-methoxy-17-methyl-
##MOLFORM=C18H25NO2
##CAS REGISTRY NO=17948-43-5
##MP= -300
##BP= -300
##MW= 287
##$RETENTION INDEX=0
##$CONDENSED SPECTRUM=NO
##NPOINTS= 110
##XYDATA=(XY..XY) 1 
    41        220
    42        730
    43        290
    44        390
    45         40
    51        140
    52         60
    53        110
    54         20
    55        130
    56         60
    57        140
    58        140
    59        999
    60         80
    61         10
    63        110
    64         10
    65        110
    66         10
    67         70
    70        120
    71         10
    77        220
    78        100
    79         80
    80         10
    81         70
    82        140
    83         20
    89         80
    90         10
    91        220
    92         30
    94        110
    95         10
    96         70
   102         90
   103        100
   104         10
   105         60
   107         80
   108        110
   109         70
   110         10
   115        380
   116        100
   117         70
   120         60
   121        140
   122        130
   123         20
   124        110
   125         10
   127        140
   128        310
   129        280
   130         60
   131        100
   132         10
   139         70
   140         60
   141        180
   142         70
   143         60
   144        120
   145         70
   146         90
   147         60
   148        120
   149         20
   152        110
   153        120
   154         60
   155         70
   157         70
   158        110
   159        100
   160         60
   161         70
   162        120
   163         20
   165        100
   166        400
   167         90
   168         10
   171        180
   172        130
   173         70
   174        110
   175         20
   179         60
   181         50
   184        100
   185         90
   186         10
   202        110
   203         20
   211         90
   212        140
   213         20
   214         60
   228        110
   229         20
   230        110
   231         10
   286        220
   287        410
   288         80
   289         10