##TITLE=Library Entry 42960
##JCAMP-DX=Revision 4.10 
##DATA TYPE=MASS SPECTRUM
##SAMPLE DESCRIPTION=Chemical Concepts
##NAMES=HP
##CAS NAME=Silane, 1H-inden-1-ylidenebis[trimethyl-
##MOLFORM=C15H24Si2
##CAS REGISTRY NO=17942-98-2
##MP= -300
##BP= -300
##MW= 260
##$RETENTION INDEX=0
##$CONDENSED SPECTRUM=NO
##NPOINTS= 164
##XYDATA=(XY..XY) 1 
    27          5
    28          3
    29         16
    30          2
    31         11
    38          0
    39          6
    40          0
    41          1
    42          1
    43         51
    44         17
    45        165
    46          9
    47          5
    50          1
    51          3
    52          0
    53         13
    54          1
    55          6
    56          0
    57          6
    58          8
    59         46
    60          3
    61          1
    62          2
    63          6
    64          0
    65          4
    66          2
    67          3
    68          0
    69          5
    70          1
    71          2
    72          9
    73        999
    74         82
    75         36
    76          2
    77          4
    78          1
    79          2
    80          0
    81          0
    83          2
    85          2
    86          1
    87          2
    88          1
    89          6
    90          1
    91          1
    92          1
    93          2
    94          0
    95          0
    97          1
    98          0
    99          0
   100          0
   101          3
   102          2
   103          4
   104          1
   105         12
   106          1
   107          1
   113          1
   114          1
   115         25
   116          6
   117          6
   118          1
   119          5
   120          0
   121          1
   122          0
   126          0
   127          4
   128         18
   129         10
   130          4
   131         17
   132          3
   133          2
   134          0
   135          0
   139          0
   141          4
   142          5
   143         17
   144          3
   145         45
   146          8
   147          3
   148          0
   153          1
   154          1
   155          9
   156          3
   157         24
   158          5
   159          6
   160          1
   161          0
   163          0
   165          0
   167          3
   168          1
   169          6
   170          1
   171         12
   172        589
   173        108
   174         26
   175          4
   176          0
   177          0
   181          1
   182          0
   183          2
   184          0
   185          5
   186          1
   187          3
   188         47
   189          8
   190          2
   191          0
   195          0
   197          0
   199          1
   200          0
   201          1
   202          0
   203          0
   205          0
   211          0
   213          1
   214          0
   215          2
   216          0
   217          2
   218          0
   219          0
   225          0
   227          0
   228          0
   229          8
   230          2
   231          1
   243          0
   244         15
   245         48
   246         13
   247          5
   248          0
   260         67
   261         17
   262          6
   263          1