##TITLE=Library Entry 34288
##JCAMP-DX=Revision 4.10 
##DATA TYPE=MASS SPECTRUM
##SAMPLE DESCRIPTION=NIST Mass Spectrometry Data Center, 1990.
##NAMES=HP
##CAS NAME=Cyclopentane, decyl-
##MOLFORM=C15H30
##CAS REGISTRY NO=1795-21-7
##MP= -300
##BP= -300
##MW= 210
##$RETENTION INDEX=1543
##$CONDENSED SPECTRUM=NO
##NPOINTS= 81
##XYDATA=(XY..XY) 1 
    15          3
    18          4
    26         11
    27        156
    28         90
    29        276
    30          8
    32          6
    39        165
    41        960
    42        182
    43        489
    44         17
    50          2
    51          9
    52          8
    53         86
    54        123
    55        783
    56        333
    57        385
    58         16
    63          1
    64          1
    65         23
    66          1
    67        322
    68        843
    69        999
    70        323
    71        170
    72          9
    77         12
    78          4
    79         26
    80          1
    81         73
    82        370
    83        750
    84        230
    85        102
    86          6
    91          5
    93          4
    94          2
    95         36
    96        124
    97        473
    98        142
    99         28
   100          0
   109         10
   110         68
   111        265
   112        103
   113         11
   123          5
   124         38
   125        150
   126         64
   127          7
   137          3
   138         25
   139         55
   140         51
   141         11
   152         12
   153         26
   154         31
   155          3
   166          6
   167         12
   168         11
   169          1
   180          2
   181         10
   182         50
   183          7
   210         99
   211         14
   212          2