##TITLE=Library Entry 52785
##JCAMP-DX=Revision 4.10 
##DATA TYPE=MASS SPECTRUM
##SAMPLE DESCRIPTION=Japan AIST/NIMC Database- Spectrum MS-IW-2648
##NAMES=HP
##CAS NAME=Dodecylcyclohexane
##MOLFORM=C18H36
##CAS REGISTRY NO=1795-17-1
##MP= -300
##BP= -300
##MW= 252
##$RETENTION INDEX=1864
##$CONDENSED SPECTRUM=NO
##NPOINTS= 67
##XYDATA=(XY..XY) 1 
    26          1
    27         19
    28          2
    29         56
    30          1
    39         19
    40          4
    41        180
    42         30
    43        153
    44          5
    51          1
    53         12
    54         32
    55        386
    56         63
    57        105
    58          4
    65          3
    66          3
    67        126
    68         35
    69        107
    70         42
    71         43
    72          2
    77          3
    79          6
    80          2
    81         25
    82        868
    83        999
    84         89
    85         23
    86          1
    91          1
    93          1
    95          6
    96         22
    97         80
    98         19
    99          5
   109          3
   110          6
   111         31
   112         11
   113          3
   124          3
   125         16
   126          8
   127          2
   138          2
   139         10
   140          9
   141          1
   152          1
   153          3
   154          2
   167          2
   168         17
   169          7
   181          1
   182          1
   195          1
   224          2
   252         40
   253          8