##TITLE=Library Entry 37069
##JCAMP-DX=Revision 4.10 
##DATA TYPE=MASS SPECTRUM
##SAMPLE DESCRIPTION=Japan AIST/NIMC Database- Spectrum MS-NW-2952
##NAMES=HP
##CAS NAME=Propane, 2-isocyanato-
##MOLFORM=C4H7NO
##CAS REGISTRY NO=1795-48-8
##MP= -300
##BP= -300
##MW= 85
##$RETENTION INDEX=0
##$CONDENSED SPECTRUM=NO
##NPOINTS= 33
##XYDATA=(XY..XY) 1 
    12          1
    13          2
    14          9
    15        115
    16          1
    25          3
    26         16
    27         69
    28         24
    29          7
    30          2
    37          6
    38         11
    39         44
    40         36
    41         89
    42        301
    43         90
    44          7
    51          4
    52          5
    54          4
    55          2
    56         21
    57          1
    68          2
    69         22
    70        999
    71         38
    72          2
    84         14
    85        112
    86          6