##TITLE=Library Entry 70372
##JCAMP-DX=Revision 4.10 
##DATA TYPE=MASS SPECTRUM
##SAMPLE DESCRIPTION=Japan AIST/NIMC Database- Spectrum MS-NW-6623
##NAMES=HP
##CAS NAME=Thiophene, 3-ethyl-
##MOLFORM=C6H8S
##CAS REGISTRY NO=1795-01-3
##MP= -300
##BP= -300
##MW= 112
##$RETENTION INDEX=869
##$CONDENSED SPECTRUM=NO
##NPOINTS= 77
##XYDATA=(XY..XY) 1 
    15          4
    18          3
    25          1
    26          7
    27         34
    28          9
    29          4
    32          3
    33          1
    34          1
    36          1
    37          9
    38         17
    39         75
    40          6
    41         16
    43          1
    44          6
    45        149
    46          6
    47          9
    49          5
    50         20
    51         28
    52          9
    53         59
    54          4
    55          8
    56          2
    57         15
    58         30
    59          9
    60          3
    61          5
    62          8
    63         11
    64          2
    65         19
    66          8
    67         19
    68          2
    69         28
    70          9
    71         17
    72          2
    73          1
    74          2
    75          1
    76          1
    77         36
    78         14
    79          7
    80          1
    81          9
    82         10
    83          6
    84         37
    85         24
    86          3
    87          1
    91          4
    92          3
    93          3
    95          6
    96          5
    97        999
    98         64
    99         46
   100          3
   108          2
   109         11
   110          9
   111         83
   112        464
   113         39
   114         24
   115          2