##TITLE=Library Entry 30966
##JCAMP-DX=Revision 4.10 
##DATA TYPE=MASS SPECTRUM
##SAMPLE DESCRIPTION=Div. of Experiment Therapeutics WRAIR, WRAMC, Washingto
n DC 20307
##NAMES=HP
##CAS NAME=8-Chlorocapric acid
##MOLFORM=C8H15ClO2
##CAS REGISTRY NO=1795-62-6
##MP= -300
##BP= -300
##MW= 178
##$RETENTION INDEX=0
##$CONDENSED SPECTRUM=NO
##NPOINTS= 96
##XYDATA=(XY..XY) 1 
    41        360
    42        114
    43        155
    45        205
    46          4
    47          6
    48          3
    49         52
    50          7
    51         30
    52          6
    53         50
    54         37
    55        405
    56         54
    57         40
    58          7
    59         36
    60        999
    61         84
    62         13
    63         31
    64          4
    65         20
    66          7
    67         59
    68         34
    69        111
    70         29
    71         13
    73        569
    74         68
    75         15
    76          4
    77         26
    78          6
    79         22
    80         13
    81         44
    82        182
    83        276
    84         52
    86         21
    87         95
    88          6
    89          9
    90          4
    91         44
    92          4
    93         11
    94          9
    95         27
    96        199
    97         50
    98         11
    99         11
   100         38
   101         19
   102          2
   103          2
   104          2
   105          2
   106          5
   107          2
   108          0
   109          3
   110          3
   111          2
   112          1
   113         10
   114          5
   115         16
   116          3
   117          1
   118         49
   119        192
   120         29
   121         61
   122          3
   123          5
   124         82
   125         14
   126          1
   127          2
   128          2
   129          6
   130          0
   131          1
   161          5
   162          0
   163          2
   177          1
   178         10
   179          1
   180          3
   181          0