##TITLE=Library Entry 52783
##JCAMP-DX=Revision 4.10 
##DATA TYPE=MASS SPECTRUM
##SAMPLE DESCRIPTION=Japan AIST/NIMC Database- Spectrum MS-IW-1910
##NAMES=HP
##CAS NAME=Cyclohexane, octyl-
##MOLFORM=C14H28
##CAS REGISTRY NO=1795-15-9
##MP= -300
##BP= -300
##MW= 196
##$RETENTION INDEX=1448
##$CONDENSED SPECTRUM=NO
##NPOINTS= 65
##XYDATA=(XY..XY) 1 
    26          1
    27         32
    28          7
    29         65
    30          1
    36          1
    39         34
    40          6
    41        205
    42         33
    43        116
    44          4
    51          2
    52          1
    53         19
    54         40
    55        471
    56         77
    57         77
    58          3
    65          4
    66          4
    67        149
    68         37
    69        110
    70         57
    71         31
    72          1
    77          4
    78          1
    79          7
    80          2
    81         27
    82        819
    83        999
    84        103
    85         13
    91          2
    92          1
    93          1
    95          5
    96         14
    97         65
    98         14
    99          2
   109          2
   110          3
   111         17
   112         31
   113          6
   124          1
   125          8
   126          4
   127          1
   138          1
   139          6
   140          3
   141          1
   153          2
   154          1
   156          1
   168          3
   196         85
   197         12
   198          1