##TITLE=Library Entry 36039
##JCAMP-DX=Revision 4.10 
##DATA TYPE=MASS SPECTRUM
##SAMPLE DESCRIPTION=NIST Mass Spectrometry Data Center, 1990.
##NAMES=HP
##CAS NAME=Cyclohexane, 1,3,5-trimethyl-, (1.alpha.,3.alpha.,5.beta.)-
##MOLFORM=C9H18
##CAS REGISTRY NO=1795-26-2
##MP= -300
##BP= -300
##MW= 126
##$RETENTION INDEX=863
##$CONDENSED SPECTRUM=NO
##NPOINTS= 54
##XYDATA=(XY..XY) 1 
    15          6
    27         87
    28         14
    29         83
    30          1
    37          1
    39        203
    40         54
    41        404
    42        136
    43         95
    44         10
    45          2
    46          1
    50          8
    51         24
    52         11
    53         76
    54          1
    55        561
    56        204
    57         68
    58          3
    62          1
    63          6
    65         24
    66          8
    67         73
    68          1
    69        999
    70        131
    71         12
    77         20
    78          4
    79         18
    80          3
    81         18
    82         12
    83         76
    84         46
    85          5
    91          8
    92          1
    93          2
    95         22
    96          4
    97         23
    98          3
   109          6
   111        688
   112         61
   113          2
   126        292
   127         27