##TITLE=Library Entry 20797
##JCAMP-DX=Revision 4.10 
##DATA TYPE=MASS SPECTRUM
##SAMPLE DESCRIPTION=Chemical Concepts
##NAMES=HP
##CAS NAME=Cyclohexane, 1,2,3,4,5,6-hexaethyl-
##MOLFORM=C18H36
##CAS REGISTRY NO=1795-14-8
##MP= -300
##BP= -300
##MW= 252
##$RETENTION INDEX=1622
##$CONDENSED SPECTRUM=NO
##NPOINTS= 100
##XYDATA=(XY..XY) 1 
    24          2
    26          4
    27         71
    28         33
    29        106
    30          3
    33          2
    37          1
    38          4
    39         52
    40          5
    41        386
    42         51
    43        309
    44          8
    51          2
    52          3
    53         52
    54         13
    55        999
    56         76
    57        337
    58         10
    63          1
    65         18
    66          7
    67         97
    68         10
    69        715
    70         63
    71        215
    72         16
    77         22
    78          5
    79         41
    80         10
    81         92
    82         18
    83        802
    84        139
    85        188
    86         13
    91         22
    93         19
    94          5
    95         64
    96         16
    97        496
    98         60
    99        114
   100          7
   105          4
   106          1
   107         17
   108          4
   109         33
   110         14
   111        229
   112         26
   113         73
   114          3
   117          1
   119          3
   121          6
   122          2
   123         26
   124         16
   125        351
   126        107
   127         27
   128          4
   133          3
   135          5
   136          1
   137         15
   138         11
   139        231
   140         26
   141          3
   151         16
   152          8
   153        143
   154         15
   163          2
   164          2
   165         10
   166          6
   167         51
   168          9
   179          2
   180          3
   181          5
   193         19
   194          4
   209          2
   214          1
   221          6
   223         85
   224         14
   252          2