##TITLE=Library Entry 52786
##JCAMP-DX=Revision 4.10 
##DATA TYPE=MASS SPECTRUM
##SAMPLE DESCRIPTION=Japan AIST/NIMC Database- Spectrum MS-NW-5265
##NAMES=HP
##CAS NAME=Cyclohexane, tetradecyl-
##MOLFORM=C20H40
##CAS REGISTRY NO=1795-18-2
##MP= -300
##BP= -300
##MW= 280
##$RETENTION INDEX=2079
##$CONDENSED SPECTRUM=NO
##NPOINTS= 81
##XYDATA=(XY..XY) 1 
    26          1
    27         24
    28          6
    29         69
    30          1
    32          1
    36          1
    39         17
    40          4
    41        185
    42         31
    43        174
    44          6
    51          1
    52          1
    53          9
    54         29
    55        344
    56         59
    57        120
    58          5
    65          2
    66          3
    67        109
    68         34
    69        104
    70         39
    71         47
    72          2
    77          3
    78          1
    79          5
    80          2
    81         22
    82        798
    83        999
    84         84
    85         29
    86          2
    91          1
    93          1
    95          7
    96         22
    97         85
    98         19
    99          7
   107          1
   108          1
   109          3
   110          7
   111         32
   112         12
   113          4
   123          1
   124          4
   125         17
   126          9
   127          3
   138          3
   139         10
   140          6
   141          2
   152          2
   153          5
   154          4
   155          1
   166          1
   167          3
   168          6
   169          1
   180          1
   181          2
   182          1
   195          1
   196         12
   197          6
   198          1
   224          1
   252          2
   280         23
   281          5