##TITLE=Library Entry 46046
##JCAMP-DX=Revision 4.10 
##DATA TYPE=MASS SPECTRUM
##SAMPLE DESCRIPTION=D.HENNEBERG, MAX-PLANCK INSTITUTE, MULHEIM, WEST GERMAN
Y
##NAMES=HP
##CAS NAME=1-Undecanol, TMS derivative
##MOLFORM=C14H32OSi
##CAS REGISTRY NO=17957-64-1
##MP= -300
##BP= -300
##MW= 244
##$RETENTION INDEX=1465
##$CONDENSED SPECTRUM=NO
##NPOINTS= 79
##XYDATA=(XY..XY) 1 
    26          6
    27         69
    28         53
    29        111
    36          3
    39         27
    40         11
    41        218
    42         44
    43        178
    44         15
    45         69
    46          3
    47         52
    48          4
    49          4
    51          1
    53          8
    54         13
    55        248
    56         68
    57        103
    58         16
    59         77
    60          8
    61         92
    62          4
    64          0
    65          4
    66          7
    67         28
    68         27
    69        246
    70         45
    71         71
    72         13
    73        451
    74         27
    75        999
    76         56
    77         38
    79          3
    81         13
    82         16
    83        298
    84         28
    85         22
    86          3
    87         15
    88          5
    89        242
    90         19
    91         42
    92          3
    95          8
    96          6
    97        247
    98         19
    99         15
   101         65
   102          9
   103        291
   104         22
   105          6
   111         47
   112          3
   113          5
   115         30
   116          5
   117         14
   126          5
   129          5
   130          0
   131          3
   143          7
   209          0
   229        550
   230         90
   231         23