##TITLE=Library Entry 88143
##JCAMP-DX=Revision 4.10 
##DATA TYPE=MASS SPECTRUM
##SAMPLE DESCRIPTION=Exported from NIST MS Search
##NAMES=HP
##CAS NAME=Cyclohexane, 1,3,5-trimethyl-, (1.alpha.,3.alpha.,5.alpha.)-
##MOLFORM=C9H18
##CAS REGISTRY NO=1795-27-3
##MP= -300
##BP= -300
##MW= 126
##$RETENTION INDEX=850
##$CONDENSED SPECTRUM=NO
##NPOINTS= 80
##XYDATA=(XY..XY) 1 
    12          1
    13          1
    14          6
    15         72
    16          2
    25          1
    26         13
    27        252
    28         37
    29        189
    30          4
    31          1
    37          3
    38         12
    39        273
    40         47
    41        510
    42        162
    43        138
    44          5
    45          1
    46          1
    47          1
    48          1
    49          1
    50          9
    51         27
    52         12
    53         77
    54         19
    55        666
    56        146
    57         66
    58          3
    61          1
    62          2
    63          7
    64          1
    65         17
    66          6
    67         51
    68         23
    69        969
    70        102
    71         11
    72          1
    74          1
    75          1
    76          1
    77         16
    78          4
    79         12
    80          2
    81         16
    82         10
    83         49
    84         24
    85          3
    89          1
    91          7
    92          1
    93          2
    94          1
    95         15
    96          3
    97         18
    98          2
   103          1
   104          1
   105          1
   107          1
   109          9
   110          9
   111        999
   112         89
   113          4
   125         12
   126        236
   127         23
   128          1