##TITLE=Library Entry 52784
##JCAMP-DX=Revision 4.10 
##DATA TYPE=MASS SPECTRUM
##SAMPLE DESCRIPTION=NIST Mass Spectrometry Data Center, 1990.
##NAMES=HP
##CAS NAME=Cyclohexane, decyl-
##MOLFORM=C16H32
##CAS REGISTRY NO=1795-16-0
##MP= -300
##BP= -300
##MW= 224
##$RETENTION INDEX=1656
##$CONDENSED SPECTRUM=NO
##NPOINTS= 73
##XYDATA=(XY..XY) 1 
    14          0
    15          2
    16          0
    17          1
    18          1
    27         77
    28         36
    29        141
    30          3
    32          1
    39         70
    41        399
    42         71
    43        208
    44          6
    50          0
    51          2
    53         37
    54         73
    55        670
    56         95
    57        103
    58          4
    63          0
    65          8
    67        197
    68         44
    69        124
    70         54
    71         35
    72          2
    77          7
    79         14
    82        914
    83        999
    84         86
    85         19
    86          1
    91          2
    92          0
    93          1
    94          1
    95          7
    96         22
    97         86
    98         21
    99          4
   109          3
   110          7
   111         32
   112         15
   113          1
   123          0
   124          2
   125         10
   126          4
   138          2
   139         10
   140         21
   141          6
   152          1
   153          2
   154          1
   155          0
   166          0
   167          1
   168          0
   181          1
   182          0
   196          1
   224         64
   225         11
   226          1