##TITLE=Library Entry 52787
##JCAMP-DX=Revision 4.10 
##DATA TYPE=MASS SPECTRUM
##SAMPLE DESCRIPTION=C.E.A., C.E.N., GRENOBLE, FRANCE
##NAMES=HP
##CAS NAME=1,1':4',1''-Tercyclohexane
##MOLFORM=C18H32
##CAS REGISTRY NO=1795-19-3
##MP= -300
##BP= -300
##MW= 248
##$RETENTION INDEX=2050
##$CONDENSED SPECTRUM=NO
##NPOINTS= 103
##XYDATA=(XY..XY) 1 
    15          1
    17          6
    18         29
    25          2
    26         21
    27        121
    28         42
    29          1
    31          3
    37          8
    39         33
    40          7
    41        257
    42         16
    43         30
    44          3
    50          1
    51          3
    52          3
    53         37
    54         66
    55        474
    56         27
    57         10
    58          1
    63          1
    65         11
    66         13
    67        286
    68         47
    69        120
    70          8
    71          4
    72          7
    73          1
    74          1
    77         18
    78          7
    79         48
    80         43
    81        210
    82        649
    83        999
    84         65
    85          3
    91         14
    92          3
    93         17
    94         15
    95        193
    96         75
    97        167
    98         13
   103          1
   104          1
   105          3
   106          1
   107         12
   108         24
   109        298
   110         31
   111          5
   115          1
   117          1
   119          1
   120          1
   121         19
   122         34
   123         63
   124         15
   125          2
   128          1
   135         24
   136          9
   137          5
   138          2
   141          1
   142          1
   149         12
   150          2
   151          6
   152          2
   161          1
   162          2
   163          9
   164        412
   165         11
   166         48
   167          3
   177          1
   178          2
   179          1
   191          1
   199          1
   201          1
   219          1
   220          2
   244          1
   246          2
   247          2
   248        188
   249         38
   250          3