##TITLE=Library Entry 88529
##JCAMP-DX=Revision 4.10 
##DATA TYPE=MASS SPECTRUM
##SAMPLE DESCRIPTION=Exported from NIST MS Search
##NAMES=HP
##CAS NAME=Thiophene, 2,3,4-trimethyl-
##MOLFORM=C7H10S
##CAS REGISTRY NO=1795-04-6
##MP= -300
##BP= -300
##MW= 126
##$RETENTION INDEX=993
##$CONDENSED SPECTRUM=NO
##NPOINTS= 97
##XYDATA=(XY..XY) 1 
    24          1
    25          3
    26         32
    27        181
    28         23
    29         15
    30          1
    31          1
    32          9
    33          5
    34          4
    35          2
    36          2
    37         23
    38         43
    39        224
    40         26
    41         96
    42          5
    43          3
    44          5
    45        272
    46         16
    47         26
    48          2
    49         10
    50         61
    51        103
    52         31
    53         82
    54          7
    55         12
    56          3
    57         14
    58         46
    59        119
    60         12
    61         25
    62         36
    63         37
    64          7
    65         59
    66         18
    67         41
    68          7
    69         73
    70         22
    71         72
    72         14
    73          8
    74          9
    75          4
    76          2
    77         88
    78         29
    79         28
    80          4
    81         25
    82         10
    83         11
    84         11
    85         31
    86          4
    87          2
    89          3
    90          2
    91         79
    92         24
    93         28
    94          3
    95          9
    96          3
    97         72
    98          7
    99          9
   100          1
   101          1
   105          1
   106          1
   107          1
   108          2
   109         14
   110         34
   111        999
   112        112
   113         49
   114          5
   115          1
   121          2
   122          1
   123         15
   124         13
   125        580
   126        613
   127         74
   128         29
   129          2