##TITLE=Library Entry 100873
##JCAMP-DX=Revision 4.10 
##DATA TYPE=MASS SPECTRUM
##SAMPLE DESCRIPTION=T. SPANDE, LBC, NIDDK, NIH, Bethesda, MD 20892
##NAMES=HP
##CAS NAME=2-.alpha.,.alpha.-Dimethylbenzyl-6-t-butylphenol
##MOLFORM=C19H24O
##CAS REGISTRY NO=17959-04-5
##MP= -300
##BP= -300
##MW= 268
##$RETENTION INDEX=0
##$CONDENSED SPECTRUM=NO
##NPOINTS= 102
##XYDATA=(XY..XY) 1 
    41        224
    48          7
    51         13
    53         17
    55         30
    57        167
    58         12
    60          7
    61          4
    62          4
    63          5
    64          6
    65         26
    74          4
    77         81
    78         27
    79         61
    80         11
    88          7
    89         21
    91        351
    92         24
    93          7
    95         26
    97          6
    98          8
    99          4
   101         13
   103         92
   104         48
   105         73
   106          8
   107         20
   110          9
   115         58
   116         17
   117         19
   119        999
   120         98
   121         16
   126          4
   127         10
   128         34
   129         14
   130          7
   131         39
   132         11
   133         11
   134          5
   137          4
   140          4
   141         13
   142         16
   143         28
   144          5
   145          8
   146          3
   147         22
   148          4
   149          6
   150          4
   151          9
   152          7
   155          7
   157         19
   159         23
   161         11
   165          9
   166          3
   167          5
   170          6
   174         62
   175        153
   176         25
   177          6
   180          5
   181          8
   182          3
   183          3
   189          4
   190          5
   191          6
   192          4
   194          5
   197         14
   199          6
   202         11
   204          6
   205          5
   208          4
   211          6
   218          4
   237          8
   238          3
   251          9
   253        423
   254         79
   255          8
   266          5
   268        148
   269         30
   270          4