##TITLE=Library Entry 53357
##JCAMP-DX=Revision 4.10 
##DATA TYPE=MASS SPECTRUM
##SAMPLE DESCRIPTION=A.A.Kutin, Moscow, Russia
##NAMES=HP
##CAS NAME=Imidazolo[1,5-a]pyrimidine-8-carboxylic acid, 1,2,3,5,6,7-hexahyd
ro-2,5,5-trimethyl-1,3,7-trioxo-, ethyl ester
##MOLFORM=C13H16N2O5
##CAS REGISTRY NO=179611-82-6
##MP= -300
##BP= -300
##MW= 280
##$RETENTION INDEX=0
##$CONDENSED SPECTRUM=NO
##NPOINTS= 147
##XYDATA=(XY..XY) 1 
    33         17
    34          4
    36          1
    37          7
    39        248
    40        154
    41        488
    42         83
    43         58
    44         32
    45         15
    46          1
    50          9
    51         26
    52         81
    53        103
    55        657
    56        404
    57         42
    58        103
    59          5
    62          0
    63          5
    64         12
    65         42
    66        154
    67        182
    68        348
    69         39
    70         21
    71          4
    72          1
    77         23
    78         23
    79         37
    80         55
    81         32
    83        999
    84         48
    85          8
    86          2
    88          0
    91          7
    92         24
    94        379
    95         72
    96         34
    97          5
    98          4
    99          1
   104          4
   105          8
   106         17
   107         51
   108         89
   109         14
   110         19
   111         12
   112         47
   113          2
   114          2
   119          0
   120         20
   121         31
   122         67
   123         46
   124         13
   125          3
   126          4
   127          0
   129          4
   133          2
   134         25
   135         55
   136        111
   137         12
   138          9
   139         10
   140         15
   141          1
   147          0
   149         25
   150         17
   151         24
   152         64
   153        303
   154         22
   155          2
   161          0
   163         19
   164          4
   165         22
   166          8
   167         32
   168          2
   175          2
   177         27
   178         28
   179         73
   180        377
   181         36
   182          5
   183          0
   189          2
   190          5
   191         21
   193        264
   194         33
   195          6
   196          1
   197          8
   204         11
   205          9
   206         25
   208        789
   209         82
   210          9
   211          0
   217          0
   219         41
   220         11
   221          8
   222          5
   223          4
   225         72
   226          6
   232         11
   235        753
   236        312
   237         68
   238          9
   251         10
   252         63
   253          6
   254          0
   262          2
   263          9
   265        244
   266         33
   267          5
   273          1
   277          4
   278         12
   280        459
   281         54
   282          9
   283          0