##TITLE=Library Entry 40747
##JCAMP-DX=Revision 4.10 
##DATA TYPE=MASS SPECTRUM
##SAMPLE DESCRIPTION=Chemical Concepts
##NAMES=HP
##CAS NAME=Silane, trimethyl(1-phenylethyl)-
##MOLFORM=C11H18Si
##CAS REGISTRY NO=17961-78-3
##MP= -300
##BP= -300
##MW= 178
##$RETENTION INDEX=0
##$CONDENSED SPECTRUM=NO
##NPOINTS= 106
##XYDATA=(XY..XY) 1 
    25          0
    26          2
    27         34
    28          5
    29         29
    30          2
    31         20
    32          0
    33          0
    37          1
    38          3
    39         26
    41          3
    42         10
    43         95
    44         27
    45        136
    46          8
    47          4
    49          0
    50         14
    51         39
    52         10
    53         16
    54          3
    55         12
    56          2
    57         11
    58         22
    59         69
    60          5
    61          2
    62          3
    63         12
    64          1
    65          8
    66          2
    67          4
    68          0
    69          2
    70          2
    71          2
    72         11
    73        999
    74         80
    75         34
    76          4
    77         53
    78         23
    79         32
    80          1
    81          2
    82          0
    83          2
    85          0
    86          0
    87          0
    89          3
    90          1
    91          7
    92          1
    93          3
    94          0
    95          1
    99          0
   101          0
   102          3
   103         19
   104         22
   105         36
   106          3
   107          6
   108          1
   109          1
   112          0
   115          1
   116          0
   117          2
   118          0
   119          3
   120          0
   121          9
   122          1
   123          0
   129          0
   130          0
   131          2
   132          0
   133          1
   134          0
   135         46
   136          6
   137          1
   143          0
   145          3
   146          0
   147          2
   149          0
   161          0
   162          0
   163         14
   164          2
   165          0
   178         49
   179          8
   180          2