##TITLE=Library Entry 58714
##JCAMP-DX=Revision 4.10 
##DATA TYPE=MASS SPECTRUM
##SAMPLE DESCRIPTION=Asinex Ltd, Moscow, Russia
##NAMES=HP
##CAS NAME=Acetamide, 2-[4-(4-bromophenyl)-2-thiazolyl]-
##MOLFORM=C11H9BrN2OS
##CAS REGISTRY NO=17969-16-3
##MP= -300
##BP= -300
##MW= 296
##$RETENTION INDEX=0
##$CONDENSED SPECTRUM=NO
##NPOINTS= 178
##XYDATA=(XY..XY) 1 
    33          4
    34          3
    37         19
    38         47
    39        108
    40         61
    41         37
    42         36
    44        724
    45        191
    46         13
    47          9
    48          1
    49         13
    50        148
    51        125
    52         29
    53         11
    54          2
    55          2
    56          3
    57         25
    58         36
    59         21
    60         11
    61         38
    62        116
    63        223
    64         27
    65         19
    66         24
    67         17
    69        126
    70         23
    71         36
    72         34
    73         42
    74        130
    75        212
    76        109
    77         29
    78          5
    79          9
    80         15
    81         48
    82         85
    83         20
    84         10
    85         26
    86         76
    87        133
    88        107
    89        999
    90         97
    91         10
    93         85
    94         12
    95         12
    96          3
    97          4
    98         21
    99         20
   100         30
   101        113
   102        109
   103         31
   104          8
   105         15
   106         32
   107         16
   108         15
   109          1
   110          1
   111          0
   112          0
   113          3
   114         14
   115         12
   116          9
   117         14
   118          3
   119          9
   120          5
   121          4
   122          2
   123          1
   126          5
   127         18
   128         24
   129         25
   130         21
   131         16
   132        138
   133        422
   134        624
   135         77
   136         30
   137          2
   139          0
   140         11
   141          7
   142          1
   143          2
   144          2
   145         17
   146         20
   147         24
   148          3
   149          2
   150          0
   155         18
   156          2
   157         17
   158          3
   159          9
   160          1
   161          5
   162          0
   167         26
   169         44
   170          7
   171         23
   172         90
   173        143
   174        213
   175         56
   176         13
   177          2
   180         26
   181         13
   182         43
   183         12
   184         16
   185          0
   188          0
   194          0
   195          0
   199          1
   200         11
   201          2
   206          3
   207          2
   208         14
   209          4
   210         15
   212        380
   213        105
   214        351
   215         83
   216         20
   217          9
   218          4
   225          1
   227          0
   234          3
   249          2
   250          8
   252         97
   253        813
   254        174
   255        769
   256         95
   257         37
   258          3
   267          1
   268          0
   269          1
   278          3
   279          3
   280          3
   281          3
   293          3
   296        517
   297         94
   298        481
   299         66
   300         25
   301          2