##TITLE=Library Entry 76615
##JCAMP-DX=Revision 4.10 
##DATA TYPE=MASS SPECTRUM
##SAMPLE DESCRIPTION=RADIAN CORP
##NAMES=HP
##CAS NAME=Silane, [3-(2,3-epoxypropoxy)propyl]ethoxydimethyl-
##MOLFORM=C10H22O3Si
##CAS REGISTRY NO=17963-04-1
##MP= -300
##BP= -300
##MW= 218
##$RETENTION INDEX=0
##$CONDENSED SPECTRUM=NO
##NPOINTS= 78
##XYDATA=(XY..XY) 1 
    15          7
    26          5
    27         48
    29         99
    30          6
    31         70
    39         17
    40          5
    41         41
    42         51
    43         73
    44         13
    45         99
    46          6
    47         54
    55         12
    56         13
    57         40
    58         28
    59        151
    60         20
    61        102
    62          6
    63         10
    67          4
    69          4
    70          4
    71         48
    72         16
    73         49
    74         14
    75        367
    76         30
    77        105
    78          5
    79          4
    83          9
    85         18
    86          1
    87         86
    88         16
    89         92
    90          9
    91         14
    97          9
    98          5
    99         31
   100          4
   101        222
   102         36
   103        999
   104        100
   105        119
   106          8
   107          3
   113          4
   114          4
   115         89
   116         13
   117        242
   118         25
   119         19
   121          1
   127          3
   129        103
   130         24
   131        393
   132         42
   133         46
   134          2
   143         13
   144          3
   145         19
   147          9
   157          6
   159         14
   161          4
   173         19