##TITLE=Library Entry 78333
##JCAMP-DX=Revision 4.10 
##DATA TYPE=MASS SPECTRUM
##SAMPLE DESCRIPTION=A.A.Kutin, Moscow, Russia
##NAMES=HP
##CAS NAME=Benzoyl-dl-leucine
##MOLFORM=C13H17NO3
##CAS REGISTRY NO=17966-67-5
##MP= -300
##BP= -300
##MW= 235
##$RETENTION INDEX=0
##$CONDENSED SPECTRUM=NO
##NPOINTS= 70
##XYDATA=(XY..XY) 1 
    37          5
    39        118
    40         43
    41        284
    42         38
    43        133
    44         32
    45          3
    46          1
    48          0
    50         42
    51        134
    52         12
    54          6
    55         35
    56         21
    57         82
    58          4
    61          0
    62          2
    63          5
    64          3
    70         14
    71          2
    75         10
    76         23
    77        472
    78         36
    79          4
    91          8
    92          4
   105        999
   106         67
   107          5
   108          0
   109          0
   119          4
   120          4
   121          5
   122         13
   123          1
   133          7
   134          8
   135          1
   146          9
   147          5
   148          4
   149          0
   161         39
   162          5
   163          1
   167          0
   174          9
   175          1
   176          0
   178          0
   179          2
   180          0
   190        228
   191         35
   192          1
   194          0
   217          0
   218          5
   219          0
   220          0
   234          2
   235         56
   236          8
   237          0