##TITLE=Library Entry 50937
##JCAMP-DX=Revision 4.10 
##DATA TYPE=MASS SPECTRUM
##SAMPLE DESCRIPTION=ORMSBG, 14(5)254(1979); K. JAKOPCIC ET AL.
##NAMES=HP
##CAS NAME=3a,6-Epoxy-3aH-isoindole, 1,2,3,6,7,7a-hexahydro-2-phenyl-
##MOLFORM=C14H15NO
##CAS REGISTRY NO=17960-73-5
##MP= -300
##BP= -300
##MW= 213
##$RETENTION INDEX=0
##$CONDENSED SPECTRUM=NO
##NPOINTS= 24
##XYDATA=(XY..XY) 1 
    51         50
    65         40
    77        230
    78         30
    79         40
    81        999
    82         70
    91         80
   104        140
   105         70
   106         40
   115         30
   117         30
   119         30
   130         40
   131         30
   132         40
   144         90
   156         30
   170         30
   172         30
   184         30
   213        480
   214         90