##TITLE=Library Entry 107484
##JCAMP-DX=Revision 4.10 
##DATA TYPE=MASS SPECTRUM
##SAMPLE DESCRIPTION=Chemical Concepts
##NAMES=HP
##CAS NAME=2-Naphthaleneacetic acid, decahydro-.alpha.,4a,8-trimethyl-7-oxo-
, [2R-[2.alpha.(S*),4a.alpha.,8.alpha.,8a.alpha.]]-
##MOLFORM=C15H24O3
##CAS REGISTRY NO=17974-85-5
##MP= -300
##BP= -300
##MW= 252
##$RETENTION INDEX=0
##$CONDENSED SPECTRUM=NO
##NPOINTS= 103
##XYDATA=(XY..XY) 1 
    27         81
    28         41
    29        146
    39         87
    41        340
    42         39
    43        172
    44         55
    45         89
    53         96
    54         34
    55        346
    56         57
    57        116
    60        103
    65         34
    67        182
    68         49
    69        143
    70         29
    71         37
    73         62
    74        192
    75         36
    77         64
    79        128
    81        253
    82         56
    83         82
    84        114
    85         57
    86         22
    87         19
    88         21
    91         88
    92         23
    93        227
    94         85
    95        222
    96         42
    97        104
    98         18
    99         21
   105        114
   106         86
   107        445
   108         74
   109        137
   110         29
   111         60
   119         72
   120         25
   121        382
   122        179
   123        999
   124        134
   125        172
   126         25
   131         26
   133         31
   134         53
   135         83
   136         26
   137         55
   138         80
   139         27
   145         37
   147         36
   149         60
   150         30
   151        106
   159         22
   160         34
   161        310
   162         47
   163         65
   167         40
   173         18
   177         78
   178         93
   179        469
   180        103
   188         18
   189         25
   190         22
   191         25
   193         34
   194         14
   195         67
   196         31
   197        128
   198         15
   205         36
   206        119
   207         26
   219         61
   223         24
   234        159
   235         34
   237        180
   238         29
   252        662
   253        114