##TITLE=Library Entry 47731
##JCAMP-DX=Revision 4.10 
##DATA TYPE=MASS SPECTRUM
##SAMPLE DESCRIPTION=A.Mazepa, Phys.-Chem.Institute, Odessa, Ukraine
##NAMES=HP
##CAS NAME=2-Chloro-N-[4-chloro-2-(hydroxyimino-phenyl-methyl)-phenyl]-aceta
mide
##MOLFORM=C15H12Cl2N2O2
##CAS REGISTRY NO=17977-76-3
##MP= -300
##BP= -300
##MW= 322
##$RETENTION INDEX=0
##$CONDENSED SPECTRUM=NO
##NPOINTS= 206
##XYDATA=(XY..XY) 1 
    50         55
    51        315
    52         59
    53         10
    54          4
    55         14
    56          5
    57         11
    58          2
    61          7
    62         32
    63        115
    64         32
    65         37
    66         54
    67          5
    68          3
    72          5
    73         32
    74         21
    75         79
    76         91
    77        999
    78        108
    79         38
    86          6
    87         21
    88         25
    89         50
    90         77
    91         37
    92         12
    93          8
    94          5
    95         17
    96         34
    97         18
    98         19
    99         73
   100         39
   101         40
   102         40
   103         42
   104        107
   105         47
   106          5
   107          7
   110         13
   111         27
   112         15
   113         14
   114         25
   115         33
   116         17
   117          7
   118          7
   123         10
   124         76
   125         55
   126        105
   127         66
   128         34
   129         17
   130          4
   131          1
   135          4
   136          9
   137         14
   138         24
   139         38
   140         32
   141          9
   142          5
   143          4
   144          2
   145          3
   149         17
   150         39
   151        104
   152        174
   153         42
   154         32
   155          6
   156          3
   157          1
   158          1
   162          9
   163         45
   164         52
   165         62
   166         88
   167         36
   168         12
   169          4
   170          1
   171          1
   175          4
   176         14
   177         64
   178         74
   179         80
   180         63
   181         32
   182         14
   183          4
   184          2
   189          3
   190          7
   191         23
   192        107
   193         86
   194         49
   195         10
   196          1
   199         11
   200         10
   201         53
   202         20
   203         28
   204         10
   205         31
   206         12
   207         11
   208          5
   212          5
   213         17
   214        116
   215         25
   216         48
   217         16
   218          9
   219         10
   220         20
   221         27
   222          6
   225          4
   226         27
   227         99
   228        666
   229        909
   230        395
   231        262
   232         56
   233         23
   234          9
   235          3
   238         10
   239         32
   240         22
   241         60
   242         29
   243         20
   244         16
   245         22
   246         17
   247          3
   248          4
   252          2
   253         19
   254         18
   255        296
   256        143
   257        173
   258         73
   259         34
   260          3
   261          1
   266          1
   267         15
   268         21
   269         34
   270         28
   271         10
   272         13
   273        750
   274        133
   275        208
   276         43
   277          4
   284          1
   285          7
   286         86
   287         35
   288         30
   289         19
   290         74
   291         17
   292        117
   293         27
   294         44
   295         11
   296          6
   303          1
   304          3
   305          4
   306          2
   307          4
   309          1
   320          2
   321         14
   322        183
   323         38
   324        101
   325         27
   326         14
   327          3