##TITLE=Library Entry 49863
##JCAMP-DX=Revision 4.10 
##DATA TYPE=MASS SPECTRUM
##SAMPLE DESCRIPTION=NIST Mass Spectrometry Data Center, 2010
##NAMES=HP
##CAS NAME=(1R,2R,4R)-2,7,7-Trimethylbicyclo[2.2.1]heptan-2-ol
##MOLFORM=C10H18O
##CAS REGISTRY NO=17974-51-5
##MP= -300
##BP= -300
##MW= 154
##$RETENTION INDEX=0
##$CONDENSED SPECTRUM=NO
##NPOINTS= 81
##XYDATA=(XY..XY) 1 
    27         48
    29         45
    38          8
    39        168
    40         33
    41        331
    42         30
    43        663
    44         19
    45         25
    46          1
    50         11
    51         51
    52         24
    53        140
    54         32
    55        250
    56         40
    57         29
    58        149
    59        359
    60         14
    61          4
    62          9
    63         18
    64          4
    65         69
    66         29
    67        202
    68         91
    69        365
    70         69
    71        386
    72         35
    77        177
    78         37
    79        317
    80        115
    81        999
    82         97
    83        114
    84        231
    85         83
    86         10
    89          3
    91        151
    92        138
    93        531
    94        246
    95        153
    96        421
    97        132
    98         38
    99        169
   100         13
   102          2
   103          9
   104          3
   105         43
   106         13
   107        160
   108         53
   109         22
   110         16
   111        184
   112         24
   113         41
   114          3
   115          5
   119          8
   121        312
   122         27
   125         13
   126          2
   136        186
   137         26
   138          2
   139         78
   140          8
   154         30
   155          3