##TITLE=Library Entry 34731
##JCAMP-DX=Revision 4.10 
##DATA TYPE=MASS SPECTRUM
##SAMPLE DESCRIPTION=CARL DJERASSI DEPT OF CHEM STANFORD UNIV STANFORD CALIF
 94305
##NAMES=HP
##CAS NAME=Ketone, 2,2-dimethylcyclohexyl methyl
##MOLFORM=C10H18O
##CAS REGISTRY NO=17983-26-5
##MP= -300
##BP= -300
##MW= 154
##$RETENTION INDEX=0
##$CONDENSED SPECTRUM=NO
##NPOINTS= 72
##XYDATA=(XY..XY) 1 
    41        320
    42         60
    43        620
    44        350
    45         40
    50         20
    51         40
    52         20
    53         70
    54         30
    55        440
    56         90
    57        170
    58         50
    59         20
    60         40
    63         20
    64         20
    65         40
    66         40
    67        140
    68         60
    69        999
    70        110
    71        300
    72         70
    73         60
    76         30
    77         70
    78         20
    79         60
    80         20
    81        310
    82         80
    83        110
    84        120
    85        200
    86         40
    87         30
    91         60
    92         30
    93         50
    94        100
    95        120
    96        330
    97        170
    98        100
    99        140
   105         40
   106         30
   107         60
   108         40
   109         40
   110         60
   111        410
   112         50
   113         30
   121         90
   122         30
   123         30
   125         40
   135         30
   136         90
   137         30
   139         60
   140         30
   141         30
   150         20
   151         40
   152         20
   154        260
   155         50