##TITLE=Library Entry 32680
##JCAMP-DX=Revision 4.10 
##DATA TYPE=MASS SPECTRUM
##SAMPLE DESCRIPTION=Chemical Concepts
##NAMES=HP
##CAS NAME=Bicyclo[2.2.1]heptane, 2-(1-methylethenyl)-
##MOLFORM=C10H16
##CAS REGISTRY NO=17989-76-3
##MP= -300
##BP= -300
##MW= 136
##$RETENTION INDEX=0
##$CONDENSED SPECTRUM=NO
##NPOINTS= 88
##XYDATA=(XY..XY) 1 
    26         11
    27        209
    28          6
    29        104
    30          2
    31          0
    36          0
    37          2
    38         13
    39        314
    40         80
    41        408
    42         40
    43         29
    44          1
    45          0
    46          0
    49          0
    50         15
    51         58
    52         34
    53        208
    54         35
    55        129
    56          9
    57         10
    58          2
    59          0
    61          0
    62          4
    63         18
    64          5
    65         87
    66        454
    67        999
    68        745
    69        155
    70         55
    71          4
    74          1
    75          1
    76          1
    77        145
    78         42
    79        434
    80        635
    81        201
    82         70
    83          4
    84          0
    86          0
    87          0
    89          3
    90          1
    91        131
    92         28
    93        333
    94        137
    95        120
    96         10
    97          0
   102          1
   103          5
   104          2
   105         27
   106          9
   107        422
   108        110
   109          9
   110          0
   115          3
   116          0
   117          2
   118          0
   119          3
   120          1
   121        163
   122         17
   123          0
   128          0
   129          0
   131          0
   133          0
   134          0
   135          5
   136        212
   137         24
   138          1