##TITLE=Library Entry 11644
##JCAMP-DX=Revision 4.10 
##DATA TYPE=MASS SPECTRUM
##SAMPLE DESCRIPTION=CARL DJERASSI DEPT OF CHEM STANFORD UNIV STANFORD CALIF
 94305
##NAMES=HP
##CAS NAME=Ethanone, 1-(octahydro-7a-methyl-1H-inden-1-yl)-, (1.alpha.,3a.al
pha.,7a.beta.)-
##MOLFORM=C12H20O
##CAS REGISTRY NO=17986-96-8
##MP= -300
##BP= -300
##MW= 180
##$RETENTION INDEX=0
##$CONDENSED SPECTRUM=NO
##NPOINTS= 79
##XYDATA=(XY..XY) 1 
    40         90
    41        580
    42         60
    43        999
    44         40
    45         30
    50         20
    51         50
    52         20
    53        200
    54         50
    55        350
    56         30
    57         20
    58         20
    59         10
    62         10
    63         20
    64         10
    65         80
    66         40
    67        460
    68        200
    69        150
    70         20
    71        920
    72         50
    73         10
    75         10
    77        140
    78         30
    79        210
    80         60
    81        620
    82        100
    83         30
    84         90
    85         20
    91        100
    92         20
    93        170
    94         60
    95        490
    96         40
    97         20
    98         10
    99         10
   103         10
   104         10
   105         40
   106         20
   107         90
   108         30
   109        180
   110        520
   111         40
   115         10
   117         10
   119         10
   120         20
   121         30
   122        970
   123        100
   124         10
   133         20
   134         10
   135         20
   136         10
   137         20
   138         10
   147         30
   148         10
   149         10
   162        250
   163         30
   164         10
   165         20
   180         10
   181         10