##TITLE=Library Entry 4793
##JCAMP-DX=Revision 4.10 
##DATA TYPE=MASS SPECTRUM
##SAMPLE DESCRIPTION=Div. of Experiment Therapeutics WRAIR, WRAMC, Washingto
n DC 20307
##NAMES=HP
##CAS NAME=3,5-Dithiono-6,6-dimethyl hexahydro-1,2,4-triazine
##MOLFORM=C5H9N3S2
##CAS REGISTRY NO=17984-39-3
##MP= -300
##BP= -300
##MW= 175
##$RETENTION INDEX=0
##$CONDENSED SPECTRUM=NO
##NPOINTS= 70
##XYDATA=(XY..XY) 1 
    42        999
    45        127
    47         43
    49          5
    51         26
    53         33
    54         31
    55         43
    56        135
    58        396
    59         51
    60        118
    62          7
    64          9
    65          1
    66          3
    68         16
    69          9
    70         10
    71         91
    72         34
    73         15
    74         11
    75         63
    76          3
    77          3
    81          3
    82          9
    84         30
    85         66
    86         56
    87          8
    89         11
    91         28
    92         24
    93          4
    94          3
    96          1
    98          5
   100         10
   101         15
   102         27
   103          1
   104          2
   106          1
   107          1
   111          6
   112          2
   114          7
   115         24
   116         73
   118          8
   119         84
   121         10
   126          1
   132          5
   133          8
   134          1
   142         10
   144        104
   145          3
   146          4
   159         74
   160         24
   161          4
   162          3
   175        267
   176         34
   177         19
   178          1