##TITLE=Library Entry 11638
##JCAMP-DX=Revision 4.10 
##DATA TYPE=MASS SPECTRUM
##SAMPLE DESCRIPTION=CARL DJERASSI DEPT OF CHEM STANFORD UNIV STANFORD CALIF
 94305
##NAMES=HP
##CAS NAME=Ketone, 3a.beta.,4,5,6,7,7a-hexahydro-7a.beta.-methyl-1.alpha.-in
danyl methyl
##MOLFORM=C12H20O
##CAS REGISTRY NO=17986-97-9
##MP= -300
##BP= -300
##MW= 180
##$RETENTION INDEX=0
##$CONDENSED SPECTRUM=NO
##NPOINTS= 91
##XYDATA=(XY..XY) 1 
    40         70
    41        670
    42         70
    43        999
    44         60
    45         30
    50         10
    51         60
    52         30
    53        200
    54         70
    55        370
    56         50
    57         30
    58         20
    59         10
    62         10
    63         20
    64         10
    65         80
    66         50
    67        440
    68        160
    69        200
    70         50
    71        610
    72         40
    73         10
    75         10
    76         10
    77        150
    78         40
    79        220
    80         80
    81        650
    82         90
    83         40
    84        250
    85         50
    86         10
    89         10
    91        110
    92         40
    93        200
    94         80
    95        520
    96         60
    97         20
    98         10
    99         10
   100         10
   103         10
   104         20
   105         70
   106         50
   107        120
   108         30
   109        120
   110        280
   111         40
   112         10
   115         10
   117         10
   118         10
   119         30
   120         30
   121         40
   122        870
   123        100
   124         10
   125         10
   132         10
   133         60
   134         20
   135         30
   136         20
   137         50
   138         10
   145         10
   147         40
   148         10
   149         10
   152         10
   154         10
   162        250
   163         50
   164         10
   165         20
   178         10
   180         20
   181         10