##TITLE=Library Entry 14807
##JCAMP-DX=Revision 4.10 
##DATA TYPE=MASS SPECTRUM
##SAMPLE DESCRIPTION=A.A.Kutin, Moscow, Russia
##NAMES=HP
##CAS NAME=1,3-Phenantrolin-4(3H)-one, 5,6-dihydro-3-(1-oxobutylamino)-spiro
-5-cyclohexane-
##MOLFORM=C21H25N3O2
##CAS REGISTRY NO=179946-10-2
##MP= -300
##BP= -300
##MW= 351
##$RETENTION INDEX=0
##$CONDENSED SPECTRUM=NO
##NPOINTS= 230
##XYDATA=(XY..XY) 1 
    33          0
    34          0
    37         11
    39        132
    41        476
    43        999
    44         39
    45          2
    50         37
    51         46
    52         31
    53         22
    54          7
    55         41
    56          7
    57          9
    59         16
    60          1
    61          1
    62          6
    63         24
    64          6
    65         17
    66          9
    67         18
    69         79
    71        404
    72         16
    73          4
    74         10
    75         14
    76         22
    77         79
    78        114
    79         20
    80          3
    81          9
    82          3
    83          4
    84          3
    85          1
    86          3
    87          7
    88         14
    89         22
    90          8
    91         15
    92          2
    93          1
    94          1
    95          1
    96          3
    97          1
    98          3
    99          3
   100          3
   101         10
   102         11
   103          8
   105         38
   106          2
   107          1
   109          1
   110          1
   111          3
   112          4
   113         18
   114         23
   115         72
   116         21
   117         10
   118          3
   119          0
   121          0
   122          1
   124          5
   125          9
   126         46
   127         78
   128         49
   129         28
   130          9
   131          2
   132          0
   136          0
   137          4
   139        110
   140         94
   141         75
   142         18
   143          5
   144          3
   145          0
   146          0
   148          1
   149          1
   150          8
   151         31
   152         96
   153         77
   154         71
   155         29
   156         11
   157          5
   158          4
   159          0
   160          0
   163          8
   164         19
   165         67
   166         56
   167         69
   168         49
   169         29
   170         10
   171          3
   172          1
   175          1
   176          5
   177          9
   178         28
   179         36
   180         75
   181         41
   182         56
   183         37
   184         10
   185          3
   186          0
   188          1
   189          5
   190          9
   191         24
   192         25
   193         32
   194         42
   195         63
   196        105
   197        145
   198         22
   199          3
   200          1
   202          1
   203          4
   204          7
   205         16
   206         16
   207         38
   208         47
   209        281
   210         91
   211         30
   212        110
   213         18
   214          2
   215          0
   216          1
   217          4
   218         10
   219         11
   221        277
   222         96
   223        106
   224        193
   225        147
   226         25
   228         12
   229          1
   230          0
   231          1
   232          1
   233          6
   234         13
   235         60
   236         28
   237         35
   238        130
   239         36
   240          6
   241          0
   245          0
   246          1
   247          8
   249         33
   250         89
   251         25
   252         35
   253          6
   254          1
   260          0
   261          3
   262          5
   263         23
   265        372
   266         80
   267         12
   268          1
   271          0
   276          1
   278          8
   280        213
   281        152
   282         40
   283          7
   284          0
   290          1
   291          1
   292          1
   294         35
   295         82
   296         15
   297          1
   304          0
   306          0
   308         30
   309          7
   310          1
   322          6
   323          2
   334         13
   335          3
   336          4
   337          1
   346          1
   347          2
   348          7
   351        725
   352        163
   353         20
   354          2