##TITLE=Library Entry 89526
##JCAMP-DX=Revision 4.10 
##DATA TYPE=MASS SPECTRUM
##SAMPLE DESCRIPTION=Div. of Experiment Therapeutics WRAIR, WRAMC, Washingto
n DC 20307
##NAMES=HP
##CAS NAME=8-[3-Diethylaminopropylamino]-5-methoxypyrazino[2,3-d]pyridazine
##MOLFORM=C14H22N6O
##CAS REGISTRY NO=17998-27-5
##MP= -300
##BP= -300
##MW= 290
##$RETENTION INDEX=0
##$CONDENSED SPECTRUM=NO
##NPOINTS= 102
##XYDATA=(XY..XY) 1 
    41         54
    42         81
    43         34
    44         42
    45         11
    47          9
    48          3
    51          5
    52         22
    53         14
    54         10
    55         13
    56         88
    57         31
    58         90
    59          4
    64          2
    65          5
    66          5
    67          8
    68          8
    69          9
    70         21
    71         16
    72         34
    73          1
    77          9
    78         15
    79         15
    80         12
    81          4
    82          5
    83          5
    84         31
    85         15
    86        280
    87         16
    88          4
    91         12
    92          8
    93          8
    94          5
    96          6
    97          2
    98         43
    99          6
   100         54
   101          5
   104         14
   105         26
   106         14
   107          7
   110          5
   111          5
   112        999
   113        149
   114          8
   118          2
   119          9
   120         11
   121          1
   123          2
   124          2
   127          2
   130          6
   131         26
   132         12
   133          4
   134          8
   135          2
   138          3
   145          9
   146          2
   147          5
   148         10
   149         18
   150          2
   158          2
   160          8
   161          7
   162         25
   163         26
   164          2
   175          7
   176         20
   177          8
   178         39
   179          6
   188         13
   189          5
   190         46
   191        100
   192         16
   202          4
   203          2
   204         26
   205          2
   217          5
   218         43
   219          7
   290          7
   291          1