##TITLE=Library Entry 96727
##JCAMP-DX=Revision 4.10 
##DATA TYPE=MASS SPECTRUM
##SAMPLE DESCRIPTION=CARL DJERASSI DEPT OF CHEM STANFORD UNIV STANFORD CALIF
 94305
##NAMES=HP
##CAS NAME=6-Germaspiro[5.5]undecane
##MOLFORM=C10H20Ge
##CAS REGISTRY NO=180-98-3
##MP= -300
##BP= -300
##MW= 214
##$RETENTION INDEX=0
##$CONDENSED SPECTRUM=NO
##NPOINTS= 103
##XYDATA=(XY..XY) 1 
    41        270
    42         60
    43         80
    44         70
    45         20
    46         10
    51         10
    53         50
    55         80
    56         10
    57         50
    65         10
    67        130
    68         40
    69         90
    70        130
    71        130
    72        180
    73        250
    74        290
    75        250
    76         70
    77         70
    79         10
    81         10
    83         20
    84         70
    85        280
    86        110
    87        420
    88        230
    89        520
    90         30
    91        130
    95         10
    97        150
    98        100
    99        310
   100        170
   101        430
   102        210
   103        250
   104         40
   105         40
   109         10
   110         10
   111        220
   112        570
   113        360
   114        790
   115        630
   116        999
   117        220
   118        210
   119         30
   125         30
   126         40
   127         50
   128         70
   129         70
   130         80
   131         10
   132         20
   139        170
   140        460
   141        350
   142        690
   143        620
   144        870
   145        270
   146        200
   147         40
   154         60
   155         10
   156         80
   157         40
   158        110
   159         10
   160         20
   167        130
   168         20
   169        200
   170         80
   171        270
   172         50
   173         90
   174         10
   175         10
   182         70
   183         10
   184        100
   185         40
   186        140
   187         10
   188         20
   210        340
   211         40
   212        460
   213        180
   214        610
   215         60
   216        130
   217         10