##TITLE=Library Entry 91205
##JCAMP-DX=Revision 4.10 
##DATA TYPE=MASS SPECTRUM
##SAMPLE DESCRIPTION=G.-Y.Shine, J.Mass Spectrom.,30, 461-465(1995)
##NAMES=HP
##CAS NAME=1,5-Dithiaspiro(5.5)undecane
##MOLFORM=C9H16S2
##CAS REGISTRY NO=180-96-1
##MP= -300
##BP= -300
##MW= 188
##$RETENTION INDEX=0
##$CONDENSED SPECTRUM=NO
##NPOINTS= 26
##XYDATA=(XY..XY) 1 
    46        170
    53        130
    58        140
    67         80
    71        210
    73        140
    77         70
    79        270
    81        110
    85         90
    99        110
   106        190
   107         80
   114        999
   115         80
   116         40
   141         40
   145        730
   146         90
   147         60
   155        260
   188        950
   189        110
   190         90
   191          9
   192          2