##TITLE=Library Entry 33051
##JCAMP-DX=Revision 4.10 
##DATA TYPE=MASS SPECTRUM
##SAMPLE DESCRIPTION=Exported from NIST MS Search
##NAMES=HP
##CAS NAME=Spiro[5.5]undecane
##MOLFORM=C11H20
##CAS REGISTRY NO=180-43-8
##MP= -300
##BP= -300
##MW= 152
##$RETENTION INDEX=0
##$CONDENSED SPECTRUM=NO
##NPOINTS= 120
##XYDATA=(XY..XY) 1 
    36          1
    37          5
    38         22
    39        479
    40         93
    41        887
    42        102
    43         84
    44          3
    45          1
    46          2
    47          1
    48          1
    49          1
    50         20
    51         64
    52         41
    53        222
    54        224
    55        586
    56         54
    57         15
    58          2
    59          1
    60          1
    61          1
    62          4
    63         16
    64          5
    65         61
    66         53
    67        999
    68        252
    69        146
    70         22
    71          6
    72          1
    73          1
    74          2
    75          2
    76          1
    77         74
    78         21
    79        121
    80         64
    81        804
    82        437
    83        125
    84         12
    85          7
    86          1
    87          1
    88          1
    89          2
    90          1
    91         35
    92          7
    93         35
    94         22
    95        257
    96        970
    97        179
    98         12
    99          1
   100          1
   101          1
   102          1
   103          2
   104          1
   105          4
   106          1
   107         10
   108         29
   109        692
   110        135
   111         11
   112          1
   113          1
   114          1
   115          2
   116          1
   117          1
   118          1
   119          1
   120          1
   121          1
   122          2
   123         28
   124         40
   125          4
   126          1
   127          1
   128          1
   129          1
   130          1
   131          1
   132          1
   133          1
   134          1
   135          1
   136          1
   137          5
   138          1
   139          1
   140          1
   141          1
   142          1
   143          1
   144          1
   145          1
   146          1
   147          1
   148          1
   149          1
   150          1
   151          2
   152        630
   153         78
   154          5
   155          1