##TITLE=Library Entry 74682
##JCAMP-DX=Revision 4.10 
##DATA TYPE=MASS SPECTRUM
##SAMPLE DESCRIPTION=Chuck Anderson, Aldrich Chemical Co.
##NAMES=HP
##CAS NAME=1,7-Dioxaspiro[5.5]undecane
##MOLFORM=C9H16O2
##CAS REGISTRY NO=180-84-7
##MP= -300
##BP= -300
##MW= 156
##$RETENTION INDEX=0
##$CONDENSED SPECTRUM=NO
##NPOINTS= 69
##XYDATA=(XY..XY) 1 
    14          5
    15         27
    18          1
    26         30
    27        264
    28        164
    29        227
    30         20
    31         43
    32          4
    38         10
    39        272
    40         68
    41        729
    42        342
    43        559
    44         34
    45         34
    50          9
    51         20
    52         10
    53         70
    54         48
    55        839
    56        324
    57         86
    58         31
    59        121
    60          6
    65         14
    66          8
    67         63
    68         16
    69         66
    70        121
    71         59
    72         12
    73         13
    77         13
    79         31
    80          9
    81         20
    82         16
    83        467
    84         54
    85         35
    91          6
    93          5
    95         12
    97          2
    98        889
   100        719
   101        999
   102         53
   103          6
   109          8
   111        182
   112         19
   113          2
   114          6
   125         12
   126         27
   127         11
   128        111
   129          7
   137          1
   155          3
   156        122
   157         12