##TITLE=Library Entry 55043
##JCAMP-DX=Revision 4.10 
##DATA TYPE=MASS SPECTRUM
##SAMPLE DESCRIPTION=V.Zaikin,Topchiev Inst.Petrochem.Synth.,Moscow
##NAMES=HP
##CAS NAME=Benzyl(ethenyl)dimethylsilane
##MOLFORM=C11H16Si
##CAS REGISTRY NO=18001-46-2
##MP= -300
##BP= -300
##MW= 176
##$RETENTION INDEX=0
##$CONDENSED SPECTRUM=NO
##NPOINTS= 89
##XYDATA=(XY..XY) 1 
    26         14
    27         40
    28          5
    29         38
    31         68
    36          2
    37          6
    38         17
    39        124
    40         12
    41         21
    42         25
    43        217
    44         40
    45         71
    46          5
    50         28
    51         53
    52         20
    53         76
    54         19
    55         63
    56         14
    57         14
    58         33
    59        512
    60         43
    61         26
    62         16
    63         59
    64         14
    65        153
    66         31
    67         29
    68          8
    69         29
    70         19
    71         15
    72          5
    73          4
    74          4
    75         12
    77         27
    78         12
    79         25
    81          3
    83         14
    84         12
    85        999
    86         95
    87         46
    89         28
    90         13
    91        174
    92         13
    93         25
    95          6
   101          4
   103         14
   104          2
   105         40
   106          7
   107         31
   108          6
   115         19
   116          4
   117         12
   118          8
   119         25
   121         61
   122          6
   123          2
   129          5
   131         24
   133         13
   134          2
   135         20
   136          7
   143          5
   145         24
   146          3
   148          8
   149         14
   159         14
   161         30
   162          2
   163          4
   176         69
   177         11