##TITLE=Library Entry 82378
##JCAMP-DX=Revision 4.10 
##DATA TYPE=MASS SPECTRUM
##SAMPLE DESCRIPTION=V.A.Korolev, Moscow, Russia
##NAMES=HP
##CAS NAME=Methyl 3-(4-aminophenyl)-2-{[(tert-butoxy)carbonyl]amino}propanoa
te
##MOLFORM=C15H22N2O4
##CAS REGISTRY NO=180146-30-9
##MP= -300
##BP= -300
##MW= 294
##$RETENTION INDEX=0
##$CONDENSED SPECTRUM=NO
##NPOINTS= 65
##XYDATA=(XY..XY) 1 
    33          3
    34          3
    36          2
    37          3
    38         10
    39         74
    40         32
    41        158
    42         24
    43         61
    44         66
    45          8
    50          8
    51         18
    52         12
    53         10
    54          6
    55         12
    56         27
    57        196
    58         13
    59        109
    60          7
    62         26
    63          8
    64          2
    65         12
    66          4
    67          1
    76          2
    77         47
    78         20
    79         21
    80          4
    88          3
    89          5
    91          7
    93          5
   104         13
   105          7
   106        999
   107         87
   108          3
   117          4
   118         19
   119         14
   120          8
   132          3
   133         14
   134         15
   135         14
   136          5
   146         17
   147          2
   161         10
   177        139
   178          5
   179          7
   187          2
   221         85
   222         15
   279         15
   294         95
   295         17
   296          1