##TITLE=Library Entry 2034
##JCAMP-DX=Revision 4.10 
##DATA TYPE=MASS SPECTRUM
##SAMPLE DESCRIPTION=Humboldt-Universitat zu Berlin, Department of Chemistry
, Analytical Group
##NAMES=HP
##CAS NAME=Vanadium, tributoxyoxo-, (T-4)-
##MOLFORM=C12H27O4V
##CAS REGISTRY NO=1801-76-9
##MP= -300
##BP= -300
##MW= 286
##$RETENTION INDEX=0
##$CONDENSED SPECTRUM=NO
##NPOINTS= 162
##XYDATA=(XY..XY) 1 
    12          5
    13          7
    14         21
    15         88
    16         10
    17         50
    18        162
    19         13
    20          0
    24          1
    25         14
    26        141
    27        571
    28        307
    29        411
    30         15
    31        356
    32          6
    33         25
    34          0
    36          4
    37         34
    38         57
    39        413
    40         77
    41        999
    42        154
    43        313
    44        127
    45         35
    46          5
    47          0
    48          2
    49         16
    50         55
    51         45
    52         13
    53         61
    54         24
    55        197
    56        519
    57        138
    58          7
    59          4
    60          0
    63          0
    65          1
    66          1
    67         27
    68         13
    69          6
    70          3
    71          9
    72         53
    73         10
    74          2
    75          2
    77          2
    78          1
    79          2
    81          6
    82          7
    83          9
    84         26
    85         17
    86          1
    87          7
    89          1
    91          2
    92          1
    93          1
    94          3
    95          4
    96          4
    97         27
    98         33
    99          7
   100          1
   101         21
   102         12
   103          2
   105          1
   106          3
   107          2
   108         17
   109          5
   110         37
   111         93
   112         19
   113         11
   114         10
   115          3
   116          6
   119          2
   120          1
   121          4
   122          4
   123          4
   124          4
   125          5
   126          2
   127          9
   128         19
   129          2
   130          2
   131         35
   133          2
   135          1
   136          4
   137         11
   138         21
   139         37
   140          9
   141          6
   142          7
   143          3
   145          9
   152          3
   153          2
   154          2
   155         10
   156          4
   157         11
   158          2
   159          2
   167          2
   168          1
   169          6
   170         15
   171          3
   173          4
   175          1
   180          6
   181          3
   182          2
   183         20
   184          1
   185          2
   187         20
   188          1
   193          2
   200          1
   201          3
   207          1
   209          2
   210          1
   211         84
   212         36
   213         40
   214          6
   215         14
   216          1
   229          2
   243        300
   244         34
   245          4
   257          3
   270          1
   271          1
   285          5
   286          4
   287          2