##TITLE=Library Entry 22389
##JCAMP-DX=Revision 4.10 
##DATA TYPE=MASS SPECTRUM
##SAMPLE DESCRIPTION=Chemical Concepts
##NAMES=HP
##CAS NAME=Urea, N,N'-di-2-propenyl-
##MOLFORM=C7H12N2O
##CAS REGISTRY NO=1801-72-5
##MP= -300
##BP= -300
##MW= 140
##$RETENTION INDEX=0
##$CONDENSED SPECTRUM=NO
##NPOINTS= 92
##XYDATA=(XY..XY) 1 
    26         22
    27         60
    28        215
    29         39
    30        308
    31          7
    36          0
    37          5
    38         15
    39        230
    40         23
    41        519
    42         39
    43         15
    44         26
    45          1
    46          0
    48          0
    49          2
    50          0
    51          5
    52         17
    53          8
    54         85
    55         40
    56        999
    57        857
    58         60
    59          2
    60          0
    61          3
    62          1
    63          0
    64          0
    65          1
    66          1
    67          9
    68         17
    69          6
    70         17
    71          5
    72          0
    73         14
    74          2
    75          1
    76          0
    77          1
    78          0
    79          2
    80          9
    81          5
    82         21
    83         10
    84         30
    85         82
    86          3
    87          0
    91          0
    92          0
    93          0
    94          4
    95          5
    96          5
    97         33
    98         59
    99         39
   100          2
   101          0
   105          0
   107          0
   108          0
   109          0
   110          2
   111          9
   112          2
   113          1
   115          0
   119          0
   121          0
   122          0
   123          2
   124          0
   125          5
   126          0
   127          0
   129          0
   133          0
   137          0
   139          4
   140         16
   141          6
   142          0