##TITLE=Library Entry 60464
##JCAMP-DX=Revision 4.10 
##DATA TYPE=MASS SPECTRUM
##SAMPLE DESCRIPTION=NIST Mass Spectrometry Data Center
##NAMES=HP
##CAS NAME=10-Phenyldecanoic acid
##MOLFORM=C16H24O2
##CAS REGISTRY NO=18017-73-7
##MP= -300
##BP= -300
##MW= 248
##$RETENTION INDEX=0
##$CONDENSED SPECTRUM=NO
##NPOINTS= 110
##XYDATA=(XY..XY) 1 
    18          3
    27         48
    29         45
    30          2
    39         79
    40         13
    41        185
    42         39
    43         66
    44          6
    45         47
    46          3
    50          8
    51         35
    52         12
    53         21
    55        152
    56         16
    57         20
    58          3
    60         76
    61          4
    63         16
    65        111
    66          9
    67         22
    68         11
    69         69
    70          7
    71          6
    73         47
    75          3
    77         57
    78         64
    79         41
    80         10
    81         14
    82          7
    83         19
    84         10
    85          4
    87          8
    89         17
    91        999
    92        780
    93         69
    94         14
    95         10
    96          8
    97         33
    98         38
    99          5
   101          6
   102          6
   103         28
   104        135
   105        140
   106         25
   107          8
   108          7
   109          4
   110          2
   111          9
   112          9
   113          2
   115         21
   116         11
   117         39
   118         14
   119         35
   120         11
   121         18
   122          6
   123          1
   124          1
   125          2
   126          4
   127          2
   128          5
   129         10
   130         12
   131         14
   132          8
   133         63
   134         35
   135          4
   139         12
   140          1
   142          1
   143          3
   144          8
   145          5
   146          1
   147         13
   148          9
   157          2
   158          3
   161          3
   169          3
   170          3
   174          2
   186          3
   187          4
   188          3
   202          2
   212          3
   230         43
   231          8
   248         86
   249         15