##TITLE=Library Entry 45551
##JCAMP-DX=Revision 4.10 
##DATA TYPE=MASS SPECTRUM
##SAMPLE DESCRIPTION=NIST Mass Spectrometry Data Center
##NAMES=HP
##CAS NAME=2-Ethylhexanol, TMS derivative
##MOLFORM=C11H26OSi
##CAS REGISTRY NO=18023-53-5
##MP= -300
##BP= -300
##MW= 202
##$RETENTION INDEX=0
##$CONDENSED SPECTRUM=NO
##NPOINTS= 112
##XYDATA=(XY..XY) 1 
    15          2
    16          1
    26          1
    27         38
    28         11
    29         79
    30          3
    31          4
    32          2
    38          1
    39         31
    40          5
    41        129
    42         23
    43         97
    44         20
    45        103
    46          8
    47         50
    48          3
    49          2
    50          1
    51          2
    52          2
    53         15
    54          9
    55         97
    56         83
    57         69
    58         46
    59         71
    60         15
    61         81
    62          5
    63          3
    64          1
    65          2
    66          1
    67         10
    68          7
    69        100
    70         67
    71         19
    72         25
    73        727
    74         71
    75        999
    76         71
    77         38
    79          3
    81          5
    82         11
    83         48
    84         22
    85         16
    86          3
    87         11
    88         35
    89         81
    90          9
    91         38
    92          4
    93          1
    95          1
    96          1
    97          7
    98         25
    99         13
   100          2
   101         21
   103        765
   104         72
   105         86
   106          7
   107          2
   109          1
   110          1
   111         20
   112         56
   113          9
   114          1
   115         18
   116          2
   117         24
   118          3
   119          1
   125          1
   127          2
   128          1
   129         24
   130          5
   131          6
   132          1
   139          1
   141          1
   143         18
   144          4
   145          8
   146          1
   157          4
   158          1
   171          4
   172          1
   173          1
   185          1
   187        641
   188        106
   189         30
   190          3
   201          2
   202          3
   203          1