##TITLE=Library Entry 2170
##JCAMP-DX=Revision 4.10 
##DATA TYPE=MASS SPECTRUM
##SAMPLE DESCRIPTION=D.HENNEBERG, MAX-PLANCK INSTITUTE, MULHEIM, WEST GERMAN
Y
##NAMES=HP
##CAS NAME=Zinc, di-2-propenyl-
##MOLFORM=C6H10Zn
##CAS REGISTRY NO=1802-55-7
##MP= -300
##BP= -300
##MW= 146
##$RETENTION INDEX=0
##$CONDENSED SPECTRUM=NO
##NPOINTS= 56
##XYDATA=(XY..XY) 1 
    27         28
    28          3
    29          5
    36          0
    37         18
    38         41
    39        397
    40         72
    41        999
    42         37
    43          1
    50          1
    51          2
    52          1
    53          8
    54         46
    55          4
    56          0
    63          0
    64         46
    65          5
    66         26
    67        132
    68         17
    69          1
    70          0
    77          3
    78          2
    79          4
    80          1
    81          8
    82         12
    83          0
    89          0
    91          0
    93          0
   102          0
   103          0
   104          0
   105         53
   106          2
   107         30
   108          5
   109         19
   110          0
   111          0
   118          1
   120          0
   122          0
   146         57
   147          3
   148         32
   149          6
   150         21
   151          1
   152          0