##TITLE=Library Entry 97050
##JCAMP-DX=Revision 4.10 
##DATA TYPE=MASS SPECTRUM
##SAMPLE DESCRIPTION=NIST Mass Spectrometry Data Center
##NAMES=HP
##CAS NAME=2-Octanol, TMS derivative
##MOLFORM=C11H26OSi
##CAS REGISTRY NO=18023-52-4
##MP= -300
##BP= -300
##MW= 202
##$RETENTION INDEX=1108
##$CONDENSED SPECTRUM=NO
##NPOINTS= 93
##XYDATA=(XY..XY) 1 
    15          1
    26          1
    27         17
    28          5
    29         34
    30          1
    31          1
    39         15
    40          3
    41         51
    42         10
    43         48
    44         10
    45         52
    46          4
    47         29
    48          2
    49          1
    51          2
    52          1
    53          6
    54          2
    55         37
    56          8
    57         10
    58         13
    59         32
    60          9
    61         48
    62          3
    63          2
    65          1
    66          1
    67          4
    68          2
    69         16
    70         12
    71          7
    72         22
    73        553
    74         63
    75        473
    76         37
    77         19
    78          1
    79          1
    81          2
    82          1
    83          6
    84          3
    85          7
    86          5
    87         14
    88          2
    89          5
    90          1
    91          6
    92          1
    95          1
    97         15
    98          2
    99         17
   100          2
   101         47
   102         11
   103         37
   104          4
   105          1
   109          1
   111          2
   112          3
   113          4
   114          1
   115         19
   117        999
   118        193
   119         73
   120          4
   125          1
   127          2
   129         33
   130          5
   131          2
   143         11
   144          1
   145          1
   171          2
   187        211
   188         34
   189         10
   190          1
   201          8
   202          2