##TITLE=Library Entry 41606
##JCAMP-DX=Revision 4.10 
##DATA TYPE=MASS SPECTRUM
##SAMPLE DESCRIPTION=Chemical Concepts
##NAMES=HP
##CAS NAME=Cyclopropene-3-carboxylic acid, 1-trimethylsilyl,-2-(2-propenyl),
 methyl ester
##MOLFORM=C11H18O2Si
##CAS REGISTRY NO=180261-22-7
##MP= -300
##BP= -300
##MW= 210
##$RETENTION INDEX=0
##$CONDENSED SPECTRUM=NO
##NPOINTS= 91
##XYDATA=(XY..XY) 1 
    39         79
    40          7
    41         35
    43        217
    45        347
    46         18
    47         15
    50         25
    51         68
    52         57
    53         72
    54         13
    55         57
    56          6
    57         21
    58         55
    59        372
    60         26
    61         20
    62          4
    63         11
    65         21
    66         18
    67         38
    68         10
    69         44
    70          8
    71         10
    73        999
    74         85
    75         92
    76         13
    77         91
    78        723
    79         75
    80          7
    81         13
    83         57
    84          6
    85         18
    89        222
    90         21
    91         39
    92          6
    93         15
    95         30
    96          6
    97          9
    99          9
   101          2
   103          3
   106        623
   107         51
   108          5
   109         28
   110          3
   111          7
   113          2
   115          1
   119          4
   121         22
   122          3
   123         14
   124          2
   125          2
   133          1
   135         15
   136          5
   137         12
   138          1
   139          7
   149          3
   151        136
   152         17
   153          6
   157         17
   158          1
   163          6
   165          4
   167         17
   168          2
   169          3
   179          2
   182          1
   183          2
   195         19
   196          3
   209          5
   210         37
   211          5
   212          1