##TITLE=Library Entry 5801
##JCAMP-DX=Revision 4.10 
##DATA TYPE=MASS SPECTRUM
##SAMPLE DESCRIPTION=Chemical Concepts
##NAMES=HP
##CAS NAME=Hexanoic acid, 9-decen-1-yl ester
##MOLFORM=C16H30O2
##CAS REGISTRY NO=180252-09-9
##MP= -300
##BP= -300
##MW= 254
##$RETENTION INDEX=0
##$CONDENSED SPECTRUM=NO
##NPOINTS= 90
##XYDATA=(XY..XY) 1 
    25          0
    26         12
    27        243
    28         92
    29        509
    30         11
    31         16
    38          1
    39        132
    40         32
    41        799
    42        254
    43        999
    44         39
    45         22
    46          0
    47          0
    50          0
    51          2
    52          0
    53         32
    54         46
    55        455
    56        271
    57        153
    58          6
    59          5
    60         52
    61         69
    62          1
    63          1
    65          6
    66          4
    67         46
    68         65
    69        232
    70        237
    71        248
    72         15
    73         51
    74          7
    75          9
    76          1
    79          2
    80          3
    81         19
    82         66
    83        168
    84        101
    85         29
    86          1
    87         60
    88          3
    89         27
    90          0
    95          3
    96         20
    97        131
    98         57
    99        248
   100         17
   101          7
   109          0
   110          8
   111         72
   112         71
   113          3
   114          3
   115          4
   116         33
   117        378
   118         24
   125          3
   126          0
   127          1
   129          2
   130          3
   135          0
   138          1
   140         55
   141          5
   143          1
   155          2
   156          0
   157          4
   158          0
   167          0
   170          0
   172          2
   185          4