##TITLE=Library Entry 30945
##JCAMP-DX=Revision 4.10 
##DATA TYPE=MASS SPECTRUM
##SAMPLE DESCRIPTION=Institute of Organic Chemistry, Novosibirsk, USSR 1988
##NAMES=HP
##CAS NAME=(1,2-Dichlorovinyl)trichlorosilane
##MOLFORM=C2HCl5Si
##CAS REGISTRY NO=18038-41-0
##MP= -300
##BP= -300
##MW= 228
##$RETENTION INDEX=0
##$CONDENSED SPECTRUM=NO
##NPOINTS= 24
##XYDATA=(XY..XY) 1 
    60        999
    61         18
    62        330
    63        107
    65         36
    98         40
   100         29
   123         96
   125         70
   127          8
   133        110
   135        111
   137         42
   153         31
   155         30
   157          6
   193         30
   195         37
   197         18
   228         82
   230        136
   231          6
   232         98
   234         29