##TITLE=Library Entry 109336
##JCAMP-DX=Revision 4.10 
##DATA TYPE=MASS SPECTRUM
##SAMPLE DESCRIPTION=NIST Mass Spectrometry Data Center
##NAMES=HP
##CAS NAME=1(2H)-Naphthalenone, octahydro-4a,8a-dimethyl-7-(1-methylethyl)-,
 [4aR-(4a.alpha.,7.beta.,8a.alpha.)]-
##MOLFORM=C15H26O
##CAS REGISTRY NO=1803-39-0
##MP= -300
##BP= -300
##MW= 222
##$RETENTION INDEX=1677
##$CONDENSED SPECTRUM=NO
##NPOINTS= 133
##XYDATA=(XY..XY) 1 
    26          2
    27         94
    28         17
    29        113
    30          3
    38          4
    39        172
    40         42
    41        702
    42        106
    43        380
    44         13
    45          4
    46          1
    47          1
    48          1
    50          5
    51         26
    52         17
    53        174
    54         53
    55        606
    56         69
    57        118
    58          6
    59          9
    62          2
    63          6
    64          3
    65         83
    66         56
    67        640
    68        171
    69        639
    70         87
    71         52
    72          3
    75          2
    76          3
    77        122
    78         23
    79        199
    80         46
    81        503
    82        237
    83        306
    84        106
    85         27
    86          3
    89          4
    90          1
    91        113
    92         16
    93        138
    94         42
    95        593
    96        130
    97        159
    98        998
    99         73
   100          5
   103         10
   104          5
   105         91
   106         33
   107        110
   108         57
   109        508
   110        203
   111         99
   112         15
   113          6
   115          7
   117          7
   119         48
   120         11
   121        103
   122         56
   123        510
   124         85
   125        999
   126        114
   127         15
   133         34
   134         10
   135         91
   136         33
   137         71
   138         69
   139         51
   140          8
   141          3
   147         17
   148         15
   149         38
   151        155
   152         46
   153         14
   154          3
   155          2
   156          1
   161        137
   162         23
   163          9
   164         12
   165         21
   166         24
   167          8
   168         10
   169          2
   178          7
   179        122
   180         28
   181          4
   182          1
   183         30
   184          5
   189         44
   190          6
   191          2
   193          4
   194          2
   198         14
   199          2
   204         40
   205          7
   207         91
   208         15
   209          1
   221          1
   222        362
   223         59
   224          5