##TITLE=Library Entry 30944
##JCAMP-DX=Revision 4.10 
##DATA TYPE=MASS SPECTRUM
##SAMPLE DESCRIPTION=Institute of Organic Chemistry, Novosibirsk, USSR 1988
##NAMES=HP
##CAS NAME=(2,2-Dichlorovinyl)trichlorosilane
##MOLFORM=C2HCl5Si
##CAS REGISTRY NO=18038-37-4
##MP= -300
##BP= -300
##MW= 228
##$RETENTION INDEX=0
##$CONDENSED SPECTRUM=NO
##NPOINTS= 25
##XYDATA=(XY..XY) 1 
    60        999
    61         17
    62        338
    63        150
    64         20
    65         47
    98         59
   100         40
   123         71
   125         49
   133        311
   134          8
   135        307
   136          6
   137         98
   157         46
   159         39
   161          8
   193         61
   195         80
   197         39
   228         52
   230         70
   232         50
   234         18