##TITLE=Library Entry 33593
##JCAMP-DX=Revision 4.10 
##DATA TYPE=MASS SPECTRUM
##SAMPLE DESCRIPTION=Japan AIST/NIMC Database- Spectrum MS-NW-7554
##NAMES=HP
##CAS NAME=1-Cyclohexene-1-carboxaldehyde, 4-(1-methylethenyl)-, (S)-
##MOLFORM=C10H14O
##CAS REGISTRY NO=18031-40-8
##MP= -300
##BP= -300
##MW= 150
##$RETENTION INDEX=1243
##$CONDENSED SPECTRUM=NO
##NPOINTS= 120
##XYDATA=(XY..XY) 1 
    14          2
    15         10
    17          1
    18          3
    26         12
    27        230
    28         22
    29        105
    30          3
    31          9
    32          1
    37          6
    38         20
    39        337
    40         97
    41        334
    42         46
    43         69
    44          7
    45          3
    46          1
    49          2
    50         43
    51        123
    52         56
    53        340
    54         48
    55        128
    56         11
    57         12
    58         14
    59         19
    60          7
    61          7
    62         12
    63         38
    64          9
    65         95
    66         84
    67        583
    68        999
    69         83
    70          9
    71          9
    72          4
    73          3
    74          9
    75         10
    76          8
    77        265
    78         70
    79        597
    80        128
    81        122
    82         35
    83         21
    84          8
    85          2
    86          3
    87          3
    88          1
    89         10
    90          9
    91        251
    92         96
    93        309
    94        116
    95        151
    96         23
    97          6
    98          3
    99          1
   101          3
   102          8
   103         32
   104         17
   105        141
   106        168
   107        387
   108        209
   109         97
   110         11
   111          4
   112          2
   113          1
   114          1
   115         25
   116          9
   117         92
   118         11
   119         63
   120         14
   121        206
   122        238
   123         30
   124          6
   125          2
   126          1
   127          1
   128          2
   129          3
   130          1
   131         16
   132         51
   133         52
   134         16
   135        232
   136         28
   137          7
   138          1
   143          1
   145         17
   146         17
   147          8
   148         34
   149         22
   150        197
   151         24
   152          4
   153          2