##TITLE=Library Entry 80260
##JCAMP-DX=Revision 4.10 
##DATA TYPE=MASS SPECTRUM
##SAMPLE DESCRIPTION=NIST Mass Spectrometry Data Center
##NAMES=HP
##CAS NAME=Tumerone
##MOLFORM=C15H22O
##CAS REGISTRY NO=180315-67-7
##MP= -300
##BP= -300
##MW= 218
##$RETENTION INDEX=1632
##$CONDENSED SPECTRUM=NO
##NPOINTS= 98
##XYDATA=(XY..XY) 1 
    26          1
    27         29
    28          5
    29         55
    30          1
    31          1
    37          1
    38          4
    39         89
    40         12
    41         62
    42         11
    43         47
    44          1
    45          2
    50          6
    51         31
    52         12
    53         58
    54         10
    55        230
    56         16
    57          7
    58          1
    59          2
    62          2
    63         10
    64          3
    65         57
    66         10
    67         20
    68          2
    69         15
    70          3
    71          3
    74          1
    75          1
    76          1
    77        251
    78         49
    79         53
    80          7
    81         13
    83        854
    84         47
    85        143
    86          8
    87          1
    89          3
    90          1
    91        263
    92         65
    93        179
    94         15
    96          1
    98         10
    99         58
   100          5
   103         15
   104          7
   105        999
   106         91
   107          8
   111        305
   112         23
   113          1
   119        363
   120        606
   121         72
   122          4
   123          1
   125          8
   126         70
   127          6
   128          2
   129          2
   134         15
   135          2
   142          2
   143          5
   144          4
   147          9
   149          1
   156          2
   157         21
   158          3
   161         10
   162         19
   170          1
   171          1
   175          1
   185         14
   186          2
   200         38
   203         24
   204          6
   218         42
   219          7