##TITLE=Library Entry 59479
##JCAMP-DX=Revision 4.10 
##DATA TYPE=MASS SPECTRUM
##SAMPLE DESCRIPTION=Humboldt-Universitat zu Berlin, Department of Chemistry
, Analytical Group
##NAMES=HP
##CAS NAME=2,5-Diphenyltetrazole
##MOLFORM=C13H10N4
##CAS REGISTRY NO=18039-45-7
##MP= -300
##BP= -300
##MW= 222
##$RETENTION INDEX=0
##$CONDENSED SPECTRUM=NO
##NPOINTS= 76
##XYDATA=(XY..XY) 1 
    14          3
    15          9
    16          4
    17         20
    18         62
    26         14
    27         42
    28         21
    29          6
    31          6
    32          4
    37         26
    38         72
    39        148
    40         27
    41         86
    42          3
    43          3
    44          2
    49          5
    50         98
    51        155
    52         70
    53          6
    54          1
    55          2
    56          1
    57          2
    61         11
    62         30
    63        156
    64        361
    65         77
    66          4
    69          1
    70          1
    71          1
    73          2
    74         13
    75         23
    76         89
    77         69
    78          5
    83          1
    85          2
    86          4
    87          5
    88          6
    89          6
    91        999
    92         71
    93          2
    97          6
    99          1
   100          1
   102          3
   103         67
   104         25
   105          3
   112          1
   115          1
   139          1
   140          1
   163          1
   164          1
   165          7
   166          4
   167         18
   168          3
   179          1
   192          0
   193         15
   194        216
   195         33
   196          2
   222          0