##TITLE=Library Entry 75841
##JCAMP-DX=Revision 4.10 
##DATA TYPE=MASS SPECTRUM
##SAMPLE DESCRIPTION=Japan AIST/NIMC Database- Spectrum MS-NW-5401
##NAMES=HP
##CAS NAME=2-(Hydroxyimino) propanol oxime
##MOLFORM=C3H6N2O2
##CAS REGISTRY NO=1804-15-5
##MP= -300
##BP= -300
##MW= 102
##$RETENTION INDEX=0
##$CONDENSED SPECTRUM=NO
##NPOINTS= 75
##XYDATA=(XY..XY) 1 
    12         24
    13         25
    14         82
    15         57
    16         99
    17          3
    18         10
    24         11
    25         32
    26        174
    27        751
    28        962
    29        108
    30        307
    31        213
    32         11
    33         24
    34          1
    36          5
    37         24
    38        132
    39        238
    40        462
    41        774
    42        809
    43        254
    44        523
    45         28
    46         13
    50          9
    51         63
    52        131
    53        178
    54        811
    55        333
    56         46
    57        766
    58        291
    59         13
    60          7
    61          1
    63          1
    64          4
    65          6
    66         35
    67         56
    68         38
    69         50
    70         66
    71         15
    72         17
    73          4
    74          1
    75          1
    76          1
    77          2
    78          2
    79          2
    80          2
    81          3
    82          4
    83          5
    84        379
    85        502
    86         38
    87         15
    88          2
    96          2
    97          3
    98          1
   100         18
   101          7
   102        999
   103         46
   104          3