##TITLE=Library Entry 47407
##JCAMP-DX=Revision 4.10 
##DATA TYPE=MASS SPECTRUM
##SAMPLE DESCRIPTION=Japan AIST/NIMC Database- Spectrum MS-NW-7525
##NAMES=HP
##CAS NAME=3,4-Dichlorobenzyl alcohol
##MOLFORM=C7H6Cl2O
##CAS REGISTRY NO=1805-32-9
##MP= -300
##BP= -300
##MW= 176
##$RETENTION INDEX=0
##$CONDENSED SPECTRUM=NO
##NPOINTS= 148
##XYDATA=(XY..XY) 1 
    14          1
    17          1
    18          5
    25          2
    26          8
    27         21
    28          9
    29         79
    30          8
    31         79
    35          8
    36         19
    37         39
    38         57
    39         45
    40          4
    41          1
    42          3
    43         28
    44         15
    45          1
    47          8
    48          6
    49         27
    50        131
    51        163
    52        126
    53         13
    54          9
    55         21
    56         34
    57         10
    58          1
    59          2
    60         15
    61         50
    62         54
    63         63
    64          6
    65          3
    66          2
    67          1
    68          1
    69          5
    70         38
    71         14
    72         18
    73         81
    74        144
    75        277
    76         42
    77        999
    78         95
    79          7
    80          2
    81          1
    82          1
    83          5
    84         48
    85         56
    86         33
    87         36
    88         19
    89         46
    90          5
    91          3
    92          2
    93          1
    94          2
    95          3
    96          8
    97         21
    98          4
    99         17
   100          2
   101          5
   102          1
   103          3
   104          3
   105         19
   106          2
   107          9
   108          9
   109         82
   110         33
   111        632
   112        121
   113        579
   114         66
   115        128
   116         10
   117          1
   118          1
   119          4
   120          3
   121          4
   122          2
   123        102
   124         27
   125         37
   126          9
   127          2
   128          1
   129          1
   130          1
   131          1
   132          1
   133         15
   134          2
   135         10
   136          2
   137          2
   138          3
   139        120
   140         52
   141        966
   142         90
   143        310
   144         27
   145         66
   146         29
   147        236
   148         33
   149        138
   150         12
   151         22
   152          2
   153          1
   156          1
   157          3
   158          8
   159        133
   160         16
   161         86
   162          8
   163         16
   164          1
   172          1
   173         39
   174          9
   175        151
   176        659
   177        138
   178        435
   179         49
   180         74
   181          7
   182          1