##TITLE=Library Entry 87640
##JCAMP-DX=Revision 4.10 
##DATA TYPE=MASS SPECTRUM
##SAMPLE DESCRIPTION=Japan AIST/NIMC Database- Spectrum MS-IW-6749
##NAMES=HP
##CAS NAME=(9R)-2'-Oxo-1',2',3',4',10,11-hexahydrocinchonan-9-ol 9-acetate
##MOLFORM=C21H28N2O3
##CAS REGISTRY NO=18050-94-7
##MP= -300
##BP= -300
##MW= 356
##$RETENTION INDEX=0
##$CONDENSED SPECTRUM=NO
##NPOINTS= 211
##XYDATA=(XY..XY) 1 
    14          2
    15          6
    27         10
    28         18
    29         23
    30         43
    31          1
    39         15
    40          2
    41         80
    42         86
    43        128
    44         36
    45          8
    50          1
    51          6
    52          3
    53         14
    54         12
    55        138
    56         49
    57         17
    58          7
    60          7
    63          3
    64          2
    65         10
    66          3
    67         28
    68         22
    69         28
    70         41
    71         13
    72         30
    73          2
    74          1
    75          1
    76          2
    77         32
    78          6
    79         11
    80         16
    81         21
    82         92
    83         41
    84         50
    85          6
    86         22
    87          3
    89          9
    90         10
    91         29
    92          9
    93         10
    94         14
    95         22
    96         30
    97         15
    98         13
    99          4
   100          3
   101          4
   102          5
   103         14
   104          4
   105          3
   106         11
   107          9
   108         91
   109         21
   110        999
   111         93
   112         25
   113         19
   114          6
   115          9
   116          8
   117         30
   118         24
   119          6
   120          6
   121          5
   122         29
   123         14
   124         32
   125          9
   126         16
   127          7
   128        159
   129         19
   130         44
   131          7
   132          9
   133          2
   134          8
   135          3
   136         16
   137          9
   138        101
   139         19
   140         12
   141          4
   142          6
   143          8
   144         11
   145         13
   146        242
   147         34
   148         11
   149          4
   150         19
   151         66
   152        104
   153         12
   154         10
   155          3
   156          7
   157          4
   158          8
   159         13
   160          9
   161          1
   164          1
   165          1
   166          5
   167          7
   168        314
   169         41
   170         14
   171         11
   172         20
   173          5
   174          1
   175          2
   176          6
   177          1
   178          1
   180          2
   181          2
   182         51
   183         11
   184         20
   185         17
   186          9
   187          8
   188          9
   189          2
   194          1
   195          1
   196         25
   197         10
   198          9
   199         28
   200          6
   201          3
   202          1
   204          1
   208          1
   209          1
   210         90
   211        543
   212         79
   213         18
   214         12
   215          6
   217          3
   223          1
   224          3
   225          4
   226          3
   227          4
   228          1
   231          1
   237          1
   238          2
   239         53
   240         12
   241         28
   242         11
   243          4
   252          1
   253          9
   254          6
   255          9
   256          2
   267         69
   268         21
   269          9
   270          2
   271          1
   273         12
   274          2
   279          2
   280          1
   281          8
   282          2
   285          2
   286          2
   295         19
   296        150
   297        428
   298         89
   299         10
   313         10
   314          3
   327          3
   328          1
   355          8
   356         43
   357         17
   358          3