##TITLE=Library Entry 90319
##JCAMP-DX=Revision 4.10 
##DATA TYPE=MASS SPECTRUM
##SAMPLE DESCRIPTION=Japan AIST/NIMC Database- Spectrum MS-IW-7606
##NAMES=HP
##CAS NAME=Silane, dichlorodecylmethyl-
##MOLFORM=C11H24Cl2Si
##CAS REGISTRY NO=18051-88-2
##MP= -300
##BP= -300
##MW= 254
##$RETENTION INDEX=0
##$CONDENSED SPECTRUM=NO
##NPOINTS= 178
##XYDATA=(XY..XY) 1 
    15          1
    26          2
    27         54
    28          9
    29        121
    30          3
    35          1
    36         15
    38          5
    39         43
    40          8
    41        238
    42         76
    43        576
    44         19
    45          2
    51          2
    52          1
    53         13
    54         24
    55        155
    56        151
    57        672
    58         28
    59          1
    63         38
    64          3
    65         14
    66          2
    67         16
    68         20
    69        126
    70        160
    71        505
    72         27
    73          1
    77          3
    78         16
    79         45
    80          9
    81         16
    82         33
    83         96
    84        102
    85        207
    86         13
    90          1
    91          4
    92          9
    93         13
    94          4
    95          6
    96         16
    97         82
    98         60
    99         28
   100          4
   101          9
   102          1
   103          3
   104          1
   105         15
   106          7
   107          9
   108          3
   109          4
   110          8
   111         57
   112         71
   113        999
   114         73
   115        695
   116         42
   117        131
   118          8
   119         31
   120          8
   121         11
   122          3
   123          2
   125          9
   126          4
   127         10
   128          3
   129          4
   130          1
   131          4
   132          2
   133         20
   134          7
   135          8
   136          2
   137          1
   139          6
   140        148
   141        652
   142         56
   143        437
   144         35
   145         80
   146          6
   147         91
   148         12
   149         31
   150          4
   151          2
   153          2
   154         24
   155        178
   156         34
   157        120
   158         14
   159         22
   160          2
   161         45
   162          7
   163         16
   164          2
   165          1
   167         11
   168          6
   169         94
   170         12
   171         59
   172          6
   173         10
   174          1
   175          6
   176          1
   177          2
   181          3
   182          5
   183         40
   184          8
   185         26
   186          3
   187          5
   189          1
   190          3
   191          1
   192          1
   195          1
   196          3
   197         27
   198          5
   199         17
   200          3
   201          3
   203          2
   210          2
   211         15
   212          4
   213         10
   214          1
   215          2
   218         27
   219         11
   220         10
   221          4
   222          1
   224          2
   225         10
   226          6
   227          8
   228          3
   229          2
   239         97
   240         15
   241         66
   242         10
   243         12
   244          2
   254         85
   255         14
   256         57
   257          9
   258         10
   259          1