##TITLE=Library Entry 87564
##JCAMP-DX=Revision 4.10 
##DATA TYPE=MASS SPECTRUM
##SAMPLE DESCRIPTION=Japan AIST/NIMC Database- Spectrum MS-IW-6746
##NAMES=HP
##CAS NAME=2'-Oxo-1',2',3',4',10,11-hexahydroquinine
##MOLFORM=C20H28N2O3
##CAS REGISTRY NO=18050-95-8
##MP= -300
##BP= -300
##MW= 344
##$RETENTION INDEX=0
##$CONDENSED SPECTRUM=NO
##NPOINTS= 248
##XYDATA=(XY..XY) 1 
    14          1
    15          5
    16          1
    17         14
    18         46
    26          6
    27         32
    28        180
    29         30
    30         47
    31          3
    36          6
    38          2
    39         23
    40          5
    41         92
    42         79
    43         34
    44         40
    45          4
    46          1
    50          4
    51         11
    52          9
    53         22
    54         15
    55        142
    56         59
    57         26
    58         12
    59          2
    60          4
    62          2
    63          6
    64          3
    65         11
    66          5
    67         32
    68         28
    69         36
    70         47
    71         10
    72         30
    73          4
    74          2
    75          2
    76          4
    77         27
    78         13
    79         24
    80         20
    81         22
    82        442
    83         68
    84         64
    85          8
    86         28
    87          3
    88          2
    89         11
    90          9
    91         14
    92          8
    93         12
    94         15
    95         18
    96         31
    97         17
    98         18
    99          3
   100          3
   101          2
   102          4
   103          8
   104         29
   105         26
   106         11
   107          9
   108         28
   109         13
   110        999
   111         93
   112         28
   113         37
   114          4
   115          7
   116         14
   117         27
   118         11
   119          5
   120          6
   121          8
   122         16
   123          9
   124         41
   125          9
   126         20
   127          4
   128          7
   129          5
   130          9
   131          5
   132         32
   133         45
   134         19
   135          5
   136         13
   137          5
   138         86
   139        107
   140         71
   141         14
   142          5
   143          6
   144          6
   145         12
   146         12
   147         11
   148         19
   149         12
   150         16
   151         11
   152         17
   153          5
   154         15
   155          2
   156          2
   157          2
   158         72
   159         14
   160         65
   161         31
   162         15
   163          5
   164          3
   165          2
   166          5
   167          9
   168        342
   169        470
   170         59
   171          5
   172         12
   173          5
   174          9
   175         76
   176        342
   177         51
   178          6
   179          1
   180          1
   181          1
   182          4
   183          2
   184          4
   185          2
   186          5
   187          3
   188          5
   189          9
   190          8
   191          2
   192          1
   196          1
   197          1
   198          3
   199          3
   200          7
   201          6
   202          9
   203          3
   204          2
   205         19
   206          5
   210          1
   211          1
   212          2
   213          3
   214          7
   215          9
   216          4
   217          7
   218          9
   219          2
   221          1
   225          1
   226          2
   227          5
   228          3
   229         10
   230          3
   231          1
   232          4
   233          1
   239          1
   240          1
   241          2
   242          2
   243          4
   244          4
   245          1
   247          1
   253          1
   254          1
   255          3
   256          2
   257          3
   258          1
   267          1
   268          1
   269         12
   270          4
   271          8
   272          4
   273          1
   275          1
   282          1
   283          3
   284          2
   285          2
   286          1
   287          1
   295          1
   296          1
   297         18
   298          7
   299          4
   300          1
   308          1
   309          1
   310          1
   311          4
   313          1
   315          8
   316          2
   322          1
   324          1
   325          7
   326         25
   327         69
   328         17
   329          6
   330          1
   342          1
   343         21
   344        171
   345         46
   346          6