##TITLE=Library Entry 99078
##JCAMP-DX=Revision 4.10 
##DATA TYPE=MASS SPECTRUM
##SAMPLE DESCRIPTION=Adam Howard, James Little, Eastman Chemical Co
##NAMES=HP
##CAS NAME=Cumene hydroperoxide, TMS derivative
##MOLFORM=C12H20O2Si
##CAS REGISTRY NO=18057-16-4
##MP= -300
##BP= -300
##MW= 224
##$RETENTION INDEX=0
##$CONDENSED SPECTRUM=NO
##NPOINTS= 69
##XYDATA=(XY..XY) 1 
    29          5
    30          1
    31         17
    32          1
    37          1
    38          2
    39         38
    40          1
    41        117
    42          3
    43        192
    44         10
    45         82
    46          7
    47         31
    48          1
    49          2
    50         17
    51         70
    52          8
    53          3
    55          2
    56          1
    57          6
    58          9
    59         79
    60          8
    61         19
    62          2
    63          5
    64          1
    65         14
    66          3
    72          1
    73         28
    74         10
    75         57
    76         12
    77        155
    78         29
    79         37
    80          2
    81          1
    88          1
    89         30
    91        333
    92         23
    93          2
    94          8
    95          7
   102          4
   103         19
   104          6
   105         46
   106          3
   107          3
   114          1
   115          9
   116          4
   117         30
   118          1
   119        999
   120         96
   121          6
   133          1
   134          2
   135          3
   151          3
   193          1