##TITLE=Library Entry 43089
##JCAMP-DX=Revision 4.10 
##DATA TYPE=MASS SPECTRUM
##SAMPLE DESCRIPTION=Chemical Concepts
##NAMES=HP
##CAS NAME=Silane,1H-inden-1-yltrimethyl-)
##MOLFORM=C12H16Si
##CAS REGISTRY NO=18053-75-3
##MP= -300
##BP= -300
##MW= 188
##$RETENTION INDEX=0
##$CONDENSED SPECTRUM=NO
##NPOINTS= 127
##XYDATA=(XY..XY) 1 
    27          4
    28          3
    29         11
    30          1
    31          7
    37          0
    38          1
    39         14
    40          1
    41          2
    42          2
    43         38
    44         16
    45         93
    46          6
    47          2
    49          0
    50          4
    51          5
    52          1
    53         10
    54          1
    55          6
    56          1
    57          6
    58         10
    59         20
    60          1
    61          1
    62          5
    63         17
    64          2
    65         10
    66          2
    67          3
    68          0
    69          1
    70          1
    71          2
    72          9
    73        999
    74         72
    75         37
    76          2
    77          4
    78          1
    79          1
    80          0
    81          0
    82          0
    83          1
    84          0
    85          0
    86          2
    87          3
    88          4
    89         19
    90          2
    91          3
    92          0
    93          2
    94          0
    95          0
    98          0
    99          0
   101          0
   102          2
   103          2
   104          0
   105          9
   106          1
   107          1
   112          0
   113          4
   114          5
   115         64
   116         34
   117         10
   118          1
   119          7
   120          1
   121          1
   122          0
   125          0
   126          1
   127          3
   128         11
   129          6
   130          2
   131          9
   132          1
   133          1
   134          1
   135          0
   139          0
   140          0
   141          2
   142          5
   143         19
   144          3
   145         56
   146          8
   147          3
   148          0
   153          0
   154          0
   155          4
   156          1
   157          5
   158          3
   159          3
   160          0
   161          0
   167          0
   168          0
   169          0
   170          0
   171          1
   172          6
   173         46
   174          8
   175          2
   176          0
   188        122
   189         21
   190          6
   191          0