##TITLE=Library Entry 17155
##JCAMP-DX=Revision 4.10 
##DATA TYPE=MASS SPECTRUM
##SAMPLE DESCRIPTION=R.D.Bowen ET AL, Org. Mass Spectrom., 26,421(1991)
##NAMES=HP
##CAS NAME=E-1-Methoxy-3-pentene
##MOLFORM=C6H12O
##CAS REGISTRY NO=18059-22-8
##MP= -300
##BP= -300
##MW= 100
##$RETENTION INDEX=0
##$CONDENSED SPECTRUM=NO
##NPOINTS= 19
##XYDATA=(XY..XY) 1 
    39        120
    40         20
    41        100
    42         20
    43         20
    45        999
    46         30
    53         40
    54         40
    55         80
    58         20
    59         10
    67         40
    68        240
    69         30
    71         20
    85          6
   100         70
   101          6