##TITLE=Library Entry 89609
##JCAMP-DX=Revision 4.10 
##DATA TYPE=MASS SPECTRUM
##SAMPLE DESCRIPTION=Japan AIST/NIMC Database- Spectrum MS-IW-2978
##NAMES=HP
##CAS NAME=3Beta,20-dihydroxy-5alpha-cevan-6-one
##MOLFORM=C27H43NO3
##CAS REGISTRY NO=18059-10-4
##MP= -300
##BP= -300
##MW= 429
##$RETENTION INDEX=0
##$CONDENSED SPECTRUM=NO
##NPOINTS= 222
##XYDATA=(XY..XY) 1 
    27          2
    28          5
    29          4
    30          4
    39          3
    41         18
    42          8
    43         32
    44          8
    45          2
    53          5
    54          3
    55         31
    56         10
    57          5
    58          2
    65          3
    66          2
    67         15
    68          7
    69         16
    70          7
    71         11
    72          1
    77          7
    78          2
    79         16
    80          5
    81         14
    82         12
    83          8
    84          6
    85          2
    91         15
    92          4
    93         17
    94          6
    95         12
    96         19
    97         10
    98        125
    99         13
   100          3
   103          1
   105         10
   106          3
   107          9
   108          4
   109          5
   110         38
   111        230
   112        999
   113         83
   114          3
   115          1
   116          1
   117          4
   118          1
   119          6
   120          3
   121          5
   122          3
   123          5
   124          9
   125         24
   126          4
   127          1
   128          2
   129          2
   130          1
   131          4
   132          2
   133          5
   134          2
   135          3
   136          5
   137          2
   138          4
   139          3
   140          9
   141          4
   142          5
   143          2
   144          1
   145          4
   146          2
   147          4
   148          4
   149          3
   150          6
   151          2
   152          2
   153          1
   154          8
   155          5
   156          1
   157          2
   158          1
   159          3
   160          1
   161          2
   162          3
   163          1
   164          3
   165          1
   169          1
   170          1
   171          1
   172          1
   173          2
   174          1
   175          2
   176          2
   177          1
   178          1
   180          2
   183          1
   184          1
   185          1
   187          1
   188          1
   189          1
   190          2
   191          1
   192          1
   194          2
   196          1
   197          1
   199          1
   200          1
   201          1
   202          1
   203          1
   204          1
   206          1
   216          1
   218          1
   230          1
   232          1
   233          1
   234          1
   236          1
   244          1
   245          1
   246          1
   258          1
   259          1
   260          1
   270          1
   271          1
   272          1
   274          1
   286          1
   288          2
   289          3
   290          1
   312          1
   314          1
   316          3
   328          1
   330          3
   331          1
   332          1
   342          3
   343          1
   344          2
   345          2
   347          2
   348          1
   349          1
   356          3
   357          2
   358          2
   359          1
   360          1
   366          1
   368          1
   370          1
   371          1
   372          2
   373          3
   374          2
   377          1
   378          1
   380          1
   381          1
   382          3
   383          2
   384         25
   385          9
   386         13
   387          5
   388          2
   389          1
   392          1
   393          1
   394          1
   396          2
   397          3
   398          1
   399          2
   400          2
   401          2
   402          1
   403          1
   408          1
   409          1
   410         11
   411          6
   412          7
   413          3
   414          7
   415          2
   423          2
   424          1
   425          3
   426          3
   427         24
   428         28
   429         80
   430         23
   431          4