##TITLE=Library Entry 35597
##JCAMP-DX=Revision 4.10 
##DATA TYPE=MASS SPECTRUM
##SAMPLE DESCRIPTION=Chemical Concepts
##NAMES=HP
##CAS NAME=2-Butenoic acid, 1-methylethyl ester
##MOLFORM=C7H12O2
##CAS REGISTRY NO=18060-77-0
##MP= -300
##BP= -300
##MW= 128
##$RETENTION INDEX=863
##$CONDENSED SPECTRUM=NO
##NPOINTS= 68
##XYDATA=(XY..XY) 1 
    24          0
    25          2
    26         14
    27         70
    28         44
    29          9
    30          0
    31         14
    32          4
    36          1
    37          6
    38         18
    39        181
    40         38
    41        333
    42         84
    43        216
    44          9
    45         17
    46          0
    50          1
    51          0
    52          0
    53          3
    54          0
    55          7
    56          1
    57          4
    58          3
    59        179
    60          6
    61          0
    63          0
    64          2
    65          0
    66          1
    67          2
    68         34
    69        999
    70         87
    71         13
    72          0
    73          0
    74          2
    77          0
    78          0
    79          0
    81          0
    82          1
    83         35
    85          5
    86         14
    87        400
    88         17
    89          1
    91          0
    95          2
    99          0
   100          0
   105          0
   110          2
   113         66
   114          5
   115          0
   127          0
   128         19
   129          2
   130          0