##TITLE=Library Entry 85512
##JCAMP-DX=Revision 4.10 
##DATA TYPE=MASS SPECTRUM
##SAMPLE DESCRIPTION=Div. of Experiment Therapeutics WRAIR, WRAMC, Washingto
n DC 20307
##NAMES=HP
##CAS NAME=.alpha.-[2-Pyridyl-2-[p-chlorophenyl]-8-methyl-4-quinolinemethano
l
##MOLFORM=C22H17ClN2O
##CAS REGISTRY NO=18062-61-8
##MP= -300
##BP= -300
##MW= 360
##$RETENTION INDEX=0
##$CONDENSED SPECTRUM=NO
##NPOINTS= 177
##XYDATA=(XY..XY) 1 
    41         42
    43          3
    50         56
    51        270
    52        291
    53        191
    54         13
    55          3
    62         26
    63        141
    64         31
    65        137
    66          8
    67          3
    69         19
    71          8
    73          3
    74         27
    75         82
    76         36
    77         57
    78        680
    79        712
    80        588
    81         46
    82          8
    84         21
    86         13
    87         32
    88         50
    89        194
    90         31
    91         69
    92         19
    93         29
    94         21
    96         36
    97          8
    98          6
    99         19
   100         15
   101         43
   102         64
   103          4
   104          5
   106        118
   108        999
   109         76
   110         17
   111         28
   112         17
   113         69
   114         97
   115        320
   116         74
   117         17
   119          4
   120          5
   121         11
   124         12
   125         26
   126         33
   127         30
   128         16
   132         17
   133          8
   134         19
   137         19
   138         31
   139         59
   140        102
   141         49
   142        130
   143         20
   146        125
   148         28
   149         13
   150         16
   151         25
   152         75
   153        130
   154         74
   155          3
   158          7
   161         17
   162         25
   163         25
   164         32
   165         35
   166         17
   167          8
   171        114
   172        133
   173         14
   174          3
   175         10
   176         20
   177         15
   178         17
   179         20
   180        112
   181         25
   187          8
   188         15
   189         53
   190         41
   191         42
   192         20
   193         14
   194         18
   201         14
   202         22
   203         43
   204         40
   205         15
   214         25
   215         33
   216         84
   217        119
   218        119
   219         45
   220          3
   229         12
   230         13
   231         18
   237         12
   238         23
   239          7
   240         13
   249         14
   250          7
   251         18
   252         58
   253        131
   254        147
   255         59
   256         45
   264          3
   265         12
   266         32
   267         11
   268         19
   281         35
   282         66
   283         20
   284         22
   291          4
   292         13
   293          7
   295          3
   305         12
   306         12
   307         13
   315         14
   317          3
   325          7
   326          7
   327         21
   329        336
   330         82
   331        163
   332         39
   333         27
   341        156
   342        100
   343        221
   344         72
   345         88
   346         23
   347         11
   357          3
   359        353
   360        979
   361        268
   362        326
   363         87
   364         13