##TITLE=Library Entry 39919
##JCAMP-DX=Revision 4.10 
##DATA TYPE=MASS SPECTRUM
##SAMPLE DESCRIPTION=Chemical Concepts
##NAMES=HP
##CAS NAME=Cyclohexanol, 4-methoxy-
##MOLFORM=C7H14O2
##CAS REGISTRY NO=18068-06-9
##MP= -300
##BP= -300
##MW= 130
##$RETENTION INDEX=0
##$CONDENSED SPECTRUM=NO
##NPOINTS= 60
##XYDATA=(XY..XY) 1 
    25         13
    27        103
    29        148
    30         14
    31        109
    33         30
    38         10
    39        115
    40         39
    41        316
    42        104
    43        182
    44        119
    45        107
    50         13
    51         29
    52         11
    53         51
    54        130
    55        149
    56         47
    57        212
    58        322
    59        213
    60         14
    61         92
    63          8
    65         19
    66         12
    67         41
    68         16
    69        126
    70         67
    71        445
    72        999
    73        435
    74         42
    77         40
    78         13
    79         72
    80         60
    81        116
    82         47
    83         62
    84         62
    85         12
    87          9
    91         37
    92         10
    93          9
    94         24
    95          8
    97        104
    98        111
    99         17
   111         67
   112        324
   113         29
   130         95
   131         11