##TITLE=Library Entry 72439
##JCAMP-DX=Revision 4.10 
##DATA TYPE=MASS SPECTRUM
##SAMPLE DESCRIPTION=NIST Mass Spectrometry Data Center, 1998.
##NAMES=HP
##CAS NAME=Phosphoric acid, trioctyl ester
##MOLFORM=C24H51O4P
##CAS REGISTRY NO=1806-54-8
##MP= -300
##BP= -300
##MW= 434
##$RETENTION INDEX=2445
##$CONDENSED SPECTRUM=NO
##NPOINTS= 81
##XYDATA=(XY..XY) 1 
    27          8
    29         26
    30          1
    31          1
    39          9
    40          2
    41         90
    42         15
    43         98
    44          4
    45          4
    51          1
    52          1
    53          7
    54         11
    55        112
    56         35
    57        223
    58         10
    59          1
    65          2
    66          1
    67         16
    68         10
    69         87
    70         63
    71        177
    72         10
    77          2
    79          4
    80          1
    81         13
    82         20
    83         47
    84         16
    85          3
    91          1
    93          1
    95          6
    96          3
    97          8
    98          1
    99        999
   100          3
   101         13
   109          2
   110          3
   111         22
   112        125
   113        367
   114         30
   115          2
   123          1
   124          1
   125          5
   126          2
   127          1
   137          3
   138          1
   139          5
   151          2
   152          3
   153         16
   154          1
   165          1
   167          3
   180          1
   181         13
   182          1
   193          1
   195          3
   209          2
   211         94
   212          8
   213          1
   223          1
   225          3
   323         34
   324          6
   325          1
   435          1