##TITLE=Library Entry 84019
##JCAMP-DX=Revision 4.10 
##DATA TYPE=MASS SPECTRUM
##SAMPLE DESCRIPTION=V.A.KOPTYUG, ATLAS OF MASS SPECTRA OF ORGANIC COMPOUNDS
##NAMES=HP
##CAS NAME=Phenol, 4-octyl-
##MOLFORM=C14H22O
##CAS REGISTRY NO=1806-26-4
##MP= -300
##BP= -300
##MW= 206
##$RETENTION INDEX=1775
##$CONDENSED SPECTRUM=NO
##NPOINTS= 56
##XYDATA=(XY..XY) 1 
    39         58
    40         35
    41         82
    42         25
    43         41
    45          9
    50         10
    51         19
    52         12
    53         23
    54         10
    55         40
    56         21
    57         10
    63          9
    64          5
    65         21
    66         11
    67         15
    68          6
    69         11
    70          8
    71          6
    77         80
    78         31
    79         29
    80          7
    81         10
    82          7
    83          5
    91         31
    92          9
    93         10
    94         21
    95         10
    96         96
   103         11
   104          8
   105         14
   106          7
   107        999
   108        182
   109         19
   115         11
   117          5
   119          9
   120         36
   121         30
   122          8
   131          7
   132          4
   133         40
   134         12
   206        122
   207         28
   208          5