##TITLE=Library Entry 79661
##JCAMP-DX=Revision 4.10 
##DATA TYPE=MASS SPECTRUM
##SAMPLE DESCRIPTION=T.FOLK, RES. DIV., GOODYEAR TIRE & RUBBER CO., AKRON, O
H., U
##NAMES=HP
##CAS NAME=4-Methyl-2-(1-phenylethyl)phenyl benzoate
##MOLFORM=C22H20O2
##CAS REGISTRY NO=18062-71-0
##MP= -300
##BP= -300
##MW= 316
##$RETENTION INDEX=0
##$CONDENSED SPECTRUM=NO
##NPOINTS= 15
##XYDATA=(XY..XY) 1 
    51         40
    77        260
    78         30
    91         20
   103         50
   105        999
   106         80
   115         20
   152         20
   165         20
   195         30
   211        210
   212         50
   316        140
   317         30