##TITLE=Library Entry 67644
##JCAMP-DX=Revision 4.10 
##DATA TYPE=MASS SPECTRUM
##SAMPLE DESCRIPTION=A.A.Kutin, Moscow, Russia
##NAMES=HP
##CAS NAME=Furan-2-carboxylic acid 5,7-dibromo-quinolin-8-yl ester
##MOLFORM=C14H7Br2NO3
##CAS REGISTRY NO=18060-57-6
##MP= -300
##BP= -300
##MW= 395
##$RETENTION INDEX=0
##$CONDENSED SPECTRUM=NO
##NPOINTS= 181
##XYDATA=(XY..XY) 1 
    34          1
    36          0
    37          9
    38         28
    39        124
    40         46
    41         11
    42          3
    43          7
    44         19
    45          2
    48          0
    49          4
    50          5
    51          8
    52          1
    53          6
    54          0
    55          5
    56          1
    57          4
    58          0
    59          0
    60          0
    61          9
    62         14
    63         23
    64          6
    65          2
    66          4
    67         26
    68          2
    69          8
    70          1
    71          1
    73          1
    74          6
    75          4
    76          2
    77          3
    78          1
    79          7
    80          8
    81          7
    82          9
    83          2
    84          2
    85          4
    86         13
    87         29
    88         18
    89          2
    90          0
    91          8
    92          3
    93          4
    95        999
    96         52
    97          8
    98          3
    99          4
   100          2
   101          0
   102          0
   103          0
   105          3
   106          1
   107          4
   108          0
   109          2
   110          0
   111          1
   112          7
   113          5
   114         62
   115         14
   116          3
   117          3
   118          1
   119          3
   120          1
   121          1
   122          0
   123          1
   124          0
   125          1
   126          4
   127          2
   128          2
   129          2
   130          0
   131          3
   133          2
   134          1
   135          1
   136          0
   138          0
   140          0
   141          3
   142          3
   143          3
   144          0
   145          1
   146          1
   147          1
   149          0
   151          0
   152          3
   153          3
   154          1
   155          1
   157          1
   158          0
   159          2
   163          0
   165          2
   166          0
   167          1
   168          0
   169          1
   171          2
   173          1
   177          0
   178          2
   181          0
   183          0
   185          1
   187          0
   192          0
   193          9
   194          4
   195          9
   196          3
   197          2
   205          0
   206          0
   207          0
   215          0
   223          0
   225          0
   231          0
   233          0
   234          0
   237          0
   239          5
   240          1
   241          1
   243          0
   254          2
   255          0
   256          2
   257          0
   258          1
   259          0
   272          4
   273          0
   274          9
   275          1
   276          3
   277          0
   287          0
   301          2
   302          1
   303          4
   304          0
   305          2
   312          0
   316          0
   318          0
   366          0
   367          2
   368          2
   369          4
   370          1
   371          2
   380          0
   395         10
   397         23
   398          3
   399          8
   400          0