##TITLE=Library Entry 81732
##JCAMP-DX=Revision 4.10 
##DATA TYPE=MASS SPECTRUM
##SAMPLE DESCRIPTION=Japan AIST/NIMC Database- Spectrum MS-IW-4203
##NAMES=HP
##CAS NAME=5'-Chloro-4'-(2-(2,4-di-tert-pentylphenoxy)butyrylamino)-2'-hydro
xybenzanilide
##MOLFORM=C33H41ClN2O4
##CAS REGISTRY NO=180675-30-3
##MP= -300
##BP= -300
##MW= 564
##$RETENTION INDEX=0
##$CONDENSED SPECTRUM=NO
##NPOINTS= 282
##XYDATA=(XY..XY) 1 
    17          9
    18         11
    26          1
    27          4
    28          9
    29          9
    36          9
    38          3
    39          4
    41         30
    42          3
    43        187
    44          7
    50          1
    51          7
    52          1
    53          2
    55         27
    56          2
    57         14
    58          1
    65          2
    66          1
    67          3
    68          1
    69         29
    70          4
    71        248
    72         13
    76          3
    77         88
    78          9
    79          4
    80          1
    81          2
    83          2
    85          1
    91         17
    92          2
    93          3
    94          1
    95          4
    97          1
   101          1
   103          3
   104          5
   105        999
   106         79
   107         19
   108          2
   109          1
   112          1
   113          1
   115          5
   116          2
   117          9
   118          3
   119         12
   120          3
   121          9
   122          2
   123          9
   124          2
   127          1
   128          6
   129          9
   130          3
   131         12
   132          9
   133         13
   134          3
   135         35
   136          3
   137          2
   139          2
   141          3
   142          2
   143          4
   144          2
   145          7
   146          5
   147         23
   148          8
   149          8
   150          1
   154          1
   155          2
   156          4
   157         16
   158         15
   159          9
   160          6
   161         41
   162          7
   163         19
   164          3
   165          1
   169          2
   170          1
   171          1
   172          1
   173          5
   174          2
   175         71
   176         12
   177         42
   178          5
   179          1
   181          1
   182          1
   183          2
   184          3
   185          3
   186          1
   187          4
   188          1
   189         27
   190          5
   191         69
   192         21
   193          3
   197          8
   198         10
   199         11
   200          4
   201          5
   202          1
   203         28
   204          7
   205        532
   206         83
   207          8
   208          1
   209          2
   210          4
   211          2
   212          1
   213          1
   215          7
   216          2
   217          7
   218          2
   219         35
   220          6
   221          1
   225          7
   226          9
   227          6
   228          7
   229          8
   230          2
   231          8
   232          4
   233         19
   234         17
   235          3
   243          7
   244          7
   245        263
   246         50
   247          8
   248          1
   250          1
   251          1
   255          1
   257          1
   258          2
   259         14
   260          3
   261         30
   262         40
   263        138
   264         31
   265         42
   266          6
   267          9
   268          5
   269          4
   270          1
   271          2
   272          1
   273         30
   274          7
   275         35
   276          7
   277          3
   278          2
   279          2
   281          3
   282          2
   283          1
   284          1
   285          6
   286          1
   287          3
   288          3
   289         33
   290          7
   291         11
   292          2
   294          1
   295         68
   296         19
   297          9
   298          2
   299          1
   301          4
   302         21
   303         59
   304         16
   305         19
   306          3
   311          4
   312          2
   313          4
   314          2
   315          2
   316          1
   317          5
   318          1
   319          2
   329         57
   330         52
   331         63
   332         34
   333         17
   334          6
   335          1
   430          4
   431          9
   432          3
   433          2
   447          1
   451          1
   459          2
   460          9
   461          3
   462          3
   463          1
   465         95
   466         27
   467         34
   468          9
   469          1
   479          8
   480          2
   481          3
   482          1
   483          1
   493          3
   494          9
   495          4
   496          3
   497          1
   499          1
   501          9
   502          3
   503          1
   505          1
   517         13
   518          4
   519          6
   521          7
   529          8
   530         17
   531          7
   535        288
   536        101
   537        111
   538         33
   539          6
   546          6
   549          9
   550          8
   551          5
   552          1
   564        275
   565        100
   566        106
   567         34
   568          6
   569          1