##TITLE=Library Entry 1864
##JCAMP-DX=Revision 4.10 
##DATA TYPE=MASS SPECTRUM
##SAMPLE DESCRIPTION=H. Luftmann, Org. Chem. Inst., Westfalisch-Wilhelms Uni
v., Munster, Germany
##NAMES=HP
##CAS NAME=Benzaldehyde, 4-methoxy-3-(2-propenyloxy)-
##MOLFORM=C11H12O3
##CAS REGISTRY NO=18075-40-6
##MP= -300
##BP= -300
##MW= 192
##$RETENTION INDEX=0
##$CONDENSED SPECTRUM=NO
##NPOINTS= 86
##XYDATA=(XY..XY) 1 
    37         86
    38        148
    39        999
    40        114
    41        756
    42         38
    43         19
    44         35
    49         27
    50        189
    51        382
    52        224
    53        112
    54         15
    55         73
    61         35
    62         70
    63        143
    64         33
    65        358
    66         42
    67        280
    68         23
    69         12
    74         32
    75         24
    76         37
    77        738
    78         78
    79        281
    80        112
    81         49
    91         61
    92         22
    93         31
    94         17
    95        925
    96         76
   103         46
   104         40
   105        160
   106         29
   107         46
   108         59
   109        103
   110         14
   115         10
   117         12
   118         10
   119        107
   120         35
   121        107
   122         51
   123         76
   131         59
   132         41
   133         98
   134         32
   135         53
   136         54
   137         32
   138         10
   143         23
   145         23
   146         26
   147         26
   148         28
   149         88
   150         29
   151        556
   152         62
   159         17
   160         34
   161        106
   162         25
   163        131
   164         71
   165         15
   174         21
   175         27
   176         15
   177         68
   191         29
   192        487
   193         59
   194          3