##TITLE=Library Entry 42505
##JCAMP-DX=Revision 4.10 
##DATA TYPE=MASS SPECTRUM
##SAMPLE DESCRIPTION=J.M. Halket, Trace Anal. Unit (TAU), London, UK
##NAMES=HP
##CAS NAME=2-Hydroxy-3-methylbutyric acid, 2TBDMS derivative
##MOLFORM=C17H38O3Si2
##CAS REGISTRY NO=180784-67-2
##MP= -300
##BP= -300
##MW= 346
##$RETENTION INDEX=1607
##$CONDENSED SPECTRUM=NO
##NPOINTS= 110
##XYDATA=(XY..XY) 1 
    39         52
    41        288
    42         19
    43        107
    44         17
    45        140
    46          9
    47         57
    48          3
    49          1
    51          1
    52          3
    53          9
    54          1
    55         65
    56         64
    57        300
    58         65
    59        168
    60         20
    61         29
    62          1
    66         14
    67          5
    69         67
    70          6
    71          8
    73        999
    74         90
    75        290
    76         19
    77         14
    81          4
    82          3
    83         16
    84          1
    85         23
    86          3
    87          6
    88          3
    89          3
    97          8
    98          1
    99         18
   100          6
   101          8
   102          5
   103         16
   104          2
   105          5
   113          7
   115         71
   116         11
   117         32
   118          5
   119         16
   120          2
   129         10
   131         50
   133        163
   134         23
   135         16
   136          2
   143         20
   144          3
   145          5
   147        732
   148        115
   149        100
   150         12
   151          6
   157          9
   158          1
   159          5
   160          2
   161          4
   171          2
   173          3
   175          9
   176          1
   177          1
   185          1
   187         67
   188         13
   189        126
   190         25
   191         12
   192          2
   203          3
   217         13
   218          3
   219          1
   231          7
   232          2
   233          1
   245          3
   246          1
   259          1
   261        120
   262         27
   263         11
   264          1
   273          2
   275          1
   289        137
   290         33
   291         13
   292          2
   303          1
   331          3