##TITLE=Library Entry 11737
##JCAMP-DX=Revision 4.10 
##DATA TYPE=MASS SPECTRUM
##SAMPLE DESCRIPTION=Patti Price, Georgia Bureau of Investigation, Decatur,
 Georgia
##NAMES=HP
##CAS NAME=11.alpha.-Hydroxy-17.alpha.-methyl testosterone
##MOLFORM=C20H30O3
##CAS REGISTRY NO=1807-02-9
##MP= -300
##BP= -300
##MW= 318
##$RETENTION INDEX=0
##$CONDENSED SPECTRUM=NO
##NPOINTS= 249
##XYDATA=(XY..XY) 1 
    41        416
    43        999
    45         20
    50          1
    51         28
    52         23
    53        178
    54         24
    55        465
    56         30
    57        138
    58        131
    59         25
    60          1
    61          2
    62          1
    63          9
    64          2
    65        112
    66         48
    67        294
    68         54
    69        180
    70         31
    71        378
    72         65
    73         10
    75          1
    76          2
    77        350
    78         75
    79        428
    80         67
    81        224
    82         37
    83        104
    84         20
    85         40
    86          6
    87          8
    88          1
    89          9
    90          9
    91        553
    92         85
    93        312
    94        121
    95        333
    96         98
    97        111
    98         14
    99         18
   100          5
   101          4
   102          4
   103         54
   104         36
   105        418
   106        145
   107        451
   108        229
   109        471
   110        124
   111        119
   112         48
   113         36
   114          6
   115         80
   116         36
   117        128
   118         76
   119        397
   120        181
   121        536
   122        476
   123        538
   124        830
   125        161
   126         17
   127         26
   128         60
   129         93
   130         37
   131        180
   132         65
   133        251
   134        214
   135        254
   136        139
   137        663
   138        144
   139         25
   140          1
   141         35
   142         35
   143        122
   144         49
   145        175
   146         81
   147        211
   148        205
   149        179
   150         41
   151         35
   152         19
   153         19
   154          8
   155         44
   156         28
   157         92
   158         78
   159        227
   160         99
   161        180
   162         92
   163        322
   164        104
   165         46
   166         12
   167         16
   168          8
   169         43
   170         21
   171         79
   172         48
   173        131
   174         93
   175         74
   176         51
   177        114
   178         64
   179         39
   180          8
   181         19
   182         11
   183         59
   184         36
   185         87
   186         45
   187        121
   188         64
   189         52
   190         25
   191         40
   192         14
   193         13
   194         32
   195         80
   196         18
   197         54
   198         44
   199         99
   200         94
   201         69
   202         23
   203         25
   204         10
   205         10
   206          9
   207         26
   208          7
   209         39
   210         12
   211         64
   212         32
   213         56
   214         52
   215        102
   216         40
   217         29
   218         15
   219          6
   220          4
   221          1
   222          4
   223         11
   224         27
   225         71
   226         30
   227        125
   228         35
   229         83
   230         46
   231         12
   232         13
   233         17
   234          8
   235          2
   237          2
   238          4
   239         52
   240         44
   241         25
   242        253
   243        136
   244         30
   245        143
   246         29
   247         23
   248         16
   249         20
   250          2
   251          1
   252          1
   253          9
   254         10
   255          6
   256         17
   257         29
   258         20
   259         12
   260         39
   261        242
   262         47
   263          4
   264          5
   265          8
   266          1
   267         71
   268         15
   269          1
   271          3
   272         16
   273          3
   274          1
   275          5
   276          5
   280          1
   281          1
   282         65
   283         20
   284          2
   285         76
   286         12
   287          1
   289          1
   290         14
   291          1
   292          1
   298          1
   299          1
   300        284
   301         62
   302          7
   303          6
   304          1
   318        228
   319         50
   320          2