##TITLE=Library Entry 27249
##JCAMP-DX=Revision 4.10 
##DATA TYPE=MASS SPECTRUM
##SAMPLE DESCRIPTION=CARL DJERASSI DEPT OF CHEM STANFORD UNIV STANFORD CALIF
 94305
##NAMES=HP
##CAS NAME=2-Furanhexanoic acid, 5-(24,26-dimethyloctacosyl)tetrahydro-, met
hyl ester
##MOLFORM=C41H80O3
##CAS REGISTRY NO=18082-14-9
##MP= -300
##BP= -300
##MW= 620
##$RETENTION INDEX=0
##$CONDENSED SPECTRUM=NO
##NPOINTS= 173
##XYDATA=(XY..XY) 1 
    40         17
    41        193
    42         61
    43        315
    44         26
    45         17
    53         26
    54         61
    55        350
    56        166
    57        999
    58         61
    59         35
    61         17
    67        210
    68         96
    69        394
    70        175
    71        429
    72         43
    73         26
    74         61
    75         26
    77         26
    78         17
    79         78
    80         61
    81        307
    82        140
    83        359
    84        166
    85        508
    86         43
    87         87
    88         26
    91         35
    92         17
    93         43
    94         61
    95        359
    96        140
    97        386
    98        175
    99        122
   100         26
   101         35
   102          8
   105         35
   106         17
   107        105
   108         43
   109        228
   110         87
   111        201
   112         70
   113         61
   114         26
   115         61
   116         17
   117         17
   119         43
   120         17
   121        236
   122         52
   123        149
   124         87
   125        105
   126         52
   127        105
   128         26
   129         35
   130         52
   131         52
   132         17
   133         35
   134         17
   135        122
   136         35
   137        114
   138         43
   139         70
   140         70
   141         43
   142        315
   143        105
   144         26
   145         17
   147         26
   148         17
   149        157
   150         35
   151         61
   152         26
   153         43
   154         70
   155         35
   156         26
   157         43
   158         17
   159         52
   160         17
   161         17
   163         26
   164         17
   165         35
   166         26
   167        298
   168         52
   169        166
   171         35
   172        666
   173        131
   174         26
   175         35
   176         17
   177         17
   179         26
   181        105
   182         35
   183         26
   184        280
   185         61
   186         43
   187         17
   191         17
   193         35
   195         26
   196         17
   197         26
   198         35
   199        877
   200        122
   201         35
   209         26
   210         17
   211        245
   212         52
   213        157
   214         87
   215         26
   223         17
   225         17
   226         17
   227         17
   228         17
   241         26
   446         26
   447         17
   448         17
   449         52
   450         26
   464         61
   465         26
   474         26
   489         17
   490         17
   491        184
   492         78
   493         26
   506         17
   517         17
   547         17
   587          8
   588         26
   589         61
   590         26
   591         17
   602         17
   618         17
   619          8
   620         61
   621         26
   622         17