##TITLE=Library Entry 62600
##JCAMP-DX=Revision 4.10 
##DATA TYPE=MASS SPECTRUM
##SAMPLE DESCRIPTION=Asinex Ltd, Moscow, Russia
##NAMES=HP
##CAS NAME=Methane, dichloro-di(4-methylphenylsulfonyl)-
##MOLFORM=C15H14Cl2O4S2
##CAS REGISTRY NO=18087-01-9
##MP= -300
##BP= -300
##MW= 392
##$RETENTION INDEX=0
##$CONDENSED SPECTRUM=NO
##NPOINTS= 201
##XYDATA=(XY..XY) 1 
    33          0
    34          1
    35          4
    36         22
    37          2
    38         14
    39        101
    40         20
    41         45
    42          3
    43         12
    44         19
    45         29
    46          1
    47          3
    48          3
    49          1
    50         17
    51         41
    52         13
    53         11
    54          1
    55          8
    56          3
    57         10
    58          2
    59          2
    60          2
    61          2
    62         11
    63         55
    64         29
    65        308
    66         20
    67         35
    68          3
    69          7
    70          3
    71         10
    72          1
    73          3
    74          4
    75          8
    76          8
    77         77
    78         27
    79         17
    80          2
    81          3
    82          4
    83          5
    84          3
    85          7
    86          2
    87          3
    89         70
    90         63
    91        999
    92         87
    93          5
    94          1
    95          7
    96          2
    97          3
    98          1
    99          2
   101          7
   102          9
   103         21
   104          6
   105         15
   106          3
   107         10
   108          3
   109          4
   110          2
   111         22
   112          3
   113          2
   114          0
   115          1
   116          0
   117          0
   119          9
   120          2
   121         25
   122          9
   123         10
   124          5
   125          3
   126          2
   127          2
   128          1
   129          1
   130          0
   131          0
   133          1
   134          1
   135          2
   136          1
   137          5
   138         18
   139        308
   140         30
   141         22
   142          2
   143          0
   145          0
   147          0
   148          1
   149         19
   150          2
   151          1
   152          2
   153          6
   155        808
   156         71
   157         45
   158          4
   159          0
   160          0
   161          0
   162          0
   163          0
   164          1
   165          5
   166          2
   167          3
   168          0
   169          0
   170          0
   171          1
   172          2
   173         16
   174          3
   175         10
   176          1
   177          2
   178          2
   179          1
   180          1
   181          1
   182          1
   183          0
   184          0
   185          1
   186          0
   187          1
   188          0
   189          0
   190          0
   191          0
   192          0
   193          0
   194          0
   195          0
   196          0
   197          0
   199          0
   203          1
   204          0
   205          1
   206          0
   207          0
   208          0
   212          0
   214          0
   220          0
   221          0
   223          1
   227          0
   228          0
   229          0
   230          0
   232          0
   238          0
   243          0
   246          0
   249          0
   251          0
   260          0
   261          0
   278          0
   281          0
   293          0
   294          0
   356          0
   358          4
   359          1
   360          2
   361          0
   362          0
   378          0
   390          0
   392         20
   393          4
   394         14
   395          2
   396          3
   397          0
   398          0