##TITLE=Library Entry 51184
##JCAMP-DX=Revision 4.10 
##DATA TYPE=MASS SPECTRUM
##SAMPLE DESCRIPTION=S.A. Rang et al., IR & MS of Unsatd. Hydrocarbons, 1977
##NAMES=HP
##CAS NAME=Cyclohexene,3-cyclohexyl-
##MOLFORM=C12H20
##CAS REGISTRY NO=1808-09-9
##MP= -300
##BP= -300
##MW= 164
##$RETENTION INDEX=0
##$CONDENSED SPECTRUM=NO
##NPOINTS= 95
##XYDATA=(XY..XY) 1 
    15          2
    16          0
    25          1
    26         11
    27        110
    28         13
    29        106
    37          1
    38          3
    39        175
    40         23
    41        553
    42         25
    43         27
    45          3
    50          7
    51         28
    52         23
    53        151
    54        143
    55        842
    56         34
    57          3
    58          1
    59          1
    62          1
    63          7
    64          2
    65         58
    66         37
    67        607
    68         77
    69         20
    70          1
    73          4
    74          1
    75          4
    76          2
    77        122
    78         38
    79        337
    80        296
    81        661
    82        999
    83        593
    84         30
    85          1
    89          2
    90          1
    91        114
    92         16
    93         54
    94         36
    95         34
    96         61
    97         54
    98         15
   100          1
   101          0
   102          1
   103          5
   104          4
   105         12
   106          4
   107         34
   108         37
   109         30
   110          4
   115          4
   116          2
   117          4
   118          1
   119          3
   120          2
   121         46
   122         46
   123         12
   124          0
   127          0
   128          1
   129          1
   130          0
   131          0
   133          1
   134          1
   135         35
   136         11
   137          1
   149         15
   150          1
   160          1
   162          2
   164        296
   165         29
   166          4