##TITLE=Library Entry 73823
##JCAMP-DX=Revision 4.10 
##DATA TYPE=MASS SPECTRUM
##SAMPLE DESCRIPTION=Exported from NIST MS Search
##NAMES=HP
##CAS NAME=Pregna-1,4-dien-3-one, 11.beta.,17,20.alpha.,21-tetrahydroxy-, cy
clic 20,21-acetal with acetone
##MOLFORM=C24H34O5
##CAS REGISTRY NO=18089-32-2
##MP= -300
##BP= -300
##MW= 402
##$RETENTION INDEX=0
##$CONDENSED SPECTRUM=NO
##NPOINTS= 247
##XYDATA=(XY..XY) 1 
    41        552
    42        191
    43        940
    44         55
    45        219
    50         27
    51         24
    52         22
    53        111
    54         55
    55        557
    56        167
    57        498
    58         55
    59        663
    60        107
    61        107
    64         14
    65         55
    66         27
    67        249
    68        130
    69        442
    70        390
    71        111
    72        334
    73         29
    74         18
    77        167
    78         87
    79        189
    80         55
    81        304
    82        180
    83        330
    84        120
    85        278
    86         31
    87         81
    89         33
    91        304
    92        130
    93        167
    94        100
    95        304
    96        111
    97        362
    98        111
    99         59
   100         31
   101        999
   102         81
   103         83
   104         40
   105        223
   106         55
   107        219
   108         79
   109        223
   110        111
   111        193
   113        204
   114         37
   115        219
   117        145
   118         55
   119        223
   120        111
   121        888
   122        776
   123         78
   124         59
   125         63
   126         31
   127         70
   128         61
   129        148
   130         24
   131        111
   132         33
   133        141
   134        167
   135        304
   136        156
   137         59
   138         52
   139         24
   140         27
   141         55
   142         18
   143         65
   144        111
   145        278
   146        130
   147        414
   148         89
   149        111
   150         37
   151         40
   152         37
   153         26
   154         26
   155         37
   156         24
   157        137
   158         81
   159        137
   160        197
   161        334
   162        111
   163        148
   164         40
   165         33
   166         37
   167         59
   168         37
   169         29
   170         24
   171        167
   172        154
   173        100
   174         61
   175         83
   176         37
   177         59
   178         37
   179         55
   180         22
   181         18
   182         44
   183         40
   184         18
   185         68
   186         42
   187        139
   188         29
   189         44
   190         18
   191         44
   192         18
   193         13
   194         22
   195         26
   196         26
   197         74
   198         18
   199         59
   201         31
   202         18
   203         18
   204         79
   205         29
   206         29
   208         29
   209         68
   212         65
   213         74
   214         33
   215         37
   216         13
   217         13
   218         13
   221         48
   222         26
   223        111
   224         26
   225        204
   226         59
   227         85
   228         42
   229         31
   236         26
   237         42
   238         31
   239         85
   240         55
   241         55
   242         18
   243         18
   244         11
   252         18
   253         18
   254         31
   255         81
   256         40
   257         42
   263         22
   264         22
   265        249
   266        100
   267         46
   281         31
   282         31
   283        386
   284        185
   285         55
   291         26
   295         18
   296         14
   297         14
   298         46
   299         29
   301        386
   302         83
   303         46
   308         11
   309         18
   310         11
   311         22
   314          9
   315         18
   316         13
   317          9
   324          3
   325         13
   326         78
   327         74
   328         22
   329         13
   330         55
   331         22
   342         11
   343         11
   344         55
   345         22
   355         18
   357          5
   358          7
   359         33
   360         13
   367          9
   368         14
   369         22
   370         13
   371         13
   372         13
   384         44
   385         18
   386         18
   387         78
   388         24
   389         11
   399          5
   400          5
   401          5
   402         59
   403         22