##TITLE=Library Entry 24756
##JCAMP-DX=Revision 4.10 
##DATA TYPE=MASS SPECTRUM
##SAMPLE DESCRIPTION=CARL DJERASSI DEPT OF CHEM STANFORD UNIV STANFORD CALIF
 94305
##NAMES=HP
##CAS NAME=2H-Pyran-2-dodecanoic acid, 6-(17,19-dimethylheneicosyl)tetrahydr
o-, methyl ester
##MOLFORM=C41H80O3
##CAS REGISTRY NO=18082-15-0
##MP= -300
##BP= -300
##MW= 620
##$RETENTION INDEX=0
##$CONDENSED SPECTRUM=NO
##NPOINTS= 129
##XYDATA=(XY..XY) 1 
    41        306
    42         79
    43        584
    44         19
    45         19
    53         19
    54        108
    55        673
    56        217
    57        999
    58         49
    59         39
    66          9
    67        326
    68        138
    69        623
    70        148
    71        415
    72         19
    73          9
    74        178
    75         29
    79         39
    80         39
    81        425
    82        168
    83        594
    84        108
    85        237
    86          9
    87        128
    88         19
    91          9
    93         49
    94         29
    95        554
    96        148
    97        504
    98        138
    99         89
   100          9
   101         29
   105          9
   107         39
   108          9
   109        326
   110         69
   111        188
   112         39
   113         39
   115         19
   119          9
   121         69
   122          9
   123        207
   124         39
   125         89
   126         19
   127         49
   128          9
   129          9
   131          9
   133         19
   135         39
   136          9
   137        128
   138         19
   139         39
   140         19
   141         19
   143         19
   147          9
   149         29
   151         49
   153         19
   155          9
   157          9
   161          9
   163          9
   165         29
   166          9
   167          9
   171          9
   179         19
   181          9
   183         19
   199          9
   209          9
   211         49
   237          9
   239          9
   241          9
   243          9
   247         29
   256         59
   265        326
   266         59
   267          9
   269          9
   270          9
   279        178
   280         39
   284          9
   293         59
   294          9
   297        425
   298         79
   307         19
   311         29
   312         79
   313          9
   325         49
   326          9
   350          9
   351         19
   366         19
   379         39
   389         59
   390         19
   406         19
   407        336
   408         89
   409          9
   422          9
   587          9
   588          9
   602          9
   620         59
   621         19