##TITLE=Library Entry 22841
##JCAMP-DX=Revision 4.10 
##DATA TYPE=MASS SPECTRUM
##SAMPLE DESCRIPTION=A.Pleshkova, Nesmeyanov Inst.Org.Elem.Cpds, Moscow
##NAMES=HP
##CAS NAME=N-Tert.-butyl-2-carbomethoxyazetidine
##MOLFORM=C9H17NO2
##CAS REGISTRY NO=18085-35-3
##MP= -300
##BP= -300
##MW= 171
##$RETENTION INDEX=0
##$CONDENSED SPECTRUM=NO
##NPOINTS= 28
##XYDATA=(XY..XY) 1 
    27          7
    28         95
    29         70
    30         13
    39          7
    41        121
    42         57
    43         11
    54         15
    55         64
    56        999
    57        227
    58         15
    59         15
    70        185
    71         12
    84         29
    96         62
    97          9
   112        521
   113         24
   128         33
   156        649
   157         68
   158          7
   171         84
   172          9
   173          1