##TITLE=Library Entry 52584
##JCAMP-DX=Revision 4.10 
##DATA TYPE=MASS SPECTRUM
##SAMPLE DESCRIPTION=Japan AIST/NIMC Database- Spectrum MS-NW-1153
##NAMES=HP
##CAS NAME=Dibutyl phosphite
##MOLFORM=C8H19O3P
##CAS REGISTRY NO=1809-19-4
##MP= -300
##BP= -300
##MW= 194
##$RETENTION INDEX=0
##$CONDENSED SPECTRUM=NO
##NPOINTS= 64
##XYDATA=(XY..XY) 1 
    14          1
    15          2
    26          3
    27         45
    28         46
    29        102
    30          3
    31         22
    32          9
    33          1
    38          1
    39         27
    40          4
    41        134
    42         12
    43         20
    44          3
    45          9
    47          9
    48          1
    49          1
    50          1
    51          1
    53          4
    54          4
    55         43
    56         78
    57        153
    58          7
    59          1
    65         30
    66         13
    67          4
    69          3
    71          2
    72          2
    73         13
    77          3
    78          2
    79          1
    81          1
    82          9
    83        999
    84          2
    85          6
    91          2
    95         16
    96         21
    97         33
    99          1
   105          1
   107          1
   109         57
   110          4
   111          3
   120          2
   121          2
   123         16
   137          7
   138         14
   139         49
   140          2
   151          2
   165          1