##TITLE=Library Entry 67835
##JCAMP-DX=Revision 4.10 
##DATA TYPE=MASS SPECTRUM
##SAMPLE DESCRIPTION=Japan AIST/NIMC Database- Spectrum MS-IW-2880
##NAMES=HP
##CAS NAME=5-Methylfurfuryl acetate
##MOLFORM=C8H10O3
##CAS REGISTRY NO=18091-24-2
##MP= -300
##BP= -300
##MW= 154
##$RETENTION INDEX=2194
##$CONDENSED SPECTRUM=NO
##NPOINTS= 66
##XYDATA=(XY..XY) 1 
    14          3
    15         19
    26          8
    27         34
    28          4
    29          1
    31          1
    37          3
    38          8
    39         41
    40         12
    41         55
    42         22
    43        385
    44         11
    45         11
    47          2
    49          3
    50         27
    51         51
    52         44
    53         47
    54          5
    55         31
    56          2
    58          2
    60          9
    61          1
    62          2
    63          4
    64          1
    65         30
    66         19
    67         30
    68          4
    69         14
    70          1
    73          3
    77          5
    79        282
    80         29
    81         11
    82          3
    83         19
    84         13
    85          1
    87          2
    91          1
    93          6
    94        274
    95        999
    96         72
    97         46
    98          3
   105          4
   109         19
   110          9
   111         61
   112        201
   113         13
   114          1
   152          1
   153          1
   154        295
   155         25
   156          2