##TITLE=Library Entry 43213
##JCAMP-DX=Revision 4.10 
##DATA TYPE=MASS SPECTRUM
##SAMPLE DESCRIPTION=Chemical Concepts
##NAMES=HP
##CAS NAME=Methyl 6-deoxy-6-(diphenylphosphino)hexopyranoside, 3TMS derivati
ve
##MOLFORM=C28H47O5PSi3
##CAS REGISTRY NO=180998-04-3
##MP= -300
##BP= -300
##MW= 578
##$RETENTION INDEX=0
##$CONDENSED SPECTRUM=NO
##NPOINTS= 358
##XYDATA=(XY..XY) 1 
    27          2
    29          3
    31          2
    33          2
    39          5
    40          8
    41          8
    42          0
    43          8
    44          7
    45         58
    46          3
    47          3
    50          0
    51          4
    52          0
    53          4
    54          1
    55         11
    56          0
    57          6
    58          2
    59         31
    60          3
    61         10
    62          0
    63          1
    65          9
    67          1
    68          1
    69          6
    70          1
    71          9
    72         11
    73        999
    74         86
    75         73
    76          4
    77         12
    78          4
    79          3
    81         16
    82          1
    83          3
    85          9
    86          0
    87         18
    88          1
    89         40
    90          6
    91         85
    92          7
    93          0
    95          2
    97          2
    98          0
    99          8
   100          0
   101         11
   102          2
   103         28
   104          4
   105          7
   107         12
   108         72
   109         22
   110          1
   111          3
   113          7
   114          0
   115          9
   116         20
   117         14
   118          2
   119          4
   120          2
   121         45
   122          6
   123          4
   124          0
   125          2
   127          3
   128          3
   129        331
   130         41
   131         47
   132          6
   133         78
   134          9
   135         19
   136          2
   137          1
   139          8
   140          1
   141          8
   142          7
   143         12
   144          3
   145         19
   146         52
   147        192
   148         31
   149         26
   150          3
   151          2
   152         12
   153          8
   154          2
   155         29
   156          4
   157         13
   158          2
   159         27
   160          4
   161          8
   162          2
   163          8
   164          1
   165          6
   166          3
   167          4
   168          0
   169         13
   170          8
   171         12
   172          3
   173          3
   175          4
   177          1
   179          7
   180          2
   181          2
   182          1
   183        140
   184         21
   185        185
   186        216
   187         43
   188          4
   189         23
   190          7
   191         25
   192          4
   193          3
   194          0
   195          1
   196          1
   197         15
   198          4
   199        295
   200        262
   201         70
   202         10
   203         10
   204        449
   205         93
   206         41
   207         11
   208          1
   209          2
   211          1
   212         10
   213        168
   214         32
   215         15
   216          3
   217        143
   218         30
   219         14
   220          2
   221          4
   222          1
   223          2
   225          1
   226          3
   227          8
   228          5
   229         39
   230         13
   231         14
   232          3
   233          7
   234          2
   235          1
   237          1
   241          3
   242          4
   243        233
   244         58
   245         28
   246          5
   247         21
   248          5
   249          5
   250          1
   254          0
   255          4
   256          1
   257         11
   258          6
   259          7
   260          3
   261          2
   262          3
   265          0
   269          0
   270          0
   271         42
   272         11
   273          9
   274          6
   275          5
   277          0
   278          2
   281          2
   282          0
   285         16
   286          4
   287         50
   288         11
   289          8
   290          1
   291          4
   292          0
   293          0
   299          3
   300          4
   301          4
   302          4
   303         33
   304         10
   305         12
   306          2
   307          1
   309          6
   310          2
   311          1
   313          5
   314         20
   315         62
   316         18
   317        119
   318         31
   319         18
   320          4
   321          1
   325          2
   326          2
   327         15
   328          4
   329          2
   331          4
   332         18
   333         19
   334          7
   335          8
   336          2
   337          0
   339         15
   340          5
   341          4
   342          2
   343          6
   344          2
   345          6
   346          1
   347          3
   349          0
   355          5
   356          1
   357          4
   358          2
   359          3
   361          3
   362          1
   363          0
   367          1
   368          0
   369          3
   370         30
   371          9
   372          3
   373          2
   374          1
   375          0
   377          2
   378          0
   383          2
   385          3
   386          1
   387          2
   391          2
   392          0
   393         10
   394          3
   395          1
   398          4
   399         24
   400          7
   401          3
   403          3
   413          1
   414          0
   415          3
   416          1
   417         14
   418          4
   419          2
   427          3
   428          7
   429         10
   430          3
   431          3
   434          0
   441          0
   443         28
   444         11
   445          5
   446          1
   456          6
   457         28
   458         11
   459          5
   460          2
   461          0
   472          1
   473         14
   474          5
   475          1
   476          0
   487          1
   488        173
   489         74
   490         28
   491          7
   492          1
   503          8
   504          4
   505          2
   506          0
   518          2
   519          1
   531          0
   533          2
   534          1
   547         15
   548          6
   549          3
   550          0
   563         66
   564         28
   565         11
   566          4
   567          1
   577          7
   578          8
   579          3
   580          1