##TITLE=Library Entry 8815
##JCAMP-DX=Revision 4.10 
##DATA TYPE=MASS SPECTRUM
##SAMPLE DESCRIPTION=NIST Mass Spectrometry Data Center, 1992
##NAMES=HP
##CAS NAME=Pentane, 3-bromo-
##MOLFORM=C5H11Br
##CAS REGISTRY NO=1809-10-5
##MP= -300
##BP= -300
##MW= 150
##$RETENTION INDEX=852
##$CONDENSED SPECTRUM=NO
##NPOINTS= 59
##XYDATA=(XY..XY) 1 
    13          1
    14          6
    15         30
    26         37
    27        239
    28         65
    29        210
    30          5
    31          3
    32          3
    33          0
    37         11
    38         36
    39        265
    40         47
    41        410
    42        145
    43        999
    44         31
    49          2
    50         16
    51         21
    52          9
    53         39
    54          2
    55        225
    56         13
    60          0
    61          2
    62          5
    63          5
    64          0
    65          4
    66          1
    67          6
    69         15
    71        901
    72         50
    73          1
    79          7
    80          7
    81          7
    82          6
    83          1
    93          7
    94          1
    95          7
   105          3
   106          3
   107          6
   108          3
   109          4
   119          1
   120          1
   121          2
   122          0
   123          1
   150          3
   152          4