##TITLE=Library Entry 3307
##JCAMP-DX=Revision 4.10 
##DATA TYPE=MASS SPECTRUM
##SAMPLE DESCRIPTION=D.HENNEBERG, MAX-PLANCK INSTITUTE, MULHEIM, WEST GERMAN
Y
##NAMES=HP
##CAS NAME=2-Pentene, 4-bromo-
##MOLFORM=C5H9Br
##CAS REGISTRY NO=1809-26-3
##MP= -300
##BP= -300
##MW= 148
##$RETENTION INDEX=0
##$CONDENSED SPECTRUM=NO
##NPOINTS= 62
##XYDATA=(XY..XY) 1 
    24          2
    25          8
    26         81
    27        296
    28         52
    29         86
    30          1
    31         11
    32          4
    33          2
    34          0
    35          0
    36          4
    37         46
    38        101
    39        475
    40        107
    41        999
    42         92
    43         30
    44          0
    48          1
    49         11
    50         59
    51         82
    52         40
    53        247
    54         74
    55          5
    60         30
    61         16
    62         23
    63         29
    64          4
    65         42
    66         19
    67        138
    68         73
    69        943
    70         87
    71          1
    73         13
    74          1
    79         44
    80         22
    81         46
    82         22
    83          4
    93          1
    95          2
   105          0
   106          1
   107          4
   108          0
   109          2
   117          0
   119          1
   121          1
   133         36
   135         35
   148          1
   150          1