##TITLE=Library Entry 21485
##JCAMP-DX=Revision 4.10 
##DATA TYPE=MASS SPECTRUM
##SAMPLE DESCRIPTION=P. Vainiotalo, Dep. Chem., Univ. Joensuu, Joensuu, Finl
and
##NAMES=HP
##CAS NAME=7,12-Dioxaspiro[5.6]dodecane
##MOLFORM=C10H18O2
##CAS REGISTRY NO=181-28-2
##MP= -300
##BP= -300
##MW= 170
##$RETENTION INDEX=0
##$CONDENSED SPECTRUM=NO
##NPOINTS= 36
##XYDATA=(XY..XY) 1 
    18         69
    26         21
    27        164
    29         82
    31         29
    39        166
    41        383
    42        624
    43        175
    44         24
    53         32
    54         57
    55        999
    56        105
    57         22
    68         29
    69        193
    70        149
    71        167
    72        128
    73         91
    80         44
    81         38
    83         58
    84         39
    85         25
    97        103
    98        318
    99         59
   114         30
   127        717
   128         78
   141         88
   142         10
   170        157
   171         22