##TITLE=Library Entry 69291
##JCAMP-DX=Revision 4.10 
##DATA TYPE=MASS SPECTRUM
##SAMPLE DESCRIPTION=TEXAS A&M UNIVERSITY, COLLEGE STATION, TEXAS, USA
##NAMES=HP
##CAS NAME=Spiro[5.6]dodecane
##MOLFORM=C12H22
##CAS REGISTRY NO=181-15-7
##MP= -300
##BP= -300
##MW= 166
##$RETENTION INDEX=0
##$CONDENSED SPECTRUM=NO
##NPOINTS= 58
##XYDATA=(XY..XY) 1 
    26          9
    27         81
    28         31
    29         95
    38          9
    39        172
    40         40
    41        500
    42         54
    43         68
    50         13
    51         36
    52         27
    53        131
    54        168
    55        545
    56         72
    57         27
    63          9
    65         50
    66         40
    67        727
    68        218
    69        177
    70         22
    77         59
    78         22
    79         95
    80         50
    81        772
    82        500
    83        145
    84         27
    85          9
    91         31
    92          9
    93         31
    94         27
    95        363
    96        999
    97        218
    98         18
   107         13
   108         27
   109        500
   110        163
   111         45
   122          9
   123        127
   124         68
   125          9
   137         27
   138         59
   139          9
   151          9
   166        636
   167         81
   168          9