##TITLE=Library Entry 71070
##JCAMP-DX=Revision 4.10 
##DATA TYPE=MASS SPECTRUM
##SAMPLE DESCRIPTION=J. Klune, Insect Chem. Ecol. Lab., USDA, Beltsville, MD
 20705
##NAMES=HP
##CAS NAME=2,4-Dimethylpentan-2-ol decanoate
##MOLFORM=C17H34O2
##CAS REGISTRY NO=181046-93-5
##MP= -300
##BP= -300
##MW= 270
##$RETENTION INDEX=0
##$CONDENSED SPECTRUM=NO
##NPOINTS= 123
##XYDATA=(XY..XY) 1 
    41        341
    42         77
    43        501
    44         17
    45         15
    51          2
    52          0
    53         16
    54         14
    55        225
    56        196
    57        863
    59         81
    60         64
    61         11
    62          0
    65          3
    66          1
    67         28
    68         26
    69         79
    70        157
    71        141
    72          9
    73         57
    74          8
    75          0
    77          1
    78          1
    79          6
    80          3
    81         32
    82         14
    83        515
    84         68
    85         81
    86          6
    87         15
    88          1
    89          1
    91          0
    92          0
    93          3
    94          3
    95         30
    96          8
    97         43
    98        999
    99        586
   100         54
   101          8
   102          1
   103          1
   106          3
   107          1
   108          0
   109          1
   110          4
   111          6
   112         26
   113          8
   114          1
   115          9
   116          6
   117          0
   121          4
   122          1
   123          0
   125          1
   126          1
   127         13
   128          1
   129         31
   130          2
   134          0
   135          2
   136          1
   137          5
   138          0
   139          1
   141          1
   142          1
   143          6
   144          1
   145          1
   152          2
   153          4
   155        602
   156         70
   157          6
   158          8
   159          1
   169          0
   170          1
   171         12
   172         79
   173         57
   174          6
   183          1
   185          2
   190          2
   201          1
   206          0
   212          5
   213         82
   214         11
   215          1
   219          1
   220          1
   227          2
   229          1
   232          0
   241          0
   245          0
   253          3
   255         24
   256          4
   257          1
   268          1
   269          1
   270         27
   271          5
   272          0