##TITLE=Library Entry 41358
##JCAMP-DX=Revision 4.10 
##DATA TYPE=MASS SPECTRUM
##SAMPLE DESCRIPTION=O A MAMER, MCGILL UNIVERSITY, MONTREHexanedioi
##NAMES=HP
##CAS NAME=Hexanedioic acid, 2TMS derivative
##MOLFORM=C12H26O4Si2
##CAS REGISTRY NO=18105-31-2
##MP= -300
##BP= -300
##MW= 290
##$RETENTION INDEX=1514
##$CONDENSED SPECTRUM=NO
##NPOINTS= 80
##XYDATA=(XY..XY) 1 
    15         26
    18         13
    26          9
    27         30
    28         50
    29         27
    31          9
    39         18
    41         44
    42         17
    43         69
    44         47
    45        195
    46         15
    47         93
    53         12
    55        412
    56         57
    57         20
    58         37
    59         58
    60         17
    61         72
    67         38
    68         12
    69         71
    72         42
    73        999
    74        106
    75        681
    76         52
    77         36
    81         10
    83        169
    84         13
    85         12
    86         23
    89         10
    99         37
   101         13
   111        621
   112         45
   113         11
   115         11
   116         35
   117        116
   118         14
   119          9
   129         94
   130         39
   131         23
   132         19
   133         40
   141        216
   142         35
   143         23
   147        379
   148         62
   149         76
   150         11
   157         29
   158         14
   159        113
   160         16
   172        137
   173         25
   185         53
   186         10
   200         14
   201         14
   204         38
   205          9
   217         61
   218         17
   219          7
   231         13
   247         14
   275        198
   276         46
   277         21