##TITLE=Library Entry 56380
##JCAMP-DX=Revision 4.10 
##DATA TYPE=MASS SPECTRUM
##SAMPLE DESCRIPTION=Tox21 Consortium/NIST Mass Spectrometry Data Center, 20
12
##NAMES=HP
##CAS NAME=Benzeneacetic acid, .alpha.-ethyl-, 2-[2-(diethylamino)ethoxy]eth
yl ester
##MOLFORM=C18H29NO3
##CAS REGISTRY NO=18109-80-3
##MP= -300
##BP= -300
##MW= 307
##$RETENTION INDEX=0
##$CONDENSED SPECTRUM=NO
##NPOINTS= 78
##XYDATA=(XY..XY) 1 
    18          1
    26          1
    27          4
    28         10
    29         12
    30         19
    31          1
    39          4
    40          1
    41         14
    42         18
    43          7
    44         22
    45          5
    50          1
    51          4
    52          1
    53          1
    54          2
    55          2
    56         20
    57         11
    58         39
    59          2
    63          2
    64          1
    65          5
    68          1
    69          1
    70          7
    71          6
    72          9
    73          3
    75          1
    76          1
    77          8
    78          6
    79          4
    84          9
    86        999
    87         59
    88          2
    89          5
    90          7
    91        115
    92          9
    98          1
    99          1
   100         22
   101          2
   102          2
   103          8
   104         13
   105          2
   107          1
   114          3
   115          8
   116          2
   117          9
   118          6
   119         24
   120          3
   128          1
   130          3
   131          1
   142          1
   144         41
   145          4
   146          1
   147          1
   160          1
   162          1
   191          7
   192          1
   292          6
   293          1
   306          2
   307          1