##TITLE=Library Entry 33223
##JCAMP-DX=Revision 4.10 
##DATA TYPE=MASS SPECTRUM
##SAMPLE DESCRIPTION=A.A.Kutin, Moscow, Russia
##NAMES=HP
##CAS NAME=7H-Purine-7-propanenitrile, 1,2,3,6-tetrahydro-1,3-dimethyl-2,6-d
ioxo-
##MOLFORM=C10H11N5O2
##CAS REGISTRY NO=1811-38-7
##MP= -300
##BP= -300
##MW= 233
##$RETENTION INDEX=0
##$CONDENSED SPECTRUM=NO
##NPOINTS= 157
##XYDATA=(XY..XY) 1 
    33          2
    34          6
    36         12
    37          8
    38         49
    39        102
    40        381
    41        273
    42        333
    43         48
    44        132
    45          3
    46          0
    47          0
    48          1
    49          0
    50         11
    51         57
    52        197
    53        220
    54        415
    55         83
    56        154
    57         47
    58         46
    59          1
    60          4
    61          3
    62          2
    63          6
    64         14
    65         44
    66        211
    67        999
    68        201
    69         65
    70         80
    71          9
    72          3
    73          1
    74          3
    75          5
    76          5
    77         26
    78         32
    79         80
    80         97
    81        229
    82         30
    83         15
    84          4
    85          2
    86          1
    87          0
    88          1
    89          1
    91         12
    92         24
    93        125
    94        232
    95        296
    96         40
    97          9
    98          1
    99          1
   100          0
   101          0
   103          5
   104          6
   105          8
   106         24
   107         25
   108         80
   109        151
   110         16
   111         12
   112          2
   113          1
   114          0
   115          1
   117         14
   118         10
   120        368
   121        552
   122        111
   123        228
   124         37
   125          8
   126          1
   127          1
   128          1
   129          0
   130          0
   131          2
   132          3
   133          8
   134         24
   135         21
   136         80
   137         10
   138          2
   139          2
   141          0
   143          0
   144          2
   145          2
   146          7
   147         76
   148         46
   149         29
   150         15
   151         58
   152         26
   153          3
   154          1
   155          0
   159          0
   160          2
   161          7
   162          2
   163          6
   164          3
   165          2
   166          1
   169          0
   171          1
   172          0
   174          5
   175         45
   176         24
   177         22
   180        811
   181         69
   182         15
   183          1
   187          0
   188          2
   189          6
   190          4
   193        450
   194         38
   195          3
   196          0
   197          0
   202          1
   203          4
   204         18
   205          8
   206         71
   207         11
   208          1
   218          0
   226          0
   233        982
   234        115
   235          9
   236          0