##TITLE=Library Entry 71529
##JCAMP-DX=Revision 4.10 
##DATA TYPE=MASS SPECTRUM
##SAMPLE DESCRIPTION=J. Daly, M. Garraffo, T. Spande, LBC, NIDDK, NIH, Bethe
sda, MD 20892
##NAMES=HP
##CAS NAME=(2R,6R)-2-Methyl-6-((Z)-non-4-en-1-yl)piperidine
##MOLFORM=C15H29N
##CAS REGISTRY NO=181221-89-6
##MP= -300
##BP= -300
##MW= 223
##$RETENTION INDEX=0
##$CONDENSED SPECTRUM=NO
##NPOINTS= 54
##XYDATA=(XY..XY) 1 
    51          1
    52          1
    53          8
    54         15
    55         49
    56         34
    57          7
    58          3
    65          4
    66          2
    67         26
    68         13
    69         15
    70         25
    71          4
    77          5
    78          1
    79         11
    80          5
    81         29
    82         25
    83          8
    86          1
    91          4
    93          5
    95          9
    98        999
    99         73
   100          3
   105          1
   108          3
   109          3
   110         18
   111        128
   112         14
   113          2
   124        167
   125         21
   126          6
   138          9
   139          3
   152          7
   153          5
   154          2
   166          8
   180         31
   181          6
   194          8
   195          1
   208         30
   209          5
   222          9
   223         19
   224          3