##TITLE=Library Entry 23423
##JCAMP-DX=Revision 4.10 
##DATA TYPE=MASS SPECTRUM
##SAMPLE DESCRIPTION=Exported from NIST MS Search
##NAMES=HP
##CAS NAME=2-Hexanethiol, 2-methyl-
##MOLFORM=C7H16S
##CAS REGISTRY NO=1812-50-6
##MP= -300
##BP= -300
##MW= 132
##$RETENTION INDEX=0
##$CONDENSED SPECTRUM=NO
##NPOINTS= 87
##XYDATA=(XY..XY) 1 
    12          3
    13          2
    14         10
    15         75
    16          3
    26         25
    27        351
    28         53
    29        293
    30          7
    32          8
    33         18
    34         14
    35         19
    37          6
    38         17
    39        267
    40         36
    41        678
    42         87
    43        591
    44         29
    45         72
    46         12
    47        132
    48          7
    49         10
    50         13
    51         25
    52          9
    53         69
    54         21
    55        541
    56        145
    57        999
    58         54
    59        127
    60         29
    61         60
    62         12
    63         14
    65          9
    66          3
    67         29
    68         10
    69        199
    70        101
    71         73
    72          5
    73         13
    74        132
    75        391
    76         27
    77         24
    78          2
    79          6
    81         27
    82          4
    83        131
    84         13
    85         11
    87         10
    88         83
    89        184
    90         18
    91         10
    95          2
    96          3
    97         44
    98         66
    99        163
   100         15
   101          4
   102          3
   103         38
   104         19
   105          3
   112          2
   113          2
   115          2
   116          4
   117          5
   118          1
   130          6
   132         91
   133          8
   134          5