##TITLE=Library Entry 43074
##JCAMP-DX=Revision 4.10 
##DATA TYPE=MASS SPECTRUM
##SAMPLE DESCRIPTION=D.HENNEBERG, MAX-PLANCK INSTITUTE, MULHEIM, WEST GERMAN
Y
##NAMES=HP
##CAS NAME=Silane, (3-iodopropyl)trimethyl-
##MOLFORM=C6H15ISi
##CAS REGISTRY NO=18135-48-3
##MP= -300
##BP= -300
##MW= 242
##$RETENTION INDEX=0
##$CONDENSED SPECTRUM=NO
##NPOINTS= 81
##XYDATA=(XY..XY) 1 
    27          4
    28         15
    29         11
    30          0
    31         11
    33          0
    39          4
    40          1
    41         11
    42          9
    43         46
    44         32
    45         70
    46          5
    47          2
    49          0
    50          1
    53          0
    55          4
    56          1
    57         13
    58         16
    59         45
    60          3
    61          1
    67          0
    68          0
    69          1
    70          3
    71          7
    72         26
    73        999
    74         83
    75         34
    76          1
    77          0
    81          0
    83          1
    84          0
    85          1
    87          0
    93          1
    95          0
    97          0
    98          0
    99          3
   100          0
   101          0
   108          0
   109          0
   114          0
   115        156
   116         17
   117          5
   118          0
   127          1
   128          1
   137          3
   138          0
   139          2
   141          1
   155          6
   156          2
   157          7
   158          0
   169          0
   170          2
   171         13
   172          0
   173          0
   184          5
   185        289
   186         20
   187          9
   199          0
   200         22
   201          2
   202          1
   227          9
   228          1
   229          0