##TITLE=Library Entry 67338
##JCAMP-DX=Revision 4.10 
##DATA TYPE=MASS SPECTRUM
##SAMPLE DESCRIPTION=Exported from NIST MS Search
##NAMES=HP
##CAS NAME=Pyrazine, 2-(n-propyl)-
##MOLFORM=C7H10N2
##CAS REGISTRY NO=18138-03-9
##MP= -300
##BP= -300
##MW= 122
##$RETENTION INDEX=1010
##$CONDENSED SPECTRUM=NO
##NPOINTS= 37
##XYDATA=(XY..XY) 1 
    26         13
    27         38
    28         25
    29         10
    38          8
    39        158
    40         45
    41         75
    42         20
    43         10
    50         10
    51         20
    52         85
    53         70
    54         15
    63          3
    64         10
    65         10
    66         50
    67         83
    68         25
    69         13
    70         15
    79         18
    80         20
    81          3
    93         50
    94        999
    95         60
    96          5
   106         13
   107        225
   108         20
   119         10
   121         98
   122        200
   123         25