##TITLE=Library Entry 42339
##JCAMP-DX=Revision 4.10 
##DATA TYPE=MASS SPECTRUM
##SAMPLE DESCRIPTION=R.A.FRIEDEL BUREAU OF MINES U.S.DEPT.OF INT. BRUCETON P
A USA
##NAMES=HP
##CAS NAME=3-Heptanol, TMS derivative
##MOLFORM=C10H24OSi
##CAS REGISTRY NO=18132-91-7
##MP= -300
##BP= -300
##MW= 188
##$RETENTION INDEX=0
##$CONDENSED SPECTRUM=NO
##NPOINTS= 33
##XYDATA=(XY..XY) 1 
    29        266
    31         15
    43        107
    45        193
    47         66
    59         89
    61         81
    66          1
    69         35
    73        999
    75        570
    83          2
    87          7
    89          4
   101         28
   103         63
   104          6
   115         42
   117          5
   118          0
   130          9
   131        680
   132         80
   145         38
   146          5
   147          5
   159        435
   160         61
   161         19
   162          1
   173         85
   174         13
   188          6