##TITLE=Library Entry 40746
##JCAMP-DX=Revision 4.10 
##DATA TYPE=MASS SPECTRUM
##SAMPLE DESCRIPTION=Chemical Concepts
##NAMES=HP
##CAS NAME=Disilane, bromopentamethyl-
##MOLFORM=C5H15BrSi2
##CAS REGISTRY NO=18139-94-1
##MP= -300
##BP= -300
##MW= 210
##$RETENTION INDEX=0
##$CONDENSED SPECTRUM=NO
##NPOINTS= 114
##XYDATA=(XY..XY) 1 
    25          1
    27          3
    29         35
    30          3
    33          0
    39          0
    40          0
    41          4
    42         21
    43        147
    44         40
    45        177
    46         11
    47          5
    49          0
    53         14
    54          3
    55         20
    56          3
    58         46
    59         39
    60          4
    61          1
    63          0
    65          0
    66          1
    67          1
    68          1
    69         14
    70          7
    71         11
    72         42
    73        999
    74        143
    75         58
    76          1
    77          1
    79          0
    80          0
    81          5
    82          0
    83          4
    84          2
    85         10
    86          1
    87          1
    88          0
    89          0
    92          0
    93          1
    95          0
    97          1
    98          0
    99         10
   100          1
   101          5
   102          0
   103          0
   107         20
   108          2
   109         39
   110          3
   111         20
   112          1
   113          2
   114          0
   115          7
   116          4
   117          0
   120          0
   121          2
   122          5
   123          4
   124          5
   125          3
   129          2
   130          0
   131         20
   132          3
   133          1
   135          1
   136          1
   137         34
   138          3
   139         32
   140          2
   141          1
   148          0
   149          1
   150          0
   151          2
   152          0
   153          0
   163          1
   164          0
   165          2
   166          0
   167          0
   179          4
   180          0
   181          4
   182          0
   183          0
   193          0
   195         34
   196          5
   197         34
   198          4
   199          2
   210         22
   211          3
   212         24
   213          3
   214          1