##TITLE=Library Entry 93094
##JCAMP-DX=Revision 4.10 
##DATA TYPE=MASS SPECTRUM
##SAMPLE DESCRIPTION=NIST Mass Spectrometry Data Center
##NAMES=HP
##CAS NAME=Allyl alcohol, TMS derivative
##MOLFORM=C6H14OSi
##CAS REGISTRY NO=18146-00-4
##MP= -300
##BP= -300
##MW= 130
##$RETENTION INDEX=709
##$CONDENSED SPECTRUM=NO
##NPOINTS= 70
##XYDATA=(XY..XY) 1 
    15          5
    26          4
    27         16
    28          5
    29         15
    30          1
    31          5
    37          2
    38          4
    39         40
    40          4
    41         38
    42         12
    43         60
    44         17
    45        107
    46          8
    47         30
    48          1
    49          1
    50          3
    52          1
    53          9
    54          3
    55         23
    56          6
    57         38
    58         34
    59        295
    60         29
    61         62
    62          4
    63          2
    65          1
    66          1
    67          2
    69          3
    70          3
    71         13
    72         12
    73        251
    74         27
    75        119
    76          9
    77          3
    83          5
    85        399
    86         41
    87         82
    88         11
    89          5
    97          9
    98          2
    99         85
   100          9
   101         18
   102          2
   103         10
   104          1
   111          2
   113         14
   115        999
   116        127
   117         47
   118          3
   129          6
   130        198
   131         24
   132          8
   133          1