##TITLE=Library Entry 55943
##JCAMP-DX=Revision 4.10 
##DATA TYPE=MASS SPECTRUM
##SAMPLE DESCRIPTION=A.A.Kutin, Moscow, Russia
##NAMES=HP
##CAS NAME=Coumarin, 3-(morpholinocarbonyl)-
##MOLFORM=C14H13NO4
##CAS REGISTRY NO=18144-52-0
##MP= -300
##BP= -300
##MW= 259
##$RETENTION INDEX=0
##$CONDENSED SPECTRUM=NO
##NPOINTS= 74
##XYDATA=(XY..XY) 1 
    37         11
    38         25
    39        122
    40         28
    41         50
    42        158
    43         22
    44         25
    50         42
    51         80
    53         42
    54         37
    55         46
    56        436
    57         79
    62         76
    63        171
    64         17
    65          8
    72        238
    73         21
    75         71
    76         13
    77         22
    78          5
    86        999
    87         41
    88         36
    89        257
    90         37
    91          6
    92          2
   101        215
   102         22
   103          3
   104          1
   117          6
   118         35
   119          4
   120          0
   145         40
   146        162
   147         17
   148          1
   149          0
   159          7
   160         43
   161          4
   162          0
   173        387
   174         42
   175          5
   176          0
   200         12
   201          5
   202          3
   213          6
   214          3
   215          3
   216         22
   217          3
   218          0
   228          2
   229          1
   230          1
   231          6
   232          0
   233          0
   240          0
   241          0
   258         94
   259         61
   260         10
   261          1