##TITLE=Library Entry 13654
##JCAMP-DX=Revision 4.10 
##DATA TYPE=MASS SPECTRUM
##SAMPLE DESCRIPTION=CARL DJERASSI DEPT OF CHEM STANFORD UNIV STANFORD CALIF
 94305
##NAMES=HP
##CAS NAME=2-Furanhexanoic acid, tetrahydro-.beta.,.delta.-dihydroxy-5-oxo-,
 methyl ester, diacetate
##MOLFORM=C15H22O8
##CAS REGISTRY NO=18142-16-0
##MP= -300
##BP= -300
##MW= 330
##$RETENTION INDEX=0
##$CONDENSED SPECTRUM=NO
##NPOINTS= 121
##XYDATA=(XY..XY) 1 
    41        260
    42         60
    43        999
    44        140
    45        100
    47         30
    53         20
    54         40
    55        160
    56         90
    57        140
    58         50
    59        130
    60         20
    61         50
    66         10
    67        120
    68         40
    69         80
    70         20
    71         50
    72         10
    73         10
    74         50
    75         10
    77         10
    78         10
    79         40
    80         20
    81        100
    82         40
    83        100
    84        190
    85        670
    86         40
    87         10
    91         30
    92         50
    93         40
    94         30
    95         80
    96         10
    97        130
    98         30
    99         40
   100        470
   101        110
   103         70
   105         20
   106         10
   107         30
   108         50
   109         80
   110         20
   111         80
   112         20
   113         20
   116         10
   121         10
   122         10
   123         30
   124         10
   125         20
   126        580
   127        250
   128         30
   129        460
   130         20
   133         10
   136         50
   137        170
   138         10
   141         10
   142         20
   143         30
   145         70
   149         30
   150        210
   151         50
   152         10
   153         30
   154         60
   155        160
   156         10
   166         30
   167         10
   168         70
   169         30
   171        150
   172         40
   178        100
   179         70
   182        120
   183         10
   186         40
   187         50
   189         10
   192         20
   195         40
   196        110
   197        290
   198         20
   199         10
   200         10
   209         10
   210        840
   211        110
   212         10
   215         60
   227        170
   228        390
   229         60
   231         60
   239         10
   242         10
   257         60
   270         80
   271         30
   287         20
   299         90
   300         10