##TITLE=Library Entry 76411
##JCAMP-DX=Revision 4.10 
##DATA TYPE=MASS SPECTRUM
##SAMPLE DESCRIPTION=F. AULINGER INSTITUTE FOR SPECTROCHEMISTRY, DORTMUND, G
ERMANY
##NAMES=HP
##CAS NAME=Silane, dimethyl[(methylsilyl)methyl]-
##MOLFORM=C4H14Si2
##CAS REGISTRY NO=18148-13-5
##MP= -300
##BP= -300
##MW= 118
##$RETENTION INDEX=0
##$CONDENSED SPECTRUM=NO
##NPOINTS= 38
##XYDATA=(XY..XY) 1 
    29         40
    31         50
    42         30
    43        300
    44         40
    45        110
    55         30
    57         30
    58         60
    59        290
    60         20
    69         80
    70         30
    71         40
    72         50
    73        370
    74         40
    75         20
    81         30
    83         20
    84         10
    85         70
    86         20
    87         60
    88         10
    89         10
    99         50
   100         50
   101        180
   102        150
   103        999
   104        140
   105         70
   115         20
   116         80
   117        270
   118         50
   119         20