##TITLE=Library Entry 66312
##JCAMP-DX=Revision 4.10 
##DATA TYPE=MASS SPECTRUM
##SAMPLE DESCRIPTION=NIST Mass Spectrometry Data Center
##NAMES=HP
##CAS NAME=2-Chloroethanol, TMS derivative
##MOLFORM=C5H13ClOSi
##CAS REGISTRY NO=18157-17-0
##MP= -300
##BP= -300
##MW= 152
##$RETENTION INDEX=842
##$CONDENSED SPECTRUM=NO
##NPOINTS= 83
##XYDATA=(XY..XY) 1 
    14          1
    15          5
    26          4
    27         15
    28          6
    29         11
    30          2
    31          3
    39          2
    41          3
    42         13
    43         77
    44         17
    45         89
    46          6
    47         21
    48          2
    49         28
    50          2
    51         10
    52          1
    53          7
    54          2
    55         11
    56          3
    57          8
    58         36
    59         44
    60          8
    61         12
    62          2
    63         30
    64          4
    65         36
    66          3
    67          9
    68          1
    69          1
    70          3
    71          7
    72         13
    73        304
    74         28
    75         38
    76          3
    77          3
    78          4
    79         35
    80          4
    81         13
    82          1
    83          1
    85          1
    87          3
    88         11
    89          1
    90          1
    93        999
    94         89
    95        425
    96         29
    97         19
    98          1
    99          1
   101         92
   102         11
   103        217
   104         21
   105          9
   106          1
   107          2
   109          1
   117          2
   121          6
   122          1
   123          2
   137        357
   138         35
   139        131
   140         12
   141          4
   151          1
   153          1