##TITLE=Library Entry 109769
##JCAMP-DX=Revision 4.10 
##DATA TYPE=MASS SPECTRUM
##SAMPLE DESCRIPTION=Exported from NIST MS Search
##NAMES=HP
##CAS NAME=Pyrazole, TMS derivative
##MOLFORM=C6H12N2Si
##CAS REGISTRY NO=18156-75-7
##MP= -300
##BP= -300
##MW= 140
##$RETENTION INDEX=0
##$CONDENSED SPECTRUM=NO
##NPOINTS= 28
##XYDATA=(XY..XY) 1 
    31         18
    40         21
    42         27
    43        182
    44         54
    45         88
    53         18
    54         18
    55         33
    56         27
    57         18
    58         27
    59         36
    69         36
    70         85
    71         30
    72        134
    73        100
    95         36
    97         15
    98        265
    99         24
   125        999
   126        109
   127         39
   140        381
   141         51
   142         15