##TITLE=Library Entry 13455
##JCAMP-DX=Revision 4.10 
##DATA TYPE=MASS SPECTRUM
##SAMPLE DESCRIPTION=NIST Mass Spectrometry Data Center, 1994
##NAMES=HP
##CAS NAME=Ethyl 3-bromo-4,6-dimethyl-2H-pyran-5-carboxylate
##MOLFORM=C10H11BrO4
##CAS REGISTRY NO=18152-79-9
##MP= -300
##BP= -300
##MW= 274
##$RETENTION INDEX=0
##$CONDENSED SPECTRUM=NO
##NPOINTS= 157
##XYDATA=(XY..XY) 1 
    12          1
    13          2
    14         14
    15        112
    16          3
    17          2
    18          3
    19          2
    25          3
    26         30
    27        170
    28         47
    29        248
    30         27
    32          0
    36          3
    37         19
    38         44
    39        177
    40         42
    41         27
    42          0
    43        999
    44         26
    46          1
    49         24
    50        128
    51        254
    52         63
    53         45
    54          7
    55         19
    61         10
    62         17
    63         29
    64         17
    65         99
    66         85
    67         92
    68          9
    69         26
    73          0
    75          7
    76          4
    77         27
    78         15
    79         31
    80          9
    81         10
    82         20
    83         49
    84          3
    91          3
    92          9
    93         45
    94         14
    95         14
    96          4
    97          9
   104          1
   105          6
   106          3
   107         38
   108          3
   109         15
   110         33
   111         46
   112          3
   115          3
   116          4
   117         10
   118         13
   119          8
   120         10
   121         23
   122         49
   123         26
   124          3
   125         10
   129          6
   130         13
   131         89
   132         12
   133         86
   134          5
   135          1
   137         12
   138         11
   139         34
   140          4
   143          3
   144          6
   145          8
   146          8
   147         14
   148          1
   149         32
   150          5
   151          3
   158          2
   159          9
   160          3
   161         12
   163          4
   165          3
   167        429
   168         41
   169          6
   171          3
   172         15
   173         18
   174         18
   175         26
   176         44
   177         13
   178         41
   179          2
   186         35
   187         13
   188         33
   189         25
   190          4
   191         17
   192          3
   193          1
   194          1
   195        538
   196         63
   197          8
   200         53
   201         37
   202         56
   203         56
   204         18
   205         21
   206         10
   217         70
   218         54
   219         68
   220         56
   221          4
   228         42
   229        130
   230         53
   231        117
   232         16
   233          6
   234          4
   246         66
   247         11
   248         67
   249          6
   274        141
   275         15
   276        140
   277         15
   278          0