##TITLE=Library Entry 66456
##JCAMP-DX=Revision 4.10 
##DATA TYPE=MASS SPECTRUM
##SAMPLE DESCRIPTION=ASES Database, Dalian Institute, P.R. China
##NAMES=HP
##CAS NAME=N-(4-Carboxymethyl)-N'-phenyl-urea
##MOLFORM=C15H14N2O3
##CAS REGISTRY NO=181518-40-1
##MP= -300
##BP= -300
##MW= 270
##$RETENTION INDEX=0
##$CONDENSED SPECTRUM=NO
##NPOINTS= 14
##XYDATA=(XY..XY) 1 
    63        371
    64        377
    65        400
    66        327
    77        150
    91        596
    92        349
    93        999
   119        720
   120        651
   145        179
   150        278
   177         80
   270          9