##TITLE=Library Entry 18923
##JCAMP-DX=Revision 4.10 
##DATA TYPE=MASS SPECTRUM
##SAMPLE DESCRIPTION=D.HENNEBERG, MAX-PLANCK INSTITUTE, MULHEIM, WEST GERMAN
Y
##NAMES=HP
##CAS NAME=2,6-Octadiene, (E,E)-
##MOLFORM=C8H14
##CAS REGISTRY NO=18152-31-3
##MP= -300
##BP= -300
##MW= 110
##$RETENTION INDEX=794
##$CONDENSED SPECTRUM=NO
##NPOINTS= 57
##XYDATA=(XY..XY) 1 
    25          0
    26          6
    27        108
    28         66
    29        183
    30          3
    35          0
    38          6
    39        134
    40         10
    41         74
    42          5
    43          1
    44          8
    45          0
    47          0
    49          0
    50          8
    51         20
    52          8
    53         68
    54         72
    55        999
    56         74
    57          1
    62          1
    63          3
    64          0
    65          9
    66          8
    67         41
    68         47
    69          9
    74          0
    75          0
    77         13
    78          2
    79         15
    80         11
    81        161
    82         20
    83          0
    91         12
    92          0
    93          4
    94          0
    95         84
    96          5
   103          0
   104          0
   105          0
   106          1
   107          0
   108          0
   109          0
   110         25
   111          1