##TITLE=Library Entry 14776
##JCAMP-DX=Revision 4.10 
##DATA TYPE=MASS SPECTRUM
##SAMPLE DESCRIPTION=DENNIS H SMITH DEPT OF CHEM STANFORD UNIV STANFORD CALI
F 9430
##NAMES=HP
##CAS NAME=Pregn-4-ene-3,20-dione, 6,16-dimethyl-, (6.beta.,16.alpha.)-
##MOLFORM=C23H34O2
##CAS REGISTRY NO=1816-79-1
##MP= -300
##BP= -300
##MW= 342
##$RETENTION INDEX=0
##$CONDENSED SPECTRUM=NO
##NPOINTS= 113
##XYDATA=(XY..XY) 1 
    41        217
    43        999
    45         10
    53         79
    55        230
    57         24
    58         18
    65         26
    66         12
    67        179
    68         16
    69        108
    77         98
    78         17
    79        148
    80         16
    81        152
    82         17
    83        101
    85        239
    91        196
    92         33
    93        174
    94         31
    95        122
    96         26
    97         38
    98         93
    99         61
   105        180
   106         22
   107        146
   108         48
   109        193
   110         59
   111         37
   115         16
   117         38
   119        118
   120         26
   121        143
   122         38
   123        189
   124         25
   129         18
   131         50
   133         74
   134         21
   135         92
   136        124
   137        302
   138        395
   143         24
   145         75
   146         24
   147         96
   148         35
   149         85
   150         43
   151         36
   157         25
   159         47
   160         16
   161         94
   163         83
   171         24
   173         61
   174         14
   175         59
   176         11
   177         18
   185         16
   187         33
   188         24
   189         38
   190         10
   191         17
   199         15
   201         32
   203         13
   205         33
   213         12
   215         28
   216         10
   225         22
   227         11
   229         17
   231         13
   240         16
   243         75
   244         38
   245         54
   257        119
   258        195
   259         45
   260         24
   273         74
   274         14
   281         27
   283         22
   284         30
   285         29
   297         15
   298         10
   299         71
   300        209
   301         34
   309         26
   313         22
   314         12
   324         44
   327        197
   342        566