##TITLE=Library Entry 65895
##JCAMP-DX=Revision 4.10 
##DATA TYPE=MASS SPECTRUM
##SAMPLE DESCRIPTION=NIST Mass Spectrometry Data Center, 1994
##NAMES=HP
##CAS NAME=Silane, chloro(1,1-dimethylethyl)dimethyl-
##MOLFORM=C6H15ClSi
##CAS REGISTRY NO=18162-48-6
##MP= -300
##BP= -300
##MW= 150
##$RETENTION INDEX=0
##$CONDENSED SPECTRUM=NO
##NPOINTS= 79
##XYDATA=(XY..XY) 1 
    15         33
    16          0
    18          1
    26         13
    27         98
    28         14
    29        168
    30          6
    31         18
    36          2
    37          3
    39        101
    41        301
    42         37
    43         89
    44         10
    45         18
    46          1
    47          1
    49          1
    50          4
    51          6
    53         22
    56        919
    57        498
    58         38
    59         29
    60          2
    63        136
    65        170
    66         19
    67         50
    68          2
    69          4
    70          1
    71          2
    73         86
    74          8
    75          3
    76          3
    77         17
    78         44
    79         45
    80         17
    81         15
    82          1
    83          3
    85          1
    86          5
    87          0
    88          0
    89          1
    90          2
    93        999
    94        101
    95        364
    96         27
    97         13
    99          9
   100          1
   101          0
   103          2
   105          3
   106          1
   107          1
   114          1
   115          6
   116          1
   117          1
   119          3
   120          0
   135         13
   136          2
   137          5
   150        101
   151         12
   152         36
   153          4
   154          1