##TITLE=Library Entry 68235
##JCAMP-DX=Revision 4.10 
##DATA TYPE=MASS SPECTRUM
##SAMPLE DESCRIPTION=Exported from NIST MS Search
##NAMES=HP
##CAS NAME=1,5-Methano-8H-pyrido[1,2-a][1,5]diazocin-8-one, decahydro-
##MOLFORM=C11H18N2O
##CAS REGISTRY NO=18161-94-9
##MP= -300
##BP= -300
##MW= 194
##$RETENTION INDEX=1844
##$CONDENSED SPECTRUM=NO
##NPOINTS= 35
##XYDATA=(XY..XY) 1 
    41        156
    42         72
    43         60
    44        216
    54         20
    55        152
    56         84
    57         44
    66         64
    67         80
    68         56
    69         54
    80        100
    81         60
    82        380
    83         72
    84         96
    93         24
    94        148
    95        999
    96        174
    97         40
    98         80
    99         26
   100        112
   112         92
   113        194
   123         20
   136         40
   150         96
   151         64
   152         20
   193         24
   194        370
   195         60