##TITLE=Library Entry 70654
##JCAMP-DX=Revision 4.10 
##DATA TYPE=MASS SPECTRUM
##SAMPLE DESCRIPTION=A.A.Kutin, Moscow, Russia
##NAMES=HP
##CAS NAME=Benzoic acid, 4-(2-thienylmethylamino)-, ethyl ester
##MOLFORM=C14H15NO2S
##CAS REGISTRY NO=18168-49-5
##MP= -300
##BP= -300
##MW= 261
##$RETENTION INDEX=0
##$CONDENSED SPECTRUM=NO
##NPOINTS= 161
##XYDATA=(XY..XY) 1 
    35          0
    36          0
    37          1
    38          4
    39          9
    40          2
    41          2
    43          9
    45         46
    47          5
    50         23
    51         20
    53         60
    54          3
    55          2
    56          1
    57          3
    58          9
    59          2
    61          3
    63         45
    64         25
    65         32
    66          2
    69         21
    71         15
    74         11
    75         13
    76         28
    77         22
    78          7
    79          5
    81          9
    82          3
    83          2
    84          5
    85          7
    86          1
    87          2
    88          2
    89          6
    90         13
    91         30
    92         13
    93          8
    97        999
    99         25
   100          3
   101          2
   102          7
   103         10
   104          9
   105          6
   107         10
   108         10
   110          8
   111          1
   112          0
   113          1
   115         10
   117          2
   119         30
   120          7
   121          5
   122          1
   123          1
   124          0
   125          0
   126          0
   127          1
   128          4
   129          1
   130          4
   131          1
   132          2
   133          1
   134          1
   135          5
   136          2
   137          1
   138          0
   139          0
   140          0
   141          1
   142          1
   143          1
   144          1
   145          0
   146          0
   147          1
   148          4
   149          4
   150          9
   151          1
   152          1
   153          3
   154          3
   155          1
   156          0
   158          1
   159          2
   160          1
   161          1
   162          1
   163          3
   164          3
   165          1
   166          0
   167          0
   169          0
   170          0
   171          0
   172          0
   173          1
   174          0
   175          0
   176          1
   177          1
   178          2
   179          1
   181          0
   182          0
   183          0
   184          0
   186          7
   188         11
   189          1
   190          1
   191          2
   192          0
   193          0
   194          0
   198          0
   200          0
   201          0
   203          2
   204          0
   205          0
   207          0
   208          0
   212          0
   213          2
   216         31
   218          3
   219          3
   221         10
   222          0
   223          0
   230          1
   231          1
   232          4
   233          0
   234          0
   235          0
   236          0
   246          0
   247          0
   261        155
   263          6
   264          1
   265          0