##TITLE=Library Entry 66318
##JCAMP-DX=Revision 4.10 
##DATA TYPE=MASS SPECTRUM
##SAMPLE DESCRIPTION=V.Zaikin,Topchiev Inst.Petrochem.Synth.,Moscow
##NAMES=HP
##CAS NAME=Silane, chlorodimethyloctyl-
##MOLFORM=C10H23ClSi
##CAS REGISTRY NO=18162-84-0
##MP= -300
##BP= -300
##MW= 206
##$RETENTION INDEX=0
##$CONDENSED SPECTRUM=NO
##NPOINTS= 105
##XYDATA=(XY..XY) 1 
    26          4
    27         14
    28          2
    29         16
    31          1
    35          1
    36          8
    38          3
    39         12
    40          3
    41         34
    42         12
    43         27
    44          4
    45          2
    50          2
    51          3
    52          3
    53          4
    54          3
    55         19
    56         13
    57         30
    58          4
    59         17
    60          2
    63         20
    64          2
    65         29
    66          2
    67          9
    68          2
    69         19
    70         14
    71          8
    72          3
    73          3
    77          4
    78         11
    79         61
    80          8
    81         23
    82          3
    83         10
    84          8
    85          5
    86          2
    87          2
    91          5
    92         15
    93        999
    94         66
    95        313
    96         21
    97         14
    98          1
    99          7
   103          1
   104          1
   105         13
   106          4
   107         39
   108          5
   109         14
   110          1
   111         25
   112         42
   113          7
   114          2
   115          1
   117          3
   118          2
   119         26
   120          4
   121        138
   122         15
   123         48
   124          5
   125          2
   127          4
   133          9
   134          2
   135         24
   136          4
   137          8
   141          1
   142          1
   147         28
   148          4
   149         17
   150          2
   151          3
   155          1
   161          2
   163          5
   165          2
   171          6
   191        312
   192         47
   193        105
   194         16
   195          5
   206          9
   207          4
   208          4