##TITLE=Library Entry 66307
##JCAMP-DX=Revision 4.10 
##DATA TYPE=MASS SPECTRUM
##SAMPLE DESCRIPTION=Institute of Organic Chemistry, Novosibirsk, USSR 1988
##NAMES=HP
##CAS NAME=(2,2-Dichlorovinyl)trimethylsilane
##MOLFORM=C5H10Cl2Si
##CAS REGISTRY NO=18163-67-2
##MP= -300
##BP= -300
##MW= 168
##$RETENTION INDEX=0
##$CONDENSED SPECTRUM=NO
##NPOINTS= 16
##XYDATA=(XY..XY) 1 
    73         70
    93        999
    94         88
    95        342
    96         30
   113        121
   115         80
   117         49
   119          7
   133         21
   134          7
   153        120
   155         81
   157          8
   168          7
   170          8