##TITLE=Library Entry 97082
##JCAMP-DX=Revision 4.10 
##DATA TYPE=MASS SPECTRUM
##SAMPLE DESCRIPTION=F. AULINGER INSTITUTE FOR SPECTROCHEMISTRY, DORTMUND, G
ERMANY
##NAMES=HP
##CAS NAME=2,4-Disilapentane, 2,4-dimethyl-
##MOLFORM=C5H16Si2
##CAS REGISTRY NO=18163-84-3
##MP= -300
##BP= -300
##MW= 132
##$RETENTION INDEX=0
##$CONDENSED SPECTRUM=NO
##NPOINTS= 32
##XYDATA=(XY..XY) 1 
    29         20
    31         40
    42         10
    43        120
    44         30
    45         70
    55         20
    57         20
    58         30
    59        130
    60         10
    69         30
    70         10
    71         20
    72         50
    73        470
    74         40
    75         20
    83         10
    85         20
    87         10
    99         10
   101         50
   115         50
   116         30
   117        999
   118        140
   119         70
   130         20
   131        150
   132         20
   133         10