##TITLE=Library Entry 70420
##JCAMP-DX=Revision 4.10 
##DATA TYPE=MASS SPECTRUM
##SAMPLE DESCRIPTION=A.A.Kutin, Moscow, Russia
##NAMES=HP
##CAS NAME=Imidazolidine, 2-(2-thienyl)-1,3-di(2-thienylmethyl)-
##MOLFORM=C17H18N2S3
##CAS REGISTRY NO=18168-50-8
##MP= -300
##BP= -300
##MW= 346
##$RETENTION INDEX=0
##$CONDENSED SPECTRUM=NO
##NPOINTS= 198
##XYDATA=(XY..XY) 1 
    33          0
    34          1
    36          0
    37          3
    38         13
    39         86
    40         12
    41         24
    42         21
    43          7
    45        176
    47         17
    48          0
    49          1
    50          7
    51         17
    52         14
    53        134
    54         17
    55          8
    56         37
    57         20
    58         20
    59          4
    60          1
    61          1
    62          3
    63         13
    64          3
    65          7
    66          4
    67          6
    68          2
    69         34
    70         24
    71         20
    72          2
    73          1
    74          0
    75          0
    76          2
    77          7
    78          5
    79          3
    80          9
    81          6
    82          9
    83         11
    84         10
    85          8
    86          1
    87          0
    89          1
    90          1
    91          2
    92          1
    93          3
    95         19
    97        999
    98         56
    99         44
   100          2
   101          0
   102          0
   103          0
   104          1
   105          1
   106          2
   107          1
   108          1
   109          8
   110         24
   111         23
   112          5
   113          1
   114          0
   115          1
   116          1
   117          2
   118          0
   119          0
   120          0
   121          2
   122          5
   124        260
   125         27
   126         14
   127          2
   128          0
   129          0
   130          0
   131          0
   132          0
   133          0
   134          1
   135          1
   136          3
   137          2
   138         16
   139          5
   140          6
   141          0
   142          0
   143          0
   144          2
   145          0
   146          0
   147          1
   149          2
   150          0
   151          4
   152          1
   153          1
   154          0
   155          0
   156          0
   157          0
   159          0
   160          1
   161          0
   162          0
   163          1
   165         59
   166          5
   167          3
   168          0
   169          0
   170          0
   171          0
   172          0
   173          0
   174          0
   175          0
   177          0
   179          6
   180          1
   181          0
   183          0
   184          0
   185          0
   186          0
   187          0
   188          0
   189          0
   190          0
   191          0
   192          1
   193          0
   194          0
   201          0
   204          0
   205          0
   206         12
   207          5
   208         12
   209          1
   210          1
   213          0
   214          1
   215          0
   216          0
   217          0
   218          0
   219          0
   220          0
   221          3
   222          1
   223          0
   224          0
   229          1
   231          0
   246          0
   247          2
   248          5
   249        117
   250         17
   251         11
   252          1
   253          0
   258          0
   259          0
   262         90
   263         45
   264         13
   265          4
   266          0
   273          0
   274          0
   313          1
   314          0
   342          0
   343          0
   345         21
   346         15
   347          5
   348          1
   349          0
   350          0