##TITLE=Library Entry 41814
##JCAMP-DX=Revision 4.10 
##DATA TYPE=MASS SPECTRUM
##SAMPLE DESCRIPTION=Chemical Concepts
##NAMES=HP
##CAS NAME=2-Propenyltrimethylsilane
##MOLFORM=C6H14Si
##CAS REGISTRY NO=18163-07-0
##MP= -300
##BP= -300
##MW= 114
##$RETENTION INDEX=0
##$CONDENSED SPECTRUM=NO
##NPOINTS= 78
##XYDATA=(XY..XY) 1 
    25          0
    27         20
    28         45
    29         68
    30          6
    31         45
    32         11
    33          1
    36          0
    37          3
    38         10
    39         70
    40          5
    41         35
    42         46
    43        299
    44         62
    45        202
    46         13
    47          8
    48          0
    49          0
    50          2
    51          2
    52          1
    53         58
    54         19
    55         60
    56          8
    57         32
    58         74
    59        319
    60         26
    61         12
    62          0
    63          0
    64          0
    65         13
    66         23
    67         35
    68          7
    69         25
    70          8
    71         16
    72         60
    73        999
    74        123
    75         52
    76          2
    77          3
    78          0
    79          1
    80          0
    81          4
    82          1
    83         28
    84          3
    85          5
    86        137
    87         13
    88          5
    89          0
    91          0
    93          0
    95          1
    96          0
    97          7
    98          5
    99        604
   100         90
   101         30
   102          1
   112          0
   113          0
   114        132
   115         15
   116          4
   117          0