##TITLE=Library Entry 29152
##JCAMP-DX=Revision 4.10 
##DATA TYPE=MASS SPECTRUM
##SAMPLE DESCRIPTION=Drug Lab
##NAMES=HP
##CAS NAME=N-Acetyl-3,4-methylenedioxymethamphetamine
##MOLFORM=C13H17NO3
##CAS REGISTRY NO=181765-92-4
##MP= -300
##BP= -300
##MW= 235
##$RETENTION INDEX=0
##$CONDENSED SPECTRUM=NO
##NPOINTS= 79
##XYDATA=(XY..XY) 1 
    38          2
    39         15
    40          2
    41          7
    42         42
    43        108
    44          5
    45          1
    50         11
    51         58
    52          9
    53          8
    54          4
    55          5
    56         52
    57         14
    58        999
    59         37
    62          4
    63         12
    64          3
    65         10
    66          2
    67          2
    70          1
    71          3
    72          1
    74          4
    75          3
    76          9
    77         88
    78         23
    79         16
    80          2
    89          7
    90          2
    91          9
    92          2
    93          1
    94          1
   100        225
   101         13
   102          5
   103         18
   104         18
   105         26
   106          6
   107          2
   115          1
   117          2
   118          3
   119          2
   120          2
   121          3
   122          1
   130          1
   131         17
   132          9
   133          4
   134          5
   135         94
   136         14
   137          1
   145          1
   146          2
   147          5
   148          4
   149          1
   160          2
   161         14
   162        399
   163         50
   164          4
   176          2
   177          2
   178          3
   191          2
   192          4
   235          6