##TITLE=Library Entry 72498
##JCAMP-DX=Revision 4.10 
##DATA TYPE=MASS SPECTRUM
##SAMPLE DESCRIPTION=RADIAN CORP
##NAMES=HP
##CAS NAME=Silane, chlorobis(chloromethyl)methyl-
##MOLFORM=C3H7Cl3Si
##CAS REGISTRY NO=18171-56-7
##MP= -300
##BP= -300
##MW= 176
##$RETENTION INDEX=0
##$CONDENSED SPECTRUM=NO
##NPOINTS= 77
##XYDATA=(XY..XY) 1 
    14          2
    15          4
    26          3
    27         16
    29         17
    35          6
    39          9
    41         22
    42         37
    43         35
    44          1
    47         11
    48         13
    49        106
    50          6
    51         34
    52          5
    53         43
    54          9
    55         20
    61          1
    63        530
    64         50
    65        206
    66         21
    67         15
    69         10
    75          6
    76         33
    77         67
    78         62
    79         44
    80         19
    81          7
    83         23
    89          1
    90          3
    91         16
    92         38
    94         12
    98         90
    99        999
   100        113
   101        701
   102         43
   103        132
   104          5
   105          5
   107          3
   111         17
   112         34
   113        120
   114         28
   115         77
   116          7
   117         14
   123          3
   125          9
   126          3
   127        846
   128         66
   129        583
   130         40
   131        112
   132          5
   133        105
   134          4
   135        100
   136          3
   137         34
   139          2
   141         12
   143          8
   147         10
   149          6
   161          7
   163          3