##TITLE=Library Entry 42850
##JCAMP-DX=Revision 4.10 
##DATA TYPE=MASS SPECTRUM
##SAMPLE DESCRIPTION=Institute of Organic Chemistry, Novosibirsk, USSR 1988
##NAMES=HP
##CAS NAME=trans-1,2-Bis(trimethylsilyl)ethylene
##MOLFORM=C8H20Si2
##CAS REGISTRY NO=18178-59-1
##MP= -300
##BP= -300
##MW= 172
##$RETENTION INDEX=0
##$CONDENSED SPECTRUM=NO
##NPOINTS= 18
##XYDATA=(XY..XY) 1 
    45         47
    58          9
    59         31
    73        999
    74         77
    75         38
    83         41
    84         20
    98         29
    99        158
   100         19
   101          7
   157        282
   158         49
   159         18
   172        151
   173         32
   174         10