##TITLE=Library Entry 45429
##JCAMP-DX=Revision 4.10 
##DATA TYPE=MASS SPECTRUM
##SAMPLE DESCRIPTION=Chemical Concepts
##NAMES=HP
##CAS NAME=tert-Butyldimethylsilanol
##MOLFORM=C6H16OSi
##CAS REGISTRY NO=18173-64-3
##MP= -300
##BP= -300
##MW= 132
##$RETENTION INDEX=0
##$CONDENSED SPECTRUM=NO
##NPOINTS= 29
##XYDATA=(XY..XY) 1 
    27          3
    28         12
    29         11
    39          9
    41         18
    43          6
    44          3
    45         39
    47         31
    55          4
    56         15
    57         15
    59          5
    60          7
    61         13
    69          2
    70          2
    71          3
    73          7
    74          7
    75        999
    76         59
    77         29
    99          3
   117          5
   130          3
   131          4
   132         26
   133          4