##TITLE=Library Entry 23786
##JCAMP-DX=Revision 4.10 
##DATA TYPE=MASS SPECTRUM
##SAMPLE DESCRIPTION=NIST Mass Spectrometry Data Center
##NAMES=HP
##CAS NAME=tert-Butyltrichlorosilane
##MOLFORM=C4H9Cl3Si
##CAS REGISTRY NO=18171-74-9
##MP= -300
##BP= -300
##MW= 190
##$RETENTION INDEX=0
##$CONDENSED SPECTRUM=NO
##NPOINTS= 83
##XYDATA=(XY..XY) 1 
    15          5
    26          3
    27         34
    29         89
    30          2
    35          1
    36          1
    37          4
    38         11
    39        122
    40         20
    41        320
    42         22
    43          4
    49          1
    50          6
    51          9
    52          3
    53         16
    54          4
    55         33
    56         81
    57        999
    58         61
    59          1
    63         85
    64          6
    65         33
    66          5
    67          4
    73          1
    77          2
    78          2
    79          2
    93          1
    98         46
    99         20
   100         32
   101         14
   102          7
   103          7
   104          1
   105          3
   112          9
   113         39
   114          9
   115         27
   116          3
   117          8
   118          1
   119          1
   120          1
   123          6
   125         11
   126          2
   127          5
   128          1
   129          1
   133        270
   134         15
   135        270
   136         15
   137         99
   138         12
   139         79
   140         11
   141         44
   142          4
   143          8
   153          2
   154          2
   155          5
   156          1
   157          2
   174          2
   175         21
   176          4
   177         20
   178          2
   179          7
   190          4
   192          4
   194          1