##TITLE=Library Entry 58446
##JCAMP-DX=Revision 4.10 
##DATA TYPE=MASS SPECTRUM
##SAMPLE DESCRIPTION=NIST Mass Spectrometry Data Center, 2007
##NAMES=HP
##CAS NAME=2-Methoxyethanol, TMS derivative
##MOLFORM=C6H16O2Si
##CAS REGISTRY NO=18173-74-5
##MP= -300
##BP= -300
##MW= 148
##$RETENTION INDEX=823
##$CONDENSED SPECTRUM=NO
##NPOINTS= 66
##XYDATA=(XY..XY) 1 
    14          1
    15         26
    16          1
    26          3
    27         11
    28         14
    29         52
    30          5
    31         21
    32          1
    33          1
    39          2
    41          4
    42         13
    43         95
    44         27
    45        199
    46         11
    47         28
    48          1
    49          1
    51          3
    53          5
    54          2
    55         11
    56          3
    57         11
    58         81
    59        268
    60         27
    61         34
    62          2
    63          1
    66          1
    69          1
    70          4
    71          7
    72         19
    73        656
    74         60
    75        101
    76          7
    77          6
    85          1
    86          1
    87          9
    88         31
    89        999
    90         90
    91         43
    92          2
    99          1
   101         17
   103        256
   104         25
   105         10
   115          1
   116          2
   117          8
   118          3
   119          1
   133        450
   134         49
   135         19
   136          1
   147          1