##TITLE=Library Entry 65778
##JCAMP-DX=Revision 4.10 
##DATA TYPE=MASS SPECTRUM
##SAMPLE DESCRIPTION=Japan AIST/NIMC Database- Spectrum MS-NW-3680
##NAMES=HP
##CAS NAME=Bicyclo[3.1.1]heptane, 6,6-dimethyl-2-methylene-, (1S)-
##MOLFORM=C10H16
##CAS REGISTRY NO=18172-67-3
##MP= -300
##BP= -300
##MW= 136
##$RETENTION INDEX=0
##$CONDENSED SPECTRUM=NO
##NPOINTS= 72
##XYDATA=(XY..XY) 1 
    15          5
    26          5
    27         91
    28          5
    29         45
    30          1
    37          2
    38          8
    39        123
    40         21
    41        417
    42         18
    43         47
    44          2
    50         10
    51         33
    52         17
    53         76
    54         10
    55         59
    56          5
    57          3
    58          3
    59          1
    61          1
    62          4
    63         11
    64          4
    65         40
    66         14
    67         90
    68         35
    69        389
    70         23
    71          1
    74          2
    75          2
    76          1
    77        158
    78         28
    79        190
    80        107
    81         32
    82         16
    83          2
    89          4
    90          2
    91        149
    92         91
    93        999
    94        136
    95         30
    96          3
   102          1
   103          5
   104          2
   105         23
   106          6
   107         45
   108         16
   109          3
   115          3
   116          1
   117          2
   119         20
   120          3
   121        116
   122         11
   134          1
   135          2
   136         89
   137         10