##TITLE=Library Entry 17230
##JCAMP-DX=Revision 4.10 
##DATA TYPE=MASS SPECTRUM
##SAMPLE DESCRIPTION=NIST Mass Spectrometry Data Center, 1994
##NAMES=HP
##CAS NAME=2-Ethoxypentane
##MOLFORM=C7H16O
##CAS REGISTRY NO=1817-89-6
##MP= -300
##BP= -300
##MW= 116
##$RETENTION INDEX=747
##$CONDENSED SPECTRUM=NO
##NPOINTS= 44
##XYDATA=(XY..XY) 1 
    13          1
    14          9
    15         55
    16          3
    17          1
    18          0
    19         16
    26         25
    27        228
    28         37
    29        236
    30         11
    31         48
    37          2
    39         95
    40         18
    41        138
    42         70
    43        243
    44          2
    45        999
    46         23
    47          3
    50          2
    51          3
    53          9
    55        149
    56          6
    57          7
    58          4
    59         16
    65          1
    67          2
    69          5
    70         10
    71         31
    72          1
    73        609
    74         26
    75          2
    87          5
   101         36
   102          2
   116          6