##TITLE=Library Entry 59435
##JCAMP-DX=Revision 4.10 
##DATA TYPE=MASS SPECTRUM
##SAMPLE DESCRIPTION=CARL DJERASSI DEPT OF CHEM STANFORD UNIV STANFORD CALIF
 94305
##NAMES=HP
##CAS NAME=Benzene, (2-ethoxyethyl)-
##MOLFORM=C10H14O
##CAS REGISTRY NO=1817-90-9
##MP= -300
##BP= -300
##MW= 150
##$RETENTION INDEX=1124
##$CONDENSED SPECTRUM=NO
##NPOINTS= 43
##XYDATA=(XY..XY) 1 
    40         40
    41        230
    42         20
    43         60
    44         30
    45         20
    50        120
    51        340
    52         80
    53         50
    58         20
    59        760
    60         90
    61         20
    62         40
    63        130
    64         40
    65        340
    74         30
    76         30
    77        310
    78        190
    79        130
    80         20
    85         30
    89         60
    90         30
    91        999
    92        130
    93         20
   102         20
   103        140
   104        120
   105        270
   106        440
   107         40
   119          6
   120          6
   121         16
   132         26
   133          6
   150        250
   151         30