##TITLE=Library Entry 15360
##JCAMP-DX=Revision 4.10 
##DATA TYPE=MASS SPECTRUM
##SAMPLE DESCRIPTION=H. Fales, LC, NHLBI, NIH, Bethesda, MD 20892
##NAMES=HP
##CAS NAME=Adenosine, 1,2-dihydro-2-oxo-
##MOLFORM=C10H13N5O5
##CAS REGISTRY NO=1818-71-9
##MP= -300
##BP= -300
##MW= 283
##$RETENTION INDEX=0
##$CONDENSED SPECTRUM=NO
##NPOINTS= 178
##XYDATA=(XY..XY) 1 
    41        124
    42        263
    43        979
    44        999
    45        310
    47         57
    49          8
    50          7
    51         16
    52         25
    53        121
    54        170
    55        306
    56         98
    57        604
    58         55
    60        230
    61        142
    63         10
    64          8
    65         17
    66         40
    67         30
    68        101
    69        125
    71        228
    72         56
    73        533
    74         50
    75         49
    76          1
    77          7
    78          5
    79         10
    80         23
    81         67
    82         28
    83         14
    84         21
    85        148
    86         88
    87         22
    89          9
    90          7
    91         11
    92         11
    93         18
    94         64
    95         73
    96         47
    97         64
    98         15
    99          7
   100          0
   101         16
   102         13
   103         22
   104          6
   105          6
   106         11
   107         28
   108        145
   109         79
   110          7
   111          9
   112          3
   113         10
   114        157
   115        110
   116          8
   117          4
   118          2
   119         10
   120         18
   121         14
   122         12
   123         11
   124         29
   125          5
   126         17
   127          4
   128          1
   129          0
   130          2
   131          6
   132         10
   133        115
   134         57
   135        135
   136         30
   137          2
   138          1
   139          1
   140          2
   141          2
   143         26
   144          4
   145         16
   146          3
   147          9
   148          5
   149         19
   150         35
   151        415
   152        116
   153         13
   155          3
   157          5
   158          0
   159         13
   160         12
   161         18
   162         18
   163         12
   164         27
   165         17
   166          3
   167          2
   169          2
   171          0
   172          3
   173          1
   174          9
   175        134
   176         39
   177          9
   178         11
   179          3
   180         35
   181          2
   185          4
   186          7
   187          9
   188          6
   189          8
   190          5
   191          9
   192          6
   193          5
   194         21
   195          1
   201          6
   202          7
   203         46
   204         23
   205         13
   206          7
   208          4
   210          1
   215          4
   216          7
   217          5
   218          3
   219          1
   222          4
   223          2
   227          3
   228          0
   229          1
   230          1
   232          0
   233          2
   234          0
   236          1
   240          3
   241          1
   242          1
   246          0
   247          4
   248          2
   253          1
   257          0
   265          3
   266          4
   267          0
   282          4
   283         13
   285          1