##TITLE=Library Entry 100231
##JCAMP-DX=Revision 4.10 
##DATA TYPE=MASS SPECTRUM
##SAMPLE DESCRIPTION=Insect Chem. Ecol. Lab., USDA, Beltsville, MD 20705
##NAMES=HP
##CAS NAME=Decyl anthranilate
##MOLFORM=C17H27NO2
##CAS REGISTRY NO=18189-07-6
##MP= -300
##BP= -300
##MW= 277
##$RETENTION INDEX=0
##$CONDENSED SPECTRUM=NO
##NPOINTS= 109
##XYDATA=(XY..XY) 1 
    41        375
    42         63
    43        328
    44         14
    45          3
    47         13
    48          7
    49         78
    50          8
    51         32
    52         22
    53         25
    54         14
    55        162
    56         32
    57         76
    58          3
    62          4
    63         25
    64         35
    65        223
    66         33
    67         17
    68          9
    69         44
    70         15
    71         13
    72          0
    74          2
    75          3
    76          6
    77         10
    78          3
    79          6
    80          5
    81          5
    82          4
    83         18
    84         55
    85          7
    86         34
    88          6
    89          2
    90         16
    91         49
    92        383
    93         84
    94         15
    95          2
    97          6
    98          2
   103          0
   104          3
   105          4
   106          8
   107          3
   108          0
   109          0
   111          2
   112          1
   115          0
   117          3
   119        999
   120        992
   121        101
   122          7
   130          3
   132          8
   133          4
   134          2
   135          2
   136          5
   137        648
   138         90
   139          7
   140          1
   145          0
   146          6
   147          2
   148          1
   150          1
   151          1
   158          1
   160          1
   161          5
   162          0
   164          1
   165          1
   174          7
   175          1
   177          0
   179          3
   188          5
   191          1
   192          0
   193          2
   195          0
   202          0
   205          1
   206          1
   207         14
   208          1
   221          0
   234          4
   235          4
   276          2
   277        227
   278         43
   279          5