##TITLE=Library Entry 78818
##JCAMP-DX=Revision 4.10 
##DATA TYPE=MASS SPECTRUM
##SAMPLE DESCRIPTION=Humboldt-Universitat zu Berlin, Department of Chemistry
, Analytical Group
##NAMES=HP
##CAS NAME=1-Azetidin-1-yl-4-phenylbutan-1,4-dione
##MOLFORM=C13H15NO2
##CAS REGISTRY NO=181872-70-8
##MP= -300
##BP= -300
##MW= 217
##$RETENTION INDEX=0
##$CONDENSED SPECTRUM=NO
##NPOINTS= 129
##XYDATA=(XY..XY) 1 
    12          0
    13          1
    14          5
    15         23
    16          2
    17         18
    18         65
    19          0
    24          0
    26         43
    27        175
    28        350
    29         84
    30         70
    31          4
    32          0
    35          0
    36          1
    37          2
    38          8
    39         41
    40         10
    41         89
    42         39
    43          9
    44          4
    45          1
    49          2
    50         73
    51        261
    52         23
    53         11
    54         29
    55        156
    56        755
    57        131
    58         80
    59          4
    60          0
    61          1
    62          7
    63         14
    64          3
    65         15
    66          6
    67          6
    68          6
    69         49
    70          7
    71          1
    72          1
    73          2
    74         26
    75         23
    76         50
    77        846
    78         71
    79         14
    80          5
    82          4
    83          6
    84         88
    85          7
    86          2
    87          1
    88          1
    89          7
    90          2
    91         26
    92          3
    93          1
    94          2
    96          1
    97          7
    98          7
    99          1
   100          0
   101          1
   102          4
   103         21
   105        999
   106         78
   107          6
   108          0
   110          1
   112         82
   113          6
   115         80
   116          9
   117         33
   118          4
   119          1
   120          9
   121          1
   126          0
   128          0
   129          0
   131         12
   132          7
   133        150
   134         16
   135          1
   140          7
   141          0
   142          0
   143          2
   144          5
   145          2
   146          1
   147          0
   158          0
   159          3
   160         27
   161        387
   162         64
   163          6
   164          0
   172          7
   173          1
   174          0
   188          0
   189          7
   190          2
   191          0
   200          1
   201          0
   217         97
   218         20
   219          2