##TITLE=Library Entry 57407
##JCAMP-DX=Revision 4.10 
##DATA TYPE=MASS SPECTRUM
##SAMPLE DESCRIPTION=Institute of Organic Chemistry, Novosibirsk, USSR 1988
##NAMES=HP
##CAS NAME=2,3-Di-O-methyl-D-xylopyranose
##MOLFORM=C7H14O5
##CAS REGISTRY NO=18186-26-0
##MP= -300
##BP= -300
##MW= 178
##$RETENTION INDEX=0
##$CONDENSED SPECTRUM=NO
##NPOINTS= 41
##XYDATA=(XY..XY) 1 
    53          3
    54          4
    55         23
    56         13
    57         69
    58         29
    59         64
    60         11
    61         44
    68          6
    69         47
    71         47
    72         11
    73        124
    74        139
    75         32
    83         10
    84          3
    85         66
    86         14
    87        999
    88        299
    89         32
    99          8
   100          5
   101        229
   102         12
   103          4
   114         23
   115        101
   116         11
   117          5
   119          5
   128          7
   129          4
   130         47
   146          8
   147         12
   148          1
   161          1
   176          2