##TITLE=Library Entry 94656
##JCAMP-DX=Revision 4.10 
##DATA TYPE=MASS SPECTRUM
##SAMPLE DESCRIPTION=ASES Database, Dalian Institute, P.R. China
##NAMES=HP
##CAS NAME=N-(2-(3-Chlorophenyl)ethenyl)-pyrrolidin-2,5-dione
##MOLFORM=C12H10ClNO2
##CAS REGISTRY NO=181827-95-2
##MP= -300
##BP= -300
##MW= 235
##$RETENTION INDEX=0
##$CONDENSED SPECTRUM=NO
##NPOINTS= 27
##XYDATA=(XY..XY) 1 
    55        130
    63         10
    64         10
    65          9
    72         10
    83        161
    86         70
    87         90
    88         58
    89        378
    90         79
   102        267
   104         30
   113         20
   114        101
   115        999
   116         89
   117        210
   126        109
   143        467
   144         20
   151        858
   152        218
   153        301
   154         69
   179        149
   181         60