##TITLE=Library Entry 19207
##JCAMP-DX=Revision 4.10 
##DATA TYPE=MASS SPECTRUM
##SAMPLE DESCRIPTION=Exported from NIST MS Search
##NAMES=HP
##CAS NAME=3-Octen-1-ol
##MOLFORM=C8H16O
##CAS REGISTRY NO=18185-81-4
##MP= -300
##BP= -300
##MW= 128
##$RETENTION INDEX=1441
##$CONDENSED SPECTRUM=NO
##NPOINTS= 52
##XYDATA=(XY..XY) 1 
    15          8
    16          2
    17          7
    18         28
    26          7
    27        158
    28        104
    29        191
    30         10
    31        146
    32          6
    39        179
    40         24
    41        483
    42        105
    43        195
    44         46
    45         18
    51         16
    52         11
    53         95
    54        201
    55        999
    56        238
    57        138
    58         20
    65         27
    66         47
    67        302
    68        440
    69        175
    70         65
    71         39
    72         11
    77         17
    79         51
    81        413
    82        174
    83         33
    84         34
    85         22
    86          8
    91          6
    93          5
    95         96
    96         12
    97         31
    98         12
    99          8
   100          9
   110        191
   128         27