##TITLE=Library Entry 28067
##JCAMP-DX=Revision 4.10 
##DATA TYPE=MASS SPECTRUM
##SAMPLE DESCRIPTION=V.V.Takhistov
##NAMES=HP
##CAS NAME=(CH3)2NCH2Si(CH3)3
##MOLFORM=C6H17NSi
##CAS REGISTRY NO=18182-40-6
##MP= -300
##BP= -300
##MW= 131
##$RETENTION INDEX=0
##$CONDENSED SPECTRUM=NO
##NPOINTS= 15
##XYDATA=(XY..XY) 1 
    29        200
    30         70
    31         60
    41         20
    42        120
    43        120
    44        750
    45        150
    58        999
    59        110
    73        450
    74         50
   115        140
   131        130
   132         20