##TITLE=Library Entry 67532
##JCAMP-DX=Revision 4.10 
##DATA TYPE=MASS SPECTRUM
##SAMPLE DESCRIPTION=Japan AIST/NIMC Database- Spectrum MS-IW-4060
##NAMES=HP
##CAS NAME=Benzene, (octyloxy)-
##MOLFORM=C14H22O
##CAS REGISTRY NO=1818-07-1
##MP= -300
##BP= -300
##MW= 206
##$RETENTION INDEX=0
##$CONDENSED SPECTRUM=NO
##NPOINTS= 50
##XYDATA=(XY..XY) 1 
    27         12
    28          4
    29         35
    39         15
    40          4
    41         82
    42         16
    43        113
    44          4
    50          1
    51          9
    52          1
    53          4
    54          2
    55         62
    56         25
    57         86
    58          5
    63          1
    64          1
    65         19
    66         14
    67          5
    68          3
    69         33
    70         29
    71         46
    72          2
    76          1
    77         52
    78          5
    79          9
    81          1
    82          2
    83         17
    84          8
    85          1
    90          1
    91          2
    93          2
    94        999
    95         81
    96          5
    97          2
   107         17
   108          1
   112          3
   206        134
   207         20
   208          1