##TITLE=Library Entry 13802
##JCAMP-DX=Revision 4.10 
##DATA TYPE=MASS SPECTRUM
##SAMPLE DESCRIPTION=Div. of Experiment Therapeutics WRAIR, WRAMC, Washingto
n DC 20307
##NAMES=HP
##CAS NAME=9-Nor-9-n-butyl-10-deoxy-dihydroartemisinin
##MOLFORM=C18H30O4
##CAS REGISTRY NO=181884-69-5
##MP= -300
##BP= -300
##MW= 310
##$RETENTION INDEX=0
##$CONDENSED SPECTRUM=NO
##NPOINTS= 182
##XYDATA=(XY..XY) 1 
    41        318
    43        999
    44         22
    45         16
    47          7
    49         34
    51         16
    53         57
    54         11
    55        369
    56         19
    57         86
    58         36
    59         11
    60          1
    61          2
    63          1
    65         17
    67        136
    68         37
    69        173
    71        117
    72          3
    73          8
    74          0
    75          1
    77         29
    79         71
    81        148
    82         18
    83         98
    84         46
    85         29
    86         11
    87          2
    88          2
    89          0
    91         36
    93         92
    95        164
    96         20
    97         85
    98         13
    99         10
   100          2
   101          1
   103          3
   104          0
   105         34
   107         66
   108         16
   109        122
   110         19
   111         98
   112         79
   113         11
   114          1
   115          5
   117          6
   119         25
   121         60
   122          4
   123         65
   124        314
   125         46
   126          5
   127          2
   128          1
   129          2
   131          9
   133         22
   134          1
   135         30
   136         16
   137         44
   138          8
   139         27
   140          9
   141          2
   143          3
   145         10
   147         18
   149         47
   151         67
   152          9
   153          6
   154          2
   155          3
   156          0
   157          2
   158          2
   159          9
   161         14
   163         41
   164         38
   165         31
   167         31
   168          3
   169          1
   171          2
   173          4
   175         11
   177         16
   179         69
   180         16
   182         65
   183          6
   184          1
   185          0
   187          2
   188          1
   189         12
   191         26
   193         51
   194         16
   195          4
   196          0
   197          0
   199          1
   201          1
   203          8
   204          1
   205         12
   206         28
   207        116
   208         17
   209          7
   210          3
   211          1
   213          0
   215          1
   217          3
   218          1
   219          1
   220        486
   221         73
   222         14
   223          3
   225          8
   226          0
   229          1
   231          3
   233          6
   234         12
   235          5
   237          6
   238          2
   239          0
   240          2
   245          0
   246          2
   248          8
   249         18
   250          1
   251         20
   252          5
   253          2
   254          1
   257          0
   260         11
   261          2
   262          0
   263          5
   264          3
   265          0
   266          7
   267          1
   268          2
   274          1
   275          0
   278        162
   279         25
   280          3
   281          0
   292          4
   294          9
   295          1
   296          0
   308          0
   309          2
   310          1
   311          0