##TITLE=Library Entry 86284
##JCAMP-DX=Revision 4.10 
##DATA TYPE=MASS SPECTRUM
##SAMPLE DESCRIPTION=V.G.Zaikin,TIPS RAS, Moscow, Russia
##NAMES=HP
##CAS NAME=Ethoxy(methyl)chlorosilane
##MOLFORM=C3H9ClOSi
##CAS REGISTRY NO=18191-33-8
##MP= -300
##BP= -300
##MW= 124
##$RETENTION INDEX=0
##$CONDENSED SPECTRUM=NO
##NPOINTS= 77
##XYDATA=(XY..XY) 1 
    30         45
    31        249
    35         25
    36         56
    38         23
    39         18
    40         19
    41         75
    42         98
    43        378
    44        160
    45        685
    46         39
    47         20
    48          4
    49          4
    50          2
    51         27
    52         11
    53          2
    54          6
    55         25
    56         17
    57          2
    58         21
    59        238
    60         28
    61        327
    62         21
    63        327
    64         29
    65        131
    66         13
    67         13
    69         17
    70          9
    71         17
    72          1
    73         88
    74         47
    75        113
    76         18
    77         66
    78         65
    79        742
    80        122
    81        641
    82         68
    83        158
    84          4
    85          2
    87          6
    88         15
    89        266
    90         21
    94         18
    95        467
    96         51
    97        182
    98          9
    99          2
   108         17
   109        999
   110         74
   111        378
   112         21
   113         12
   115          9
   118          2
   119         21
   120          2
   121          7
   123        748
   124         71
   125        269
   126         19
   127          7