##TITLE=Library Entry 1114
##JCAMP-DX=Revision 4.10 
##DATA TYPE=MASS SPECTRUM
##SAMPLE DESCRIPTION=D.HENNEBERG, MAX-PLANCK INSTITUTE, MULHEIM, WEST GERMAN
Y
##NAMES=HP
##CAS NAME=Formamide, N-formyl-N-methyl-
##MOLFORM=C3H5NO2
##CAS REGISTRY NO=18197-25-6
##MP= -300
##BP= -300
##MW= 87
##$RETENTION INDEX=0
##$CONDENSED SPECTRUM=NO
##NPOINTS= 12
##XYDATA=(XY..XY) 1 
    29        712
    30        999
    31         59
    39         20
    40         39
    41         65
    42        224
    43         73
    44         23
    58        196
    59        822
    87         17