##TITLE=Library Entry 65884
##JCAMP-DX=Revision 4.10 
##DATA TYPE=MASS SPECTRUM
##SAMPLE DESCRIPTION=Chemical Concepts
##NAMES=HP
##CAS NAME=Cycloheptanecarboxanilide
##MOLFORM=C14H19NO
##CAS REGISTRY NO=18208-28-1
##MP= -300
##BP= -300
##MW= 217
##$RETENTION INDEX=0
##$CONDENSED SPECTRUM=NO
##NPOINTS= 80
##XYDATA=(XY..XY) 1 
    26          0
    27         36
    28          8
    29         44
    30          1
    38          1
    39         48
    40          9
    41         91
    42          5
    43         21
    44          0
    50          1
    51         15
    52          2
    53         18
    54         15
    55        418
    56         16
    57          1
    63          3
    64          4
    65         34
    66         30
    67         26
    68         11
    69         31
    70          0
    76          0
    77         50
    78         15
    79          5
    80          1
    81         13
    82          1
    83          0
    91         10
    92         26
    93        999
    94         89
    95         10
    96          0
    97        189
    98         13
   103          0
   104          1
   105          1
   106         10
   107          0
   109          0
   115          0
   117          1
   118          1
   119          8
   120         14
   121          0
   123          0
   124          7
   125          9
   126          0
   130          1
   131          0
   132          9
   133          0
   134          1
   135         17
   136          0
   146          0
   148         13
   149          4
   150          0
   162          1
   174          4
   175          0
   188          0
   202          0
   216          0
   217         76
   218         12
   219          0