##TITLE=Library Entry 60965
##JCAMP-DX=Revision 4.10 
##DATA TYPE=MASS SPECTRUM
##SAMPLE DESCRIPTION=R.T.HOLMAN,UNIVERSITY OF MINNESOTA
##NAMES=HP
##CAS NAME=10,13-Octadecadiynoic acid, methyl ester
##MOLFORM=C19H30O2
##CAS REGISTRY NO=18202-24-9
##MP= -300
##BP= -300
##MW= 290
##$RETENTION INDEX=0
##$CONDENSED SPECTRUM=NO
##NPOINTS= 255
##XYDATA=(XY..XY) 1 
    36          7
    37          6
    38         17
    39        150
    40         29
    41        490
    42         88
    43        300
    44         93
    45         38
    46          5
    49          6
    50         40
    51         80
    52         67
    53        102
    54         41
    55        490
    56         68
    57        120
    58         18
    59        190
    60         41
    61          8
    62         12
    63         54
    64         23
    65        120
    66         77
    67        300
    68         60
    69        176
    70         43
    71         61
    72         10
    73         49
    74        210
    75         35
    76         32
    77        230
    78        410
    79        430
    80        240
    81        285
    82         65
    83         98
    84         36
    85         51
    86          9
    87        120
    88         20
    89         44
    90         28
    91        999
    92        620
    93        430
    94        130
    95        140
    96         40
    97         58
    98         24
    99         17
   100          8
   101         31
   102         20
   103         83
   104         63
   105        960
   106        540
   107        180
   108        130
   109         60
   110         16
   111         26
   112         12
   113         14
   114          8
   115         82
   116         42
   117        170
   118         52
   119        640
   120        140
   121         87
   122         37
   123         33
   124         15
   125         24
   126          8
   127         16
   128         29
   129         43
   130         20
   131        130
   132         44
   133        380
   134        530
   135        110
   136         42
   137         19
   138          8
   139          8
   140          6
   141         23
   142          9
   143         23
   144         11
   145         75
   146         24
   147        170
   148         47
   149         38
   150         96
   151         21
   152          8
   153          6
   154          6
   155         15
   156          6
   157         22
   158          7
   159         47
   160         18
   161         74
   162         21
   163         22
   164          9
   165         14
   166          7
   167          7
   168          7
   169         12
   170          5
   171         12
   172          7
   173         35
   174         21
   175         50
   176         13
   177          9
   178          4
   179          6
   180          7
   181          7
   182          8
   183         13
   184          4
   185          9
   186          4
   187         26
   188         10
   189         23
   190          6
   191          6
   192          4
   193          8
   194          6
   195          6
   196          5
   197          9
   198          4
   199          5
   200          3
   201         20
   202          7
   203         10
   204          4
   205         18
   206          6
   207         14
   208          4
   209          3
   210          2
   211          3
   212          2
   213          3
   214          2
   215         17
   216          7
   217          7
   218          3
   219         10
   220         10
   221          4
   222          2
   223          2
   224          2
   225          2
   226          2
   227          2
   228          2
   229          6
   230          3
   231          3
   232          2
   233         13
   234          4
   235          3
   236          2
   237          2
   238          2
   239          2
   240          2
   241          4
   242          2
   243          3
   244          2
   245          3
   246          2
   247         18
   248         24
   249          6
   250          2
   251          2
   252          2
   253          2
   254          2
   255          2
   256          2
   257          2
   258          3
   259         71
   260         16
   261         11
   262          5
   263          2
   264          2
   265          2
   266          2
   267          2
   268          2
   269          2
   270          2
   271          2
   272          2
   273          2
   274          2
   275          5
   276          2
   277          3
   278          2
   279          3
   280          2
   281          4
   282          2
   283          2
   284          2
   285          2
   286          2
   287          2
   288          2
   289          2
   290          6
   291          3
   292          2