##TITLE=Library Entry 49517
##JCAMP-DX=Revision 4.10 
##DATA TYPE=MASS SPECTRUM
##SAMPLE DESCRIPTION=R.T.HOLMAN,UNIVERSITY OF MINNESOTA
##NAMES=HP
##CAS NAME=17-Octadecen-14-yn-1-ol
##MOLFORM=C18H32O
##CAS REGISTRY NO=18202-28-3
##MP= -300
##BP= -300
##MW= 264
##$RETENTION INDEX=0
##$CONDENSED SPECTRUM=NO
##NPOINTS= 59
##XYDATA=(XY..XY) 1 
    27         40
    28         10
    29        100
    31         70
    39         60
    40         10
    41        270
    42         40
    43        130
    51         20
    52         20
    53         60
    54         50
    55        310
    56         30
    57         40
    65         40
    66         70
    67        260
    68         90
    69        120
    70         10
    71         20
    77        150
    78         80
    79        560
    80        999
    81        320
    82        160
    83         70
    84         10
    85         10
    91        140
    92         50
    93        240
    94        370
    95        160
    96         60
    97         30
    98         10
   105         50
   106         20
   107        120
   108         50
   109         50
   110         20
   119         30
   120         10
   121        130
   122         50
   123         20
   133         10
   135         60
   136         10
   149         20
   210          1
   221          1
   235          1
   264          1