##TITLE=Library Entry 5439
##JCAMP-DX=Revision 4.10 
##DATA TYPE=MASS SPECTRUM
##SAMPLE DESCRIPTION=Exported from NIST MS Search
##NAMES=HP
##CAS NAME=Azirino[2',3':3,4]pyrrolo[1,2-a]indole-4,7-dione, 8-[[(aminocarbo
nyl)oxy]methyl]-1,1a,2,8,8a,8b-hexahydro-6,8a-dimethoxy-1,5-dimethyl-, [1aS-
(1a.alpha.,8.beta.,8a.alpha.,8b.alpha.)]-
##MOLFORM=C17H21N3O6
##CAS REGISTRY NO=18209-14-8
##MP= -300
##BP= -300
##MW= 363
##$RETENTION INDEX=0
##$CONDENSED SPECTRUM=NO
##NPOINTS= 207
##XYDATA=(XY..XY) 1 
    41         29
    42        999
    43         24
    44         46
    45         21
    46          9
    50         46
    51        100
    52         61
    53         70
    54         87
    55        119
    56         85
    57        121
    58         21
    59         26
    60         12
    61         21
    62         21
    63         48
    64         46
    65        109
    66         51
    67         97
    68        353
    69         70
    70        243
    71         48
    72         21
    73         24
    74         26
    75         21
    76         29
    77         21
    78         73
    79         61
    80         46
    81         36
    82         26
    83         31
    84         31
    85         19
    86         19
    88         12
    89         34
    90         29
    91         68
    92         51
    93         46
    94         48
    95         26
    96         24
    97         21
    98         21
    99          9
   100         14
   101          9
   102         21
   103         46
   104         46
   105         31
   106         43
   107         26
   108         26
   109         12
   111         24
   112         12
   113         12
   114         29
   115         21
   116         24
   117         48
   118         51
   119         31
   120         29
   121         21
   122         24
   123          9
   124          9
   125         12
   127         12
   128         14
   129         14
   130         31
   131         31
   132         43
   133         24
   134         24
   135         29
   136         19
   137         17
   141         12
   142         21
   143         24
   144         21
   145         26
   146         26
   147         21
   148         21
   149         21
   150         21
   151         12
   154         12
   155         24
   156         24
   157         36
   158         26
   159         24
   160         24
   161         21
   162         31
   163         24
   164         12
   168         12
   169         14
   170         14
   171         24
   172         21
   173         24
   174         24
   175         24
   176         21
   177         19
   178         12
   181         19
   182         12
   183         19
   184         19
   185         19
   186         19
   187         21
   188         21
   189         26
   190         43
   191         21
   192         12
   198         19
   199         26
   200         31
   201         24
   202         17
   203         21
   204         24
   205         14
   206         12
   209         19
   210         24
   211         14
   212         14
   213         46
   214         24
   215         51
   216         29
   217         14
   218         48
   219          9
   220          9
   225          9
   226          9
   227         51
   228         61
   229         48
   230         24
   231         26
   232         21
   233          9
   234         19
   240         12
   241         36
   242         73
   243        119
   244         53
   245         21
   246         48
   247         12
   248         12
   253         12
   254         12
   255         43
   256         97
   257         95
   258         53
   259         70
   260         21
   261         12
   269         39
   270         41
   271        161
   272         58
   273        434
   274         36
   275          7
   287        402
   288        119
   289         26
   290         29
   301         12
   302        292
   303         61
   304          9
   316        100
   317         21
   330          7
   331         68
   332         17
   348         24
   363         36