##TITLE=Library Entry 42411
##JCAMP-DX=Revision 4.10 
##DATA TYPE=MASS SPECTRUM
##SAMPLE DESCRIPTION=Chemical Concepts
##NAMES=HP
##CAS NAME=Disilane, 1,2-dibromo-1,1,2,2-tetramethyl-
##MOLFORM=C4H12Br2Si2
##CAS REGISTRY NO=18209-83-1
##MP= -300
##BP= -300
##MW= 274
##$RETENTION INDEX=0
##$CONDENSED SPECTRUM=NO
##NPOINTS= 145
##XYDATA=(XY..XY) 1 
    25          1
    27          7
    29         62
    30          5
    33          0
    40          0
    41         14
    42         58
    43        359
    44         46
    45         90
    46          6
    47          4
    49          1
    52          1
    53         33
    54          6
    55         42
    56          6
    57         24
    58        711
    59         97
    60         25
    61          2
    63          1
    65          1
    66          1
    67          2
    68          4
    69         28
    70          8
    71         16
    72         21
    73        999
    74         83
    75         33
    76          1
    77          4
    78          0
    79          1
    80          1
    81         11
    82          2
    83          6
    84          3
    85         16
    86          2
    87          1
    92          0
    93          4
    94          0
    95          2
    96          0
    97          1
    99          9
   100          1
   101          7
   102          1
   103          0
   107        119
   108         14
   109        222
   110         18
   111        102
   112          5
   113          4
   115          1
   116          7
   117          1
   118          0
   119          0
   120          2
   121         11
   122         27
   123         24
   124         27
   125         13
   126          1
   127          0
   133          0
   135          5
   136         18
   137        938
   138         84
   139        959
   140         65
   141         30
   142          0
   147          1
   148          1
   149          7
   150          3
   151          7
   152          1
   153          1
   155          1
   163          9
   164          1
   165         12
   166          1
   167          3
   177          1
   179         10
   180          2
   181          9
   182          1
   183          0
   188          1
   193          2
   194          0
   195         57
   196          9
   197         56
   198          8
   199          4
   201          5
   202          0
   203          9
   204          0
   205          5
   216          0
   227          0
   229          2
   230          0
   231          1
   232          0
   233          0
   243          1
   245          3
   246          0
   247          1
   259          8
   260          1
   261         16
   262          2
   263          8
   264          1
   265          0
   274         39
   275          7
   276         79
   277         12
   278         43
   279          6
   280          3