##TITLE=Library Entry 7961
##JCAMP-DX=Revision 4.10 
##DATA TYPE=MASS SPECTRUM
##SAMPLE DESCRIPTION=NIST Mass Spectrometry Data Center
##NAMES=HP
##CAS NAME=Octacosyl acetate
##MOLFORM=C30H60O2
##CAS REGISTRY NO=18206-97-8
##MP= -300
##BP= -300
##MW= 452
##$RETENTION INDEX=3203
##$CONDENSED SPECTRUM=NO
##NPOINTS= 173
##XYDATA=(XY..XY) 1 
    15          1
    26          2
    27         15
    29         54
    30          1
    37          1
    38          1
    39         26
    40          6
    41        283
    42         97
    43        999
    44         21
    45          4
    51          1
    52          1
    53         20
    54         93
    55        709
    56        338
    57        989
    58         53
    59         11
    61        689
    62         14
    63          3
    65          4
    66         13
    67        149
    68        207
    69        616
    70        300
    71        525
    72         30
    73         39
    74          2
    77          3
    78          1
    79         15
    80         12
    81        133
    82        442
    83        826
    84        229
    85        361
    86         25
    87          6
    88          2
    91          2
    92          1
    93          4
    94          7
    95         96
    96        252
    97        904
    98        177
    99        103
   100          5
   101          8
   102          3
   105          1
   107          2
   108          3
   109         48
   110         94
   111        513
   112        115
   113         60
   114          7
   115          3
   116         45
   117          3
   121          1
   122          5
   123         31
   124         65
   125        258
   126         73
   127         39
   128          5
   129          3
   130          6
   136          3
   137         20
   138         46
   139        112
   140         48
   141         26
   142          3
   143          1
   144          1
   151          6
   152         28
   153         60
   154         32
   155         16
   156          3
   165          3
   166         19
   167         36
   168         22
   169         11
   170          2
   179          2
   180         14
   181         23
   182         15
   183          7
   184          1
   194         11
   195         14
   196         11
   197          5
   198          1
   208          8
   209          9
   210          8
   211          3
   212          1
   222          7
   223          7
   224          6
   225          2
   236          7
   237          5
   238          5
   239          2
   250          7
   251          4
   252          4
   253          1
   264          6
   265          4
   266          3
   267          1
   278          6
   279          4
   280          4
   281          1
   292          5
   293          3
   294          3
   295          1
   306          4
   307          3
   308          3
   309          1
   320          3
   321          3
   322          2
   323          1
   334          3
   335          2
   336          2
   337          1
   348          2
   349          2
   350          1
   362          2
   363          2
   364         17
   365          5
   366          1
   380          1
   390          2
   391          1
   392         20
   393          6
   394          1
   434          1
   437          2
   438          1
   452          1