##TITLE=Library Entry 77955
##JCAMP-DX=Revision 4.10 
##DATA TYPE=MASS SPECTRUM
##SAMPLE DESCRIPTION=R.T.HOLMAN,UNIVERSITY OF MINNESOTA
##NAMES=HP
##CAS NAME=4,7-Octadecadiynoic acid, methyl ester
##MOLFORM=C19H30O2
##CAS REGISTRY NO=18202-20-5
##MP= -300
##BP= -300
##MW= 290
##$RETENTION INDEX=0
##$CONDENSED SPECTRUM=NO
##NPOINTS= 178
##XYDATA=(XY..XY) 1 
    26         20
    27        240
    28        150
    29        440
    30         10
    31         30
    32         30
    38         10
    39        220
    40         40
    41        820
    42        110
    43        800
    44         40
    45         60
    50         30
    51        100
    52         70
    53        150
    54         90
    55        620
    56        120
    57        350
    58         30
    59        210
    60         30
    61         10
    62         10
    63         90
    64         40
    65        190
    66         80
    67        470
    68        100
    69        300
    70         80
    71        150
    72         20
    73         30
    74        260
    75         40
    76         50
    77        360
    78        210
    79        440
    80        120
    81        400
    82        200
    83        190
    84         60
    85         90
    86         10
    87         50
    88         30
    89         80
    90         40
    91        780
    92        210
    93        320
    94        120
    95        320
    96        160
    97        130
    98         60
    99         20
   100         10
   101         20
   102         60
   103        240
   104        460
   105        999
   106        170
   107        180
   108        100
   109        210
   110        150
   111         80
   112         20
   113         30
   114         10
   115        180
   116        100
   117        560
   118        310
   119        430
   120        100
   121        330
   122        140
   123        190
   124         80
   125         60
   126         30
   127         30
   128         60
   129        110
   130         60
   131        550
   132        170
   133        250
   134         70
   135        240
   136        160
   137         70
   138         40
   139         20
   140         10
   141         20
   142         10
   143         50
   144         20
   145        370
   146        120
   147        140
   148         40
   149        320
   150         90
   151         40
   152         20
   153         10
   154         10
   155         20
   157         30
   158         10
   159        170
   160         50
   161         70
   162         20
   163        390
   164        200
   165         70
   166         20
   167         10
   169         20
   171         20
   173        100
   174         20
   175         40
   176         10
   177        120
   178        150
   179         40
   180         10
   181         10
   187         60
   188         20
   189         40
   190         10
   191         70
   192         20
   193         20
   201         30
   202         10
   203         60
   204         10
   205         70
   206         30
   207         10
   215         20
   216         20
   217         50
   218         10
   219         60
   220         20
   229         20
   231         20
   233         30
   234         10
   247         30
   248         10
   259         30
   260         10
   261         10
   262         10
   275         40
   276         10
   289         60
   290        120
   291         30