##TITLE=Library Entry 9396
##JCAMP-DX=Revision 4.10 
##DATA TYPE=MASS SPECTRUM
##SAMPLE DESCRIPTION=R.T.HOLMAN,UNIVERSITY OF MINNESOTA
##NAMES=HP
##CAS NAME=8,11-Octadecadiynoic acid, methyl ester
##MOLFORM=C19H30O2
##CAS REGISTRY NO=18202-23-8
##MP= -300
##BP= -300
##MW= 290
##$RETENTION INDEX=0
##$CONDENSED SPECTRUM=NO
##NPOINTS= 139
##XYDATA=(XY..XY) 1 
    26         40
    27        320
    28         80
    29        340
    30         10
    31         10
    37         20
    38         40
    39        280
    40         50
    41        830
    42        650
    43        999
    44         40
    45         40
    49         10
    50        120
    51        200
    52        180
    53        150
    54         90
    55        520
    56        190
    57        320
    58         10
    59        200
    60         10
    61         10
    62         10
    63         70
    64         20
    65        120
    66         70
    67        360
    68        120
    69        210
    70        130
    71        250
    72         20
    73         40
    74        370
    75         50
    76         60
    77        300
    78        990
    79        440
    80        170
    81        240
    82         40
    83         70
    84         40
    85         70
    86         40
    87        160
    88         20
    89         40
    90         20
    91        650
    92        350
    93        340
    94        270
    95        230
    96         90
    97         60
    98         10
    99         10
   100         10
   101         20
   102         20
   103         60
   104         50
   105        520
   106        400
   107        170
   108         90
   109         90
   110         20
   111         30
   113         20
   114         10
   115         70
   116         30
   117        140
   118         50
   119        310
   120         80
   121         60
   122         40
   123         20
   125         10
   127         20
   128         30
   129         50
   130         20
   131        130
   132         50
   133        200
   134         40
   135         40
   136         20
   137         30
   141         20
   142         20
   143         20
   144         20
   145         90
   146         60
   147         90
   148         20
   149         20
   151         10
   153         10
   155         10
   157         10
   159         40
   160         20
   161         40
   162         60
   163         20
   165         10
   167         10
   169         10
   172         10
   173         20
   175         20
   176         10
   177         10
   187         20
   188         10
   189         10
   191         10
   201         10
   205         40
   206         10
   219         10
   220         10
   233         10
   247         10
   290         10