##TITLE=Library Entry 85986
##JCAMP-DX=Revision 4.10 
##DATA TYPE=MASS SPECTRUM
##SAMPLE DESCRIPTION=NIST Mass Spectrometry Data Center
##NAMES=HP
##CAS NAME=trans-Verbenol
##MOLFORM=C10H16O
##CAS REGISTRY NO=1820-09-3
##MP= -300
##BP= -300
##MW= 152
##$RETENTION INDEX=1144
##$CONDENSED SPECTRUM=NO
##NPOINTS= 75
##XYDATA=(XY..XY) 1 
    27         81
    29         89
    30          4
    31         13
    38         11
    39        246
    40         43
    41        407
    42         38
    43        237
    45         15
    50         24
    51        100
    52         32
    53        166
    54         30
    55        319
    56         52
    57         45
    58         13
    59        194
    60         18
    62         17
    63         46
    64         17
    65        149
    66         41
    67        376
    68         47
    69        343
    70         45
    72         32
    77        246
    78         59
    79        345
    80        130
    81        489
    82        161
    83        231
    84        184
    85         23
    89         18
    91        517
    92        133
    93        156
    94        476
    95        318
    96        128
    97         84
    98          8
   102         10
   103         47
   104         21
   105        141
   106         37
   107        240
   108         82
   109        999
   110        112
   111         14
   115         50
   116         10
   117         44
   119        311
   120         47
   121        139
   122         19
   123         94
   124         14
   134         76
   135         18
   137        155
   138         16
   150          8
   152         17