##TITLE=Library Entry 87218
##JCAMP-DX=Revision 4.10 
##DATA TYPE=MASS SPECTRUM
##SAMPLE DESCRIPTION=D.HENNEBERG, MAX-PLANCK INSTITUTE, MULHEIM, WEST GERMAN
Y
##NAMES=HP
##CAS NAME=Cyclobuta[1,2:3,4]dicyclooctene, hexadecahydro-
##MOLFORM=C16H28
##CAS REGISTRY NO=18208-94-1
##MP= -300
##BP= -300
##MW= 220
##$RETENTION INDEX=0
##$CONDENSED SPECTRUM=NO
##NPOINTS= 82
##XYDATA=(XY..XY) 1 
    27         51
    28         43
    29         28
    30          9
    31         22
    38          8
    39         93
    40         23
    41        305
    42         31
    43         36
    44         14
    45         16
    46         11
    50          9
    51         15
    52         15
    53         74
    54        242
    55        206
    56         40
    57         15
    63          9
    64          8
    65         32
    66         75
    67        506
    68        226
    69        121
    70         14
    71          9
    75          9
    77         48
    78         18
    79         91
    80         69
    81        475
    82        981
    83         85
    84         13
    85          9
    91         34
    92         13
    93         45
    94         26
    95        211
    96         45
    97         16
    98          8
   103         10
   104          8
   105         15
   106         10
   107         22
   108         23
   109         33
   110        999
   111        130
   112         14
   115          9
   117          9
   119         10
   120          9
   121         19
   122         11
   123         11
   124         11
   125          9
   133          8
   134          8
   135         16
   136         10
   137          9
   138          9
   149         12
   150          9
   163         10
   191          9
   192         16
   193          9
   220         31
   221         12