##TITLE=Library Entry 49516
##JCAMP-DX=Revision 4.10 
##DATA TYPE=MASS SPECTRUM
##SAMPLE DESCRIPTION=R.T.HOLMAN,UNIVERSITY OF MINNESOTA
##NAMES=HP
##CAS NAME=17-Octadecen-14-ynoic acid, methyl ester
##MOLFORM=C19H32O2
##CAS REGISTRY NO=18202-19-2
##MP= -300
##BP= -300
##MW= 292
##$RETENTION INDEX=0
##$CONDENSED SPECTRUM=NO
##NPOINTS= 74
##XYDATA=(XY..XY) 1 
    27         40
    28         60
    29         70
    31         10
    39         50
    40         10
    41        220
    42         30
    43        133
    44         10
    45         10
    51         20
    52         20
    53         50
    54         40
    55        260
    56         20
    57         40
    59         80
    65         30
    66         60
    67        200
    68         60
    69        110
    70         10
    71         10
    73         20
    74        130
    75         20
    77        120
    78         60
    79        510
    80        999
    81        290
    82        100
    83         70
    84         10
    85         10
    87         70
    88         10
    91         90
    92         30
    93        220
    94        390
    95        160
    96         40
    97         40
    98         10
   101         10
   105         30
   106         10
   107        120
   108         60
   109         50
   110         10
   111         20
   115         10
   119         10
   121        110
   122         50
   123         20
   125         20
   133         10
   135         50
   136         20
   137         10
   143         10
   149         20
   150         10
   157         10
   163         10
   261         30
   262         10
   292          2