##TITLE=Library Entry 76642
##JCAMP-DX=Revision 4.10 
##DATA TYPE=MASS SPECTRUM
##SAMPLE DESCRIPTION=Japan AIST/NIMC Database- Spectrum MS-NW-7137
##NAMES=HP
##CAS NAME=2,4(1H,3H)-Pyrimidinedione, 5-chloro-
##MOLFORM=C4H3ClN2O2
##CAS REGISTRY NO=1820-81-1
##MP= -300
##BP= -300
##MW= 146
##$RETENTION INDEX=0
##$CONDENSED SPECTRUM=NO
##NPOINTS= 88
##XYDATA=(XY..XY) 1 
    12          9
    13          8
    14          2
    15          2
    16          5
    17          5
    18         22
    24          5
    25         16
    26         10
    27         52
    28        506
    29         19
    30          3
    32          1
    35         10
    36         25
    37          7
    38         68
    39         83
    40         87
    41         27
    42         18
    43         51
    44         61
    45          2
    47        105
    48        191
    49         37
    50         62
    51         15
    52          7
    53         35
    54         10
    55         12
    56          2
    57          2
    59          9
    60         93
    61          7
    62         40
    63          9
    64          7
    65          9
    66         11
    67         20
    68         16
    69          4
    70         45
    71          8
    72          1
    73         36
    74         86
    75         53
    76        693
    77         27
    78        217
    79          5
    81          1
    85          1
    86          1
    90          9
    92          3
    93          3
    94          1
    97          1
    99          1
   100          7
   101         15
   102         15
   103        999
   104         74
   105        309
   106         23
   107          1
   111          2
   112          1
   117          1
   118          1
   128         28
   129          2
   130          9
   131          1
   146        876
   147         49
   148        280
   149         15
   150          2