##TITLE=Library Entry 100102
##JCAMP-DX=Revision 4.10 
##DATA TYPE=MASS SPECTRUM
##SAMPLE DESCRIPTION=Chemical Concepts
##NAMES=HP
##CAS NAME=Benzamide, N-[(phenylamino)carbonyl]-
##MOLFORM=C14H12N2O2
##CAS REGISTRY NO=1821-33-6
##MP= -300
##BP= -300
##MW= 240
##$RETENTION INDEX=0
##$CONDENSED SPECTRUM=NO
##NPOINTS= 142
##XYDATA=(XY..XY) 1 
    26          3
    27         15
    28          6
    30          0
    35          0
    36          4
    37          5
    38         17
    39         72
    40         24
    41         15
    44         16
    45          0
    49          1
    50         35
    51        144
    52         25
    53          0
    54          0
    55          3
    56          2
    57         13
    58          2
    59          0
    60          0
    61          1
    62          4
    63         28
    64         50
    65        100
    66         19
    67          2
    68          0
    69          2
    70         18
    71          4
    72          0
    73          1
    74          6
    75         10
    76         21
    77        500
    78         41
    81          1
    82          0
    83          2
    84          0
    85          1
    87          0
    88          0
    90          4
    91        107
    92         47
    93        265
    94         19
    95          2
    96          0
    97          1
    98          0
    99          0
   100          0
   101          0
   102          1
   103          6
   104         27
   105        700
   106         52
   109          1
   110          0
   111          1
   112          0
   113          0
   115          1
   116          0
   117          0
   119        999
   120         83
   121         21
   122          7
   123          1
   124          0
   125          0
   127          1
   129          0
   130          0
   133          0
   134          1
   136          1
   137          0
   139          2
   140          1
   141          1
   143          0
   144          0
   145          0
   146          0
   148          0
   149          0
   151          0
   152          0
   153          2
   155          0
   158          0
   162          1
   163          0
   164          0
   165          1
   167          1
   168          1
   169          0
   178          0
   180          0
   181          0
   182          0
   183          0
   184          0
   189          0
   190          2
   191          3
   193          1
   194          0
   195          0
   196          1
   197          8
   198          4
   199          0
   201          0
   209          0
   211          0
   212          0
   215          0
   221          2
   222          0
   226          0
   228          0
   230          0
   237          3
   238          0
   240        573
   241         92
   242          9
   243          0