##TITLE=Library Entry 8110
##JCAMP-DX=Revision 4.10 
##DATA TYPE=MASS SPECTRUM
##SAMPLE DESCRIPTION=KONINKLIJKE SHELL LABORATORIUM AMSTERDAM
##NAMES=HP
##CAS NAME=2-Heptanone, 5-methyl-
##MOLFORM=C8H16O
##CAS REGISTRY NO=18217-12-4
##MP= -300
##BP= -300
##MW= 128
##$RETENTION INDEX=971
##$CONDENSED SPECTRUM=NO
##NPOINTS= 96
##XYDATA=(XY..XY) 1 
    12          1
    13          2
    14         16
    15        136
    16          3
    17          5
    18         17
    19          0
    20          0
    25          0
    26         19
    27        181
    28         69
    29        180
    30          5
    31          6
    32          4
    33          0
    34          0
    35          0
    37          2
    38          6
    39        103
    40         17
    41        197
    42         61
    43        999
    44         26
    45         10
    46          0
    47          0
    48          1
    49          0
    50          5
    51          9
    52          3
    53         22
    54          7
    55        116
    56         29
    57        106
    58        331
    59         93
    60          4
    61          0
    62          0
    63          1
    64          0
    65          2
    66          1
    67          5
    68          3
    69         42
    70        211
    71        290
    72         26
    73         17
    74         52
    75          5
    76          0
    77          1
    78          0
    79          1
    80          0
    81          3
    82          1
    83         10
    84          8
    85         10
    86          1
    87         40
    88         12
    89          1
    90          0
    91          0
    92          0
    93          0
    94          1
    95         44
    96          4
    97          3
    98          0
    99         14
   100          1
   101          0
   105          0
   109          2
   110          4
   111          1
   112          0
   113         19
   114          1
   127          0
   128         26
   129          3
   130          0