##TITLE=Library Entry 78645
##JCAMP-DX=Revision 4.10 
##DATA TYPE=MASS SPECTRUM
##SAMPLE DESCRIPTION=A.A.Kutin, Moscow, Russia
##NAMES=HP
##CAS NAME=Pyridine-3-carbonitrile, 4-trifluoromethyl-6-methyl-2-(2-oxo-2-ph
enylethylthio)-
##MOLFORM=C16H11F3N2OS
##CAS REGISTRY NO=182127-95-3
##MP= -300
##BP= -300
##MW= 336
##$RETENTION INDEX=0
##$CONDENSED SPECTRUM=NO
##NPOINTS= 181
##XYDATA=(XY..XY) 1 
    33          4
    34          6
    36          0
    37          3
    38          9
    39         39
    40         97
    41          8
    42          8
    43          5
    44         21
    45         39
    46         37
    47          3
    48          1
    50         41
    51        160
    52         13
    53          2
    54          0
    55          1
    56          1
    57          5
    58          2
    59          3
    60          1
    61          2
    62          8
    63         24
    64         12
    65         38
    66          3
    67          0
    69         23
    70          5
    71          1
    72          1
    73          1
    74          8
    75         14
    76         24
    77        456
    78         35
    79          2
    80          0
    81          3
    82          6
    83          3
    84          2
    85          0
    86          0
    87          3
    88          8
    89         12
    90          8
    91         35
    92          3
    93          1
    94          2
    95          1
    96          1
    97          0
    99          1
   100          2
   101          2
   102          3
   103          7
   105        999
   106         80
   107         10
   108          5
   109          2
   110          0
   111          0
   112          0
   113          3
   114          1
   115          1
   116          1
   117          1
   118          2
   119          1
   120          4
   121          6
   122          1
   123          1
   124          0
   125          0
   126          1
   127          0
   128          0
   130          0
   131          2
   132          3
   133          1
   134          4
   135          1
   136          0
   137          3
   138          6
   139          3
   140          2
   141          0
   144          0
   145          2
   146          1
   147          1
   148          0
   149          0
   150          0
   151          1
   152          0
   153          0
   154          1
   156          0
   157          0
   158          4
   159          1
   160          1
   161          0
   163          0
   164          1
   165          7
   166          1
   167          2
   168          0
   170          0
   171          1
   172          0
   173          2
   174          2
   176          1
   177          0
   182          0
   184          0
   185          3
   186          3
   187         14
   188          1
   189          0
   190          0
   191          0
   193          0
   197          1
   199          0
   200          0
   204          0
   210          0
   211          0
   212          0
   217          1
   218          3
   219          0
   228          0
   229          1
   230          0
   231         10
   232          1
   233          0
   234          0
   239          0
   253          0
   259          0
   268          0
   269          0
   274          0
   293          0
   295          0
   303          3
   304          0
   309          0
   315          2
   316          0
   317          4
   318          0
   319          0
   335          4
   336         33
   337          6
   338          2
   339          0