##TITLE=Library Entry 69779
##JCAMP-DX=Revision 4.10 
##DATA TYPE=MASS SPECTRUM
##SAMPLE DESCRIPTION=A.A.Kutin, Moscow, Russia
##NAMES=HP
##CAS NAME=Benzenamine, 3-nitro-N-(2-thienylmethyl)-
##MOLFORM=C11H10N2O2S
##CAS REGISTRY NO=18210-24-7
##MP= -300
##BP= -300
##MW= 234
##$RETENTION INDEX=0
##$CONDENSED SPECTRUM=NO
##NPOINTS= 98
##XYDATA=(XY..XY) 1 
    33          4
    34          1
    37         14
    38         47
    39         90
    40         15
    41         10
    42          1
    43          0
    45        165
    46         20
    47         10
    48          3
    50         70
    51         56
    52         48
    53         90
    54          6
    55          0
    57         24
    58         32
    59          4
    60          1
    61          8
    62         29
    63        105
    64         99
    65         36
    66          4
    67          0
    69         36
    70         17
    71         16
    72          1
    73          2
    74         20
    75         24
    76         52
    77         21
    78         12
    79          7
    80          4
    81          7
    82         13
    83          4
    84          8
    85          8
    86          1
    87          2
    88          2
    89          6
    90         12
    91         71
    92          9
    93          7
    94          3
    95         14
    97        999
    98         56
    99         42
   100          0
   101          0
   102          3
   103          4
   104         13
   105         14
   106          1
   108          0
   109          0
   110          9
   111          0
   115          6
   116          2
   117          1
   121          1
   122          0
   127          1
   128          2
   136          0
   137          2
   142          0
   149          0
   151          1
   153          0
   154          3
   159          0
   160          0
   173          0
   185          0
   186          2
   187          4
   188          0
   204          0
   232          0
   233          0
   234         49
   235          6
   236          1