##TITLE=Library Entry 77060
##JCAMP-DX=Revision 4.10 
##DATA TYPE=MASS SPECTRUM
##SAMPLE DESCRIPTION=Japan AIST/NIMC Database- Spectrum MS-NW-3888
##NAMES=HP
##CAS NAME=Benzenebutanoic acid
##MOLFORM=C10H12O2
##CAS REGISTRY NO=1821-12-1
##MP= -300
##BP= -300
##MW= 164
##$RETENTION INDEX=1413
##$CONDENSED SPECTRUM=NO
##NPOINTS= 82
##XYDATA=(XY..XY) 1 
    15          2
    18          1
    26          4
    27         26
    28          4
    29          5
    37          2
    38          7
    39         64
    40          5
    41         31
    42          6
    43          5
    44          1
    45         18
    49          1
    50         17
    51         47
    52         13
    53          5
    55         14
    56          4
    57          6
    58          4
    59          2
    60         85
    61          4
    62          9
    63         27
    64          7
    65        108
    66          7
    67          1
    69          1
    73          9
    74          7
    75          5
    76          4
    77         43
    78         59
    79         24
    80          1
    81          1
    82          1
    83          3
    85          1
    86          2
    87          2
    88          2
    89         19
    90         11
    91        555
    92         58
    93          3
   102          6
   103         43
   104        999
   105        400
   106         31
   107          6
   108          2
   111          2
   115         22
   116          6
   117         28
   118         18
   119          4
   121          1
   127          4
   128          1
   129          1
   130          2
   131          1
   134          2
   145          1
   146         91
   147         16
   148          1
   162          4
   164        208
   165         23
   166          2