##TITLE=Library Entry 2616
##JCAMP-DX=Revision 4.10 
##DATA TYPE=MASS SPECTRUM
##SAMPLE DESCRIPTION=Scientific Instruments & Applications
##NAMES=HP
##CAS NAME=Heptanenitrile, 7-oxo-
##MOLFORM=C7H11NO
##CAS REGISTRY NO=18214-15-8
##MP= -300
##BP= -300
##MW= 125
##$RETENTION INDEX=0
##$CONDENSED SPECTRUM=NO
##NPOINTS= 42
##XYDATA=(XY..XY) 1 
    38         62
    39        453
    40        108
    41        999
    42        179
    43        200
    44        238
    45          8
    48          2
    49          4
    50         24
    51         40
    52         42
    53         71
    54        928
    55        408
    56         35
    57         91
    58          2
    61          1
    62          2
    63          6
    64         10
    65         11
    66         14
    67         50
    68         83
    69        136
    70         12
    71          2
    77          3
    79          7
    80          8
    82        351
    83         26
    85          5
    94          1
    95          1
    96         58
    97         18
    98          1
   125          1