##TITLE=Library Entry 32887
##JCAMP-DX=Revision 4.10 
##DATA TYPE=MASS SPECTRUM
##SAMPLE DESCRIPTION=Chemical Concepts
##NAMES=HP
##CAS NAME=Thiophene, 2,5-dihydro-3,4-dimethyl-, 1,1-dioxide
##MOLFORM=C6H10O2S
##CAS REGISTRY NO=18214-56-7
##MP= -300
##BP= -300
##MW= 146
##$RETENTION INDEX=0
##$CONDENSED SPECTRUM=NO
##NPOINTS= 71
##XYDATA=(XY..XY) 1 
    26         23
    27        224
    28         44
    29         53
    31          2
    33          1
    34          2
    37         18
    38         54
    39        659
    40        133
    41        527
    42        101
    43         42
    44          8
    45         26
    46          4
    47          4
    48         24
    49          4
    50         37
    51         74
    52         34
    53        144
    54        336
    55         59
    56         16
    57          2
    58          4
    59          6
    60          1
    61          5
    62          9
    63         23
    64         45
    65         94
    66         24
    67        999
    68         60
    69          7
    70          2
    71          4
    72          1
    73          2
    74          3
    75          1
    77         26
    78          4
    79         76
    80          8
    81         78
    82        874
    83         60
    84          2
    85          2
    91          2
    93          2
    97          7
    98          1
    99          5
   105          1
   107          2
   111          3
   112          2
   113          2
   114          2
   115          1
   146        509
   147         39
   148         23
   149          2