##TITLE=Library Entry 72849
##JCAMP-DX=Revision 4.10 
##DATA TYPE=MASS SPECTRUM
##SAMPLE DESCRIPTION=Japan AIST/NIMC Database- Spectrum MS-NW-1831
##NAMES=HP
##CAS NAME=5-n-Propylhydantoin
##MOLFORM=C6H10N2O2
##CAS REGISTRY NO=18227-41-3
##MP= -300
##BP= -300
##MW= 142
##$RETENTION INDEX=0
##$CONDENSED SPECTRUM=NO
##NPOINTS= 53
##XYDATA=(XY..XY) 1 
    14          2
    15         32
    16          3
    17          2
    18          7
    26         12
    27        118
    28        270
    29         61
    30         15
    37          3
    38          6
    39         45
    40         11
    41        104
    42         39
    43        497
    44         61
    45         23
    50          2
    51          3
    52          3
    53          6
    54         14
    55         13
    56         99
    57         41
    58          1
    59          1
    68          4
    69          4
    70         24
    71         11
    72         21
    73          2
    82         11
    83          2
    84          3
    85          2
    86          1
    96          1
    97          1
    98          2
    99        109
   100        999
   101         41
   102          5
   113         32
   114          6
   125          1
   140          3
   142          8
   143          1