##TITLE=Library Entry 63803
##JCAMP-DX=Revision 4.10 
##DATA TYPE=MASS SPECTRUM
##SAMPLE DESCRIPTION=Japan AIST/NIMC Database- Spectrum MS-IW-5190
##NAMES=HP
##CAS NAME=trans-2,2'-Bis(benzyloxy)-5-hexylstilbene
##MOLFORM=C34H36O2
##CAS REGISTRY NO=18221-52-8
##MP= -300
##BP= -300
##MW= 476
##$RETENTION INDEX=0
##$CONDENSED SPECTRUM=NO
##NPOINTS= 198
##XYDATA=(XY..XY) 1 
    26          1
    27          4
    28          3
    29          5
    37          1
    38          1
    39         11
    40          1
    41         10
    42          2
    43         27
    44          1
    45          1
    46          1
    50          3
    51          6
    52          2
    53          2
    55          7
    56          1
    57          6
    61          1
    62          2
    63          8
    64          2
    65         39
    66          2
    67          1
    69          2
    71          1
    74          1
    75          1
    76          1
    77          7
    78          3
    79          2
    81          1
    82          1
    83          1
    85          4
    88          1
    89          9
    90          6
    91        999
    92        107
    93          5
    94          2
    95          1
    97          2
   101          1
   102          1
   103          2
   104          1
   105          6
   106          2
   107         24
   108          3
   111          1
   115          6
   116          1
   117          1
   118          2
   119          3
   120          1
   121         11
   122          1
   123          1
   126          1
   127          2
   128          3
   129          1
   131          6
   132          1
   133          5
   134          1
   135          1
   139          2
   141          3
   142          1
   144          1
   145          1
   147          1
   150          1
   151          3
   152         16
   153          5
   154          1
   155          2
   157          1
   163          1
   164          1
   165         23
   166          9
   167         16
   168          4
   169          1
   176          3
   177          6
   178         11
   179          9
   180          6
   181         10
   182          3
   183          9
   184          2
   189          4
   190          2
   191         13
   192          3
   193          2
   194         16
   195         27
   196          6
   197          7
   198          1
   202          3
   203          2
   204          1
   205          5
   206          2
   207         20
   208          8
   209          8
   210          4
   211          4
   215          1
   217          1
   218          1
   219          3
   220          2
   221          5
   222          3
   223        134
   224         41
   225          8
   226          1
   235          1
   236          2
   237          7
   238          1
   239          1
   249          1
   250          1
   251          2
   252          2
   253          1
   255          1
   263          2
   264          1
   265          4
   266          2
   267         10
   268          4
   269          1
   273          1
   274          1
   277          1
   278          8
   279         14
   280          6
   281          4
   282          2
   283          1
   284          1
   285          4
   286          3
   287          1
   291          3
   292          3
   293         13
   294         56
   295         32
   296          8
   297          2
   298          1
   299          1
   301          2
   305          1
   307         26
   308          8
   309          2
   313          2
   314          1
   340          1
   357          3
   358          1
   368          1
   369          2
   370          1
   371          1
   383          1
   384          5
   385         32
   386         13
   387          3
   476         23
   477          9
   478          2