##TITLE=Library Entry 109316
##JCAMP-DX=Revision 4.10 
##DATA TYPE=MASS SPECTRUM
##SAMPLE DESCRIPTION=NIST Mass Spectrometry Data Center
##NAMES=HP
##CAS NAME=2-Hexynyl aldehyde diethyl acetal
##MOLFORM=C10H18O2
##CAS REGISTRY NO=18229-78-2
##MP= -300
##BP= -300
##MW= 170
##$RETENTION INDEX=0
##$CONDENSED SPECTRUM=NO
##NPOINTS= 71
##XYDATA=(XY..XY) 1 
    14          3
    15         23
    16          2
    19          3
    26         13
    27        131
    29        231
    30          9
    31         19
    37          3
    38         14
    39        112
    40         25
    41        274
    42         18
    43        132
    44          6
    45         20
    46          1
    47         24
    50         11
    51         29
    52         13
    53         47
    54          6
    55        123
    56          5
    57         19
    58          1
    62          2
    63          6
    64          1
    65         21
    66         14
    67         58
    68         73
    69         30
    70          4
    71          6
    73          2
    75         10
    77         31
    78          4
    79         38
    80          3
    81         30
    82          4
    83         11
    84          2
    85         10
    86          2
    91          1
    93          1
    95         31
    97        576
    98         39
    99         11
   103          6
   109          2
   111          1
   113         37
   114          2
   122          1
   123          2
   125        999
   126         88
   127         14
   141         24
   142          2
   169         14
   170          1