##TITLE=Library Entry 27478
##JCAMP-DX=Revision 4.10 
##DATA TYPE=MASS SPECTRUM
##SAMPLE DESCRIPTION=Chemical Concepts
##NAMES=HP
##CAS NAME=Phosphine, chloro(2,4,6-triisopropylphenyl)(2,4,6-tri-t-butylphen
yl)-
##MOLFORM=C33H52ClP
##CAS REGISTRY NO=182227-66-3
##MP= -300
##BP= -300
##MW= 514
##$RETENTION INDEX=0
##$CONDENSED SPECTRUM=NO
##NPOINTS= 343
##XYDATA=(XY..XY) 1 
    29        144
    30          3
    36          5
    38          1
    39          8
    41        242
    42          8
    43        227
    44          6
    45          0
    50          0
    51          1
    53          7
    54          0
    55         43
    56          1
    57        999
    58         44
    61          1
    63          1
    65          4
    67          7
    68          0
    69         11
    70          1
    71          2
    73          0
    75          0
    77          8
    78          2
    79          9
    81          4
    83          4
    85          1
    88          0
    89          0
    91         49
    92          5
    93          4
    95          2
    97          2
   101          0
   102          1
   103          4
   104          2
   105         30
   106          3
   107          3
   109          4
   111          0
   115         23
   116         13
   117         28
   118          4
   119         16
   120          1
   121          3
   123          2
   127          5
   128         24
   129         30
   130         11
   131         32
   132          5
   133         22
   134          5
   135          5
   136          0
   139          0
   141         14
   142         19
   143         24
   144          8
   145         26
   146          5
   147         41
   148         12
   149        106
   150         11
   151          3
   152          2
   153          4
   154          3
   155          8
   156          8
   157         11
   158          4
   159         14
   160          4
   161         11
   162          3
   163         13
   164         11
   165          3
   166          0
   167          3
   168          2
   169          4
   170          4
   171          8
   172          3
   173         26
   174          7
   175         21
   176          7
   177          6
   178          5
   179          1
   181          1
   182          0
   183          4
   184          2
   185          6
   186          2
   187         22
   188          8
   189         22
   190          5
   191         87
   192         12
   193          3
   195          0
   196          0
   197          2
   198          1
   199          3
   200          1
   201          6
   202          5
   203         58
   204          9
   205         14
   206          3
   207          3
   208          0
   209          1
   210          1
   211          2
   212          0
   213          2
   214          0
   215         17
   216          6
   217        135
   218         32
   219         21
   220         45
   221         13
   222          2
   223          2
   224          1
   225          2
   226          2
   227          5
   228          2
   229         12
   230          3
   233        162
   234         29
   235          7
   236          2
   237          3
   239          4
   240          3
   241          1
   242          3
   243          4
   244          4
   245         25
   247          2
   249          3
   250          0
   251          3
   253         14
   254          6
   255          6
   256          2
   257          1
   259         11
   260          5
   261         31
   262          7
   263          4
   264          0
   265          1
   266          0
   267          6
   268         17
   269        685
   270        119
   271        228
   272         37
   273          6
   274          1
   275         18
   276         40
   277         11
   278          1
   279          1
   281          3
   282          0
   283          2
   285          0
   291          2
   292          1
   293          3
   294          0
   295          9
   296         14
   297         84
   298         20
   299         27
   300          4
   301          0
   303          0
   305          1
   307          3
   308          0
   309          2
   310         20
   311         46
   312         15
   313         16
   314          2
   317          0
   319          0
   321          1
   322          0
   323          2
   324          1
   333          0
   335          2
   336          0
   337          2
   345          0
   347          1
   349          2
   350          2
   351          2
   352          0
   357          0
   359          2
   361          2
   363          3
   364          1
   365          5
   366          1
   371          0
   373          1
   375          3
   376          1
   377          3
   378          1
   379         13
   380          4
   381          0
   385          0
   387          0
   389          2
   390          1
   391          9
   392          4
   393         12
   394          4
   395          0
   399          0
   400          0
   401          4
   402          1
   403          3
   404          0
   405          8
   406          6
   407          9
   408          4
   411          0
   413          0
   415          4
   416          1
   417          3
   418          0
   419          3
   420          2
   421         45
   422         18
   423          6
   424          2
   425          1
   427          1
   428          0
   429          0
   431          2
   433          4
   434          1
   435         45
   436         23
   437          7
   438          1
   441          3
   442          1
   443          2
   445          1
   447          5
   448          2
   449         10
   450          4
   451          0
   453          0
   455          2
   456          0
   457        380
   458        129
   459        148
   460         42
   461          8
   462          1
   463         57
   464         21
   465          4
   471         55
   472         18
   473         20
   474          6
   475          0
   477         16
   478        130
   479        374
   480        133
   481         22
   482          2
   483          0
   493          0
   495          1
   499          5
   500          1
   501          1
   513         31
   514        351
   515        147
   516        141
   517         47
   518          7
   519          0