##TITLE=Library Entry 96914
##JCAMP-DX=Revision 4.10 
##DATA TYPE=MASS SPECTRUM
##SAMPLE DESCRIPTION=A.A.Kutin, Moscow, Russia
##NAMES=HP
##CAS NAME=2-Propenenitrile, 3-amino-3-phenyl-
##MOLFORM=C9H8N2
##CAS REGISTRY NO=1823-99-0
##MP= -300
##BP= -300
##MW= 144
##$RETENTION INDEX=0
##$CONDENSED SPECTRUM=NO
##NPOINTS= 76
##XYDATA=(XY..XY) 1 
    33          0
    34          1
    37         71
    38        173
    39        353
    40        291
    41        148
    42        103
    43         10
    44          6
    46          3
    48          1
    49         42
    50        399
    51        625
    52        243
    53         45
    54         18
    55          4
    57          2
    58         26
    60          2
    61         52
    62         93
    63        190
    64         70
    65         87
    66        171
    67        146
    68          2
    71          0
    72         11
    73         32
    74        143
    75        133
    76        173
    77        477
    78        241
    79         52
    80          4
    84          4
    85         11
    86         20
    87         32
    88         41
    89        266
    90        208
    91         42
    92          8
    93          3
    97          1
    98         10
    99         20
   100         39
   101         29
   102         45
   103         96
   104        481
   105         42
   111          1
   112          0
   114         21
   115         27
   116        237
   117        999
   118         93
   119          4
   123          1
   127         25
   129        211
   130         18
   142         10
   143         52
   144        592
   145         65
   146          3