##TITLE=Library Entry 96685
##JCAMP-DX=Revision 4.10 
##DATA TYPE=MASS SPECTRUM
##SAMPLE DESCRIPTION=Japan AIST/NIMC Database- Spectrum MS-NW-4643
##NAMES=HP
##CAS NAME=Benzeneacetonitrile, .alpha.-methyl-
##MOLFORM=C9H9N
##CAS REGISTRY NO=1823-91-2
##MP= -300
##BP= -300
##MW= 131
##$RETENTION INDEX=1227
##$CONDENSED SPECTRUM=NO
##NPOINTS= 66
##XYDATA=(XY..XY) 1 
    14          2
    15          9
    26          6
    27         21
    28          3
    37          9
    38         13
    39         54
    40          4
    41          4
    42          2
    43         15
    44          4
    45          5
    49          5
    50         44
    51        102
    52         23
    53          6
    54          2
    57          1
    59          3
    60          4
    61          8
    62         16
    63         46
    64         16
    65         19
    66          4
    73          3
    74         14
    75         14
    76         17
    77         94
    78         48
    79         11
    85          2
    86          3
    87          6
    88         11
    89        105
    90         31
    91         14
    92          1
    94          1
    98          1
    99          1
   100          1
   101          5
   102         14
   103         68
   104         75
   105         28
   106          2
   114          6
   115          8
   116        999
   117         93
   118          5
   127          1
   128          6
   129          5
   130         42
   131        344
   132         36
   133          2