##TITLE=Library Entry 48565
##JCAMP-DX=Revision 4.10 
##DATA TYPE=MASS SPECTRUM
##SAMPLE DESCRIPTION=NIST Mass Spectrometry Data Center, 1994
##NAMES=HP
##CAS NAME=Salicylidene 2-aminopyridine
##MOLFORM=C12H10N2O
##CAS REGISTRY NO=1823-47-8
##MP= -300
##BP= -300
##MW= 198
##$RETENTION INDEX=0
##$CONDENSED SPECTRUM=NO
##NPOINTS= 101
##XYDATA=(XY..XY) 1 
    13          0
    14          1
    15          1
    17          1
    18          3
    25          1
    26         20
    27         64
    28         59
    29          4
    37         19
    38         57
    39        154
    40         24
    41         14
    42          2
    43          0
    44          1
    46          0
    50         80
    51        277
    52        251
    53         49
    54          3
    55          4
    58          3
    61          6
    62         17
    63         55
    64         49
    65         63
    66         18
    67         11
    68          1
    71          5
    72          8
    73          1
    74         10
    75         18
    76         25
    77         60
    78        219
    79        999
    80         84
    81          3
    84         16
    86          1
    87          3
    88          4
    89         11
    90         12
    91         35
    92         17
    93          4
    94          4
    99         16
   102         20
   103          4
   104          5
   105         19
   106          2
   113          1
   114          4
   115         19
   116         11
   117         10
   118          3
   119         12
   120         20
   121          2
   126          1
   127          5
   128          2
   129          2
   130          1
   131          1
   132          1
   140          4
   141          7
   142          9
   143         19
   144          3
   152          1
   153          2
   154          2
   155          2
   166          1
   167          3
   168         28
   169         72
   170         41
   171          5
   172          1
   179          2
   181        265
   182         38
   183          2
   197         60
   198        218
   199         29
   200          2