##TITLE=Library Entry 47135
##JCAMP-DX=Revision 4.10 
##DATA TYPE=MASS SPECTRUM
##SAMPLE DESCRIPTION=NIST Mass Spectrometry Data Center, 1994
##NAMES=HP
##CAS NAME=2-(Thiazolylazo)-p-cresol
##MOLFORM=C10H9N3OS
##CAS REGISTRY NO=1823-44-5
##MP= -300
##BP= -300
##MW= 219
##$RETENTION INDEX=0
##$CONDENSED SPECTRUM=NO
##NPOINTS= 112
##XYDATA=(XY..XY) 1 
    17          4
    18         14
    25          8
    26         77
    27        210
    28         29
    33         12
    37         36
    38        107
    39        556
    40        148
    41         82
    42         17
    43         98
    44         20
    45        303
    46         35
    47         20
    49         11
    50        123
    51        327
    52        209
    53        405
    54         56
    55        273
    56         26
    57        189
    58        266
    59         76
    60         19
    61         20
    62         33
    63        141
    64        100
    65        405
    66        197
    67         53
    68          9
    69          6
    70         17
    71         27
    72         11
    73         19
    75         21
    77        999
    78        498
    79        280
    80         22
    81         17
    82         10
    83         19
    84         56
    85         46
    86        127
    87         14
    88         10
    89         20
    90         13
    91         55
    92        103
    93         39
    94         10
    96         13
    98         14
    99         28
   100         48
   102          6
   103          8
   105        217
   107        931
   108         71
   110         15
   112         15
   117          7
   118        106
   119         17
   120         28
   121         14
   122         13
   123         26
   127          8
   130         10
   132          9
   133         25
   134         38
   135        127
   136         28
   137         19
   138         10
   146         21
   147         10
   148        134
   149         16
   150         59
   151          9
   162        217
   163         65
   164         21
   165         28
   174         32
   176         24
   190        205
   191        546
   192         60
   193         24
   202         11
   204         61
   205          8
   219        476
   220         61
   221         24
   222          2