##TITLE=Library Entry 81913
##JCAMP-DX=Revision 4.10 
##DATA TYPE=MASS SPECTRUM
##SAMPLE DESCRIPTION=Exported from NIST MS Search
##NAMES=HP
##CAS NAME=1,4-Benzoxazepin-5(2H)-one, 3,4-dihydro-3-phenyl-
##MOLFORM=C15H13NO2
##CAS REGISTRY NO=18237-57-5
##MP= -300
##BP= -300
##MW= 239
##$RETENTION INDEX=0
##$CONDENSED SPECTRUM=NO
##NPOINTS= 19
##XYDATA=(XY..XY) 1 
    39        130
    51        160
    65        130
    77        320
    91        130
   104        350
   105        999
   106        480
   118        190
   119        290
   121        350
   134        480
   135        350
   148         25
   161         20
   181         30
   210         20
   220         20
   239        864