##TITLE=Library Entry 21349
##JCAMP-DX=Revision 4.10 
##DATA TYPE=MASS SPECTRUM
##SAMPLE DESCRIPTION=J.D.DESMARCHELIER UNIV. OF MELBOURNE, MELBOURNE, AUSTRA
LIA
##NAMES=HP
##CAS NAME=1H-1,3-Diazepine, 4,5,6,7-tetrahydro-2-methyl-
##MOLFORM=C6H12N2
##CAS REGISTRY NO=18237-68-8
##MP= -300
##BP= -300
##MW= 112
##$RETENTION INDEX=0
##$CONDENSED SPECTRUM=NO
##NPOINTS= 10
##XYDATA=(XY..XY) 1 
    42        399
    43        107
    55        999
    56        130
    70        149
    83         97
    84        131
   111         91
   112        612
   113         61