##TITLE=Library Entry 42254
##JCAMP-DX=Revision 4.10 
##DATA TYPE=MASS SPECTRUM
##SAMPLE DESCRIPTION=Japan AIST/NIMC Database- Spectrum MS-NW-7585
##NAMES=HP
##CAS NAME=Silane, (bromomethyl)trimethyl-
##MOLFORM=C4H11BrSi
##CAS REGISTRY NO=18243-41-9
##MP= -300
##BP= -300
##MW= 166
##$RETENTION INDEX=0
##$CONDENSED SPECTRUM=NO
##NPOINTS= 84
##XYDATA=(XY..XY) 1 
    14          1
    15          7
    26          2
    27          9
    28          9
    29         40
    30          3
    31         10
    32          1
    39          2
    40          1
    41          8
    42         29
    43        105
    44         31
    45        116
    46          8
    47          4
    52          2
    53         18
    54          5
    55         19
    56          4
    57         13
    58          9
    59         40
    60          2
    61          1
    65          2
    66          3
    67          2
    69          1
    70          2
    71          7
    72         25
    73        999
    74         89
    75         39
    76          1
    79          2
    80          3
    81          1
    82          2
    93          3
    95          3
   107         35
   108          4
   109         42
   110          6
   111         12
   112          1
   117          1
   119          1
   120          1
   121          6
   122         14
   123        296
   124         28
   125        303
   126         18
   127          9
   131          1
   133          9
   134          1
   135          1
   136          1
   137         13
   138          2
   139         12
   140          1
   145          1
   147         22
   148          3
   149          2
   150          1
   151        152
   152         13
   153        178
   154         16
   155          8
   166         11
   167          1
   168         12
   169          1