##TITLE=Library Entry 76466
##JCAMP-DX=Revision 4.10 
##DATA TYPE=MASS SPECTRUM
##SAMPLE DESCRIPTION=NIST Mass Spectrometry Data Center, 2008
##NAMES=HP
##CAS NAME=Formic acid, TMS derivative
##MOLFORM=C4H10O2Si
##CAS REGISTRY NO=18243-21-5
##MP= -300
##BP= -300
##MW= 118
##$RETENTION INDEX=612
##$CONDENSED SPECTRUM=NO
##NPOINTS= 45
##XYDATA=(XY..XY) 1 
    15         14
    26          3
    27          9
    28         13
    29         53
    30          4
    31          7
    39          1
    41          6
    42         22
    43         92
    44         24
    45        274
    46         21
    47        138
    48          7
    49          5
    51          2
    53         15
    54          4
    55         13
    56          5
    57          9
    58         16
    59         62
    60         18
    61         49
    62          3
    63          2
    65          1
    66          1
    67          1
    70          4
    71          3
    72         19
    73        108
    75        982
    76         76
    77         38
    78          1
    88          1
   103        999
   104         87
   105         41
   106          2