##TITLE=Library Entry 30971
##JCAMP-DX=Revision 4.10 
##DATA TYPE=MASS SPECTRUM
##SAMPLE DESCRIPTION=E. Zissis, LC, NIDDK, NIH, Bethesda, MD 20892
##NAMES=HP
##CAS NAME=Methyl-.beta.-D-thiogalactoside
##MOLFORM=C7H14O6
##CAS REGISTRY NO=1824-94-8
##MP= -300
##BP= -300
##MW= 194
##$RETENTION INDEX=0
##$CONDENSED SPECTRUM=NO
##NPOINTS= 50
##XYDATA=(XY..XY) 1 
    41         52
    42         99
    43        141
    44         53
    45        124
    46          5
    47         12
    53          8
    54          8
    55         63
    56        108
    57        412
    58         31
    59         81
    60        999
    61        279
    62         10
    68          2
    69         60
    70         58
    71        257
    72         29
    73        416
    74        358
    75         74
    77          2
    78         19
    85         40
    86         22
    87         53
    88          5
    89         15
    91         17
    97         52
    98         43
    99          9
   101          5
   103         49
   104         23
   106          6
   116         39
   117          8
   121         20
   124          8
   133         28
   134         18
   144         28
   145         36
   146          5
   163         18