##TITLE=Library Entry 69239
##JCAMP-DX=Revision 4.10 
##DATA TYPE=MASS SPECTRUM
##SAMPLE DESCRIPTION=NIST Mass Spectrometry Data Center, 1994
##NAMES=HP
##CAS NAME=Methyltrivinylsilane
##MOLFORM=C7H12Si
##CAS REGISTRY NO=18244-95-6
##MP= -300
##BP= -300
##MW= 124
##$RETENTION INDEX=0
##$CONDENSED SPECTRUM=NO
##NPOINTS= 66
##XYDATA=(XY..XY) 1 
    12          3
    13          3
    14          9
    15         13
    16          1
    25          5
    26         61
    27        167
    28        104
    29         94
    30         13
    31         12
    32          4
    37          4
    38          5
    39         46
    40          5
    41         17
    42         87
    43        390
    44         68
    45        515
    46         36
    47         14
    50          6
    51          6
    53        308
    54        110
    55        487
    56         64
    57        101
    58         18
    59         19
    60          3
    65         28
    66         59
    67         90
    68         39
    69        115
    70        222
    71        675
    72         71
    73         23
    77         19
    78         20
    79         39
    80         20
    81        183
    82         52
    83        491
    84         50
    85         21
    93          9
    95        157
    96        999
    97        289
    98         56
    99         11
   106          2
   107         17
   109        591
   110         73
   111         24
   122          2
   123         14
   124          2