##TITLE=Library Entry 97052
##JCAMP-DX=Revision 4.10 
##DATA TYPE=MASS SPECTRUM
##SAMPLE DESCRIPTION=NIST Mass Spectrometry Data Center
##NAMES=HP
##CAS NAME=3-Methyl-2-butanol, TMS derivative
##MOLFORM=C8H20OSi
##CAS REGISTRY NO=18246-76-9
##MP= -300
##BP= -300
##MW= 160
##$RETENTION INDEX=815
##$CONDENSED SPECTRUM=NO
##NPOINTS= 73
##XYDATA=(XY..XY) 1 
    15          2
    26          1
    27         16
    28          3
    29         13
    30          1
    31          2
    38          1
    39         16
    40          2
    41         35
    42          8
    43         70
    44         18
    45         79
    46          6
    47         26
    48          1
    49          1
    50          1
    51          4
    52          1
    53          6
    54          1
    55         19
    56          3
    57         10
    58         25
    59         45
    60          9
    61         36
    62          2
    63          1
    64          1
    65          1
    67          1
    69          2
    70          8
    71          8
    72         11
    73        727
    74         76
    75        368
    76         26
    77         13
    83          1
    85          3
    87         22
    88          3
    89          2
    99          2
   101         29
   102         17
   103          3
   104          1
   111          1
   113          1
   115          2
   117        999
   118        133
   119         48
   120          3
   127          1
   129          5
   130          1
   143          2
   145        195
   146         26
   147          8
   148          1
   159         12
   160          2
   161          1