##TITLE=Library Entry 67992
##JCAMP-DX=Revision 4.10 
##DATA TYPE=MASS SPECTRUM
##SAMPLE DESCRIPTION=RADIAN CORP
##NAMES=HP
##CAS NAME=Silane, bicyclo[2.2.1]hept-2-yltrichloro-
##MOLFORM=C7H11Cl3Si
##CAS REGISTRY NO=18245-29-9
##MP= -300
##BP= -300
##MW= 228
##$RETENTION INDEX=0
##$CONDENSED SPECTRUM=NO
##NPOINTS= 113
##XYDATA=(XY..XY) 1 
    15          3
    26         11
    27         89
    29         28
    35          1
    36          1
    37          6
    38         22
    39        305
    40         51
    41        204
    42         15
    43          4
    49          1
    50         22
    51         54
    52         34
    53        121
    54        145
    55         86
    56          5
    61          1
    62          9
    63        124
    64         14
    65        156
    66        129
    67        956
    68        309
    69         18
    73          4
    75          3
    77         78
    78         17
    79         71
    80         14
    81         48
    82          4
    88          1
    89          5
    90          3
    91         41
    92          5
    93         44
    94         12
    95        999
    96         83
    98         48
    99         30
   100         36
   101         21
   102          9
   103          6
   109          3
   112          7
   113          3
   114          5
   115          9
   116          4
   117          4
   123         13
   124          2
   125         18
   126          3
   127          9
   129          4
   133        293
   134          9
   135        299
   136         20
   137        116
   138         10
   139         23
   140          3
   141          2
   149          3
   150          3
   151         24
   152          5
   153         16
   155          4
   162          2
   163         39
   164          7
   165         28
   166          4
   167          6
   177          4
   179          3
   186         13
   187         47
   188         18
   189         47
   190          9
   191         18
   192          2
   193          4
   198          4
   199        109
   200         44
   201        110
   202         42
   203         41
   204         14
   205          6
   213          9
   215          9
   217          3
   228         26
   229          5
   230         26
   231          4
   232          9