##TITLE=Library Entry 42456
##JCAMP-DX=Revision 4.10 
##DATA TYPE=MASS SPECTRUM
##SAMPLE DESCRIPTION=NIST Mass Spectrometry Data Center
##NAMES=HP
##CAS NAME=Neopentyl alcohol, TMS derivative
##MOLFORM=C8H20OSi
##CAS REGISTRY NO=18246-63-4
##MP= -300
##BP= -300
##MW= 160
##$RETENTION INDEX=778
##$CONDENSED SPECTRUM=NO
##NPOINTS= 76
##XYDATA=(XY..XY) 1 
    15          4
    26          1
    27         19
    28          5
    29         50
    30          2
    31          4
    38          1
    39         33
    40          5
    41         77
    42          9
    43         70
    44         17
    45        106
    46          8
    47         40
    48          2
    49          1
    50          2
    51         13
    52          1
    53         12
    54          3
    55         39
    56         39
    57        117
    58         61
    59         75
    60         15
    61         57
    62          4
    63          2
    65         12
    67          2
    69          4
    70          8
    71         12
    73        999
    74        106
    75        741
    76         57
    77         27
    78          1
    83          2
    85          5
    86          1
    87          6
    88         33
    89         77
    90          8
    91          3
    95          1
    97          1
    99          5
   101         48
   103        858
   104         93
   105        229
   106         20
   107          8
   111          1
   113          2
   115          2
   127          1
   129          5
   130          1
   143          2
   145        979
   146        135
   147         44
   148          3
   159          4
   160         11
   161          2
   162          1