##TITLE=Library Entry 99005
##JCAMP-DX=Revision 4.10 
##DATA TYPE=MASS SPECTRUM
##SAMPLE DESCRIPTION=Institute of Organic Chemistry, Novosibirsk, USSR 1988
##NAMES=HP
##CAS NAME=Diallylmethylchlorosilane
##MOLFORM=C7H13ClSi
##CAS REGISTRY NO=18245-11-9
##MP= -300
##BP= -300
##MW= 160
##$RETENTION INDEX=0
##$CONDENSED SPECTRUM=NO
##NPOINTS= 39
##XYDATA=(XY..XY) 1 
    39         68
    40          7
    41         80
    42         19
    43         98
    63        196
    64          9
    65         87
    66         18
    67         20
    78         37
    79        410
    80         49
    81        155
    82         21
    83        122
    84          8
    85         19
    91        115
    92         39
    93        140
    94         19
    95         42
    97         70
   101         38
   103         30
   105         19
   117         40
   118         97
   119        999
   120        121
   121        342
   122         28
   125         19
   132         50
   134         20
   145          7
   160         62
   162         20