##TITLE=Library Entry 46074
##JCAMP-DX=Revision 4.10 
##DATA TYPE=MASS SPECTRUM
##SAMPLE DESCRIPTION=Chemical Concepts
##NAMES=HP
##CAS NAME=1-Bromo-3,5-dinitrobenzene
##MOLFORM=C6H3BrN2O4
##CAS REGISTRY NO=18242-39-2
##MP= -300
##BP= -300
##MW= 246
##$RETENTION INDEX=0
##$CONDENSED SPECTRUM=NO
##NPOINTS= 205
##XYDATA=(XY..XY) 1 
    25          1
    26          3
    27          8
    28         45
    29          3
    30        420
    31          0
    33          0
    34          0
    35          0
    36          3
    37         33
    38         38
    39          7
    40          1
    41          3
    42          1
    43          2
    44          4
    45          2
    46          8
    47          0
    48          2
    49         12
    50         40
    51         13
    52          7
    53          5
    54          0
    55          2
    56          1
    57          2
    58          0
    59          0
    60          4
    61         29
    62         45
    63        174
    64         19
    65          7
    66          5
    67          0
    68          0
    69          1
    70          0
    71          1
    72          3
    73         60
    74        391
    75        999
    76         93
    77         15
    78          1
    79         10
    80          6
    81          3
    82          6
    83          1
    84          0
    85          1
    86          2
    87          6
    88          7
    89          3
    90          4
    91         39
    92          4
    93          2
    94          0
    95          1
    96          0
    97          1
    99          0
   100          0
   101          0
   103          1
   104          3
   105          2
   106          4
   107          2
   108          1
   109          0
   110          0
   111          0
   112          0
   113          0
   114          0
   115          0
   116          1
   117          7
   118          2
   119          6
   120          2
   121          0
   122          0
   123          0
   124          0
   125          0
   126          0
   127          0
   128          3
   129          3
   130          4
   131          4
   132          1
   133          1
   134          0
   135          0
   136          0
   137          0
   138          0
   139          0
   140          0
   141          3
   142          2
   143          4
   144          2
   145          0
   146          0
   147          0
   148          0
   149          4
   150          0
   151          0
   152          1
   153        133
   154         74
   155        137
   156         74
   157          7
   158          1
   159          0
   160          1
   161          0
   163          0
   164          0
   166          0
   167          0
   168          1
   169          1
   170         90
   171          6
   172         86
   173          5
   174          0
   175          0
   176          0
   177          0
   178          0
   179          0
   180          0
   181          0
   182          0
   183          0
   184          1
   185          1
   186          1
   187          0
   188          0
   189          0
   190          0
   191          0
   192          0
   193          0
   194          0
   195          0
   196          0
   197          0
   198          0
   199          0
   200         97
   201          7
   202         93
   203          6
   204          0
   205          0
   207          0
   208          0
   209          0
   210          0
   211          0
   212          0
   213          0
   214          0
   215          0
   216          1
   217          0
   218          1
   219          0
   221          0
   222          0
   224          0
   226          0
   228          0
   229          0
   230          5
   231          0
   232          5
   233          0
   234          1
   246        459
   247         31
   248        485
   249         28
   250          4