##TITLE=Library Entry 39753
##JCAMP-DX=Revision 4.10 
##DATA TYPE=MASS SPECTRUM
##SAMPLE DESCRIPTION=NIST Mass Spectrometry Data Center, 2013
##NAMES=HP
##CAS NAME=N-Ethylcathinone
##MOLFORM=C11H15NO
##CAS REGISTRY NO=18259-37-5
##MP= -300
##BP= -300
##MW= 177
##$RETENTION INDEX=1418
##$CONDENSED SPECTRUM=NO
##NPOINTS= 72
##XYDATA=(XY..XY) 1 
    15          5
    18         26
    26          3
    27         31
    28         47
    29         36
    30          7
    37          1
    38          2
    39          8
    40          3
    41          9
    42         63
    43         14
    44        408
    45         11
    49          1
    50         24
    51         79
    52          7
    53          3
    54          3
    55          7
    56         35
    57          5
    62          2
    63          4
    64          1
    65          3
    66          1
    68          1
    69          1
    70         23
    71          7
    72        999
    73         52
    74          8
    75          5
    76          9
    77        139
    78         13
    79          6
    80          1
    87          1
    89          2
    90          1
    91          8
    92          1
   102          1
   103          4
   104          2
   105         55
   106          7
   107          1
   115          4
   116          1
   117          4
   118          1
   130          1
   131          1
   132          8
   133          7
   134          8
   135          1
   143          1
   144          1
   146          1
   160          1
   161          1
   162          3
   176          1
   177          1