##TITLE=Library Entry 58375
##JCAMP-DX=Revision 4.10 
##DATA TYPE=MASS SPECTRUM
##SAMPLE DESCRIPTION=Japan AIST/NIMC Database- Spectrum MS-NW-2872
##NAMES=HP
##CAS NAME=Methanol, TMS derivative
##MOLFORM=C4H12OSi
##CAS REGISTRY NO=1825-61-2
##MP= -300
##BP= -300
##MW= 104
##$RETENTION INDEX=524
##$CONDENSED SPECTRUM=NO
##NPOINTS= 39
##XYDATA=(XY..XY) 1 
    15         12
    27          3
    28          9
    29         13
    30          2
    31         11
    32          2
    39          1
    41          2
    42          9
    43         57
    44         15
    45         43
    46          3
    47          4
    51          1
    53          5
    54          1
    55          5
    56          1
    57          4
    58         33
    59        487
    60         34
    61         21
    71          1
    72          3
    73         29
    74          3
    75         16
    76          1
    77          3
    88          6
    89        999
    90         84
    91         36
    92          1
   103          2
   104          8