##TITLE=Library Entry 64073
##JCAMP-DX=Revision 4.10 
##DATA TYPE=MASS SPECTRUM
##SAMPLE DESCRIPTION=Japan AIST/NIMC Database- Spectrum MS-IW-3274
##NAMES=HP
##CAS NAME=Alpha-(phenylseleno)toluene
##MOLFORM=C13H12Se
##CAS REGISTRY NO=18255-05-5
##MP= -300
##BP= -300
##MW= 248
##$RETENTION INDEX=0
##$CONDENSED SPECTRUM=NO
##NPOINTS= 60
##XYDATA=(XY..XY) 1 
    38          2
    39         23
    40          1
    41          6
    50         10
    51         25
    52          2
    62          3
    63         16
    64          5
    65         94
    66          5
    74          3
    75          4
    76          5
    77         33
    78          6
    80          2
    86          1
    87          1
    89         16
    90          6
    91        999
    92         73
    93          5
   103          1
   105          2
   106          1
   107          1
   113          1
   114          1
   115          3
   117          8
   119          1
   127          1
   128          1
   129          2
   130          1
   131          1
   152          4
   153          7
   154          9
   155         22
   156          5
   157         44
   158          4
   159          6
   165          9
   166          5
   167          4
   169          3
   171          1
   244         33
   245         33
   246         91
   247         11
   248        190
   249         27
   250         33
   251          5