##TITLE=Library Entry 97057
##JCAMP-DX=Revision 4.10 
##DATA TYPE=MASS SPECTRUM
##SAMPLE DESCRIPTION=NIST Mass Spectrometry Data Center
##NAMES=HP
##CAS NAME=2-Pentanol, TMS derivative
##MOLFORM=C8H20OSi
##CAS REGISTRY NO=1825-67-8
##MP= -300
##BP= -300
##MW= 160
##$RETENTION INDEX=833
##$CONDENSED SPECTRUM=NO
##NPOINTS= 74
##XYDATA=(XY..XY) 1 
    15          2
    26          1
    27         18
    28          4
    29         19
    30          1
    31          2
    38          1
    39         16
    40          2
    41         32
    42          9
    43         55
    44         16
    45         81
    46          6
    47         32
    48          2
    50          1
    51          2
    53          5
    54          1
    55         17
    56          2
    57          8
    58         20
    59         44
    60         10
    61         45
    62          3
    63          2
    65          1
    67          1
    69          2
    70          8
    71          7
    72         14
    73        624
    74         66
    75        507
    76         38
    77         18
    83          1
    85          3
    86          1
    87         17
    88          2
    89          2
    91          1
    97          1
    99          3
   101         29
   102         16
   103         29
   104          3
   105          1
   111          1
   113          1
   115          5
   117        999
   118        125
   119         46
   120          2
   129          7
   130          1
   131          2
   143          2
   145        306
   146         40
   147         13
   148          1
   159         12
   160          2
   161          1