##TITLE=Library Entry 97055
##JCAMP-DX=Revision 4.10 
##DATA TYPE=MASS SPECTRUM
##SAMPLE DESCRIPTION=NIST Mass Spectrometry Data Center
##NAMES=HP
##CAS NAME=2-Butanol, TMS derivative
##MOLFORM=C7H18OSi
##CAS REGISTRY NO=1825-66-7
##MP= -300
##BP= -300
##MW= 146
##$RETENTION INDEX=745
##$CONDENSED SPECTRUM=NO
##NPOINTS= 57
##XYDATA=(XY..XY) 1 
    15          4
    26          3
    27         25
    28          6
    29         41
    30          1
    31          3
    38          1
    39         13
    40          1
    41         16
    42          6
    43         48
    44         16
    45        100
    46          6
    47         25
    48          1
    51          8
    53          5
    54          1
    55         10
    56          5
    57         22
    58         29
    59         55
    60         12
    61         53
    62          1
    71          7
    72         11
    73        747
    74         81
    75        637
    76         42
    85          3
    87         25
    88          3
    89          2
    97          1
    99          4
   101         24
   102         18
   103          3
   113          1
   115          8
   117        999
   118        118
   119         45
   129          3
   131        396
   132         47
   133         17
   134          1
   145         17
   146          2
   147          1