##TITLE=Library Entry 12973
##JCAMP-DX=Revision 4.10 
##DATA TYPE=MASS SPECTRUM
##SAMPLE DESCRIPTION=F.DARLING INST. PAPER CHEM., APPLETON, WIS., USA
##NAMES=HP
##CAS NAME=.beta.-D-Glucopyranoside, 2-[(benzoyloxy)methyl]-4-hydroxyphenyl,
 pentaacetate
##MOLFORM=C30H32O14
##CAS REGISTRY NO=18265-35-5
##MP= -300
##BP= -300
##MW= 616
##$RETENTION INDEX=0
##$CONDENSED SPECTRUM=NO
##NPOINTS= 24
##XYDATA=(XY..XY) 1 
    43        999
    77         76
    81         68
    85         30
    94         26
    97         68
   103         38
   105        229
   109        453
   110         42
   122        125
   123         60
   127        167
   138         45
   139         76
   145         53
   169        790
   170         76
   211         30
   229         23
   244         38
   331        257
   332         45
   616          1