##TITLE=Library Entry 7744
##JCAMP-DX=Revision 4.10 
##DATA TYPE=MASS SPECTRUM
##SAMPLE DESCRIPTION=Chemical Concepts
##NAMES=HP
##CAS NAME=9-Octadecenoic acid (Z)-, 2-hydroxy-3-[(1-oxooctadecyl)oxy]propyl
 ester
##MOLFORM=C39H74O5
##CAS REGISTRY NO=18266-27-8
##MP= -300
##BP= -300
##MW= 622
##$RETENTION INDEX=0
##$CONDENSED SPECTRUM=NO
##NPOINTS= 286
##XYDATA=(XY..XY) 1 
    27        134
    28         46
    29        355
    30          9
    31         38
    32          3
    36          4
    37          2
    38          5
    39         81
    40         22
    41        662
    42        146
    43        999
    44         46
    45         31
    52          3
    53         42
    54        165
    55        932
    56        232
    57        973
    58         55
    59         27
    60        117
    61         49
    62          3
    65         13
    66         17
    67        327
    68        163
    69        678
    70        173
    71        450
    72         22
    73        153
    74         60
    75         30
    76          3
    77         11
    78          7
    79         63
    80         56
    81        329
    82        177
    83        543
    84        260
    85        268
    86         20
    87         48
    88          9
    89          3
    91         21
    92          8
    93         62
    94         38
    95        311
    96        168
    97        382
    98        483
    99        106
   100         17
   101         34
   102         13
   103          6
   104          2
   105         10
   106          5
   107         44
   108         40
   109        179
   110         87
   111        181
   112        181
   113         48
   114         17
   115         27
   116        147
   117         86
   118         12
   119         20
   120         10
   121         69
   122         29
   123        114
   124         61
   125         73
   126         48
   127         33
   128          7
   129        290
   130         30
   131         12
   133         21
   134         33
   135         61
   136         20
   137         97
   138         46
   139         39
   140         17
   141         23
   142          6
   143         29
   144          4
   145          3
   147         22
   148         14
   149         32
   150         15
   151         70
   152         51
   153         30
   154         25
   155         23
   156          3
   157         16
   158         15
   159          4
   161          8
   162          7
   163         16
   164         12
   165         43
   166         52
   167         26
   168         13
   169         22
   170          4
   171         42
   172         24
   173          9
   175          9
   177          9
   178          8
   179         20
   180         27
   181         13
   182          9
   183         14
   185        100
   186         13
   189          6
   190          3
   191          7
   192          5
   193         17
   194         14
   195         10
   196          5
   197          5
   199         17
   200          6
   203          5
   205          5
   206          3
   207         21
   208         12
   209         15
   210         13
   211          8
   213         17
   214          4
   217          3
   218          7
   220         20
   221         31
   222         20
   223          8
   224          7
   225          6
   226          3
   227         26
   228          9
   230          5
   234          5
   235         15
   236          8
   237          9
   238          3
   239         14
   240          7
   241         36
   242         24
   243          8
   245         15
   246         22
   247         30
   248          6
   249         11
   253         10
   254          4
   255         13
   256         25
   257          7
   258          3
   259          3
   260          3
   262         28
   263         44
   264        450
   265        310
   266         79
   267        328
   268         72
   269         14
   270          4
   279          3
   280          3
   281         10
   282          8
   283         12
   284         22
   285         22
   295         13
   296          3
   297         16
   298          8
   307          5
   309          5
   311          8
   312          4
   313          9
   314          3
   323          5
   324          5
   325         54
   326         14
   327         62
   328         16
   334          3
   335          4
   336          7
   337         39
   338        297
   339        364
   340        129
   341        815
   342        197
   343         23
   356          5
   357         11
   358          3
   359         37
   360          7
   380         25
   381         11
   382         23
   383         11
   393         21
   394          5
   395         24
   396          9
   435          4
   449         10
   450          6
   451         15
   452          6
   453          3
   492          3
   494          3
   505          5
   506          3
   507          6
   508          9
   522         10
   523          5
   530          3
   531          5
   533          3
   549          4
   561          7
   576          5
   579          4
   591          5
   599          2
   600          5
   601          7
   602         34
   603         48
   604        257
   605        163
   606         78
   607         52
   608         20
   609          6