##TITLE=Library Entry 45669
##JCAMP-DX=Revision 4.10 
##DATA TYPE=MASS SPECTRUM
##SAMPLE DESCRIPTION=Chemical Concepts
##NAMES=HP
##CAS NAME=2-Buten-1-ol, TMS derivative
##MOLFORM=C7H16OSi
##CAS REGISTRY NO=18269-32-4
##MP= -300
##BP= -300
##MW= 144
##$RETENTION INDEX=0
##$CONDENSED SPECTRUM=NO
##NPOINTS= 94
##XYDATA=(XY..XY) 1 
    25          3
    27         42
    28          7
    29         37
    30          1
    31          7
    37          0
    38          1
    39         31
    40          2
    41         15
    42          4
    43         45
    44         16
    45         84
    46          5
    47         41
    48          2
    49          2
    50          3
    51          5
    52          2
    53         14
    54          9
    55         38
    56          4
    57         20
    58         19
    59         47
    60         10
    61         37
    62          2
    63          1
    64          2
    65          2
    66          1
    67          1
    68          0
    69          5
    70          2
    71          4
    72          8
    73        423
    74         36
    75        999
    76         62
    77         31
    78          1
    79          1
    81          0
    82          0
    83          3
    84          0
    85         15
    86          2
    87          2
    88          5
    89          5
    90          0
    91          3
    92          0
    93          1
    94          0
    95          0
    96          0
    97          2
    98          0
    99         28
   100          3
   101         28
   102          3
   103          9
   104          3
   105          3
   106          1
   107          0
   108          0
   109          0
   111          3
   112          0
   113         15
   114          1
   117          2
   126          2
   127          2
   129        622
   130         65
   131         29
   132          2
   133          1
   143         13
   144        220
   145         27
   146          8