##TITLE=Library Entry 52690
##JCAMP-DX=Revision 4.10 
##DATA TYPE=MASS SPECTRUM
##SAMPLE DESCRIPTION=V.G.Zaikin,TIPS,Russian Acad.Sci.Moscow
##NAMES=HP
##CAS NAME=Chloroacetic acid, tridecyl ester
##MOLFORM=C15H29ClO2
##CAS REGISTRY NO=18277-85-5
##MP= -300
##BP= -300
##MW= 276
##$RETENTION INDEX=0
##$CONDENSED SPECTRUM=NO
##NPOINTS= 88
##XYDATA=(XY..XY) 1 
    29          9
    36          6
    37          6
    39         32
    40          9
    41        282
    42        132
    43        471
    44         26
    45          6
    49         52
    50         12
    51         19
    52          9
    53         29
    54         95
    55        719
    56        558
    57        698
    58         45
    59          5
    60          7
    61          8
    65         11
    66          7
    67        155
    68        319
    69        965
    70        668
    71        409
    72         19
    73          6
    76          6
    77        279
    78         12
    79         95
    80          6
    81         61
    82        439
    83        999
    84        565
    85        247
    86         11
    91          7
    93         13
    94         19
    95        139
    96        203
    97        779
    98        355
    99         79
   100          9
   101          6
   105          5
   106          5
   107         13
   109         18
   110         98
   111        352
   112        195
   113         55
   114          5
   118          3
   121          8
   123          8
   124         35
   125        169
   126         79
   127         32
   128          8
   133          9
   135          7
   137          9
   138         11
   139         35
   140         55
   141         25
   151          8
   152          8
   153         19
   154        158
   180         20
   181         17
   182        130
   183         54
   184          6
   227         30
   228          4