##TITLE=Library Entry 24967
##JCAMP-DX=Revision 4.10 
##DATA TYPE=MASS SPECTRUM
##SAMPLE DESCRIPTION=NIST Mass Spectrometry Data Center, 1990.
##NAMES=HP
##CAS NAME=5-Octadecanone
##MOLFORM=C18H36O
##CAS REGISTRY NO=18276-99-8
##MP= -300
##BP= -300
##MW= 268
##$RETENTION INDEX=0
##$CONDENSED SPECTRUM=NO
##NPOINTS= 52
##XYDATA=(XY..XY) 1 
    27        141
    29        438
    39         85
    41        742
    42        143
    43        620
    44         28
    53         36
    54         41
    55        378
    56        131
    57        999
    58        887
    59        123
    67         74
    68         34
    69        146
    70         53
    71        336
    72         94
    79         18
    81         76
    82         57
    83         87
    85        651
    86         39
    95        106
    96         84
    97         67
    98         26
    99         35
   100        251
   101        269
   102         15
   109         60
   110         28
   111         36
   113        125
   114         31
   123         27
   124         21
   127         45
   137         16
   138         17
   142         17
   155         12
   166         30
   169         18
   211        193
   212         31
   226         22
   239         16