##TITLE=Library Entry 89674
##JCAMP-DX=Revision 4.10 
##DATA TYPE=MASS SPECTRUM
##SAMPLE DESCRIPTION=J.Zhang ET AL.J.Mass Spectrom.,35,841(2000)
##NAMES=HP
##CAS NAME=1,1,4,4-Tetrakis(difluoroamino)cyclohexane
##MOLFORM=C6H8F8N4
##CAS REGISTRY NO=18273-26-2
##MP= -300
##BP= -300
##MW= 288
##$RETENTION INDEX=0
##$CONDENSED SPECTRUM=NO
##NPOINTS= 74
##XYDATA=(XY..XY) 1 
    15          7
    26         12
    27        113
    28         20
    29          7
    38          7
    39         83
    40         41
    41        137
    42         33
    45         26
    46         38
    47        104
    48         21
    51         70
    52         77
    53        120
    54        180
    55         26
    59        158
    60         26
    61          6
    64         12
    65        274
    66        145
    67        112
    68         21
    71         64
    72        102
    73         67
    74         21
    77         98
    78         98
    79         94
    80        137
    81         56
    83         63
    84         63
    85        276
    86         81
    88         15
    90         27
    91         34
    97         94
    98        233
    99         65
   100         32
   103         21
   105         28
   106         40
   107         40
   110         15
   111         55
   112        999
   113        115
   117         16
   118         66
   125         44
   127         34
   130         20
   131        733
   132        151
   133         11
   145         63
   146         16
   151        110
   152          6
   165         99
   183        185
   184         13
   198        223
   199         18
   236        612
   237         49