##TITLE=Library Entry 6121
##JCAMP-DX=Revision 4.10 
##DATA TYPE=MASS SPECTRUM
##SAMPLE DESCRIPTION=NIST Mass Spectrometry Data Center, 1990.
##NAMES=HP
##CAS NAME=7-Octadecanone
##MOLFORM=C18H36O
##CAS REGISTRY NO=18277-00-4
##MP= -300
##BP= -300
##MW= 268
##$RETENTION INDEX=0
##$CONDENSED SPECTRUM=NO
##NPOINTS= 53
##XYDATA=(XY..XY) 1 
    27        105
    28         35
    29        235
    39         69
    41        473
    42        140
    43        999
    44         32
    53         25
    54         32
    55        305
    56         77
    57        412
    58        423
    59        140
    67         64
    68         71
    69        113
    70         54
    71        370
    72         86
    79         11
    81         67
    82         50
    83         69
    84         33
    85        314
    86         67
    95        101
    96         63
    97         44
    98         16
    99         40
   100         29
   109         46
   110         43
   111         19
   113        338
   114         40
   123         15
   124         10
   127         25
   128         78
   129         95
   138         41
   140         15
   141         53
   142         11
   155         21
   183        162
   184         23
   198         22
   211         12