##TITLE=Library Entry 52691
##JCAMP-DX=Revision 4.10 
##DATA TYPE=MASS SPECTRUM
##SAMPLE DESCRIPTION=V.G.Zaikin,TIPS,Russian Acad.Sci.Moscow
##NAMES=HP
##CAS NAME=Chloroacetic acid, tetradecyl ester
##MOLFORM=C16H31ClO2
##CAS REGISTRY NO=18277-86-6
##MP= -300
##BP= -300
##MW= 290
##$RETENTION INDEX=2008
##$CONDENSED SPECTRUM=NO
##NPOINTS= 98
##XYDATA=(XY..XY) 1 
    29          9
    39         19
    40          7
    41        172
    42        106
    43        339
    44         18
    45          8
    48         39
    50          8
    51         15
    52          8
    53         18
    54         91
    55        659
    56        465
    57        667
    58         25
    59          3
    60          3
    61         19
    65          9
    66          8
    67        152
    68        249
    69        775
    70        571
    71        399
    72         26
    73          8
    76          9
    77        193
    78          8
    79         78
    80         15
    81         89
    82        393
    83        999
    84        449
    85        259
    86         18
    87          8
    90          8
    92          7
    93          3
    94         29
    95        148
    96        208
    97        722
    98        305
    99         69
   100          8
   101          7
   107         17
   109         19
   110         79
   111        365
   112        185
   113         55
   114          6
   121          8
   123         11
   124         48
   125        169
   126        139
   127         49
   128          7
   135          8
   137         12
   138         22
   139         52
   140         61
   141         32
   150          4
   151         10
   152         13
   153         15
   154         29
   155         22
   156          2
   160          2
   165          2
   166         28
   167          9
   168        114
   169         16
   182          1
   185          1
   191          2
   192          1
   193          1
   194         21
   195          9
   196         73
   197         55
   198          3
   241         12
   242          2