##TITLE=Library Entry 27997
##JCAMP-DX=Revision 4.10 
##DATA TYPE=MASS SPECTRUM
##SAMPLE DESCRIPTION=Exported from NIST MS Search
##NAMES=HP
##CAS NAME=Silacyclohexan-4-one, 1,1-dimethyl-
##MOLFORM=C7H14OSi
##CAS REGISTRY NO=18276-42-1
##MP= -300
##BP= -300
##MW= 142
##$RETENTION INDEX=0
##$CONDENSED SPECTRUM=NO
##NPOINTS= 50
##XYDATA=(XY..XY) 1 
    41         25
    42         80
    43        509
    44         70
    45        140
    46          5
    47         15
    53         55
    54         15
    55        115
    56         25
    57         45
    58        999
    59        325
    60         60
    61        100
    66          5
    67         45
    68          5
    69         10
    70         15
    71         75
    72         15
    73         10
    75         85
    76          5
    85         50
    86        345
    87        105
    88         20
    97         15
    99        160
   100         10
   101          5
   109          5
   111          8
   113         55
   114        120
   115         18
   116          5
   117          3
   125          8
   126          3
   127         38
   128          5
   129          3
   141         28
   142         85
   143         15
   144          5