##TITLE=Library Entry 77812
##JCAMP-DX=Revision 4.10 
##DATA TYPE=MASS SPECTRUM
##SAMPLE DESCRIPTION=Japan AIST/NIMC Database- Spectrum MS-IW- 775
##NAMES=HP
##CAS NAME=2-Benzyl-6-methyl-2-phenyl-2,3-dihydro-1,3-oxazin-4-one
##MOLFORM=C18H17NO2
##CAS REGISTRY NO=18275-00-8
##MP= -300
##BP= -300
##MW= 279
##$RETENTION INDEX=0
##$CONDENSED SPECTRUM=NO
##NPOINTS= 183
##XYDATA=(XY..XY) 1 
    13          1
    14          2
    15         10
    16          3
    17          7
    18          2
    25          2
    26          8
    27         16
    28         10
    29          6
    30          2
    36          2
    37          4
    38          7
    39         31
    40          9
    41         26
    42         27
    43        158
    44         28
    45         21
    46          1
    49          1
    50         16
    51         67
    52         13
    53          5
    54          1
    55          9
    56          9
    57          7
    58          6
    60          1
    61          2
    62          7
    63         24
    64          7
    65         60
    66          6
    67          4
    68          1
    69        163
    70          7
    71          6
    72          1
    73          1
    74          7
    75         10
    76         40
    77        272
    78         31
    79          3
    80          1
    81          4
    82         10
    83         21
    84        256
    85        130
    86          9
    87          4
    88          8
    89         87
    90         51
    91        238
    92        693
    93         56
    94          3
    95         11
    96         50
    97         21
    98          3
    99          2
   100          2
   101          2
   102          7
   103         35
   104        999
   105         97
   106          8
   107          1
   109          2
   110          1
   111          3
   112          1
   113          2
   114          2
   115         11
   116         24
   117         27
   118         14
   119          2
   120          3
   121          1
   122          5
   123          2
   124          1
   125          2
   126          3
   127          4
   128          6
   129          1
   130          5
   131          1
   134          1
   135          1
   137          1
   138          1
   139          8
   140          5
   141          3
   146          7
   147          1
   149          2
   150          5
   151         14
   152         38
   153          9
   154          3
   155          1
   158          9
   159          2
   160          3
   161          1
   162          1
   163          6
   164          8
   165         70
   166         24
   167         83
   168         14
   169          2
   174          1
   175          9
   176         33
   177         65
   178         84
   179         38
   180         56
   181          8
   182          1
   184          1
   187          2
   188        159
   189         20
   190          7
   191          9
   192         14
   193        107
   194        748
   195        952
   196        165
   197         14
   198          1
   202          1
   204          1
   206          2
   208          1
   209          1
   217          1
   218          2
   219          7
   220          4
   221         65
   222         14
   223          2
   235          1
   236        117
   237         23
   238          3
   241          1
   242          2
   243          4
   244          2
   245          1
   246          1
   260          1
   261          6
   262          1
   278          1
   279        109
   280         23
   281          3