##TITLE=Library Entry 47526
##JCAMP-DX=Revision 4.10 
##DATA TYPE=MASS SPECTRUM
##SAMPLE DESCRIPTION=J.H.BOWIE UNIVERSITY OF ADELAIDE, AUSTRALIA
##NAMES=HP
##CAS NAME=Azobenzene, 4,4''-methylenebis-
##MOLFORM=C25H20N4
##CAS REGISTRY NO=18277-98-0
##MP= -300
##BP= -300
##MW= 376
##$RETENTION INDEX=0
##$CONDENSED SPECTRUM=NO
##NPOINTS= 28
##XYDATA=(XY..XY) 1 
    39         70
    50         40
    51        200
    64         50
    65         50
    75         60
    76         40
    77        999
    78        100
    89        110
    90        100
   105        270
   106         40
   121         60
   139         40
   152         60
   165        560
   166        440
   167         90
   194        170
   228         30
   239         30
   241         30
   271        500
   272        110
   299         50
   376        400
   377        130