##TITLE=Library Entry 47127
##JCAMP-DX=Revision 4.10 
##DATA TYPE=MASS SPECTRUM
##SAMPLE DESCRIPTION=Exported from NIST MS Search
##NAMES=HP
##CAS NAME=Azobenzene, 4-bromo-2-methoxy-
##MOLFORM=C13H11BrN2O
##CAS REGISTRY NO=18277-96-8
##MP= -300
##BP= -300
##MW= 290
##$RETENTION INDEX=0
##$CONDENSED SPECTRUM=NO
##NPOINTS= 45
##XYDATA=(XY..XY) 1 
    27         56
    28         15
    37         36
    38         51
    39         90
    50        126
    51        359
    52         24
    61         24
    62         78
    63        345
    64         80
    65         24
    74         24
    75         90
    76        138
    77        999
    78        148
    79         24
    91         68
    92         17
    93        184
    94         24
   104         46
   105        333
   106        415
   107         46
   139         73
   140         15
   142         49
   144         51
   185         27
   187         24
   198         85
   199         29
   200         97
   201         32
   213        245
   214        109
   215        250
   216         32
   290        291
   291         73
   292        294
   293         49