##TITLE=Library Entry 77585
##JCAMP-DX=Revision 4.10 
##DATA TYPE=MASS SPECTRUM
##SAMPLE DESCRIPTION=Japan AIST/NIMC Database- Spectrum MS-IW- 769
##NAMES=HP
##CAS NAME=2-Ethyl-6-methyl-2-phenyl-2,3-dihydro-1,3-oxazin-4-one
##MOLFORM=C13H15NO2
##CAS REGISTRY NO=18275-01-9
##MP= -300
##BP= -300
##MW= 217
##$RETENTION INDEX=0
##$CONDENSED SPECTRUM=NO
##NPOINTS= 117
##XYDATA=(XY..XY) 1 
    13          1
    14          2
    15         13
    25          1
    26          8
    27         24
    28         32
    29         14
    30          9
    31          2
    37          3
    38          4
    39         18
    40          4
    41         20
    42         25
    43        221
    44          8
    45          1
    49          1
    50         21
    51         79
    52         19
    53          5
    54         15
    55         12
    56         41
    57          5
    58          5
    59          1
    62          2
    63          8
    64          5
    65         13
    66          4
    67          2
    68          1
    69        118
    70          4
    71          1
    73          1
    74          6
    75          8
    76         24
    77        246
    78         37
    79          9
    80          1
    82          1
    83          1
    84        175
    85        337
    86         15
    87          3
    89          7
    90          4
    91         27
    92          2
    93          1
    94          1
    97          1
   101          1
   102          8
   103         27
   104        999
   105        118
   106         12
   107          1
   114          1
   115         53
   116         19
   117         46
   118          9
   119          4
   120          2
   122          1
   127          1
   128          3
   129         10
   130         20
   131         11
   132        845
   133        231
   134        102
   135          9
   140          7
   141          1
   142          8
   143          1
   144          1
   145          2
   146         41
   147          5
   156         31
   157          5
   158          6
   159         23
   160         63
   161          7
   172          6
   173          2
   174        750
   175        136
   176         11
   187          2
   188         96
   189         12
   190          2
   198          2
   199          2
   200          1
   202         16
   203          2
   216          2
   217        121
   218         22
   219          2