##TITLE=Library Entry 46603
##JCAMP-DX=Revision 4.10 
##DATA TYPE=MASS SPECTRUM
##SAMPLE DESCRIPTION=A.A.Kutin, Moscow, Russia
##NAMES=HP
##CAS NAME=Pyridazine-3,5-dicarbonitrile, 1,6-dihydro-4-benzyl-6-oxo-1-pheny
l-
##MOLFORM=C19H12N4O
##CAS REGISTRY NO=182752-95-0
##MP= -300
##BP= -300
##MW= 312
##$RETENTION INDEX=0
##$CONDENSED SPECTRUM=NO
##NPOINTS= 230
##XYDATA=(XY..XY) 1 
    33          1
    34          1
    36          1
    37          7
    38         25
    39         95
    40         23
    41         25
    42          3
    43          8
    44          5
    45          1
    46          0
    50         68
    51        309
    52         32
    53          6
    54          1
    55          4
    56          2
    57          6
    59          0
    60          0
    61          4
    62         18
    63         63
    64         63
    65        128
    66         10
    67          2
    68          1
    69          3
    70          1
    71          3
    72          0
    73          1
    74         14
    75         22
    77        999
    78         64
    79          3
    80          1
    81          1
    82          1
    83          2
    84          1
    85          2
    86          3
    87          7
    88         13
    89         23
    90         18
    91        177
    92        253
    93         33
    94          3
    95          1
    96          0
    97          1
    98          1
    99          4
   100          5
   101          8
   102          9
   103          7
   104          7
   105         87
   106          7
   107          4
   108          0
   109          0
   110          1
   111          3
   112          4
   113         12
   114         12
   115         13
   116          6
   117          5
   118          3
   119          5
   120          3
   121          0
   122          0
   123          1
   124          2
   125         10
   126          8
   127          6
   128          7
   129          5
   130          3
   131          1
   132          0
   133          0
   134          0
   135          0
   136          0
   138          3
   139          5
   140         26
   141          7
   142          4
   143         10
   144          6
   145          1
   146          0
   147          0
   149          0
   150          2
   151         13
   152         28
   153         15
   154          5
   155          4
   156          4
   157          1
   158          0
   163          0
   164          2
   165         15
   166          7
   167          4
   168          2
   169          2
   170          1
   171          1
   172          8
   173          1
   175          0
   176          1
   177          3
   178         11
   179          9
   180          9
   181          4
   182          7
   183          1
   184          0
   185          2
   186          0
   187          0
   189          0
   190          1
   191          1
   192          1
   193          5
   194          3
   195          3
   196          0
   198          0
   200          0
   201          1
   202          1
   203          1
   204          1
   205          1
   206          2
   207          8
   208          2
   209          1
   210          0
   214          0
   215          0
   216          0
   217          1
   218          0
   219          1
   220          3
   221          5
   222          1
   223          0
   226          0
   227          1
   228          1
   229          2
   230          1
   231          2
   232          2
   233          1
   234          1
   235         13
   236          3
   237          0
   239          0
   240          0
   241          0
   242          1
   243          1
   244          0
   245          0
   246          0
   247          0
   252          0
   253          0
   254          0
   255          5
   256          4
   257          3
   258          1
   259          1
   260          2
   261          1
   262          4
   263          7
   264          1
   267          0
   268          1
   269          1
   270          2
   271          0
   272          0
   276          0
   282          1
   283         10
   284         14
   285          4
   286          7
   287          1
   288          0
   295          1
   296          0
   307          0
   308          1
   309          2
   311         45
   312        173
   313         34
   314          4
   315          0