##TITLE=Library Entry 31923
##JCAMP-DX=Revision 4.10 
##DATA TYPE=MASS SPECTRUM
##SAMPLE DESCRIPTION=V.A.Korolev, Moscow, Russia
##NAMES=HP
##CAS NAME=(2-Amino-5-chlorophenyl)phosphonic acid
##MOLFORM=C6H7ClNO3P
##CAS REGISTRY NO=18275-77-9
##MP= -300
##BP= -300
##MW= 207
##$RETENTION INDEX=0
##$CONDENSED SPECTRUM=NO
##NPOINTS= 69
##XYDATA=(XY..XY) 1 
    35         81
    36        102
    37        210
    38        403
    39        505
    40        133
    41        377
    42         73
    43         10
    44         38
    45         60
    46        174
    47        129
    48         30
    49        100
    50        250
    51        207
    52        284
    53         54
    54         96
    55          6
    60         42
    61        266
    62        391
    63        500
    64        344
    65        999
    66        150
    67         26
    69          8
    71          9
    72         57
    73        373
    74         81
    75        143
    76         36
    77          8
    78         21
    79          5
    80         19
    81         58
    82          6
    85          7
    86          7
    87          7
    88         25
    89         13
    90         56
    91         56
    92        309
    93         10
    97         13
    98         14
    99         74
   100        116
   101         24
   102         27
   114          7
   126         15
   127        515
   128         40
   129        167
   130         10
   189         26
   191          8
   207        210
   208         20
   209         69
   210          7