##TITLE=Library Entry 47232
##JCAMP-DX=Revision 4.10 
##DATA TYPE=MASS SPECTRUM
##SAMPLE DESCRIPTION=J.H.BOWIE UNIVERSITY OF ADELAIDE, AUSTRALIA
##NAMES=HP
##CAS NAME=Benzoic acid, 2-(phenylazo)-, ethyl ester
##MOLFORM=C15H14N2O2
##CAS REGISTRY NO=18277-91-3
##MP= -300
##BP= -300
##MW= 254
##$RETENTION INDEX=0
##$CONDENSED SPECTRUM=NO
##NPOINTS= 26
##XYDATA=(XY..XY) 1 
    39         50
    50         90
    51        200
    64         50
    65        130
    76        110
    77        999
    78         80
    91         70
    93         90
   105        280
   106         60
   121        360
   122         50
   131         30
   141         30
   151         30
   152        130
   153         80
   177         70
   181         70
   198         60
   209         60
   225         20
   254        250
   255         50