##TITLE=Library Entry 90309
##JCAMP-DX=Revision 4.10 
##DATA TYPE=MASS SPECTRUM
##SAMPLE DESCRIPTION=NIST Mass Spectrometry Data Center, 1994
##NAMES=HP
##CAS NAME=2-sec-Butylthiazole
##MOLFORM=C7H11NS
##CAS REGISTRY NO=18277-27-5
##MP= -300
##BP= -300
##MW= 141
##$RETENTION INDEX=1013
##$CONDENSED SPECTRUM=NO
##NPOINTS= 82
##XYDATA=(XY..XY) 1 
    12          2
    13          4
    14          8
    15         45
    16          0
    18          4
    24          1
    25          4
    26         65
    27        284
    28         98
    29        184
    30          7
    32         15
    33          6
    34          3
    37         17
    38         37
    39        211
    40         47
    41        222
    42         22
    44          3
    45        123
    46          9
    47         13
    49          3
    50         19
    51         37
    52         48
    53         34
    54        102
    55         31
    56         19
    57        175
    58        620
    59        604
    60         53
    61         34
    62          5
    63          5
    64          7
    65         10
    66          9
    67         12
    68         16
    69         18
    70         12
    71         44
    72         10
    73          6
    75          1
    78          5
    80          8
    81          4
    82          7
    83         11
    84         12
    85         27
    86         60
    87          7
    88          3
    93          5
    96          2
    98         93
    99        199
   100         17
   101          9
   110         13
   112        919
   113        999
   114        104
   115         47
   116          2
   123          8
   124         15
   126        375
   127         30
   128         18
   140         20
   141         25
   142          3