##TITLE=Library Entry 57949
##JCAMP-DX=Revision 4.10 
##DATA TYPE=MASS SPECTRUM
##SAMPLE DESCRIPTION=NIST Mass Spectrometry Data Center
##NAMES=HP
##CAS NAME=Eicosanoic acid, ethyl ester
##MOLFORM=C22H44O2
##CAS REGISTRY NO=18281-05-5
##MP= -300
##BP= -300
##MW= 340
##$RETENTION INDEX=2397
##$CONDENSED SPECTRUM=NO
##NPOINTS= 84
##XYDATA=(XY..XY) 1 
    27         12
    29         67
    39         14
    41        139
    42         33
    43        251
    44          7
    45         28
    53          8
    54         14
    55        210
    56         37
    57        171
    58         14
    60         62
    61         79
    67         47
    69        129
    70        123
    71         90
    72          5
    73        143
    74         16
    79         14
    80          8
    81         33
    83         70
    84         30
    85         35
    87         19
    88        999
    89        226
    90         14
    93         12
    95         31
    97         49
    98         30
    99         32
   101        652
   102         57
   103          5
   105         23
   107         11
   109         17
   115         69
   116          9
   121         13
   125         11
   129         34
   130         15
   135         16
   139          7
   143         71
   144         15
   149          7
   153          7
   156          4
   157        162
   158         18
   171         13
   185          7
   186          3
   199         23
   200          4
   213         30
   214          5
   227          7
   241         29
   242          6
   255         25
   269         13
   270          5
   283         14
   284          4
   293          4
   295         68
   296         13
   297        101
   298         24
   311         22
   312          6
   340        246
   341         55
   342          7