##TITLE=Library Entry 49370
##JCAMP-DX=Revision 4.10 
##DATA TYPE=MASS SPECTRUM
##SAMPLE DESCRIPTION=NIST Mass Spectrometry Data Center
##NAMES=HP
##CAS NAME=Benzyl alcohol, p-iodo-
##MOLFORM=C7H7IO
##CAS REGISTRY NO=18282-51-4
##MP= -300
##BP= -300
##MW= 234
##$RETENTION INDEX=0
##$CONDENSED SPECTRUM=NO
##NPOINTS= 95
##XYDATA=(XY..XY) 1 
    14          1
    15          1
    25          1
    26          7
    27         31
    28          3
    29         46
    30          4
    31         40
    36          2
    37         21
    38         36
    39         83
    40          9
    41          3
    42          2
    43          5
    44          2
    48          1
    49         21
    50        242
    51        266
    52         81
    53         49
    54          4
    55         13
    56          1
    57          1
    60          3
    61         25
    62         57
    63        119
    64         25
    65          5
    66          3
    67          2
    68          2
    69          1
    72          2
    73         29
    74        128
    75         79
    76        183
    77        715
    78        639
    79        999
    80         66
    81          5
    84          3
    85         11
    86         19
    87         14
    88          7
    89        227
    90        124
    91         14
    92          1
   101          1
   102          2
   103          1
   104         10
   105        147
   106         40
   107        331
   108         28
   109          1
   115          2
   116         16
   119          1
   127        146
   128         22
   129          1
   139          1
   141          1
   152          6
   153          2
   163          1
   164          2
   165          4
   176          4
   177          2
   189          1
   203         54
   204          9
   205         48
   206          4
   215          1
   217         52
   218          7
   231         42
   232         33
   233         74
   234        868
   235         66
   236          4