##TITLE=Library Entry 54655
##JCAMP-DX=Revision 4.10 
##DATA TYPE=MASS SPECTRUM
##SAMPLE DESCRIPTION=Chemical Concepts
##NAMES=HP
##CAS NAME=Cyclobutene-3,4-dione, 1-dimethylamino-2-hydroxy-
##MOLFORM=C6H7NO3
##CAS REGISTRY NO=182881-06-7
##MP= -300
##BP= -300
##MW= 141
##$RETENTION INDEX=0
##$CONDENSED SPECTRUM=NO
##NPOINTS= 71
##XYDATA=(XY..XY) 1 
    26         36
    27         65
    28        133
    29         94
    30         18
    31          2
    34          0
    35          0
    36          2
    37          6
    38         27
    39         48
    40        170
    41        205
    42        582
    43         38
    44         39
    45         62
    46          2
    47          0
    50          4
    51         23
    52         40
    53         20
    54         38
    55         33
    56         95
    57          5
    58          4
    59          0
    62          0
    63          0
    64          0
    65          1
    66          3
    67          4
    68         22
    69         72
    70         44
    71          2
    72          0
    73          0
    75          0
    77          1
    78          2
    79          0
    80         15
    81         15
    82          4
    83         15
    84        490
    85        999
    86         41
    87          2
    89          0
    91          0
    96          8
    97          0
    98          4
    99          0
   105          0
   112          0
   113          2
   114          0
   115          0
   123          0
   128          0
   140          0
   141        106
   142         14
   143          1