##TITLE=Library Entry 73013
##JCAMP-DX=Revision 4.10 
##DATA TYPE=MASS SPECTRUM
##SAMPLE DESCRIPTION=A.A.Kutin, Moscow, Russia
##NAMES=HP
##CAS NAME=4-Morpholineacetanilide, 3'-(trifluoromethyl)-
##MOLFORM=C13H15F3N2O2
##CAS REGISTRY NO=1828-48-4
##MP= -300
##BP= -300
##MW= 288
##$RETENTION INDEX=0
##$CONDENSED SPECTRUM=NO
##NPOINTS= 139
##XYDATA=(XY..XY) 1 
    33          1
    34          0
    36          0
    37          1
    38          5
    39         13
    40         16
    41         68
    42        161
    43         69
    44         30
    45         10
    46          0
    50          5
    51          4
    52          4
    54         15
    56        164
    57         15
    58          4
    59          0
    61          1
    62          3
    63         14
    64          7
    65          4
    67          1
    68          4
    69         10
    70         48
    71          8
    72         21
    74          2
    75          8
    76          2
    77          1
    78          1
    79          0
    80          0
    81          1
    82          2
    83          7
    84          2
    85          4
    86         27
    87          2
    88          3
    89          1
    90          3
    91          8
    93          1
    94          1
    95          7
    96          1
    98         33
   100        999
   101         51
   102          3
   104          1
   105          1
   106          1
   107          1
   108          0
   109          2
   110          0
   111          1
   112          1
   113         10
   114         10
   115          1
   116          0
   117          0
   119          3
   120          3
   121          0
   122          0
   123          0
   125          4
   126          2
   127          3
   128          0
   129          4
   130          0
   131          0
   132          3
   133          5
   134          1
   135          0
   137          0
   139          2
   140         10
   141          2
   142          2
   143          0
   145         21
   146          1
   147          0
   149          0
   152          0
   153          0
   154          1
   155          0
   158          0
   159          3
   160         14
   161          7
   162          0
   166          0
   168          1
   169          0
   171          0
   172          2
   173          2
   174          7
   175          0
   181          0
   182          0
   185          0
   186          0
   187          3
   188          1
   189          0
   200          1
   202          6
   203          2
   204          0
   229          0
   241          2
   242          0
   245          3
   246          0
   257          0
   269         10
   270          2
   271          0
   283          0
   286          0
   288         15
   289          2