##TITLE=Library Entry 18019
##JCAMP-DX=Revision 4.10 
##DATA TYPE=MASS SPECTRUM
##SAMPLE DESCRIPTION=CCC 0003
##NAMES=HP
##CAS NAME=Tetraborane(10)
##MOLFORM=B4H10
##CAS REGISTRY NO=18283-93-7
##MP= -300
##BP= -300
##MW= 54
##$RETENTION INDEX=0
##$CONDENSED SPECTRUM=NO
##NPOINTS= 39
##XYDATA=(XY..XY) 1 
    10         70
    11        200
    12         73
    13        154
    14          4
    20          1
    21          5
    22         17
    23         42
    24         69
    25         45
    26         44
    27         55
    28          2
    29          2
    30          1
    31          4
    32         21
    33         93
    34        229
    35        360
    36        318
    37        300
    38        276
    39         29
    40          2
    41          9
    42         32
    43        116
    44        242
    45        364
    46        558
    47        863
    48        999
    49        986
    50        933
    51        192
    52         91
    53          3