##TITLE=Library Entry 57947
##JCAMP-DX=Revision 4.10 
##DATA TYPE=MASS SPECTRUM
##SAMPLE DESCRIPTION=Japan AIST/NIMC Database- Spectrum MS-NW-5987
##NAMES=HP
##CAS NAME=Nonadecanoic acid, ethyl ester
##MOLFORM=C21H42O2
##CAS REGISTRY NO=18281-04-4
##MP= -300
##BP= -300
##MW= 326
##$RETENTION INDEX=2278
##$CONDENSED SPECTRUM=NO
##NPOINTS= 194
##XYDATA=(XY..XY) 1 
    14          5
    15          3
    16          2
    26          4
    27         44
    28         12
    29        159
    30          5
    31          4
    32          1
    39         22
    40          5
    41        226
    42         50
    43        376
    44         13
    45         81
    46          2
    47          1
    51          1
    53         10
    54         21
    55        238
    56         71
    57        275
    58         15
    59         11
    60         73
    61         97
    62          3
    63          1
    65          2
    66          3
    67         35
    68         32
    69        155
    70         99
    71        122
    72          8
    73        120
    74         29
    75          9
    77          2
    78          1
    79          7
    80          4
    81         28
    82         32
    83        123
    84         42
    85         71
    86          6
    87         31
    88        999
    89        183
    90         12
    91          3
    92          1
    93          6
    94          3
    95         27
    96         16
    97         87
    98         47
    99         17
   100          3
   101        581
   102         53
   103          5
   105          2
   106          1
   107          5
   108          2
   109         15
   110          9
   111         44
   112         16
   113         10
   114          2
   115         57
   116          8
   117          1
   119          1
   121          8
   122          1
   123          9
   124          5
   125         22
   126          8
   127          6
   128          1
   129         27
   130         13
   131          2
   135          7
   136          1
   137          4
   138          3
   139         13
   140          6
   141          4
   142          1
   143         56
   144         14
   145          2
   149          6
   150          1
   151          2
   152          3
   153          9
   154          4
   155          3
   156          1
   157        134
   158         15
   159          2
   163          4
   165          1
   166          2
   167          6
   168          3
   169          2
   171         15
   172          4
   177          3
   178          1
   179          1
   180          2
   181          4
   182          2
   183          2
   185         12
   186          4
   191          2
   194          2
   195          3
   196          2
   197          2
   199         20
   200          4
   201          1
   205          2
   208          2
   209          2
   210          1
   211          1
   213         22
   214          5
   215          1
   219          1
   222          1
   223          2
   224          4
   225          1
   227         20
   228          5
   229          1
   233          1
   236          2
   237          2
   238          1
   239          2
   241         16
   242          5
   243          1
   250          1
   251          1
   252          5
   253          3
   254          1
   255         13
   256          3
   261          1
   262          1
   263          1
   267          1
   269         12
   270          5
   271          1
   278          1
   279          4
   280          3
   281         53
   282         10
   283         62
   284         13
   285          2
   297         14
   298          7
   299          2
   325          1
   326         95
   327         20
   328          3