##TITLE=Library Entry 30447
##JCAMP-DX=Revision 4.10 
##DATA TYPE=MASS SPECTRUM
##SAMPLE DESCRIPTION=D.HENNEBERG, MAX-PLANCK INSTITUTE, MULHEIM, WEST GERMAN
Y
##NAMES=HP
##CAS NAME=Silane, 1-butenyltrimethyl-
##MOLFORM=C7H16Si
##CAS REGISTRY NO=18291-95-7
##MP= -300
##BP= -300
##MW= 128
##$RETENTION INDEX=0
##$CONDENSED SPECTRUM=NO
##NPOINTS= 90
##XYDATA=(XY..XY) 1 
    23          0
    25          0
    26          5
    27         42
    28          5
    29         53
    30          4
    31         66
    32          3
    33          2
    34          0
    37          1
    38          2
    39         28
    40          4
    41         19
    42         31
    43        249
    44         49
    45        177
    46         12
    47          6
    48          0
    49          0
    50          3
    51          6
    52          2
    53         57
    54         15
    55         77
    56         10
    57         42
    58         66
    59        999
    60         77
    61         38
    62          1
    63          1
    64          4
    65          7
    66         15
    67         33
    68          9
    69         37
    70         12
    71         64
    72         19
    73        300
    74         27
    75         12
    77          3
    78          1
    79          3
    80          1
    81         13
    82          3
    83         43
    84          6
    85        407
    86         76
    87        108
    88         11
    89          3
    90          0
    91          0
    93          3
    94          0
    95         18
    96          4
    97         49
    98          6
    99         99
   100         12
   101          3
   102          0
   107          0
   108          0
   109          3
   110          0
   111         16
   112          4
   113        966
   114        114
   115         39
   116          1
   117          0
   126          0
   128         52
   129          6
   130          2