##TITLE=Library Entry 41069
##JCAMP-DX=Revision 4.10 
##DATA TYPE=MASS SPECTRUM
##SAMPLE DESCRIPTION=Chemical Concepts
##NAMES=HP
##CAS NAME=Silane, trimethyl(3-methylbutyl)-
##MOLFORM=C8H20Si
##CAS REGISTRY NO=18291-15-1
##MP= -300
##BP= -300
##MW= 144
##$RETENTION INDEX=0
##$CONDENSED SPECTRUM=NO
##NPOINTS= 60
##XYDATA=(XY..XY) 1 
    27         12
    29         14
    30          0
    31         22
    33          0
    38          0
    39          5
    41         13
    42          4
    43         44
    44         20
    45         76
    46          5
    47          2
    48          0
    49          0
    51          0
    53          2
    54          0
    55          6
    56          5
    57          8
    58         19
    59        278
    60         18
    61          9
    66          0
    67          0
    69         11
    70          3
    71          4
    72         14
    73        999
    74         85
    75         36
    76          1
    81          0
    83          1
    85         10
    86          2
    87          8
    88          0
    97          0
    99         10
   100          2
   101        121
   102         12
   103          4
   111          0
   116          3
   117          0
   127          9
   128          1
   129        146
   130         17
   131          5
   132          0
   144         10
   145          1
   146          0