##TITLE=Library Entry 42257
##JCAMP-DX=Revision 4.10 
##DATA TYPE=MASS SPECTRUM
##SAMPLE DESCRIPTION=RADIAN CORP
##NAMES=HP
##CAS NAME=1H-1,2,4-Triazole, TMS derivative
##MOLFORM=C5H11N3Si
##CAS REGISTRY NO=18293-54-4
##MP= -300
##BP= -300
##MW= 141
##$RETENTION INDEX=0
##$CONDENSED SPECTRUM=NO
##NPOINTS= 47
##XYDATA=(XY..XY) 1 
    15         79
    27         55
    28         47
    29        147
    31         17
    40         32
    41         67
    42        164
    43        505
    44        126
    45        276
    46          2
    52          8
    53        129
    54         38
    55         97
    56         61
    57         50
    58         55
    59         26
    63        570
    64         70
    65        649
    66         52
    67        170
    69        152
    70         85
    71         79
    72        182
    73        999
    74         94
    75         52
    76          2
    77        158
    78         94
    79        100
    80         29
    81         11
    97         23
    98        173
    99        279
   100         23
   126        832
   127         79
   128         17
   141        314
   142         23