##TITLE=Library Entry 42491
##JCAMP-DX=Revision 4.10 
##DATA TYPE=MASS SPECTRUM
##SAMPLE DESCRIPTION=NIST Mass Spectrometry Data Center
##NAMES=HP
##CAS NAME=Oxalic acid, 2TMS derivative
##MOLFORM=C8H18O4Si2
##CAS REGISTRY NO=18294-04-7
##MP= -300
##BP= -300
##MW= 234
##$RETENTION INDEX=1136
##$CONDENSED SPECTRUM=NO
##NPOINTS= 78
##XYDATA=(XY..XY) 1 
    15          3
    26          1
    27          3
    28          4
    29         15
    30          1
    31          5
    41          1
    42          8
    43         67
    44         32
    45        180
    46         13
    47         15
    48          1
    51          7
    52         34
    53          7
    54          2
    55         12
    56          3
    57         13
    58         43
    59         67
    60          7
    61          9
    62          1
    66         78
    69          1
    70          5
    71          7
    72         72
    73        999
    74         93
    75         56
    76          3
    77          1
    85          1
    86          1
    87          7
    88          1
    89          4
    91          1
    99          1
   101          5
   102         15
   103         14
   104          2
   105          7
   106          1
   107          1
   113          2
   115         12
   116          5
   117         19
   118          3
   119          3
   129          1
   131         38
   132          6
   133         43
   134          6
   135          3
   147        982
   148        156
   149         79
   150          8
   151          2
   175         16
   176          3
   177          1
   190         55
   191         10
   192          5
   193          1
   219         26
   220          4
   221          2