##TITLE=Library Entry 1834
##JCAMP-DX=Revision 4.10 
##DATA TYPE=MASS SPECTRUM
##SAMPLE DESCRIPTION=NIST Mass Spectrometry Data Center, 1994
##NAMES=HP
##CAS NAME=1-Cyclohexenylacetic acid
##MOLFORM=C8H12O2
##CAS REGISTRY NO=18294-87-6
##MP= -300
##BP= -300
##MW= 140
##$RETENTION INDEX=0
##$CONDENSED SPECTRUM=NO
##NPOINTS= 88
##XYDATA=(XY..XY) 1 
    14          0
    15         64
    16          3
    17          9
    18          9
    19         14
    26         67
    27        646
    28        168
    29        186
    30         11
    32          3
    37         33
    38        128
    39        999
    40        176
    41        647
    42        166
    43        274
    44         33
    45        235
    46         25
    47         11
    49          6
    50        113
    51        230
    52        110
    53        372
    54        110
    55        467
    56        122
    57         52
    58         19
    60         21
    61         53
    62         37
    63         84
    64         23
    65        181
    66        222
    67        567
    68        260
    69        180
    70         77
    71         51
    72         19
    73         91
    75          8
    77        227
    78         84
    79        493
    80        827
    81        345
    82         43
    83         97
    84         97
    85         54
    86        262
    87         13
    89         11
    91        124
    92         19
    93        117
    94        270
    95        464
    96         11
    97        586
    98         80
    99         38
   103          7
   104          4
   105          7
   106          4
   107         72
   108          6
   111        357
   112        260
   113         17
   121         79
   122         98
   123         35
   124          6
   125         87
   126          9
   138          5
   140        734
   141         59
   142          5