##TITLE=Library Entry 61345
##JCAMP-DX=Revision 4.10 
##DATA TYPE=MASS SPECTRUM
##SAMPLE DESCRIPTION=Dmitri Zagorevskii, Scientific Instruments & Applicatio
ns
##NAMES=HP
##CAS NAME=2-Phenylethylsilane
##MOLFORM=C8H12Si
##CAS REGISTRY NO=18292-22-3
##MP= -300
##BP= -300
##MW= 136
##$RETENTION INDEX=0
##$CONDENSED SPECTRUM=NO
##NPOINTS= 57
##XYDATA=(XY..XY) 1 
    27         78
    31         43
    39         99
    41         55
    42         58
    43         91
    44          8
    45         11
    50         38
    51        138
    52         37
    53         95
    54         19
    55         42
    56         17
    57         22
    58        297
    59         25
    63         43
    65        137
    66         16
    67         25
    69         11
    74         13
    75         13
    76         13
    77        192
    78        121
    79        104
    80         12
    81         40
    82         16
    89         27
    91        999
    92         88
    93         26
    95         11
   102         23
   103        104
   104         88
   105        566
   106        332
   107        659
   108        855
   109        120
   110         30
   119         27
   121         23
   130         13
   131         58
   132         38
   133        118
   134         59
   135         87
   136        586
   137         79
   138         22