##TITLE=Library Entry 45360
##JCAMP-DX=Revision 4.10 
##DATA TYPE=MASS SPECTRUM
##SAMPLE DESCRIPTION=NIST Mass Spectrometry Data Center
##NAMES=HP
##CAS NAME=Bromoacetic acid, TMS derivative
##MOLFORM=C5H11BrO2Si
##CAS REGISTRY NO=18291-80-0
##MP= -300
##BP= -300
##MW= 210
##$RETENTION INDEX=0
##$CONDENSED SPECTRUM=NO
##NPOINTS= 86
##XYDATA=(XY..XY) 1 
    14         11
    15         49
    17          2
    18          2
    25          1
    26          6
    27         19
    28         47
    29         51
    30          7
    31         16
    32         17
    39          1
    40          1
    41         14
    42         82
    43        122
    44         38
    45        293
    46         26
    47         83
    48          5
    49          2
    53         11
    54          4
    55         17
    56          4
    57         14
    58         36
    59         58
    60         21
    61         47
    62          3
    63          2
    70          5
    71          5
    73        615
    75        999
    76         74
    77         37
    78          2
    79          7
    80          2
    81          8
    82          2
    88          6
    89          2
    91          3
    92          7
    93         53
    94          7
    95         50
    96          2
   101          9
   107          8
   108          1
   109         13
   110          1
   111          5
   117         81
   118          9
   119          3
   120          5
   121         16
   122          9
   123         19
   124          6
   125          8
   126          1
   127          1
   137         28
   139         48
   140          4
   141         19
   150          2
   151         14
   152          5
   153         14
   166          7
   167          2
   168          7
   169          2
   195        355
   197        361
   198         36
   199         17