##TITLE=Library Entry 47421
##JCAMP-DX=Revision 4.10 
##DATA TYPE=MASS SPECTRUM
##SAMPLE DESCRIPTION=Japan AIST/NIMC Database- Spectrum MS-IW-4509
##NAMES=HP
##CAS NAME=Benzenesulfonamide, N-(4-nitrophenyl)-
##MOLFORM=C12H10N2O4S
##CAS REGISTRY NO=1829-81-8
##MP= -300
##BP= -300
##MW= 278
##$RETENTION INDEX=0
##$CONDENSED SPECTRUM=NO
##NPOINTS= 107
##XYDATA=(XY..XY) 1 
    26          1
    27          6
    28          1
    30         50
    37          3
    38         14
    39         21
    40          4
    41          6
    42          1
    44          2
    45          3
    48          2
    49          1
    50         30
    51        131
    52         28
    53         13
    54          1
    55          1
    61          2
    62         12
    63         68
    64         75
    65         34
    66          5
    67          1
    69          3
    71          1
    73          1
    74          9
    75          9
    76         15
    77        999
    78        101
    79         10
    80          5
    81          5
    82          1
    84          1
    88          2
    89          3
    90         22
    91         69
    92         12
    93          2
    94          3
    95          1
    97         13
    98          1
    99          1
   102          1
   103          1
   105          3
   106          5
   107         19
   108          9
   109          6
   110          6
   111          1
   113          1
   114          1
   115          6
   116          1
   117          1
   120          1
   121          8
   122          4
   125         36
   126          6
   127          3
   128          3
   129          1
   137          2
   138          8
   139          8
   140          5
   141        883
   142         66
   143         45
   144          3
   153          1
   154          3
   155          2
   156          1
   166          9
   167         24
   168         10
   169          2
   183          1
   184          3
   185          1
   197          3
   213          1
   214          3
   232          1
   248          3
   258          1
   260          1
   262         12
   263          2
   264          1
   278        770
   279        113
   280         47
   281          6
   282          1