##TITLE=Library Entry 74604
##JCAMP-DX=Revision 4.10 
##DATA TYPE=MASS SPECTRUM
##SAMPLE DESCRIPTION=Chuck Anderson, Aldrich Chemical Co.
##NAMES=HP
##CAS NAME=1,4-Cyclohexanedione bis(ethylene ketal)
##MOLFORM=C10H16O4
##CAS REGISTRY NO=183-97-1
##MP= -300
##BP= -300
##MW= 200
##$RETENTION INDEX=0
##$CONDENSED SPECTRUM=NO
##NPOINTS= 102
##XYDATA=(XY..XY) 1 
    14          1
    15         13
    16          0
    18          0
    19          3
    25          0
    26          7
    27         46
    28         64
    29         41
    30          2
    31          4
    32          0
    33          0
    34          1
    35          0
    37          0
    38          2
    39         33
    40         12
    41         32
    42         99
    43         60
    44          6
    45         36
    46          0
    48          0
    50          1
    51          4
    52          3
    53         15
    54          6
    55        103
    56         34
    57        130
    58          7
    59          1
    61          0
    63          1
    64          1
    65          6
    66          3
    67         21
    68          3
    69          4
    70          1
    71          7
    72          0
    73         10
    74          0
    77          5
    78          2
    79          6
    80          0
    81          4
    82          1
    83         11
    84          3
    85          0
    86        261
    87         12
    88          1
    89          0
    91          1
    93          1
    94          1
    95         10
    96          4
    97          7
    99        105
   101        999
   102         45
   103          4
   107          0
   108          2
   109          2
   110          1
   111          5
   112          1
   113          3
   114          0
   119          3
   125          6
   126          2
   127          4
   128          0
   137          0
   138          0
   139          1
   140          0
   141          0
   142          0
   143          0
   155         22
   156          2
   157          5
   158          0
   169          5
   170          6
   171          0
   172          0
   200          1