##TITLE=Library Entry 61275
##JCAMP-DX=Revision 4.10 
##DATA TYPE=MASS SPECTRUM
##SAMPLE DESCRIPTION=Exported from NIST MS Search
##NAMES=HP
##CAS NAME=Carbamic acid, [(4-methylphenyl)sulfonyl]-, 1-methylethyl ester
##MOLFORM=C11H15NO4S
##CAS REGISTRY NO=18303-02-1
##MP= -300
##BP= -300
##MW= 257
##$RETENTION INDEX=0
##$CONDENSED SPECTRUM=NO
##NPOINTS= 57
##XYDATA=(XY..XY) 1 
    43        490
    44         50
    45        550
    46         20
    50         30
    51         40
    52         20
    53         20
    55         40
    56         20
    57         40
    58         20
    59         60
    60         20
    62         20
    63         60
    64         30
    65        200
    66         20
    67         20
    69         30
    70         20
    71         30
    73         20
    77         40
    78         20
    79         30
    81         20
    82         10
    83         20
    84         10
    85         20
    89         70
    90         50
    91        999
    92         80
    95         10
    97         20
   106        110
   107        120
   108        999
   109         80
   111         10
   134         20
   139         20
   151        130
   155        500
   156         50
   157         30
   171         20
   172         10
   173         10
   193        100
   197        110
   198         50
   199         20
   257         20