##TITLE=Library Entry 45677
##JCAMP-DX=Revision 4.10 
##DATA TYPE=MASS SPECTRUM
##SAMPLE DESCRIPTION=V.G.Zaikin,TIPS,Russian Acad.Sci.Moscow
##NAMES=HP
##CAS NAME=1-Dichloromethyl(dimethyl)silyloxybutane
##MOLFORM=C7H16Cl2OSi
##CAS REGISTRY NO=18306-85-9
##MP= -300
##BP= -300
##MW= 214
##$RETENTION INDEX=0
##$CONDENSED SPECTRUM=NO
##NPOINTS= 73
##XYDATA=(XY..XY) 1 
    26         18
    27        155
    28         18
    29        189
    31         25
    39         63
    40          6
    41        121
    42         18
    43        129
    44         28
    45        119
    46          8
    47         55
    48         18
    49          8
    50          8
    51          8
    53         11
    55         79
    56         45
    57         28
    58         31
    59         99
    60         18
    61         25
    63         66
    65         29
    67          7
    69         11
    70         12
    71         11
    74          7
    75        999
    76         63
    77         39
    78         29
    79         31
    80         19
    81         12
    83         19
    85         12
    87         12
    88          9
    89         79
    90          6
    91          6
    93         15
    95         59
    97         15
    99         17
   102          5
   105          5
   106          5
   107          5
   108          5
   113         82
   114          4
   115         81
   116          4
   117         28
   127         15
   129         11
   130          9
   131        625
   132         69
   133         32
   157          8
   159          7
   171          8
   172          3
   173          6
   174          2