##TITLE=Library Entry 83718
##JCAMP-DX=Revision 4.10 
##DATA TYPE=MASS SPECTRUM
##SAMPLE DESCRIPTION=G. VON BUNAU MAX-PLANCK-INST., MULHEIM-RUHR, GERMANY FR
G
##NAMES=HP
##CAS NAME=D-Verbenone
##MOLFORM=C10H14O
##CAS REGISTRY NO=18309-32-5
##MP= -300
##BP= -300
##MW= 150
##$RETENTION INDEX=1228
##$CONDENSED SPECTRUM=NO
##NPOINTS= 79
##XYDATA=(XY..XY) 1 
    15         56
    26         41
    27        523
    28        149
    29        223
    37         19
    38         69
    39        731
    40        167
    41        652
    42         76
    43        317
    44         31
    45         23
    50         82
    51        211
    52        109
    53        278
    54         91
    55        321
    56         61
    57         19
    58         19
    59         31
    62         28
    63         89
    64         33
    65        210
    66         89
    67        269
    68         41
    69        110
    70        139
    71         71
    75         29
    77        269
    78        130
    79        486
    80        577
    81        162
    82        246
    83        110
    84         33
    89         34
    90         44
    91        874
    92        243
    93        211
    94        160
    95        236
    96         64
    97         43
   103         56
   104         49
   105        215
   106        129
   107        999
   108        312
   109        215
   110         48
   111         36
   115         66
   116         24
   117         96
   119        263
   120         44
   121         96
   122        183
   123         46
   132         26
   133         33
   134        145
   135        690
   136         86
   137         41
   149         46
   150        559
   151         76
   152         26