##TITLE=Library Entry 69100
##JCAMP-DX=Revision 4.10 
##DATA TYPE=MASS SPECTRUM
##SAMPLE DESCRIPTION=Japan AIST/NIMC Database- Spectrum MS-IW-3580
##NAMES=HP
##CAS NAME=Stannum tetrabromide-bis(pyridine 1-oxide)
##MOLFORM=C10H10Br4N2O2Sn
##CAS REGISTRY NO=18308-06-0
##MP= -300
##BP= -300
##MW= 626
##$RETENTION INDEX=0
##$CONDENSED SPECTRUM=NO
##NPOINTS= 128
##XYDATA=(XY..XY) 1 
    16          3
    17          1
    18          1
    25          4
    26         24
    27         17
    28         42
    29         16
    30         15
    31          2
    36          3
    37         29
    38         70
    39        435
    40        134
    41         70
    42         35
    43          3
    44          2
    47         35
    48          4
    49         15
    50         63
    51        117
    52        109
    53         16
    54          1
    55          2
    56          1
    57          1
    60          3
    61         15
    62         32
    63         71
    64         13
    65         30
    66         64
    67         11
    68        112
    69          7
    71          1
    74          1
    75          7
    76          6
    77          2
    78         86
    79        100
    80         73
    81         79
    82         71
    92          8
    93          1
    94         10
    95        999
    96         67
    97          4
    98          3
    99          4
   100          3
   109          9
   110          1
   112          2
   114          1
   116         35
   117         18
   118         59
   119         20
   120         81
   122         10
   124         13
   149          1
   158          1
   160          2
   162          1
   191          2
   193          4
   195         35
   196         18
   197         90
   198         38
   199        133
   200         19
   201         87
   203         24
   205         13
   274          4
   275          1
   276         11
   277          5
   278         20
   279          5
   280         19
   281          2
   282          9
   284          3
   286          1
   349          2
   351          9
   352          1
   353         53
   354         24
   355        198
   356         91
   357        415
   358        133
   359        518
   360         90
   361        383
   362         22
   363        171
   365         59
   367         14
   430          1
   432          7
   433          2
   434         25
   435         11
   436         55
   437         21
   438         93
   439         21
   440         88
   441          9
   442         54
   443          2
   444         21
   446          7
   448          1