##TITLE=Library Entry 74211
##JCAMP-DX=Revision 4.10 
##DATA TYPE=MASS SPECTRUM
##SAMPLE DESCRIPTION=Japan AIST/NIMC Database- Spectrum MS-NW-3325
##NAMES=HP
##CAS NAME=Pentanedioic acid, 3-oxo-, dimethyl ester
##MOLFORM=C7H10O5
##CAS REGISTRY NO=1830-54-2
##MP= -300
##BP= -300
##MW= 174
##$RETENTION INDEX=0
##$CONDENSED SPECTRUM=NO
##NPOINTS= 93
##XYDATA=(XY..XY) 1 
    12          2
    13          2
    14         16
    15        219
    16          2
    18          1
    25          2
    26         11
    27         51
    28         41
    29         84
    30          9
    31         66
    32         34
    33          9
    36          2
    37          4
    38          8
    39         18
    40          8
    41         25
    42        227
    43        273
    44         38
    45         32
    46          1
    47          2
    50          1
    53          5
    54          2
    55         30
    56         13
    57        183
    58         11
    59        568
    60         12
    61          3
    65          1
    66          2
    67          4
    68          8
    69        241
    70         10
    71          4
    72          4
    73          4
    74        128
    75          8
    76          1
    77          1
    81          1
    83          2
    84         13
    85         16
    86          5
    87          3
    88          5
    89          1
    91          1
    94          4
    96          1
    97          1
    98          3
    99          5
   100         16
   101        999
   102         47
   103          7
   105          1
   110          4
   111         35
   112          3
   113          7
   114         90
   115          9
   116         10
   124          2
   125         28
   126          2
   127          2
   128         33
   129          7
   130          1
   133          2
   142        195
   143        221
   144         16
   145          2
   156         17
   157         29
   158          2
   174         14
   175          1