##TITLE=Library Entry 64189
##JCAMP-DX=Revision 4.10 
##DATA TYPE=MASS SPECTRUM
##SAMPLE DESCRIPTION=A.A.Kutin, Moscow, Russia
##NAMES=HP
##CAS NAME=Propenone, 3-(4-chlorophenyl)-1-(3-methylphenyl)-
##MOLFORM=C16H13ClO
##CAS REGISTRY NO=183018-78-2
##MP= -300
##BP= -300
##MW= 256
##$RETENTION INDEX=0
##$CONDENSED SPECTRUM=NO
##NPOINTS= 92
##XYDATA=(XY..XY) 1 
    35          3
    36         12
    37         36
    38         41
    39        344
    40         47
    41         87
    43          0
    45          0
    50        222
    51        309
    52         74
    53         60
    54         18
    55          5
    61         20
    62         89
    63        273
    64         70
    65        640
    66         47
    73         35
    74        118
    75        392
    76        135
    77         51
    79         14
    82         51
    83         40
    85         21
    86         13
    87         24
    88         27
    89        189
    90         80
    91        999
    92        100
    95        118
    96         67
    97          6
    98         19
    99         23
   100         14
   101        529
   102        524
   103         60
   107          1
   108          9
   109         16
   110         74
   111         78
   113         50
   114         24
   115         66
   116         52
   119        681
   120         70
   126         19
   127         28
   128         14
   136         72
   137        254
   138         42
   139        102
   144        135
   145         28
   152          7
   165        545
   166         65
   167        168
   176         17
   177         35
   178        282
   179         55
   180         13
   189         32
   191         54
   192         73
   193        122
   207         25
   213         34
   221        351
   222         63
   228         52
   241        279
   242         43
   243         93
   255        438
   256        767
   257        267
   258        265
   259         38