##TITLE=Library Entry 26527
##JCAMP-DX=Revision 4.10 
##DATA TYPE=MASS SPECTRUM
##SAMPLE DESCRIPTION=Chemical Concepts
##NAMES=HP
##CAS NAME=Maleic acid, di-t-butyl ester
##MOLFORM=C12H20O4
##CAS REGISTRY NO=18305-60-7
##MP= -300
##BP= -300
##MW= 228
##$RETENTION INDEX=0
##$CONDENSED SPECTRUM=NO
##NPOINTS= 78
##XYDATA=(XY..XY) 1 
    25          0
    26         34
    27         54
    28         11
    29        172
    30          3
    31         10
    32          0
    36          0
    37          1
    38          2
    39         49
    40          9
    41        260
    42         12
    43         56
    44          4
    45          8
    46          0
    49          0
    50          1
    51          2
    52          0
    53         17
    54         48
    55         23
    56        225
    57        999
    58         67
    59        288
    60         10
    61          0
    67          0
    68          0
    69          1
    70          0
    71          6
    72          7
    73         26
    74          1
    75          0
    79          0
    81          1
    82         15
    83          1
    84          0
    86          0
    95          0
    98          0
    99         83
   100          6
   101          0
   109          0
   110          0
   111          0
   112          1
   113          3
   115         21
   116          1
   117        328
   118         14
   119          2
   126          1
   127          1
   128          2
   129          0
   139          0
   149          1
   154          3
   155          4
   156          0
   157         22
   158          1
   159          0
   167          0
   172         17
   173         13
   174          1