##TITLE=Library Entry 10455
##JCAMP-DX=Revision 4.10 
##DATA TYPE=MASS SPECTRUM
##SAMPLE DESCRIPTION=V.G. Zaikin, R.S.Borisov, TIPS RAS, Moscow, Russia
##NAMES=HP
##CAS NAME=Pentadecanenitrile
##MOLFORM=C15H29N
##CAS REGISTRY NO=18300-91-9
##MP= -300
##BP= -300
##MW= 223
##$RETENTION INDEX=0
##$CONDENSED SPECTRUM=NO
##NPOINTS= 102
##XYDATA=(XY..XY) 1 
    26         12
    27        144
    28        138
    29        346
    30         25
    31         19
    38          5
    39        121
    40         25
    41        826
    42        207
    43        999
    44         46
    45          2
    50          1
    51          6
    52          7
    53         55
    54        229
    55        710
    56        361
    57        863
    58         44
    60          3
    65          6
    66          8
    67        114
    68        142
    69        564
    70        460
    71        328
    72         21
    73          8
    74          1
    75          7
    77         10
    78          3
    79         47
    80         24
    81         89
    82        428
    83        568
    84        235
    85        133
    86         12
    87          1
    91         12
    92          1
    93         40
    94         29
    95         55
    96        605
    97        970
    98        187
    99         38
   100          4
   101          1
   105          1
   107         18
   108         17
   109         21
   110        707
   111        430
   112        112
   113         17
   115          1
   121         10
   122         33
   123          9
   124        478
   125        142
   126         67
   127          9
   130          1
   135          5
   136         18
   137          3
   138        278
   139         58
   140         49
   141          5
   150          4
   152        202
   153         32
   154         33
   155          2
   164          1
   166        233
   167         32
   168         26
   169          1
   178          1
   180        310
   181         45
   182         43
   183          2
   194        213
   195         31
   208         39
   209          3
   222         17
   223          1