##TITLE=Library Entry 91273
##JCAMP-DX=Revision 4.10 
##DATA TYPE=MASS SPECTRUM
##SAMPLE DESCRIPTION=Humboldt-Universitat zu Berlin, Department of Chemistry
, Analytical Group
##NAMES=HP
##CAS NAME=Crotonic acid, 2-cyano-3-phenyl-, ethyl ester
##MOLFORM=C13H13NO2
##CAS REGISTRY NO=18300-89-5
##MP= -300
##BP= -300
##MW= 215
##$RETENTION INDEX=0
##$CONDENSED SPECTRUM=NO
##NPOINTS= 137
##XYDATA=(XY..XY) 1 
    12          3
    13          2
    14         16
    15         95
    16          7
    17         21
    18         60
    19          4
    26         59
    27        411
    28         80
    29        730
    30         58
    31          7
    32          2
    37         18
    38         50
    39        269
    40         18
    41         32
    42         15
    43         85
    44         22
    45         20
    50        173
    51        442
    52         91
    53         20
    54          4
    55          7
    56          4
    57         32
    61         18
    62         59
    63        163
    64         62
    65         90
    66         31
    67          8
    68          2
    69         15
    71         23
    73          6
    74         67
    75         81
    76         99
    77        269
    78        179
    79         15
    80          3
    83          2
    84          2
    85          9
    86         15
    87         38
    88         56
    89        163
    90         29
    91         66
    92         11
    93          3
    94          7
    95          2
    97          2
    98          7
    99         25
   100         77
   101         46
   102         62
   103         87
   104         51
   105         47
   106          5
   107          3
   110          2
   111          5
   113         92
   114        145
   115        999
   116        298
   117         34
   118          5
   119          7
   120          2
   121         16
   122          2
   123          3
   125          1
   126         11
   127        180
   128        179
   129        250
   130        173
   131         51
   132         11
   133          2
   138          2
   140        269
   141        256
   142         98
   143        513
   144         71
   145          5
   146          2
   147          7
   149          6
   152          2
   153          3
   154         14
   155          5
   156         39
   157        298
   158        109
   159        196
   160         22
   161          3
   167          3
   169        433
   170        463
   171         74
   172         66
   173          7
   182          6
   183          1
   184          1
   186        333
   187        151
   188         18
   189          2
   196          4
   197          1
   200          8
   201          1
   214         37
   215        411
   216         66
   217          7