##TITLE=Library Entry 67660
##JCAMP-DX=Revision 4.10 
##DATA TYPE=MASS SPECTRUM
##SAMPLE DESCRIPTION=Japan AIST/NIMC Database- Spectrum MS-IW-3374
##NAMES=HP
##CAS NAME=Dimethylstannum dichloride-bis(pyridine 1-oxide)
##MOLFORM=C12H16Cl2N2O2Sn
##CAS REGISTRY NO=18308-03-7
##MP= -300
##BP= -300
##MW= 410
##$RETENTION INDEX=0
##$CONDENSED SPECTRUM=NO
##NPOINTS= 153
##XYDATA=(XY..XY) 1 
    12          1
    13          2
    14          4
    15         14
    17          4
    18         19
    24          1
    25          6
    26         34
    27         26
    28         54
    29         21
    30         22
    31          3
    35          4
    36          9
    37         38
    38         87
    39        523
    40        167
    41         87
    42         41
    43          3
    44          1
    47         24
    48          4
    49         19
    50         72
    51        132
    52        106
    53         16
    54          1
    55          2
    56          1
    60          3
    61         18
    62         36
    63         77
    64         14
    65         28
    66         65
    67         13
    68        126
    69          7
    74          1
    75          7
    76          6
    77          2
    78         89
    79         69
    80          4
    92          1
    94          9
    95        999
    96         62
    97          4
   109          1
   112          1
   114          1
   116         25
   117         15
   118         44
   119         18
   120         59
   121          5
   122          8
   124          9
   125          1
   127          1
   128          1
   129          4
   130          8
   131         20
   132         17
   133         31
   134         17
   135         30
   136          2
   137          5
   138          1
   139          5
   147          5
   148          1
   149          5
   150          2
   151         72
   152         39
   153        143
   154         54
   155        202
   156         13
   157         76
   159         36
   161          9
   164          1
   165          2
   166          9
   167          8
   168         18
   169         10
   170         23
   171          3
   172          9
   173          1
   174          4
   176          1
   177          2
   179          2
   180          1
   181         35
   182         19
   183         69
   184         28
   185         98
   186         10
   187         37
   188          8
   189         18
   190         10
   191          5
   192          6
   194          2
   196          1
   197          9
   199         11
   200          3
   201        130
   202         70
   203        291
   204        120
   205        427
   206         58
   207        242
   208          9
   209        103
   210          1
   211         36
   212          1
   213          5
   214          1
   216         13
   217          7
   218         30
   219         11
   220         44
   221          6
   222         25
   223          1
   224         10
   226          3
   247          2
   249          3
   251          2