##TITLE=Library Entry 68037
##JCAMP-DX=Revision 4.10 
##DATA TYPE=MASS SPECTRUM
##SAMPLE DESCRIPTION=RADIAN CORP
##NAMES=HP
##CAS NAME=Silane, bicyclo[2.2.1]hept-2-yldichloromethyl-
##MOLFORM=C8H14Cl2Si
##CAS REGISTRY NO=18301-58-1
##MP= -300
##BP= -300
##MW= 208
##$RETENTION INDEX=0
##$CONDENSED SPECTRUM=NO
##NPOINTS= 90
##XYDATA=(XY..XY) 1 
    15          2
    26          7
    27         64
    28         11
    29         20
    38          9
    39        184
    40         33
    41        162
    42         12
    43         17
    50          8
    51         29
    52         15
    53         65
    54         84
    55         53
    63        149
    64          9
    65        125
    66        191
    67        585
    68        128
    69          7
    75          2
    77         70
    78         30
    79        115
    80         18
    81         52
    89          2
    91         36
    92          6
    93         48
    94         46
    95        999
    96         76
    97          2
    98         16
    99         16
   100         12
   101         11
   103         10
   105         16
   107          2
   108          1
   109         10
   112         17
   113        555
   114         46
   115        384
   116         26
   117         79
   118          4
   119          2
   125         10
   127          6
   129         11
   130          2
   131          6
   139          3
   141          3
   143         20
   144          6
   145          7
   151          4
   154         12
   156          8
   157          1
   165          2
   166          2
   167        122
   168         13
   169         79
   170          6
   171         13
   173          1
   178          5
   179        250
   180         69
   181        174
   182         43
   183         31
   184          5
   193          8
   195          4
   208         41
   209          5
   210         28
   212          2