##TITLE=Library Entry 85576
##JCAMP-DX=Revision 4.10 
##DATA TYPE=MASS SPECTRUM
##SAMPLE DESCRIPTION=Chemical Concepts
##NAMES=HP
##CAS NAME=1,4-Methanoazulen-7(1H)-one, octahydro-4,8,8,9-tetramethyl-, (+)-
##MOLFORM=C15H24O
##CAS REGISTRY NO=18319-28-3
##MP= -300
##BP= -300
##MW= 220
##$RETENTION INDEX=0
##$CONDENSED SPECTRUM=NO
##NPOINTS= 112
##XYDATA=(XY..XY) 1 
    27        168
    29        231
    39        215
    40         46
    41        784
    42        122
    43        447
    44        196
    45         30
    50         27
    51         62
    53        160
    54         41
    55        524
    56        109
    57        205
    58         29
    60         47
    63         26
    65        105
    66         46
    67        549
    68         85
    69        451
    70        102
    71         94
    76         47
    77        198
    78         45
    79        282
    80         55
    81        397
    82        262
    83        242
    84         51
    85         87
    91        244
    92         51
    93        488
    94        170
    95        583
    96        122
    97        107
    98         76
    99         37
   104         33
   105        155
   106         71
   107        418
   108        588
   109        999
   110        240
   111        108
   112         34
   115         58
   117         35
   119        117
   120         71
   121        279
   122        134
   123        206
   124         74
   125         59
   126         31
   128         44
   129         29
   131         55
   132         68
   133         85
   134         88
   135        283
   136        135
   137        216
   138         80
   139         32
   145         50
   146         40
   147         92
   148         43
   149        298
   150        102
   151         83
   152        133
   153         49
   154         28
   155         89
   156         26
   159         94
   160        119
   161         47
   162         59
   163        150
   164        212
   165        304
   166         48
   167         51
   168         27
   174         35
   176         30
   177        210
   178        116
   179         40
   181         33
   187        121
   191         46
   192         47
   198         25
   202         49
   205        236
   206         37
   220        262
   221         42