##TITLE=Library Entry 98773
##JCAMP-DX=Revision 4.10 
##DATA TYPE=MASS SPECTRUM
##SAMPLE DESCRIPTION=Mark Whitten, Florida Museum of Natural History, U. of
 Florida
##NAMES=HP
##CAS NAME=Cedren-13-ol, 8-
##MOLFORM=C15H24O
##CAS REGISTRY NO=18319-35-2
##MP= -300
##BP= -300
##MW= 220
##$RETENTION INDEX=1688
##$CONDENSED SPECTRUM=NO
##NPOINTS= 128
##XYDATA=(XY..XY) 1 
    41        639
    42         61
    43        452
    44         17
    45         29
    50         14
    51         78
    52         38
    53        222
    55        446
    56         57
    57         81
    58         40
    59          9
    61          3
    63         26
    65        149
    66         36
    67        185
    68        151
    69        110
    70         19
    71         95
    72         13
    73          4
    74          2
    75          6
    77        349
    78         82
    79        294
    80         62
    81        259
    82         35
    83         63
    84        122
    85         25
    86          6
    87          2
    89         12
    91        591
    92        224
    93        483
    94        115
    95        215
    96         50
    97         64
    98         12
    99          6
   101          3
   102         10
   103         51
   105        548
   106        173
   107        184
   108         51
   109         86
   110         30
   111         17
   112          4
   113          4
   115         83
   116         32
   117        105
   119        999
   120        173
   121        271
   122         68
   123         49
   124         13
   125          8
   126          5
   127         14
   128         42
   129         43
   130         23
   131        191
   132        368
   133        203
   134         62
   135         51
   136         20
   137         25
   138         10
   139         10
   140          6
   141         11
   142          9
   143         16
   145        218
   146         73
   147        110
   148         34
   149         25
   150         12
   151          8
   152         12
   153          4
   156          2
   157          5
   159         70
   160         49
   161        138
   162         43
   163         43
   164         23
   165          7
   171          2
   173         55
   174         16
   175          4
   176          2
   177         13
   178          5
   179          2
   187         71
   188         24
   189        187
   190         30
   191         15
   192          4
   202         79
   203         15
   204          4
   205         10
   206          4
   220        176
   221         30
   222          5