##TITLE=Library Entry 3920
##JCAMP-DX=Revision 4.10 
##DATA TYPE=MASS SPECTRUM
##SAMPLE DESCRIPTION=Chemical Concepts
##NAMES=HP
##CAS NAME=1,4-Methanoazulen-7-ol, decahydro-4,8,8,9-tetramethyl-, (+)-
##MOLFORM=C15H26O
##CAS REGISTRY NO=18319-27-2
##MP= -300
##BP= -300
##MW= 222
##$RETENTION INDEX=0
##$CONDENSED SPECTRUM=NO
##NPOINTS= 122
##XYDATA=(XY..XY) 1 
    27        158
    29        318
    31         69
    39        238
    40         50
    41        999
    42         99
    43        576
    44        112
    45         42
    46         45
    51         84
    52         51
    53        201
    54         66
    55        625
    56         86
    57        145
    59        207
    63         42
    65        166
    66         99
    67        700
    68        120
    69        566
    70         83
    71         96
    72         33
    76        270
    77         57
    78        380
    79        120
    80        434
    81        302
    82        227
    83         68
    84        166
    85         39
    91        344
    92        106
    93        520
    94        230
    95        593
    96        128
    97        100
    98         92
    99         41
   100         34
   101         22
   103         42
   104         49
   105        232
   106        102
   107        489
   108        455
   109        758
   110        291
   111        171
   112         86
   113         40
   114          5
   115         40
   116          6
   117         40
   118          3
   119        259
   120        112
   121        255
   122        175
   123        144
   124         49
   125         84
   126         73
   127         46
   128         66
   131         56
   132         10
   133        231
   134        152
   135        376
   136        219
   137        289
   138        107
   139         79
   140         56
   141         35
   145         48
   147        159
   148        137
   149        376
   150        142
   151         61
   152         73
   153         47
   154         59
   160         36
   161        257
   162        105
   163         72
   164        106
   165        207
   166         53
   167         40
   175        223
   176         71
   177         93
   178        106
   179         98
   189        250
   190         69
   191         45
   192          9
   193         65
   194         77
   204         11
   205         71
   206          4
   207         83
   208         12
   222         55
   223         11
   224          2