##TITLE=Library Entry 85093
##JCAMP-DX=Revision 4.10 
##DATA TYPE=MASS SPECTRUM
##SAMPLE DESCRIPTION=A.A.Kutin, Moscow, Russia
##NAMES=HP
##CAS NAME=Carbamic acid, N-phenyl-, 2-methylphenyl ester
##MOLFORM=C14H13NO2
##CAS REGISTRY NO=18312-43-1
##MP= -300
##BP= -300
##MW= 227
##$RETENTION INDEX=0
##$CONDENSED SPECTRUM=NO
##NPOINTS= 80
##XYDATA=(XY..XY) 1 
    33          0
    36          0
    37          6
    38         19
    39         54
    40         11
    41         11
    43         11
    44          1
    45          0
    50         36
    51         59
    52         33
    53         17
    54          4
    55          8
    56          3
    57          6
    60          1
    61          4
    62         12
    63         38
    64         42
    65         92
    66         19
    67          2
    68          2
    69          4
    70          1
    71          4
    73          1
    74          7
    75          6
    77        224
    78         48
    79         71
    80         34
    81          4
    82          2
    83          3
    84          0
    85          2
    86          0
    87          2
    89         27
    90         62
    91         89
    92         71
    93        117
    94         16
    95          2
    97          2
    98          1
    99          0
   102          0
   104          1
   107        332
   108        999
   109         66
   110          4
   111          1
   112          0
   114          3
   119         84
   120         27
   121          2
   125          0
   126          0
   127          2
   129          0
   137          4
   138          0
   153          0
   180          0
   211          2
   212         19
   213          1
   226          1
   227         11
   228          0