##TITLE=Library Entry 8128
##JCAMP-DX=Revision 4.10 
##DATA TYPE=MASS SPECTRUM
##SAMPLE DESCRIPTION=Exported from NIST MS Search
##NAMES=HP
##CAS NAME=L-Homoserine, O-propyl-
##MOLFORM=C7H15NO3
##CAS REGISTRY NO=18312-28-2
##MP= -300
##BP= -300
##MW= 161
##$RETENTION INDEX=0
##$CONDENSED SPECTRUM=NO
##NPOINTS= 34
##XYDATA=(XY..XY) 1 
    29        150
    30        198
    31         95
    32          2
    39         75
    41        189
    42        118
    43        999
    44        248
    45        114
    46         79
    47         71
    55        173
    56        347
    57        189
    58        493
    59         71
    60         23
    72        126
    73        217
    74        308
    75        110
    83        110
    84         55
    86         51
    87         27
    88         66
   100         55
   102         31
   116        355
   117         31
   118         43
   143         15
   144         36