##TITLE=Library Entry 68069
##JCAMP-DX=Revision 4.10 
##DATA TYPE=MASS SPECTRUM
##SAMPLE DESCRIPTION=LAC, NIDDK, NIH, Bethesda, MD 20892
##NAMES=HP
##CAS NAME=Imidazole, 5-hydrazinocarbonyl-
##MOLFORM=C4H6N4O
##CAS REGISTRY NO=18329-78-7
##MP= -300
##BP= -300
##MW= 126
##$RETENTION INDEX=0
##$CONDENSED SPECTRUM=NO
##NPOINTS= 19
##XYDATA=(XY..XY) 1 
    41        468
    42        133
    43         71
    44         30
    51         23
    52         65
    53        118
    54         27
    55         20
    56         12
    66         41
    67        479
    68        618
    69         42
    70         15
    95        999
    96         62
   126        315
   127         22