##TITLE=Library Entry 70107
##JCAMP-DX=Revision 4.10 
##DATA TYPE=MASS SPECTRUM
##SAMPLE DESCRIPTION=I. Potec et al., Cent. Eur. J. Chem., 8(6), 2010, 1251-
1265
##NAMES=HP
##CAS NAME=Phosphonic acid, methyl-, monoethyl ester
##MOLFORM=C3H9O3P
##CAS REGISTRY NO=1832-53-7
##MP= -300
##BP= -300
##MW= 124
##$RETENTION INDEX=0
##$CONDENSED SPECTRUM=NO
##NPOINTS= 30
##XYDATA=(XY..XY) 1 
    40         13
    42         13
    43         40
    44         21
    45        140
    47        182
    48         32
    49         32
    51         13
    56         13
    57         13
    58         13
    61         13
    63         21
    64         13
    65        220
    71         13
    73         13
    78         73
    79        869
    80        232
    81        251
    89         21
    91         21
    96         40
    97        999
    98         13
    99         13
   109         71
   123         21