##TITLE=Library Entry 17872
##JCAMP-DX=Revision 4.10 
##DATA TYPE=MASS SPECTRUM
##SAMPLE DESCRIPTION=Chemical Concepts
##NAMES=HP
##CAS NAME=1,2-Dithiolane, 1,1-dioxide
##MOLFORM=C3H6O2S2
##CAS REGISTRY NO=18321-16-9
##MP= -300
##BP= -300
##MW= 138
##$RETENTION INDEX=0
##$CONDENSED SPECTRUM=NO
##NPOINTS= 57
##XYDATA=(XY..XY) 1 
    26         44
    27        134
    28         98
    29         33
    33         11
    34         15
    37         23
    38         45
    39        293
    40         54
    41        952
    42         81
    43         35
    44         63
    45        398
    46        999
    47         90
    48        133
    55         27
    56         12
    57         34
    58         38
    59        115
    60          9
    61         10
    63         21
    64        130
    65         11
    66          9
    69         23
    70          9
    71         36
    72         14
    73        201
    74        291
    75         22
    76         28
    77          9
    83         15
    84          7
    85         10
    89         85
    90          4
    91         17
    92          0
    97         12
    98          1
    99          0
   106         16
   107          1
   108          0
   136          2
   137         34
   138         63
   139          2
   140          5
   141          0