##TITLE=Library Entry 77009
##JCAMP-DX=Revision 4.10 
##DATA TYPE=MASS SPECTRUM
##SAMPLE DESCRIPTION=Chemical Concepts
##NAMES=HP
##CAS NAME=Benzenebutanal
##MOLFORM=C10H12O
##CAS REGISTRY NO=18328-11-5
##MP= -300
##BP= -300
##MW= 148
##$RETENTION INDEX=1792
##$CONDENSED SPECTRUM=NO
##NPOINTS= 106
##XYDATA=(XY..XY) 1 
    25          2
    26          9
    27         45
    28          6
    29         42
    30          2
    31          4
    37          5
    38         15
    39        124
    40         12
    41         76
    42         12
    43         20
    44         12
    45          7
    49          4
    50         42
    51        107
    52         30
    53         16
    54          4
    55         24
    56          6
    57         22
    58          7
    59          5
    60          9
    61          7
    62         20
    63         62
    64         18
    65        194
    66         16
    67          7
    68          4
    69         13
    70          6
    71          8
    72          2
    73          5
    74         16
    75         15
    76         13
    77         96
    78        108
    79         41
    80          4
    81          8
    82          5
    83          9
    84          4
    85          8
    86          5
    87          7
    88          5
    89         39
    90         20
    91        491
    92        133
    93         15
    94          3
    95          8
    96          6
    97         13
    98          5
    99          4
   100          2
   101          5
   102         17
   103         72
   104        999
   105        169
   106         18
   107          8
   108          2
   109          5
   110          4
   111          6
   112          3
   113          4
   114          3
   115         41
   116         13
   117         29
   118         10
   119          7
   120          9
   121          5
   122          4
   123          4
   124          3
   125          3
   126          3
   127          5
   128          7
   129          9
   130         11
   131          6
   132          5
   133          8
   146          5
   147          4
   148        170
   149         27
   150          7