##TITLE=Library Entry 54148
##JCAMP-DX=Revision 4.10 
##DATA TYPE=MASS SPECTRUM
##SAMPLE DESCRIPTION=Darrick Lee, Cayman Chemical, Ann Arbor, MI
##NAMES=HP
##CAS NAME=AM251
##MOLFORM=C22H21Cl2IN4O
##CAS REGISTRY NO=183232-66-8
##MP= -300
##BP= -300
##MW= 554
##$RETENTION INDEX=0
##$CONDENSED SPECTRUM=NO
##NPOINTS= 219
##XYDATA=(XY..XY) 1 
    40          3
    41         69
    42         50
    43         11
    44         16
    45         18
    50         12
    51         11
    52          1
    53          3
    54         20
    55        211
    56         39
    57         32
    63         11
    67          3
    68          5
    69          3
    70         11
    71          1
    73         11
    74         10
    75         40
    76         39
    77         26
    78         11
    79          1
    80          6
    81          1
    82         55
    83        175
    84        999
    85         74
    86          1
    87          4
    88          5
    89          7
    91          1
    96          6
    97          3
    98          5
    99        236
   100         21
   101          7
   102         50
   103         31
   104          1
   105          1
   109         41
   110         15
   111         19
   112          4
   113          4
   114         15
   115         15
   119          6
   124          3
   125          1
   126         10
   127         51
   128         91
   129         92
   130          6
   132          1
   133         12
   135          9
   136          7
   137          3
   140         51
   141          9
   145         53
   146          2
   147         40
   148          4
   149         10
   150          9
   151          6
   152          2
   153          3
   154          2
   155          6
   156          3
   160         28
   161          4
   162         26
   163         16
   164          6
   165          3
   166          1
   171          8
   172          7
   173          7
   174          9
   175          7
   176         17
   177         71
   178         12
   179          4
   180         11
   186          1
   188          1
   189         10
   191          8
   193         28
   195          2
   196          1
   197          6
   198          7
   199          1
   200          7
   201          9
   202         15
   203         39
   204         18
   205          2
   207          1
   209          4
   210          1
   211          7
   212          9
   213          7
   214          3
   215          1
   217          1
   222          1
   223         10
   224          1
   225          9
   226          1
   227          7
   228          7
   229         83
   230         45
   231          4
   236          1
   237          7
   238         35
   239         15
   240         11
   241          3
   247         41
   248         16
   249         46
   250         18
   251          8
   252          2
   253          8
   254          5
   255          6
   256         43
   257          1
   263         40
   264         41
   265         48
   266         31
   267         19
   268          8
   269          5
   272          1
   274          4
   282          5
   283          7
   290          6
   291         37
   292         50
   293         10
   294          9
   295          1
   299         12
   300         50
   301         20
   302         30
   303          6
   304          1
   325          1
   327         15
   328         60
   329         16
   330         42
   331         18
   332          6
   341          3
   342          3
   343          2
   345          1
   346          1
   355          1
   374         52
   375          4
   376         35
   377          3
   378          2
   391         17
   392          2
   393          4
   405          1
   419         13
   420          3
   421          4
   426          8
   427         23
   428         20
   429         17
   430          4
   431          1
   453         22
   454         77
   455        147
   456         82
   457        120
   458          8
   459         17
   470          1
   471         34
   472         20
   473         23
   474         11
   475          1
   554          1