##TITLE=Library Entry 47572
##JCAMP-DX=Revision 4.10 
##DATA TYPE=MASS SPECTRUM
##SAMPLE DESCRIPTION=A.A.Kutin, Moscow, Russia
##NAMES=HP
##CAS NAME=Benzofurazan-5-amine, 4-nitro-
##MOLFORM=C6H4N4O3
##CAS REGISTRY NO=18333-71-6
##MP= -300
##BP= -300
##MW= 180
##$RETENTION INDEX=0
##$CONDENSED SPECTRUM=NO
##NPOINTS= 86
##XYDATA=(XY..XY) 1 
    33         20
    34          2
    35          2
    36         15
    37        100
    38        162
    39        104
    40        149
    41        150
    42         16
    43         23
    44         39
    45          2
    46         25
    48          2
    49         40
    50        155
    51        166
    52        495
    53        235
    54         61
    55         32
    57          8
    58          3
    59          1
    60          5
    61         32
    62         88
    63        324
    64        159
    65        125
    66        105
    67         41
    68         23
    69         18
    70         25
    71          4
    74          8
    75        110
    76        341
    77        999
    79        300
    80         60
    81          6
    83         24
    84          2
    85          9
    86          8
    87         13
    88         16
    89         23
    90        264
    92        152
    93         13
    94          6
    95         29
    96          7
    98          6
   100          4
   101         13
   102         13
   103        154
   104        259
   105         30
   107         24
   108          1
   112          0
   115          0
   116        179
   117        497
   118         32
   120        267
   122        181
   123         39
   132          7
   134        129
   135          8
   150        201
   151         12
   162          0
   163          1
   164         11
   179          2
   180        933
   181         61
   182          8