##TITLE=Library Entry 62075
##JCAMP-DX=Revision 4.10 
##DATA TYPE=MASS SPECTRUM
##SAMPLE DESCRIPTION=CONTINENTAL OIL CO., PONCA CITY, OKLA, USA
##NAMES=HP
##CAS NAME=Benzene, (1-propylpentyl)-
##MOLFORM=C14H22
##CAS REGISTRY NO=18335-17-6
##MP= -300
##BP= -300
##MW= 190
##$RETENTION INDEX=1311
##$CONDENSED SPECTRUM=NO
##NPOINTS= 85
##XYDATA=(XY..XY) 1 
    27         44
    28          5
    29         36
    30          0
    37          0
    38          1
    39         24
    40          2
    41         39
    42          2
    43         11
    44          0
    50          3
    51         14
    52          4
    53          6
    54          0
    55         13
    56          1
    57          1
    58          0
    62          1
    63          6
    64          2
    65         20
    66          1
    67          1
    68          0
    69          6
    70          0
    71          0
    74          1
    75          2
    76          3
    77         27
    78         20
    79          9
    80          0
    81          0
    83          0
    86          0
    87          0
    88          0
    89          6
    90          4
    91        999
    92         80
    93          3
   101          1
   102          8
   103         29
   104         70
   105         56
   106          5
   107          0
   113          0
   114          1
   115         29
   116         10
   117         33
   118          8
   119          3
   120          0
   126          0
   127          2
   128          6
   129          4
   130          1
   131          3
   132          5
   133        167
   134         22
   135          1
   139          0
   141          0
   143          0
   145          1
   146          3
   147        143
   148         20
   149          1
   188          0
   190        105
   191         16
   192          1