##TITLE=Library Entry 61673
##JCAMP-DX=Revision 4.10 
##DATA TYPE=MASS SPECTRUM
##SAMPLE DESCRIPTION=CONTINENTAL OIL CO., PONCA CITY, OKLA, USA
##NAMES=HP
##CAS NAME=Benzene, (1-ethylhexyl)-
##MOLFORM=C14H22
##CAS REGISTRY NO=18335-15-4
##MP= -300
##BP= -300
##MW= 190
##$RETENTION INDEX=1322
##$CONDENSED SPECTRUM=NO
##NPOINTS= 85
##XYDATA=(XY..XY) 1 
    26          3
    27         48
    28          7
    29         55
    30          1
    37          0
    38          1
    39         33
    40          3
    41         73
    42          5
    43         15
    44          0
    50          4
    51         19
    52          5
    53          7
    54          1
    55         17
    56          1
    57          6
    58          0
    62          1
    63          8
    64          2
    65         22
    66          1
    67          1
    68          0
    69          5
    70          2
    71          0
    74          2
    75          3
    76          4
    77         36
    78         25
    79         14
    80          1
    81          0
    83          3
    84          0
    86          0
    87          1
    88          1
    89          7
    90          5
    91        999
    92         78
    93          3
   101          1
   102         10
   103         34
   104         74
   105         75
   106          6
   113          1
   114          1
   115         35
   116         12
   117         40
   118         20
   119        354
   120         44
   121          2
   126          0
   127          2
   128          6
   129          4
   130          1
   131          3
   132          2
   133          2
   134          0
   142          0
   145          0
   147          0
   159          0
   160          3
   161        164
   162         21
   163          1
   190        129
   191         19
   192          1