##TITLE=Library Entry 24349
##JCAMP-DX=Revision 4.10 
##DATA TYPE=MASS SPECTRUM
##SAMPLE DESCRIPTION=W. VAN HOEVEN, UNIV. OF CALIFORNIA, BERKELEY, USA
##NAMES=HP
##CAS NAME=Heptadecane, 2,6,10,14-tetramethyl-
##MOLFORM=C21H44
##CAS REGISTRY NO=18344-37-1
##MP= -300
##BP= -300
##MW= 296
##$RETENTION INDEX=1872
##$CONDENSED SPECTRUM=NO
##NPOINTS= 104
##XYDATA=(XY..XY) 1 
    40         17
    41        352
    42        105
    43        895
    44         35
    45          3
    50          1
    51          4
    52          1
    53         19
    54         13
    55        279
    56        211
    57        999
    58         38
    59          1
    60          1
    61          0
    65          2
    66          1
    67         18
    68         15
    69        121
    70        126
    71        632
    72         32
    73          2
    77          1
    79          3
    81          8
    82          4
    83         28
    84         43
    85        234
    86         14
    95          4
    96          8
    97         27
    98         11
    99         47
   100          4
   101          0
   102          0
   103          0
   104          0
   105          1
   106          0
   107          1
   108          0
   109          3
   110          2
   111         11
   112         37
   113         53
   114          5
   115          0
   117          0
   119          0
   121          0
   123          2
   124          0
   125          3
   126          9
   127         21
   128          2
   129          0
   133          0
   135          0
   136          0
   137          1
   138          0
   139          2
   140         14
   141         35
   142          4
   143          0
   149          0
   151          0
   153          0
   154          4
   155          9
   156          1
   167          0
   168          0
   169          4
   170          0
   182          8
   183         18
   184          3
   185          0
   196          0
   197          2
   198          0
   210          4
   211         10
   212          2
   225          0
   226          1
   252          1
   253          2
   254          0
   267          0
   281          1
   296          0