##TITLE=Library Entry 83681
##JCAMP-DX=Revision 4.10 
##DATA TYPE=MASS SPECTRUM
##SAMPLE DESCRIPTION=Exported from NIST MS Search
##NAMES=HP
##CAS NAME=2-Pyridinamine, 3-methyl-N-nitro-
##MOLFORM=C6H7N3O2
##CAS REGISTRY NO=18344-53-1
##MP= -300
##BP= -300
##MW= 153
##$RETENTION INDEX=0
##$CONDENSED SPECTRUM=NO
##NPOINTS= 21
##XYDATA=(XY..XY) 1 
    30         90
    38         60
    39        210
    40         50
    50         60
    51        110
    52        150
    53        510
    54         70
    65         30
    66         70
    68         60
    79         50
    80        620
    81         60
    92         80
    93         80
   107        999
   108        130
   109         80
   153         50