##TITLE=Library Entry 33327
##JCAMP-DX=Revision 4.10 
##DATA TYPE=MASS SPECTRUM
##SAMPLE DESCRIPTION=K. Jacobson, LBC, NIDDK, NIH, Bethesda, MD 20892
##NAMES=HP
##CAS NAME=Acetamide, N-methyl-N-(2-propynyl)-
##MOLFORM=C6H9NO
##CAS REGISTRY NO=18341-31-6
##MP= -300
##BP= -300
##MW= 111
##$RETENTION INDEX=0
##$CONDENSED SPECTRUM=NO
##NPOINTS= 49
##XYDATA=(XY..XY) 1 
    42        502
    43        819
    44         81
    45          8
    49          2
    50          7
    51         18
    52         36
    53         24
    54        127
    55         45
    56         40
    57         14
    58         15
    59          3
    60          3
    63          2
    64          5
    65          8
    66         55
    67         24
    68        999
    69        198
    70         20
    71          3
    72         18
    73          7
    74          1
    77          3
    78          3
    79          1
    80          3
    81          3
    82         43
    83         11
    84         10
    85          5
    86          7
    87          3
    88          1
    94          3
    95          1
    96        134
    97         11
   108          1
   110         38
   111        303
   112         29
   113          2