##TITLE=Library Entry 59575
##JCAMP-DX=Revision 4.10 
##DATA TYPE=MASS SPECTRUM
##SAMPLE DESCRIPTION=NIST Mass Spectrometry Data Center, 1994
##NAMES=HP
##CAS NAME=4-Benzyloxy-3-methoxyacetophenone
##MOLFORM=C16H16O3
##CAS REGISTRY NO=1835-11-6
##MP= -300
##BP= -300
##MW= 256
##$RETENTION INDEX=0
##$CONDENSED SPECTRUM=NO
##NPOINTS= 95
##XYDATA=(XY..XY) 1 
    13          0
    14          1
    15         17
    16          0
    17          0
    18          0
    27          0
    28          3
    37          2
    38          8
    39         57
    40          5
    41         15
    42          0
    43        103
    44          2
    49          0
    50         18
    51         60
    52         13
    53         12
    54          1
    55          3
    57          0
    61          1
    62          8
    63         32
    64         13
    65        128
    66         19
    67          2
    68          0
    69          0
    70          0
    75          3
    76          7
    77         20
    78          6
    79         35
    80          3
    81          3
    82          0
    86          0
    87          0
    89         17
    91        999
    92         84
    93          6
    94          7
    95          3
   102          0
   103          0
   104          1
   105          4
   106          1
   107          7
   108          1
   109          7
   110          0
   114          0
   115          2
   116          0
   119          5
   120         10
   121          7
   122         12
   123          3
   124          0
   127          0
   133          0
   134          0
   135          0
   137          0
   139          0
   140          0
   141          1
   149          4
   150          0
   151          2
   152          1
   153          1
   163          0
   165          4
   166          1
   169          0
   181          0
   182          0
   197          0
   213          1
   214          4
   215          0
   241          1
   256         57
   257         11
   258          1