##TITLE=Library Entry 50762
##JCAMP-DX=Revision 4.10 
##DATA TYPE=MASS SPECTRUM
##SAMPLE DESCRIPTION=NIST Mass Spectrometry Data Center, 2010
##NAMES=HP
##CAS NAME=Thymidine, 3',5'-bis(trifluoroacetate)
##MOLFORM=C14H12F6N2O7
##CAS REGISTRY NO=18354-10-4
##MP= -300
##BP= -300
##MW= 434
##$RETENTION INDEX=2054
##$CONDENSED SPECTRUM=NO
##NPOINTS= 138
##XYDATA=(XY..XY) 1 
    15          2
    26          3
    27         30
    28         33
    29         23
    30          2
    31          4
    33          3
    37          1
    38          3
    39         45
    40         26
    41         45
    42         23
    43         34
    44         14
    45         11
    46          1
    47         10
    50          6
    51          8
    52         10
    53        121
    54         74
    55        134
    56         13
    57          5
    58          1
    59         10
    60          1
    61          1
    63          1
    64          1
    65          5
    66          8
    67         18
    68         30
    69        210
    70         18
    71         12
    72          1
    73          8
    74          1
    75          4
    77          3
    78          7
    79          3
    80         36
    81        999
    82         90
    83         67
    84         10
    85          3
    87          1
    89          3
    91         15
    92          4
    93         11
    94         13
    95          9
    96          7
    97         35
    98          5
    99         25
   100          1
   104          1
   106          2
   107          2
   108          5
   109         13
   110         36
   111          4
   112          3
   113          1
   115          3
   117          2
   118          1
   119          2
   120          1
   121          6
   122         26
   123          5
   124          5
   125         16
   126        894
   127        188
   128         14
   129          1
   132          1
   134          3
   135          1
   136         13
   137          2
   138          8
   139          7
   140          3
   141          1
   149          1
   150         21
   151          5
   152          4
   153         12
   154          1
   155          1
   157          1
   162          5
   163          1
   164         14
   165         10
   166          3
   167          8
   168          2
   169          2
   178          1
   179          1
   180          1
   181          6
   182          1
   183          1
   193          8
   194         18
   195          5
   196          1
   204          1
   205          1
   206         26
   207          6
   208          1
   222          1
   258          1
   276          1
   278          3
   307          3
   309          1
   321          5
   322          1
   434          8
   435          1