##TITLE=Library Entry 34570
##JCAMP-DX=Revision 4.10 
##DATA TYPE=MASS SPECTRUM
##SAMPLE DESCRIPTION=Chemical Concepts
##NAMES=HP
##CAS NAME=1,6-Heptadiene-4-carboxylic acid, 4-hydroxy-, ethyl ester
##MOLFORM=C10H16O3
##CAS REGISTRY NO=183536-93-8
##MP= -300
##BP= -300
##MW= 184
##$RETENTION INDEX=0
##$CONDENSED SPECTRUM=NO
##NPOINTS= 80
##XYDATA=(XY..XY) 1 
    25          1
    26         13
    27        103
    28         38
    29        200
    30          1
    31         27
    36          1
    37          3
    38          7
    39        152
    40         28
    41        790
    42         60
    43         53
    44          5
    45         25
    46          2
    47          8
    50          3
    51          7
    52          4
    53         16
    54          4
    55         33
    56          4
    57          9
    58          1
    60          1
    62          0
    63          2
    65          8
    66          4
    67         11
    68         33
    69        999
    70         51
    71          6
    72          0
    73         21
    74          2
    75          0
    77          9
    78          2
    79          8
    80          1
    81          4
    82          4
    83         13
    85          0
    87          4
    88          0
    91         10
    92          2
    93          7
    94          2
    95          6
    96          2
    97          9
    98          0
    99          0
   105          0
   107          0
   109          1
   110          5
   111         84
   112          7
   113          2
   115         70
   116          4
   117          0
   120          0
   121          0
   122          0
   138          6
   139          0
   142          5
   143        292
   144         24
   145          1