##TITLE=Library Entry 54280
##JCAMP-DX=Revision 4.10 
##DATA TYPE=MASS SPECTRUM
##SAMPLE DESCRIPTION=A. Brossi, LC, NIDDK, NIH, Bethesda, MD 20892
##NAMES=HP
##CAS NAME=Rolziracetam
##MOLFORM=C7H9NO2
##CAS REGISTRY NO=18356-28-0
##MP= -300
##BP= -300
##MW= 139
##$RETENTION INDEX=0
##$CONDENSED SPECTRUM=NO
##NPOINTS= 69
##XYDATA=(XY..XY) 1 
    41        182
    42        240
    43         19
    44         11
    45          1
    48          0
    49          4
    50         12
    51         26
    52         47
    53         63
    54        188
    55        633
    56        300
    57         19
    58          2
    60          0
    61          1
    62          3
    63          4
    64          3
    65         10
    66          9
    67         54
    68         70
    69        143
    70         55
    71          3
    72          0
    73          0
    76          0
    77          2
    78          3
    79          2
    80          9
    81         14
    82         75
    83        125
    84        999
    85        119
    86          7
    87          0
    91          0
    92          3
    93          2
    94          1
    95          7
    96         14
    97          5
    98          7
    99          0
   106          0
   108          1
   109          3
   110         20
   111         44
   112          3
   120          2
   121          2
   122          1
   123          0
   124          5
   125          0
   137          1
   138         21
   139        953
   140        152
   141         13
   142          0