##TITLE=Library Entry 109229
##JCAMP-DX=Revision 4.10 
##DATA TYPE=MASS SPECTRUM
##SAMPLE DESCRIPTION=Exported from NIST MS Search
##NAMES=HP
##CAS NAME=2(1H)-Pyridinethione, 5-methyl-
##MOLFORM=C6H7NS
##CAS REGISTRY NO=18368-58-6
##MP= -300
##BP= -300
##MW= 125
##$RETENTION INDEX=0
##$CONDENSED SPECTRUM=NO
##NPOINTS= 33
##XYDATA=(XY..XY) 1 
    38         97
    39        426
    45        146
    50         61
    51         61
    52         36
    53        146
    54         24
    57         24
    58         24
    62         24
    63         97
    64         36
    65        268
    66         61
    69        121
    70         36
    71         36
    79         12
    80        463
    81        707
    82         24
    83         12
    90         12
    91        146
    96         24
    97        219
    98         24
   110         12
   124        121
   125        999
   126         97
   127         36