##TITLE=Library Entry 109219
##JCAMP-DX=Revision 4.10 
##DATA TYPE=MASS SPECTRUM
##SAMPLE DESCRIPTION=Exported from NIST MS Search
##NAMES=HP
##CAS NAME=2(1H)-Pyridinethione, 3-methyl-
##MOLFORM=C6H7NS
##CAS REGISTRY NO=18368-66-6
##MP= -300
##BP= -300
##MW= 125
##$RETENTION INDEX=0
##$CONDENSED SPECTRUM=NO
##NPOINTS= 22
##XYDATA=(XY..XY) 1 
    38         41
    39        163
    45         41
    51         16
    52         24
    53         41
    63         41
    64         82
    65        147
    78         57
    79         98
    80        327
    81        229
    91        147
    92         98
    93          8
    97         82
    99          8
   124        327
   125        999
   126         82
   127         41