##TITLE=Library Entry 65019
##JCAMP-DX=Revision 4.10 
##DATA TYPE=MASS SPECTRUM
##SAMPLE DESCRIPTION=Exported from NIST MS Search
##NAMES=HP
##CAS NAME=2-Picoline, 6-nitro-
##MOLFORM=C6H6N2O2
##CAS REGISTRY NO=18368-61-1
##MP= -300
##BP= -300
##MW= 138
##$RETENTION INDEX=0
##$CONDENSED SPECTRUM=NO
##NPOINTS= 20
##XYDATA=(XY..XY) 1 
    37         69
    38         69
    39        347
    40         17
    41         26
    46         17
    50         43
    51         43
    52         43
    62         17
    63         69
    64         86
    65        695
    66         86
    80         26
    91         17
    92        999
    93         69
   108         26
   138         17