##TITLE=Library Entry 76664
##JCAMP-DX=Revision 4.10 
##DATA TYPE=MASS SPECTRUM
##SAMPLE DESCRIPTION=NIST Mass Spectrometry Data Center
##NAMES=HP
##CAS NAME=.alpha.-Chlorocinnamaldehyde
##MOLFORM=C9H7ClO
##CAS REGISTRY NO=18365-42-9
##MP= -300
##BP= -300
##MW= 166
##$RETENTION INDEX=0
##$CONDENSED SPECTRUM=NO
##NPOINTS= 93
##XYDATA=(XY..XY) 1 
    12          2
    13          4
    15          3
    16          3
    17          2
    18          3
    24          2
    25          7
    26         51
    27         77
    29        296
    30          3
    35         12
    36         17
    37         57
    38         89
    39        152
    40          6
    41          2
    43          3
    44          2
    47          6
    49         60
    50        421
    51        611
    52        125
    53         40
    54          2
    55          4
    60         18
    61         76
    62        136
    63        185
    64         16
    65         19
    68          8
    69          4
    70          1
    71          1
    72         10
    73         66
    74        263
    75        344
    76        264
    77        600
    78        616
    79         41
    82          2
    83         13
    84         19
    85         30
    86         35
    87         38
    88          9
    89         12
    90          2
    91         12
    92          1
    96          4
    97         25
    98         40
    99         27
   101        253
   102        613
   103        999
   104         86
   105         25
   106          1
   108          4
   109          7
   110          7
   111         10
   112         12
   113          7
   114          7
   115          3
   129         33
   130         19
   131        128
   132         14
   135          1
   136         16
   137         47
   138        106
   139         27
   140         35
   141          3
   162          1
   165        830
   166        665
   167        332
   168        208
   169         21