##TITLE=Library Entry 109215
##JCAMP-DX=Revision 4.10 
##DATA TYPE=MASS SPECTRUM
##SAMPLE DESCRIPTION=E. S. WAIGHT IMPERIAL COLLEGE, LONDON
##NAMES=HP
##CAS NAME=2(1H)-Pyridinethione, 4-methyl-
##MOLFORM=C6H7NS
##CAS REGISTRY NO=18368-65-5
##MP= -300
##BP= -300
##MW= 125
##$RETENTION INDEX=0
##$CONDENSED SPECTRUM=NO
##NPOINTS= 25
##XYDATA=(XY..XY) 1 
    27        110
    28         92
    37         57
    38        100
    39        354
    45        139
    50         85
    51        114
    52         71
    53        128
    57         71
    58         71
    63         85
    65        282
    66         84
    69         71
    80        545
    81        525
    92        167
    97        128
   110         81
   124         71
   125        999
   126         99
   127         57