##TITLE=Library Entry 72328
##JCAMP-DX=Revision 4.10 
##DATA TYPE=MASS SPECTRUM
##SAMPLE DESCRIPTION=P.TOFT DEPT. NATIONAL HEALTH & WELFARE, OTTAWA, CANADA
##NAMES=HP
##CAS NAME=Estr-5(10)-en-3-one, 17-(acetyloxy)-, cyclic 1,2-ethanediyl aceta
l, (17.beta.)-
##MOLFORM=C22H32O4
##CAS REGISTRY NO=18367-54-9
##MP= -300
##BP= -300
##MW= 360
##$RETENTION INDEX=0
##$CONDENSED SPECTRUM=NO
##NPOINTS= 30
##XYDATA=(XY..XY) 1 
    77         78
    79        131
    81        109
    86        522
    87        804
    88         56
    91        201
    93        130
    94         37
    95         68
    99        999
   100         99
   105        126
   117         47
   119         78
   199         64
   214        126
   238        127
   239         74
   240         32
   298        180
   299         67
   300         31
   301         15
   331         10
   332         45
   333         27
   360        450
   361        115
   362         15