##TITLE=Library Entry 18050
##JCAMP-DX=Revision 4.10 
##DATA TYPE=MASS SPECTRUM
##SAMPLE DESCRIPTION=J. SHAW, BORRISTON RESEARCH, ROCKVILLE, MD, USA
##NAMES=HP
##CAS NAME=Chlornitrofen
##MOLFORM=C12H6Cl3NO3
##CAS REGISTRY NO=1836-77-7
##MP= -300
##BP= -300
##MW= 317
##$RETENTION INDEX=2326
##$CONDENSED SPECTRUM=NO
##NPOINTS= 213
##XYDATA=(XY..XY) 1 
    12          7
    14          6
    15          8
    16         26
    17         58
    18        208
    26         61
    27         36
    28        123
    30        966
    31          6
    32          5
    35         27
    36         65
    37         90
    38        286
    39        162
    40          9
    41          8
    42          4
    43         10
    44          4
    46        105
    47         12
    48          4
    49         41
    50        999
    51        125
    52         60
    53         87
    54         37
    55         19
    56          5
    57          4
    58          1
    60         17
    61        109
    62        272
    63        561
    64        423
    65         31
    66         12
    67          5
    68         23
    69         15
    70          1
    71         10
    72         39
    73        127
    74        411
    75        391
    76        528
    77         42
    78          3
    79         63
    80         31
    81          4
    82          8
    83         48
    84         58
    85         52
    86         72
    87         74
    88         17
    89          6
    90         10
    91          7
    92        195
    93         14
    94          3
    95          7
    96         41
    97        195
    98         36
    99         81
   100          9
   101          4
   103         10
   104          8
   106          8
   107         88
   108         82
   109        148
   110         39
   111         56
   112          9
   113         12
   114          1
   117          1
   118          8
   119          9
   120          6
   121         13
   122         28
   123         15
   124          3
   125         10
   126         16
   127          3
   131         19
   132         32
   133         23
   134         23
   135         12
   136          9
   137         83
   138         69
   139          8
   140          1
   141          6
   142          4
   143         65
   144         34
   145         46
   146         21
   147         24
   148          7
   149          7
   150          1
   157          5
   159          7
   160         25
   161         12
   162         12
   163          3
   164          1
   167        139
   169        136
   170         15
   171         48
   172         33
   173        243
   174         37
   175         77
   176          9
   177          1
   179         21
   180          3
   181         24
   182          9
   183         47
   184          9
   185         24
   186          3
   187          3
   189         24
   190          2
   191          7
   193          6
   195         75
   196        102
   197         67
   198         63
   199         22
   200         14
   201         12
   202          2
   203          2
   204          1
   205          1
   207         74
   208         21
   209         48
   210         12
   211          9
   212          1
   217         30
   218          3
   219         27
   221         10
   223         13
   224         50
   225         12
   226         31
   227          3
   228          4
   233          1
   236        207
   237         36
   238        117
   239         15
   240         17
   241          2
   243         17
   245         17
   246          1
   247          5
   251          1
   252          2
   254          1
   259          2
   261          2
   265         10
   267          6
   271          4
   273          5
   281          1
   282          1
   283          1
   287        100
   289        107
   290         38
   292          2
   293          1
   301          4
   303          3
   317        182
   318         24
   319        195
   320         24
   321         59
   322          7
   323          5