##TITLE=Library Entry 65023
##JCAMP-DX=Revision 4.10 
##DATA TYPE=MASS SPECTRUM
##SAMPLE DESCRIPTION=Exported from NIST MS Search
##NAMES=HP
##CAS NAME=3-Picoline, 2-nitro-
##MOLFORM=C6H6N2O2
##CAS REGISTRY NO=18368-73-5
##MP= -300
##BP= -300
##MW= 138
##$RETENTION INDEX=0
##$CONDENSED SPECTRUM=NO
##NPOINTS= 21
##XYDATA=(XY..XY) 1 
    37         50
    38        100
    39        400
    40         10
    41         30
    46         20
    50         50
    51         60
    52         50
    53         20
    62         20
    63        100
    64        120
    65        819
    66         80
    80         80
    91         30
    92        999
    93        100
   108         50
   138         20