##TITLE=Library Entry 72289
##JCAMP-DX=Revision 4.10 
##DATA TYPE=MASS SPECTRUM
##SAMPLE DESCRIPTION=NIST Mass Spectrometry Data Center
##NAMES=HP
##CAS NAME=Homodihydroisovaltrate
##MOLFORM=C23H34O8
##CAS REGISTRY NO=18361-41-6
##MP= -300
##BP= -300
##MW= 438
##$RETENTION INDEX=2648
##$CONDENSED SPECTRUM=NO
##NPOINTS= 200
##XYDATA=(XY..XY) 1 
    39         10
    40          4
    41        111
    42         27
    43        487
    44         16
    45          5
    50          1
    51          6
    52          3
    53         22
    54          5
    55         75
    56         27
    57        449
    58         20
    59          7
    60         11
    61          7
    62          1
    63          2
    64          1
    65         19
    66         17
    67         22
    68          8
    69         68
    70         12
    71        642
    72         35
    73          7
    74          1
    76          1
    77         81
    78         30
    79         79
    80         14
    81         31
    82          8
    83         29
    84          7
    85        698
    86         39
    87          7
    89          2
    90          2
    91         78
    92         13
    93         24
    94        205
    95         75
    96         13
    97         11
    98          9
    99        999
   100         67
   101          7
   102          6
   103         42
   104         72
   105        127
   106         19
   107         47
   108         30
   109         23
   110          7
   111          9
   112          2
   113          2
   114          1
   115         12
   116          2
   117          6
   118          5
   119        502
   120         63
   121         44
   122         28
   123         15
   124          6
   125          4
   126          2
   127          3
   128          1
   129          2
   131         13
   132        103
   133        151
   134         47
   135         33
   136         24
   137         93
   138         16
   139          5
   140          1
   143         31
   144          3
   145          4
   146          4
   147         29
   148         10
   149         95
   150        114
   151         75
   152         18
   153          7
   154          2
   155          2
   159         35
   160        205
   161        357
   162         49
   163         12
   164          4
   165         21
   166          5
   167         10
   168          4
   169          6
   174          4
   177         95
   178        535
   179        365
   180         42
   181          6
   182          1
   186          1
   187         42
   188          4
   192        124
   193         19
   194          2
   195         26
   196         26
   197          6
   198          1
   200          1
   206          1
   207         14
   208          5
   209          4
   210          2
   216          2
   218          1
   219          2
   220          4
   221         10
   222          4
   223          2
   224          1
   225         11
   226          1
   232          1
   233         41
   234         10
   235          7
   236         27
   237         55
   238         29
   239         11
   240          2
   244          6
   245          1
   251         10
   252          3
   253          1
   255          9
   256          3
   258          2
   261         20
   262         54
   263         10
   264          2
   266          1
   279          7
   280         39
   281         11
   282          2
   285          2
   293          7
   295          2
   297          2
   307         10
   308          2
   309          1
   321          2
   322         49
   323        271
   324         51
   325          8
   326          1
   339         34
   340          8
   341          1
   349          2
   360          1
   363          1
   378          5
   379          2
   438          1