##TITLE=Library Entry 45151
##JCAMP-DX=Revision 4.10 
##DATA TYPE=MASS SPECTRUM
##SAMPLE DESCRIPTION=CARL DJERASSI DEPT OF CHEM STANFORD UNIV STANFORD CALIF
 94305
##NAMES=HP
##CAS NAME=Carbonochloridothioic acid, S-methyl ester
##MOLFORM=C2H3ClOS
##CAS REGISTRY NO=18369-83-0
##MP= -300
##BP= -300
##MW= 110
##$RETENTION INDEX=0
##$CONDENSED SPECTRUM=NO
##NPOINTS= 24
##XYDATA=(XY..XY) 1 
    28         90
    29         10
    32         90
    33         10
    35         50
    37         10
    43          1
    44         10
    45         45
    46        140
    47        350
    48         30
    49         20
    60         60
    61         10
    63        110
    64         10
    65         30
    67         10
    75        999
    76         30
    77         40
   110        240
   112         90