##TITLE=Library Entry 60226
##JCAMP-DX=Revision 4.10 
##DATA TYPE=MASS SPECTRUM
##SAMPLE DESCRIPTION=NIST Mass Spectrometry Data Center
##NAMES=HP
##CAS NAME=7-Benzylamino-4-nitrobenz-2-oxa-1,3-diazole
##MOLFORM=C13H10N4O3
##CAS REGISTRY NO=18378-20-6
##MP= -300
##BP= -300
##MW= 270
##$RETENTION INDEX=0
##$CONDENSED SPECTRUM=NO
##NPOINTS= 163
##XYDATA=(XY..XY) 1 
    16          1
    17          6
    18         26
    26          4
    27         14
    29          1
    30         29
    36          1
    37          8
    38         17
    39         49
    40          7
    41         13
    42          2
    43          1
    44          2
    46          1
    49          3
    50         35
    51         79
    52         52
    53         26
    54          9
    55          2
    61          6
    62         21
    63         58
    64         44
    65        101
    66         13
    67          4
    68          1
    69          2
    70          3
    73          1
    74         11
    75         29
    76         79
    77        126
    78         35
    79         27
    80         11
    81          1
    82          1
    83          2
    84          1
    85          1
    86          4
    87          7
    88         14
    89         83
    90         41
    91        999
    92         84
    93          5
    94          2
    96          2
    97          1
    98          1
    99          2
   100          3
   101          9
   102         13
   103         77
   104         96
   105         71
   106         24
   107          5
   110          7
   111          1
   112          2
   113          4
   114         14
   115         29
   116         16
   117         13
   118         16
   119         11
   120          4
   125          3
   126          7
   127         19
   128         17
   129         16
   130          6
   131          6
   132          5
   133          4
   134          2
   135          2
   137          1
   138          4
   139         10
   140         22
   141          9
   142          8
   143          4
   144          3
   145          8
   146          2
   148          3
   149         11
   150          5
   151          6
   152         18
   153         13
   154         16
   155          8
   156          1
   157          1
   160          1
   161         46
   162          4
   163          2
   164         12
   165         11
   166          7
   167         11
   168         10
   169          3
   171          1
   177          3
   178          5
   179         36
   180          9
   181         10
   182          3
   191          8
   192         22
   193         28
   194         40
   195         10
   196          3
   204          2
   205          3
   206         50
   207         16
   208         36
   209          7
   210          1
   218          3
   219        106
   220         77
   221         30
   222         11
   223          4
   224         16
   225          3
   235          4
   236        118
   237         32
   238         35
   239          6
   240          6
   252          2
   253          3
   254          7
   255          1
   268         14
   269          3
   270         78
   271         11
   272          1