##TITLE=Library Entry 99612
##JCAMP-DX=Revision 4.10 
##DATA TYPE=MASS SPECTRUM
##SAMPLE DESCRIPTION=L.N.Kulikova, V.G. Zaikin, Peoples' Friendship Universi
ty of Russia, Moscow
##NAMES=HP
##CAS NAME=N-Methyl-p-toluamide
##MOLFORM=C9H11NO
##CAS REGISTRY NO=18370-11-1
##MP= -300
##BP= -300
##MW= 149
##$RETENTION INDEX=0
##$CONDENSED SPECTRUM=NO
##NPOINTS= 67
##XYDATA=(XY..XY) 1 
    15          6
    26          1
    27          5
    28          1
    29          3
    30          3
    37          3
    38         13
    39         87
    40          7
    41         23
    42          2
    43          1
    44          1
    45          5
    49          1
    50         28
    51         45
    52         12
    53          7
    56          1
    58         32
    59          2
    60         11
    61         23
    62         32
    63         86
    64         25
    65        257
    66         16
    67          1
    73          8
    74         15
    75          8
    76          6
    77         16
    78          5
    79          4
    80          1
    85          3
    86          6
    87          6
    88          4
    89         98
    90         53
    91        631
    92         51
    93          3
    94          1
   103          1
   104          5
   105          6
   106          4
   107          1
   116          5
   117          6
   119        999
   120         99
   121          6
   130          4
   132          3
   133          3
   134          4
   148        364
   149        339
   150         35
   151          2