##TITLE=Library Entry 2532
##JCAMP-DX=Revision 4.10 
##DATA TYPE=MASS SPECTRUM
##SAMPLE DESCRIPTION=R. GREENHALGH, AGRIC. CAN., PLANT RES. CENT., OTTAWA, C
AN.
##NAMES=HP
##CAS NAME=Culmorin
##MOLFORM=C15H26O2
##CAS REGISTRY NO=18374-83-9
##MP= -300
##BP= -300
##MW= 238
##$RETENTION INDEX=0
##$CONDENSED SPECTRUM=NO
##NPOINTS= 33
##XYDATA=(XY..XY) 1 
    41        999
    43        821
    55        656
    69        489
    81        339
    83        287
    93        423
    94        300
    95        724
   107        530
   108        334
   109        631
   121        529
   123        287
   133        321
   135        424
   136        274
   149        371
   150        122
   161        136
   163         89
   167         92
   177        324
   178         63
   187         79
   191        123
   192         77
   205        141
   207         53
   220        325
   221         54
   223         80
   238         53