##TITLE=Library Entry 177
##JCAMP-DX=Revision 4.10 
##DATA TYPE=MASS SPECTRUM
##SAMPLE DESCRIPTION=J. F. SMITH, LA TROBE UNIVERSITY, AUSTRALIA
##NAMES=HP
##CAS NAME=Benzofurazan, 5-(dimethylamino)-4-nitro-
##MOLFORM=C8H8N4O3
##CAS REGISTRY NO=18378-28-4
##MP= -300
##BP= -300
##MW= 208
##$RETENTION INDEX=0
##$CONDENSED SPECTRUM=NO
##NPOINTS= 97
##XYDATA=(XY..XY) 1 
    12         60
    14         90
    15        740
    16        140
    26        190
    27        740
    28        999
    29        400
    30        760
    31         90
    32         90
    37        140
    38        210
    39        360
    40        190
    41        320
    42        980
    43        540
    44        750
    45        180
    46         70
    47         50
    48         50
    50        140
    51        260
    52        320
    53        190
    54        180
    55        180
    56         80
    57        100
    60         60
    61        110
    62        160
    63        400
    64        380
    65        240
    66        320
    67        180
    68        130
    69        120
    75        150
    76        280
    77        280
    78        270
    79        280
    80        180
    81         80
    82         60
    83         70
    88         90
    89        100
    90        290
    91        460
    92        350
    93        550
    94        100
    95         60
   102         50
   103        150
   104        260
   105        430
   106        160
   107         90
   109         80
   116         60
   117        800
   118         30
   119        220
   120        130
   121         60
   130         90
   131        400
   132        350
   133        650
   134        150
   135         70
   144        120
   145        120
   146         60
   147        110
   148         90
   149        180
   150         50
   160        100
   161        210
   162        230
   163        190
   164         90
   174        160
   175         60
   177        130
   178         80
   179        180
   191        240
   208        540
   209         70