##TITLE=Library Entry 8365
##JCAMP-DX=Revision 4.10 
##DATA TYPE=MASS SPECTRUM
##SAMPLE DESCRIPTION=Mark Whitten, Florida Museum of Natural History, U. of
 Florida
##NAMES=HP
##CAS NAME=Carvone oxide, cis-
##MOLFORM=C10H14O2
##CAS REGISTRY NO=18383-49-8
##MP= -300
##BP= -300
##MW= 166
##$RETENTION INDEX=1263
##$CONDENSED SPECTRUM=NO
##NPOINTS= 69
##XYDATA=(XY..XY) 1 
    41        325
    43        999
    44         28
    45         17
    50         29
    51         62
    52         35
    53        208
    54         43
    55        208
    56         21
    57         14
    58          2
    59          1
    61          2
    62          7
    63         13
    64          4
    65         47
    67        400
    68        163
    69         56
    70         33
    71         81
    72          4
    74          3
    75          1
    77         52
    78         12
    79        123
    80         36
    81        131
    82         74
    83         24
    85        277
    86         12
    87          2
    91         34
    92          6
    93         37
    94         32
    95        204
    96         82
    97         60
    98          6
   103          2
   105         38
   106          8
   107         25
   108         17
   109        111
   110         29
   111          3
   119          4
   120         40
   121         59
   122         18
   123        228
   124         26
   125          3
   133          6
   135          1
   137         38
   138         38
   139          4
   148          6
   149          2
   151         11
   166          2