##TITLE=Library Entry 30413
##JCAMP-DX=Revision 4.10 
##DATA TYPE=MASS SPECTRUM
##SAMPLE DESCRIPTION=James Little,Eastman Chem.Co.,Kingsport,TN
##NAMES=HP
##CAS NAME=Hydrazine, 1-methyl-1-thioacetyl-
##MOLFORM=C3H8N2S
##CAS REGISTRY NO=18389-73-6
##MP= -300
##BP= -300
##MW= 104
##$RETENTION INDEX=0
##$CONDENSED SPECTRUM=NO
##NPOINTS= 32
##XYDATA=(XY..XY) 1 
    14         23
    15        135
    16         31
    17         44
    26         40
    27         93
    29         66
    30        109
    31         94
    41         53
    42        101
    43         64
    44         52
    45        291
    46        638
    55         63
    56        156
    57         70
    58        158
    59        999
    61         71
    70          8
    72         25
    73         32
    74         14
    76         16
    87         25
    88         20
    89         20
   104        806
   105         42
   106         36