##TITLE=Library Entry 1729
##JCAMP-DX=Revision 4.10 
##DATA TYPE=MASS SPECTRUM
##SAMPLE DESCRIPTION=NIST Mass Spectrometry Data Center, 1998.
##NAMES=HP
##CAS NAME=2-Methyl-2-vinyloxirane
##MOLFORM=C5H8O
##CAS REGISTRY NO=1838-94-4
##MP= -300
##BP= -300
##MW= 84
##$RETENTION INDEX=0
##$CONDENSED SPECTRUM=NO
##NPOINTS= 46
##XYDATA=(XY..XY) 1 
    13          1
    14          5
    15         11
    25          5
    26         58
    27        270
    28        146
    29        152
    30         17
    31         15
    36          3
    37         32
    38         66
    39        999
    40         56
    41        177
    42         38
    43        853
    44         24
    45          4
    48          3
    49         31
    50        171
    51        187
    52        103
    53        665
    54        367
    55        261
    56         50
    57         15
    58          2
    60          1
    61          6
    62          7
    63          6
    64          1
    65          8
    66          4
    67         13
    68          9
    69        104
    70          5
    81          1
    83        258
    84         29
    85          2