##TITLE=Library Entry 54161
##JCAMP-DX=Revision 4.10 
##DATA TYPE=MASS SPECTRUM
##SAMPLE DESCRIPTION=DR. C. C. VAN DE SANDE, STATE UNIVERSITY OF GENT, BELGI
UM
##NAMES=HP
##CAS NAME=Butanenitrile, 4,4-diethoxy-
##MOLFORM=C8H15NO2
##CAS REGISTRY NO=18381-45-8
##MP= -300
##BP= -300
##MW= 157
##$RETENTION INDEX=0
##$CONDENSED SPECTRUM=NO
##NPOINTS= 74
##XYDATA=(XY..XY) 1 
    37         10
    38         20
    39         55
    40         30
    41        360
    42         55
    43        125
    44         75
    45        135
    46         10
    47         10
    48         10
    49         10
    50         30
    51         35
    52         45
    53         30
    54        140
    55         95
    56        160
    57         60
    58         25
    59         85
    60          8
    61         35
    62          3
    63          7
    64          8
    65          7
    66         65
    67         10
    68         10
    69         10
    70          7
    71         25
    72         20
    73         25
    74         10
    75        330
    76         15
    77          8
    78          4
    79          6
    80          4
    81          7
    82         55
    83         20
    84        999
    85         80
    86         15
    87         55
    89         15
    91          8
    92          2
    93         20
    94          5
    95          9
    96          3
    97          2
    98         20
    99          3
   100         20
   101         10
   102          2
   103        620
   104         45
   105          5
   111         10
   112        600
   113         50
   128         10
   129         20
   156          5
   157          1