##TITLE=Library Entry 98569
##JCAMP-DX=Revision 4.10 
##DATA TYPE=MASS SPECTRUM
##SAMPLE DESCRIPTION=V.G.Zaikin, TIPS RAS, Moscow, Russia
##NAMES=HP
##CAS NAME=1,1-Diethoxy-1-silacyclopentane
##MOLFORM=C8H18O2Si
##CAS REGISTRY NO=18388-44-8
##MP= -300
##BP= -300
##MW= 174
##$RETENTION INDEX=0
##$CONDENSED SPECTRUM=NO
##NPOINTS= 93
##XYDATA=(XY..XY) 1 
    36         30
    38         13
    39         48
    40          5
    41         48
    42         35
    43         95
    44         23
    45        405
    46         28
    47         52
    50          6
    51          5
    52          5
    53         21
    54         21
    55        110
    56         85
    57         57
    58         18
    59         17
    60          7
    61         25
    62        155
    63        170
    64         11
    65          6
    67          6
    69         10
    70          8
    71         18
    72         28
    73        190
    74         45
    75         48
    76         23
    77         46
    79         11
    81         11
    82         11
    83        120
    84        270
    85         82
    86         10
    87          6
    88         18
    89        102
    90        160
    91        100
    92          5
    97         18
    98         11
    99         48
   100         11
   101        102
   102         28
   103        210
   104         15
   105         18
   107          4
   111         10
   112        330
   113         40
   114         11
   115         48
   116         11
   117        110
   118        999
   119        150
   120         40
   121          4
   122          5
   127         23
   128          7
   129        170
   130         20
   131         95
   132         15
   133         12
   136          8
   140         90
   141          6
   142          6
   145         78
   146        960
   147        130
   148         45
   149          4
   159          9
   173          9
   174        250
   175         45
   176          9