##TITLE=Library Entry 109245
##JCAMP-DX=Revision 4.10 
##DATA TYPE=MASS SPECTRUM
##SAMPLE DESCRIPTION=JACSAT, 98(26) 8413(1976); R. WEST, UNIV OF WISCONSIN,
 USA
##NAMES=HP
##CAS NAME=Silane, trimethyl(3-methyl-1-butynyl)-
##MOLFORM=C8H16Si
##CAS REGISTRY NO=18388-07-3
##MP= -300
##BP= -300
##MW= 140
##$RETENTION INDEX=0
##$CONDENSED SPECTRUM=NO
##NPOINTS= 9
##XYDATA=(XY..XY) 1 
    73        100
    83        190
    95         50
    97         70
   109         60
   125        999
   126        110
   140        180
   141         30