##TITLE=Library Entry 44362
##JCAMP-DX=Revision 4.10 
##DATA TYPE=MASS SPECTRUM
##SAMPLE DESCRIPTION=O A MAMER, MCGILL UNIVERSITY, MONTREAL, CANADA
##NAMES=HP
##CAS NAME=Silanol, trimethyl-, pyrophosphate (4:1)
##MOLFORM=C12H36O7P2Si4
##CAS REGISTRY NO=18395-45-4
##MP= -300
##BP= -300
##MW= 466
##$RETENTION INDEX=0
##$CONDENSED SPECTRUM=NO
##NPOINTS= 141
##XYDATA=(XY..XY) 1 
    15         92
    31          5
    32         13
    39         10
    40          4
    41         24
    42          7
    43         27
    44         40
    45        152
    46         12
    47         15
    50          8
    51          9
    52         18
    53          6
    55         14
    56          5
    57         13
    58          9
    59         31
    60          4
    61         10
    67          6
    69          8
    70          6
    71          9
    72         40
    73        999
    74         90
    75        100
    76          8
    77         14
    78          5
    79         23
    81          7
    82          4
    83          6
    85          8
    87          4
    91          4
    93          8
    95          7
    97          7
   103          7
   105          5
   107          4
   109          4
   111          3
   115         12
   116          5
   117         17
   118          3
   119          9
   121         13
   123          4
   129          5
   130          6
   131         20
   132          5
   133         55
   134          8
   135         31
   136          5
   137          8
   145          6
   147         53
   148          9
   149          9
   151          5
   153          3
   155         11
   165          4
   177          4
   179          6
   181          8
   183          4
   189          4
   191         15
   192          4
   193         31
   194          6
   195         22
   197          6
   205          8
   206          4
   207         52
   208         11
   209         12
   210          5
   211         32
   212          6
   213          5
   221          7
   225         12
   226          4
   227          9
   241          5
   243          5
   255          6
   256          7
   257          4
   269         14
   270          4
   271          5
   281          4
   283         24
   284          8
   285         32
   286          7
   287          4
   297          5
   298          7
   299        116
   300         31
   301         21
   302          3
   313          8
   314         18
   315          9
   316          4
   328          3
   357          5
   359          3
   363         35
   364          9
   365          5
   421          4
   435          8
   437         10
   439          5
   451        611
   452        208
   453        123
   454         30
   455         11
   456          3
   466         89
   467         31
   468         19
   469          4