##TITLE=Library Entry 90329
##JCAMP-DX=Revision 4.10 
##DATA TYPE=MASS SPECTRUM
##SAMPLE DESCRIPTION=RADIAN CORP
##NAMES=HP
##CAS NAME=Silane, dichloroheptylmethyl-
##MOLFORM=C8H18Cl2Si
##CAS REGISTRY NO=18395-93-2
##MP= -300
##BP= -300
##MW= 212
##$RETENTION INDEX=0
##$CONDENSED SPECTRUM=NO
##NPOINTS= 91
##XYDATA=(XY..XY) 1 
    15          3
    26          7
    27        100
    29        127
    39         99
    40         18
    41        223
    42         75
    43        213
    44         10
    45          1
    51          6
    53         22
    54         15
    55         85
    56         73
    57        100
    58          5
    63        116
    64         10
    65         51
    66          5
    67         13
    68          9
    69         48
    70        102
    71         60
    77         14
    78         33
    79         64
    80         16
    81         25
    82          2
    83         12
    91          5
    92         15
    93         15
    94          6
    95          7
    97         22
    98         98
    99         43
   100         17
   101         22
   102          2
   103          8
   105         17
   106         10
   107         11
   109          4
   111          9
   112         23
   113        999
   114         88
   115        667
   116         46
   117        131
   118          9
   119         22
   120         12
   121          8
   122          2
   125         14
   126          8
   127         16
   128          6
   129          7
   131          7
   133          8
   139          5
   141        361
   142         36
   143        247
   144         21
   145         46
   147         50
   148         12
   149         19
   155         29
   156          1
   157         21
   159          4
   167          8
   169         17
   171          9
   176         11
   177          3
   178          1
   197         49
   198          6
   199         34