##TITLE=Library Entry 45747
##JCAMP-DX=Revision 4.10 
##DATA TYPE=MASS SPECTRUM
##SAMPLE DESCRIPTION=V.G.Zaikin,TIPS,Russian Acad.Sci.Moscow
##NAMES=HP
##CAS NAME=3-Methyl-1-dichloromethyl(dimethyl)silyloxybutane
##MOLFORM=C8H18Cl2OSi
##CAS REGISTRY NO=18395-71-6
##MP= -300
##BP= -300
##MW= 228
##$RETENTION INDEX=0
##$CONDENSED SPECTRUM=NO
##NPOINTS= 75
##XYDATA=(XY..XY) 1 
    26         19
    27        149
    28         34
    29        149
    30          6
    31          8
    36         25
    38         12
    39         79
    40          9
    41        219
    42         41
    43        279
    44         35
    45        131
    47         59
    48          9
    49          7
    50          7
    51          9
    53         21
    55         89
    56         11
    57         21
    58         39
    59        126
    60         18
    61         45
    63         69
    65         35
    73         23
    74         11
    75        999
    76         71
    77        119
    78         39
    79         45
    80         21
    81         25
    82          6
    83         25
    85         15
    87         19
    88         13
    93         26
    95         66
    97         25
    98          9
    99         29
   100          6
   101         19
   102         12
   103         21
   105        105
   106         12
   107         12
   108          8
   109          8
   113        129
   114          7
   115        129
   116          7
   117         35
   125          7
   127         27
   129         35
   130          6
   131          7
   143         15
   144         12
   145        819
   146         93
   147         25
   171         12
   173          9