##TITLE=Library Entry 89856
##JCAMP-DX=Revision 4.10 
##DATA TYPE=MASS SPECTRUM
##SAMPLE DESCRIPTION=Exported from NIST MS Search
##NAMES=HP
##CAS NAME=Silane, dichlorobis(2-methylpropyl)-
##MOLFORM=C8H18Cl2Si
##CAS REGISTRY NO=18395-92-1
##MP= -300
##BP= -300
##MW= 212
##$RETENTION INDEX=0
##$CONDENSED SPECTRUM=NO
##NPOINTS= 150
##XYDATA=(XY..XY) 1 
    14         12
    15         58
    16         22
    26         48
    27        414
    28        108
    29        404
    35         24
    36        132
    37         21
    38         48
    39        434
    40         80
    41        911
    42        266
    43        650
    44         22
    45         51
    50         18
    51         24
    53         50
    54         20
    55        291
    56        354
    57        757
    58         42
    59         64
    63        384
    64         32
    65        160
    66         14
    67         23
    69         17
    73         36
    76         12
    77         26
    78         46
    79        141
    80         28
    81         97
    83         24
    87         20
    90          6
    91         50
    92         52
    93         89
    94         27
    95        144
    96         13
    97         52
    98         41
    99        192
   100         36
   101        125
   102         12
   103         35
   104         20
   109         38
   111         19
   112         84
   113        999
   114        114
   115        748
   116         55
   117        186
   118         13
   119         67
   120         56
   121         63
   122         24
   123         40
   124          3
   125         43
   126         13
   127         45
   128         15
   129        147
   130         14
   131         95
   132          7
   133         20
   134          5
   135         50
   136         12
   137         74
   138         10
   139         46
   140         10
   141        352
   142         35
   143        235
   144         20
   145         47
   146          2
   147          2
   149         45
   150          5
   151         41
   152          4
   153         22
   154         11
   155        382
   156         43
   157        280
   158         27
   159         75
   160          5
   161         15
   163          6
   165         27
   166          2
   167         20
   168          1
   169          9
   170          6
   171        117
   172         15
   173         80
   174          7
   175         17
   176         15
   177         51
   178         11
   179         22
   180          2
   181          6
   183          5
   185         88
   186          8
   187         71
   188          6
   189         18
   194         13
   195         33
   196          3
   197        569
   198         75
   199        370
   200         49
   201         81
   202          8
   203          3
   209          3
   210          7
   211          7
   212         65
   213         21
   214         43
   215          6
   216          7