##TITLE=Library Entry 19429
##JCAMP-DX=Revision 4.10 
##DATA TYPE=MASS SPECTRUM
##SAMPLE DESCRIPTION=Chemical Concepts
##NAMES=HP
##CAS NAME=Cyclohexanamine, N-methylidene-N-oxide-
##MOLFORM=C7H13NO
##CAS REGISTRY NO=183969-41-7
##MP= -300
##BP= -300
##MW= 127
##$RETENTION INDEX=0
##$CONDENSED SPECTRUM=NO
##NPOINTS= 62
##XYDATA=(XY..XY) 1 
    26         46
    27        189
    28        182
    29        145
    30         55
    31         11
    37         11
    38         11
    39        173
    40         36
    41        654
    42         85
    43         88
    44         39
    45         18
    46         58
    50         18
    51         27
    52         23
    53         63
    54        179
    55        999
    56        102
    57         56
    58          9
    59          9
    60         15
    63          8
    65         19
    66         13
    67        206
    68         83
    69         29
    70         24
    71         15
    72         21
    73         16
    74          8
    75          8
    76          7
    77         20
    78         16
    79         31
    80         17
    81         53
    82        142
    83        367
    84        106
    85         15
    95         22
    96         15
    97         21
    98         20
    99         11
   104         12
   105         13
   109         10
   110         28
   111         15
   127        172
   128         21
   129          9