##TITLE=Library Entry 20196
##JCAMP-DX=Revision 4.10 
##DATA TYPE=MASS SPECTRUM
##SAMPLE DESCRIPTION=NIST Mass Spectrometry Data Center, 1990.
##NAMES=HP
##CAS NAME=Cyclohexane, 1,2,3-trimethyl-, (1.alpha.,2.alpha.,3.alpha.)-
##MOLFORM=C9H18
##CAS REGISTRY NO=1839-88-9
##MP= -300
##BP= -300
##MW= 126
##$RETENTION INDEX=871
##$CONDENSED SPECTRUM=NO
##NPOINTS= 44
##XYDATA=(XY..XY) 1 
    15         14
    27        179
    28         86
    29        166
    39        309
    40         68
    41        690
    42        197
    43        171
    44          9
    50         15
    51         42
    52         18
    53        129
    54          9
    55        999
    56        392
    57         95
    65         33
    66         15
    67        131
    68         15
    69        997
    70        822
    71        201
    72          9
    77         31
    78          8
    79         29
    80          8
    81         43
    82         57
    83        286
    84        142
    85         13
    91         14
    96        264
    97        673
    98        125
   109          8
   111        196
   112         16
   126        335
   127         29