##TITLE=Library Entry 7085
##JCAMP-DX=Revision 4.10 
##DATA TYPE=MASS SPECTRUM
##SAMPLE DESCRIPTION=FOOD RESEARCH REPORT 122, K.E. MURRAY & COLLEAGUES, DIV
 OF FOOD RESEARCH, CSIRO, AUSTRALIA
##NAMES=HP
##CAS NAME=3-Octen-2-one, (E)-
##MOLFORM=C8H14O
##CAS REGISTRY NO=18402-82-9
##MP= -300
##BP= -300
##MW= 126
##$RETENTION INDEX=1033
##$CONDENSED SPECTRUM=NO
##NPOINTS= 44
##XYDATA=(XY..XY) 1 
    27        550
    28        110
    29        140
    38         30
    39        330
    40         80
    41        730
    42         90
    43        999
    44         60
    45         20
    50         30
    51         40
    52         20
    53        110
    54         50
    55        980
    56        110
    57         20
    58         30
    59         20
    65         20
    66         20
    67         50
    68        150
    69        220
    70         20
    71        190
    72         20
    77         20
    79         30
    81         40
    82         20
    83         80
    85         40
    86         10
    93         10
    95         10
    97        220
    98         20
   108         10
   111        560
   112         40
   126        130