##TITLE=Library Entry 23533
##JCAMP-DX=Revision 4.10 
##DATA TYPE=MASS SPECTRUM
##SAMPLE DESCRIPTION=Chemical Concepts
##NAMES=HP
##CAS NAME=2-Octen-1-ol, (E)-
##MOLFORM=C8H16O
##CAS REGISTRY NO=18409-17-1
##MP= -300
##BP= -300
##MW= 128
##$RETENTION INDEX=1067
##$CONDENSED SPECTRUM=NO
##NPOINTS= 65
##XYDATA=(XY..XY) 1 
    26         10
    27        216
    28         31
    29        278
    30         12
    31         90
    37          2
    38          9
    39        176
    40         31
    41        445
    42        184
    43        356
    44        156
    45         45
    50          8
    51         20
    52         10
    53         63
    54        163
    55        385
    56        201
    57        999
    58         83
    59         14
    60          2
    63          4
    65         12
    66         31
    67        161
    68        224
    69        149
    70         58
    71        102
    72         49
    73         10
    77         10
    78          2
    79         15
    80          6
    81        188
    82        168
    83         32
    84         50
    85         55
    86         12
    87          3
    91          4
    93          5
    95         67
    96          7
    97         16
    98          2
    99         27
   100          9
   101          2
   107          4
   109          9
   110         77
   111          9
   113          2
   125          3
   127          5
   128         16
   129          2