##TITLE=Library Entry 23472
##JCAMP-DX=Revision 4.10 
##DATA TYPE=MASS SPECTRUM
##SAMPLE DESCRIPTION=NIST Mass Spectrometry Data Center, 1994
##NAMES=HP
##CAS NAME=2-Decen-1-ol, (E)-
##MOLFORM=C10H20O
##CAS REGISTRY NO=18409-18-2
##MP= -300
##BP= -300
##MW= 156
##$RETENTION INDEX=1257
##$CONDENSED SPECTRUM=NO
##NPOINTS= 74
##XYDATA=(XY..XY) 1 
    15         29
    16          0
    17          0
    19          4
    27        432
    28         52
    29        554
    30         30
    31        143
    39        300
    41        762
    42        228
    43        628
    44        146
    45         38
    46          1
    47          1
    50         11
    51         23
    52         19
    53         96
    54        217
    55        443
    56        274
    57        999
    58         73
    59          7
    60          0
    61          0
    63          4
    65         23
    67        265
    68        256
    69        199
    70        145
    71        142
    72         35
    73          7
    74          0
    75          1
    77         13
    79         29
    81        214
    82        233
    83        106
    84         48
    85         31
    86          6
    87          1
    91          3
    93          5
    95        149
    96        109
    97         32
    98          7
    99         17
   100          3
   103          2
   107          2
   109         63
   110         60
   111          6
   112          7
   113          6
   114          1
   123          4
   124          0
   125          1
   127          3
   128          1
   138         14
   139          1
   156          3
   157          1