##TITLE=Library Entry 67953
##JCAMP-DX=Revision 4.10 
##DATA TYPE=MASS SPECTRUM
##SAMPLE DESCRIPTION=Japan AIST/NIMC Database- Spectrum MS-NW-3135
##NAMES=HP
##CAS NAME=trans,trans-3,5-Heptadien-2-one
##MOLFORM=C7H10O
##CAS REGISTRY NO=18402-90-9
##MP= -300
##BP= -300
##MW= 110
##$RETENTION INDEX=0
##$CONDENSED SPECTRUM=NO
##NPOINTS= 75
##XYDATA=(XY..XY) 1 
    14          4
    15         42
    17          1
    18          3
    25          1
    26         12
    27         62
    28         18
    29         12
    31          3
    32          5
    33          3
    37         12
    38         31
    39        227
    40         43
    41        374
    42         17
    43        373
    44          9
    45          5
    46          1
    47          6
    49          4
    50         23
    51         38
    52         15
    53         30
    54          8
    55         28
    56          3
    57          2
    58          1
    59          1
    60          1
    61          8
    62         14
    63         23
    64          6
    65        109
    66         40
    67        566
    68         34
    69          6
    70          1
    71          2
    73          1
    74          2
    75          1
    77         19
    78          3
    79         13
    80          2
    81         10
    82          7
    83         21
    84          2
    85          1
    86          1
    89          1
    91         20
    92          7
    93          7
    94          7
    95        999
    96         67
    97          5
   105          5
   106          1
   107          5
   108          3
   109         59
   110        317
   111         27
   112          2