##TITLE=Library Entry 99507
##JCAMP-DX=Revision 4.10 
##DATA TYPE=MASS SPECTRUM
##SAMPLE DESCRIPTION=Chemical Concepts
##NAMES=HP
##CAS NAME=Menthane, 3-chloro-8-phenyl-
##MOLFORM=C16H23Cl
##CAS REGISTRY NO=184007-21-4
##MP= -300
##BP= -300
##MW= 250
##$RETENTION INDEX=0
##$CONDENSED SPECTRUM=NO
##NPOINTS= 97
##XYDATA=(XY..XY) 1 
    26          0
    27         16
    29         10
    30          0
    35          1
    36          9
    37          0
    38          1
    39         29
    41         81
    42          5
    43          2
    49          1
    50          2
    51         10
    52          3
    53         13
    54          7
    55         15
    56          1
    58          0
    60          0
    62          0
    63          1
    64          1
    65         10
    66          0
    67         18
    68          5
    70          0
    71          0
    73          0
    74          0
    75          3
    76          0
    77         23
    78          9
    79         32
    80          3
    81         17
    82          1
    84          0
    87          0
    88          0
    89          1
    90          0
    91        165
    92         12
    93          2
    94          1
    95         15
    96         14
    97          1
   101          0
   102          2
   103         14
   104          8
   105         36
   106         11
   107          0
   108          6
   109         48
   110          7
   111          2
   113          0
   115          2
   116          0
   117          9
   118         93
   119        999
   120        100
   121          4
   122          0
   125          1
   131          3
   137          1
   138          0
   139          1
   145          0
   146          2
   147          0
   149          0
   187          0
   193          0
   194          0
   206          0
   207          0
   219          0
   232          0
   235          0
   236          0
   237          0
   248          0
   250         17
   251          2
   252          6
   253          1