##TITLE=Library Entry 20804
##JCAMP-DX=Revision 4.10 
##DATA TYPE=MASS SPECTRUM
##SAMPLE DESCRIPTION=W.Jennings, T.Shibamoto
##NAMES=HP
##CAS NAME=2,4-Decadien-1-ol, (E,E)-
##MOLFORM=C10H18O
##CAS REGISTRY NO=18409-21-7
##MP= -300
##BP= -300
##MW= 154
##$RETENTION INDEX=1310
##$CONDENSED SPECTRUM=NO
##NPOINTS= 59
##XYDATA=(XY..XY) 1 
    27          7
    29        191
    31         49
    36         28
    39         19
    41        744
    42        311
    43        637
    44         39
    46          7
    53         49
    54        523
    55        999
    56        567
    57        377
    58         39
    62         28
    65         59
    66        152
    67        719
    68        494
    69        678
    70        787
    71        282
    72         28
    77        153
    78         92
    79        531
    80        312
    81        542
    82        333
    83        809
    84        767
    85        103
    86         28
    91         59
    92          7
    93        169
    94        112
    95        239
    96         71
    97        363
    98        445
    99        199
   100          7
   107         59
   108          7
   109          7
   110        403
   111        152
   112         59
   120         19
   121         19
   123          7
   125         19
   136        239
   137         79
   154        357
   155         39