##TITLE=Library Entry 19905
##JCAMP-DX=Revision 4.10 
##DATA TYPE=MASS SPECTRUM
##SAMPLE DESCRIPTION=Chemical Concepts
##NAMES=HP
##CAS NAME=2-Butene, 1-propoxy-
##MOLFORM=C7H14O
##CAS REGISTRY NO=18409-01-3
##MP= -300
##BP= -300
##MW= 114
##$RETENTION INDEX=0
##$CONDENSED SPECTRUM=NO
##NPOINTS= 73
##XYDATA=(XY..XY) 1 
    25         82
    26         80
    27        582
    28        102
    29        356
    30         14
    31         73
    34          0
    36          1
    37         11
    38         23
    39        279
    40         42
    41        332
    42         82
    43        538
    44         51
    45         14
    46          1
    47          1
    48          0
    49          2
    50         19
    51         25
    52         13
    53         83
    54        128
    55        999
    56         81
    57        719
    58         32
    59         16
    60          2
    63          0
    64          0
    65          0
    66          0
    67          2
    68          2
    69         23
    70          6
    71         82
    72        499
    73         59
    74          2
    77          1
    78          1
    79          0
    80          0
    81          1
    82          0
    83          0
    84          1
    85          7
    86          1
    87          0
    89          0
    91          0
    93          0
    95          0
    96          0
    97          0
    98          0
    99         33
   100          2
   101          0
   105          0
   106          0
   107          0
   111          0
   114        113
   115         10
   116          0