##TITLE=Library Entry 90037
##JCAMP-DX=Revision 4.10 
##DATA TYPE=MASS SPECTRUM
##SAMPLE DESCRIPTION=Japan AIST/NIMC Database- Spectrum MS-IW-7607
##NAMES=HP
##CAS NAME=Silane, dichlorododecylmethyl-
##MOLFORM=C13H28Cl2Si
##CAS REGISTRY NO=18407-07-3
##MP= -300
##BP= -300
##MW= 282
##$RETENTION INDEX=0
##$CONDENSED SPECTRUM=NO
##NPOINTS= 199
##XYDATA=(XY..XY) 1 
    15          1
    26          2
    27         55
    28         11
    29        151
    30          3
    35          1
    36         19
    38          6
    39         43
    40          9
    41        311
    42         94
    43        739
    44         26
    45          2
    51          2
    52          1
    53         17
    54         34
    55        226
    56        189
    57        910
    58         49
    59          1
    63         32
    64          2
    65         12
    66          3
    67         26
    68         27
    69        191
    70        186
    71        643
    72         35
    73          1
    77          3
    78         16
    79         48
    80          9
    81         18
    82         40
    83        127
    84        144
    85        448
    86         27
    90          1
    91          4
    92          8
    93         16
    94          4
    95          7
    96         24
    97        110
    98        112
    99        127
   100          9
   101          9
   102          1
   103          3
   104          1
   105         17
   106          8
   107         10
   108          3
   109          5
   110         12
   111         72
   112         67
   113        999
   114         72
   115        695
   116         44
   117        131
   118          8
   119         33
   120          8
   121         12
   122          3
   123          3
   124          6
   125         35
   126         32
   127         25
   128          3
   129          4
   131          4
   132          2
   133         24
   134          6
   135          9
   136          2
   137          1
   138          3
   139         15
   140         46
   141        637
   142         55
   143        431
   144         35
   145         77
   146          6
   147         94
   148         13
   149         33
   150          5
   151          2
   152          1
   153          3
   154         60
   155        309
   156         70
   157        208
   158         26
   159         39
   160          3
   161         51
   162          7
   163         18
   164          2
   165          1
   167         16
   168        119
   169        183
   170         26
   171        119
   172         12
   173         21
   174          2
   175          9
   176          1
   177          4
   181          4
   182         10
   183         89
   184         16
   185         58
   186          8
   187         10
   188          1
   189          2
   191          1
   195          2
   196          5
   197         54
   198          9
   199         36
   200          5
   201          7
   202          1
   203          1
   209          1
   210          6
   211         30
   212          8
   213         21
   214          3
   215          4
   218          2
   224          7
   225         29
   226          9
   227         19
   228          4
   229          3
   231          2
   233          1
   238          5
   239         25
   240          8
   241         17
   242          3
   243          3
   246         25
   247         13
   248         10
   249          5
   250          1
   252          4
   253         21
   254          9
   255         15
   256          4
   257          3
   258          1
   267         80
   268         15
   269         56
   270          9
   271         10
   272          2
   280          1
   281          1
   282        104
   283         20
   284         72
   285         13
   286         13
   287          2