##TITLE=Library Entry 19750
##JCAMP-DX=Revision 4.10 
##DATA TYPE=MASS SPECTRUM
##SAMPLE DESCRIPTION=Japan AIST/NIMC Database- Spectrum MS-IW-6977
##NAMES=HP
##CAS NAME=trans-3-Nonen-2-one
##MOLFORM=C9H16O
##CAS REGISTRY NO=18402-83-0
##MP= -300
##BP= -300
##MW= 140
##$RETENTION INDEX=1144
##$CONDENSED SPECTRUM=NO
##NPOINTS= 80
##XYDATA=(XY..XY) 1 
    14          1
    15         22
    26          7
    27         96
    28         21
    29        152
    30          3
    31          1
    37          1
    38          5
    39         92
    40         22
    41        213
    42         48
    43        637
    44         17
    45          7
    50          5
    51         10
    52          5
    53         40
    54         18
    55        999
    56         47
    57         47
    58         19
    59         23
    60          9
    61          1
    62          1
    63          3
    65          8
    66          5
    67         67
    68         34
    69        141
    70         25
    71        244
    72         46
    73          6
    74          1
    77          9
    78          2
    79         26
    80          7
    81         49
    82        172
    83         59
    84         58
    85         64
    86          7
    87          2
    91          5
    92          2
    93         15
    94          3
    95         13
    96         11
    97        279
    98         39
    99         16
   100          1
   105          1
   107         10
   108          1
   109          1
   111         73
   112          9
   113          1
   121          1
   122         15
   123          2
   125        477
   126         42
   127          3
   138          1
   139          2
   140         52
   141         18
   142          1