##TITLE=Library Entry 41652
##JCAMP-DX=Revision 4.10 
##DATA TYPE=MASS SPECTRUM
##SAMPLE DESCRIPTION=Chemical Concepts
##NAMES=HP
##CAS NAME=Silane, ethylidenebis[trimethyl-
##MOLFORM=C8H22Si2
##CAS REGISTRY NO=18406-29-6
##MP= -300
##BP= -300
##MW= 174
##$RETENTION INDEX=0
##$CONDENSED SPECTRUM=NO
##NPOINTS= 88
##XYDATA=(XY..XY) 1 
    26          3
    27          6
    29         18
    30          1
    31         20
    37          2
    38          1
    39          8
    40          2
    41          1
    42          6
    43         73
    44         19
    45        114
    46          7
    47          3
    50          0
    51          5
    52          1
    53          5
    54          1
    55          9
    56          1
    57         12
    58         92
    59        138
    60         11
    61          5
    63          3
    64          2
    65          0
    66          2
    67          4
    68          0
    69          9
    70          4
    71         11
    72         13
    73        999
    74         78
    75         34
    81          1
    83          9
    84          1
    85        374
    86        332
    87         51
    88         14
    89          2
    90          2
    91          5
    92         26
    93          0
    97          0
    99         11
   100          1
   101          7
   102          1
   103          2
   109          0
   111          0
   113          7
   115         12
   116          1
   117         11
   118          0
   119          0
   125          0
   127          1
   128          1
   129         14
   130          2
   131         67
   132         13
   133          2
   141         23
   146          6
   147          1
   156          2
   157          0
   158          1
   159        366
   160         59
   161         28
   162          4
   174         22
   175          4
   176          1