##TITLE=Library Entry 24043
##JCAMP-DX=Revision 4.10 
##DATA TYPE=MASS SPECTRUM
##SAMPLE DESCRIPTION=NIST Mass Spectrometry Data Center, 1994
##NAMES=HP
##CAS NAME=n-Tetradecyltrichlorosilane
##MOLFORM=C14H29Cl3Si
##CAS REGISTRY NO=18402-22-7
##MP= -300
##BP= -300
##MW= 330
##$RETENTION INDEX=0
##$CONDENSED SPECTRUM=NO
##NPOINTS= 136
##XYDATA=(XY..XY) 1 
    26          0
    27        151
    28         16
    29        324
    30          4
    35          9
    36          9
    37          4
    38          9
    39        111
    40         34
    41        626
    42        184
    43        902
    44         31
    51          4
    52          4
    53         38
    54         38
    55        291
    56        177
    57        999
    58         51
    63         20
    65         16
    66          4
    67         29
    68         14
    69        106
    70        117
    71        615
    72         32
    77          4
    79          7
    81          8
    82         10
    83         45
    84         76
    85        335
    86         24
    91          4
    97         30
    98         62
    99         94
   100         17
   101         12
   103          4
   111         15
   112         35
   113         44
   114          9
   115          7
   117         11
   119          4
   125         20
   126         17
   127         31
   128          6
   129          4
   131          6
   133        182
   135        182
   136         11
   137         64
   138          6
   139         29
   140          8
   141         18
   153         16
   155         12
   161         27
   163         23
   165          9
   167          7
   169          5
   174         23
   175        116
   176         31
   177        105
   178         17
   179         40
   180          4
   181          6
   187          3
   188          8
   189         63
   190         11
   191         63
   192          8
   193         21
   202          6
   203         45
   204         11
   205         43
   206          5
   207         15
   216          3
   217         38
   218          6
   219         34
   221         11
   230          6
   231         20
   232          5
   233         22
   234          5
   235          9
   244          5
   245         15
   246          6
   247         11
   249          4
   258          7
   259         13
   260          8
   261         12
   262          4
   272          7
   273         10
   274          8
   275         10
   276          4
   277          4
   286          5
   287          9
   288          6
   289         11
   290          4
   300          5
   301          6
   302          5
   303          8
   330         14
   332         12
   333          4
   334          5