##TITLE=Library Entry 12559
##JCAMP-DX=Revision 4.10 
##DATA TYPE=MASS SPECTRUM
##SAMPLE DESCRIPTION=Chemical Concepts
##NAMES=HP
##CAS NAME=3-Penten-2-one, 5,5,5-trichloro-, (E)-
##MOLFORM=C5H5Cl3O
##CAS REGISTRY NO=18402-89-6
##MP= -300
##BP= -300
##MW= 186
##$RETENTION INDEX=0
##$CONDENSED SPECTRUM=NO
##NPOINTS= 90
##XYDATA=(XY..XY) 1 
    25          9
    26         30
    27         39
    29         12
    35         13
    36         11
    37         73
    38         73
    39         23
    40        128
    41          8
    42         53
    43        999
    44         20
    47         26
    48          5
    49         14
    50         23
    51        116
    52          9
    53         15
    54          4
    55          3
    60         13
    61         19
    62          7
    63         20
    65          4
    68         15
    69          9
    71          6
    72         30
    73        162
    74         16
    75         50
    81          4
    82         11
    83         33
    84          9
    85         24
    87        162
    88         12
    89         59
    90          3
   107         13
   108         29
   109         10
   110         19
   111          2
   112          3
   115         64
   116          9
   117         20
   118          3
   119          2
   123        161
   124          7
   125        101
   126          4
   127         15
   136         71
   137         21
   138         41
   139         14
   140          7
   141          2
   143        199
   144          6
   145        200
   146          6
   147         62
   148          3
   149          7
   151        393
   152         21
   153        241
   154         13
   155         39
   171        127
   172          4
   173        123
   174          5
   175         35
   177          4
   186         66
   187          4
   188         66
   189          3
   190         19
   192          2