##TITLE=Library Entry 17856
##JCAMP-DX=Revision 4.10 
##DATA TYPE=MASS SPECTRUM
##SAMPLE DESCRIPTION=Exported from NIST MS Search
##NAMES=HP
##CAS NAME=Methane, fluorotrinitro-
##MOLFORM=CFN3O6
##CAS REGISTRY NO=1840-42-2
##MP= -300
##BP= -300
##MW= 169
##$RETENTION INDEX=0
##$CONDENSED SPECTRUM=NO
##NPOINTS= 10
##XYDATA=(XY..XY) 1 
    13         10
    17         10
    20         30
    28        160
    30        410
    31         90
    42         40
    46        999
    60         30
    61         10