##TITLE=Library Entry 14825
##JCAMP-DX=Revision 4.10 
##DATA TYPE=MASS SPECTRUM
##SAMPLE DESCRIPTION=R.T.HOLMAN,UNIVERSITY OF MINNESOTA
##NAMES=HP
##CAS NAME=Hexadecanoic acid, (2,2-dimethyl-1,3-dioxolan-4-yl)methyl ester
##MOLFORM=C22H42O4
##CAS REGISTRY NO=18418-21-8
##MP= -300
##BP= -300
##MW= 370
##$RETENTION INDEX=0
##$CONDENSED SPECTRUM=NO
##NPOINTS= 103
##XYDATA=(XY..XY) 1 
    26         10
    27         90
    28         70
    29        270
    30         10
    31         40
    32         10
    39         50
    40         20
    41        440
    42        140
    43        999
    44         30
    45         10
    53         20
    54         20
    55        380
    56         90
    57        490
    58         40
    59        150
    60         10
    61         30
    67         50
    68         20
    69        170
    70         30
    71        250
    72        140
    73        100
    74         20
    75         10
    79         20
    80         10
    81         60
    82         10
    83        130
    84         40
    85        130
    86         20
    87         10
    93         10
    95         70
    96         10
    97         60
    98         40
    99         70
   100         10
   101        640
   102         40
   103         10
   107         10
   109         40
   110         10
   111         20
   112         10
   113         10
   114         70
   115         40
   116        290
   117         30
   121         10
   123         20
   125         10
   127         10
   129        250
   130         20
   131         10
   135         10
   137         10
   139         10
   141         10
   143         20
   154         10
   155         10
   157         10
   158         20
   171        120
   172         20
   174         10
   185         70
   186         10
   199         10
   213         20
   227         30
   228         10
   238         10
   239         70
   240         20
   241         20
   255         10
   257         10
   269         40
   270         10
   283         20
   297         10
   311         20
   312         80
   313         40
   314         10
   355        740
   356        180
   357         30