##TITLE=Library Entry 59924
##JCAMP-DX=Revision 4.10 
##DATA TYPE=MASS SPECTRUM
##SAMPLE DESCRIPTION=NIST Mass Spectrometry Data Center, 1994
##NAMES=HP
##CAS NAME=Dibenzyl monoselenide
##MOLFORM=C14H14Se
##CAS REGISTRY NO=1842-38-2
##MP= -300
##BP= -300
##MW= 262
##$RETENTION INDEX=0
##$CONDENSED SPECTRUM=NO
##NPOINTS= 98
##XYDATA=(XY..XY) 1 
     6          0
    11          0
    12          0
    18          1
    25          0
    26          1
    27          2
    37          2
    38         14
    39        101
    40          7
    41         19
    42          0
    48          0
    50         17
    51         42
    52         11
    53          2
    61          2
    62         14
    63         57
    64         15
    65        184
    66         10
    67          0
    75          2
    76          2
    77          8
    78          4
    79          1
    80          2
    81          0
    82          0
    84          0
    85          0
    86          1
    87          2
    89         54
    91        999
    92         73
    93         50
    94          1
    95          9
    96          0
   101          0
   102          0
   103          0
   104          0
   105          0
   106          0
   113          0
   114          0
   115          1
   117          3
   118          0
   119          0
   126          0
   127          0
   128          0
   129          0
   130          0
   132          0
   139          0
   141          0
   142          0
   143          0
   144          0
   145          0
   151          0
   152          1
   156          0
   163          0
   165          4
   166          3
   167          9
   168          8
   169         17
   170          6
   171         14
   172          2
   173          2
   174          0
   177          0
   178          0
   179          0
   180          1
   181         11
   182          1
   184          0
   256          1
   258         17
   259         18
   260         50
   261          1
   262        105
   263         17
   264         20
   265          2