##TITLE=Library Entry 7086
##JCAMP-DX=Revision 4.10 
##DATA TYPE=MASS SPECTRUM
##SAMPLE DESCRIPTION=R. RYHAGE KAROLINSKA INSTITUTET, STOCKHOLM
##NAMES=HP
##CAS NAME=Octadecanoic acid, 9-oxo-, methyl ester
##MOLFORM=C19H36O3
##CAS REGISTRY NO=1842-70-2
##MP= -300
##BP= -300
##MW= 312
##$RETENTION INDEX=0
##$CONDENSED SPECTRUM=NO
##NPOINTS= 181
##XYDATA=(XY..XY) 1 
    12          3
    13          2
    14          8
    15         43
    16          3
    17          9
    18         13
    19          3
    25          4
    26         36
    27        190
    28        100
    29        290
    30         16
    31         28
    32          3
    33          6
    37          4
    38          9
    39        120
    40         47
    41        970
    42        270
    43        999
    44         45
    45         47
    53         49
    54         61
    55        980
    56        160
    57        470
    58        310
    59        290
    60          7
    61          4
    65         10
    66          7
    67        140
    68         49
    69        230
    70         81
    71        520
    72         64
    73         53
    74        150
    75         11
    77         12
    78          4
    79         56
    80         25
    81        210
    82        140
    83        370
    84        120
    85        250
    86         27
    87        110
    88         12
    93         43
    94         13
    95        170
    96        140
    97        310
    98        180
    99         44
   100         57
   101         38
   102          3
   106          4
   107         72
   108         43
   109         93
   110        300
   111        420
   112        100
   113         47
   114         53
   115         25
   116          4
   117          4
   119          4
   121         19
   122         16
   123         32
   124         21
   125        390
   126        120
   127        160
   128         37
   129         12
   130        140
   131         15
   132         10
   133          6
   135        190
   136         10
   137         31
   138          9
   139         20
   140        180
   141         44
   142        270
   143        520
   144        140
   146          2
   147          3
   150         46
   151         14
   152         55
   153        180
   154         47
   155        380
   156         53
   157        110
   158        180
   159         20
   160          3
   161          3
   163          7
   164          5
   165          6
   166          4
   167          9
   168        300
   169         65
   170        540
   171        120
   172         15
   177          3
   179         36
   181         72
   182         36
   183         55
   184          9
   185        290
   186         38
   187          5
   193          2
   195          7
   196          4
   197          8
   199          4
   200        470
   201         60
   202          8
   206          4
   207          2
   209          8
   210          5
   211          3
   213         31
   214          9
   220          2
   223          7
   224          4
   225          4
   227          3
   235          3
   237          8
   238          3
   239         30
   240          7
   245          3
   251          4
   252         15
   253         13
   262          2
   263          5
   265          2
   269          4
   270          3
   279         11
   280          7
   281        120
   282         23
   283          4
   310          5
   311         19
   312         87
   313         21
   314          3