##TITLE=Library Entry 57287
##JCAMP-DX=Revision 4.10 
##DATA TYPE=MASS SPECTRUM
##SAMPLE DESCRIPTION=NIST Mass Spectrometry Data Center
##NAMES=HP
##CAS NAME=1,3-Dioxolane, 4-methyl-2-(2-methylpropyl)-
##MOLFORM=C8H16O2
##CAS REGISTRY NO=18433-93-7
##MP= -300
##BP= -300
##MW= 144
##$RETENTION INDEX=940
##$CONDENSED SPECTRUM=NO
##NPOINTS= 37
##XYDATA=(XY..XY) 1 
    17          4
    19          2
    27         37
    29         52
    30          4
    31         99
    37          6
    38          4
    39         48
    41        175
    42         36
    43         76
    47          5
    50          5
    53         11
    55         33
    57         71
    58         36
    59        336
    60         12
    62          2
    65          6
    66          4
    67          5
    69         34
    71         22
    72          5
    73          5
    85        107
    87        999
    88         39
    96          8
    99         21
   100         14
   101          4
   128          7
   143         32