##TITLE=Library Entry 16521
##JCAMP-DX=Revision 4.10 
##DATA TYPE=MASS SPECTRUM
##SAMPLE DESCRIPTION=A.A.Kutin, Moscow, Russia
##NAMES=HP
##CAS NAME=Piperidin-4-ol, 1,3,3-trimethyl-4-phenyl-
##MOLFORM=C14H21NO
##CAS REGISTRY NO=18436-89-0
##MP= -300
##BP= -300
##MW= 219
##$RETENTION INDEX=0
##$CONDENSED SPECTRUM=NO
##NPOINTS= 106
##XYDATA=(XY..XY) 1 
    34         10
    39        102
    40        234
    41        234
    42        541
    43        635
    44        999
    45         26
    48         13
    50         17
    51        108
    52         29
    53         38
    54          5
    55        187
    56        188
    57        350
    58        342
    59         14
    60          4
    63         21
    65         42
    67         11
    68         16
    70        353
    71        471
    72         51
    74        359
    75         20
    77        468
    78        168
    79         99
    80          9
    81         11
    82         27
    83         39
    84        168
    85          8
    86         23
    89         15
    91        204
    92         10
    95          6
    96          8
    97          4
    98        488
    99        260
   100         11
   102         18
   103         65
   104         23
   105        325
   106         66
   107         20
   111          5
   112         10
   115         71
   116         20
   117        119
   118         22
   119         38
   120         50
   121          9
   124         31
   125          4
   126         12
   127         19
   128         49
   129         61
   130          3
   131         42
   132         32
   133        105
   134         83
   135         11
   141         12
   142          3
   143         25
   144         77
   145          8
   146         27
   147          7
   148         12
   149         24
   153          8
   158         16
   159         53
   160         36
   161         22
   162         45
   163        290
   164         32
   167          4
   171         45
   172          2
   176         31
   178          5
   180          5
   186        210
   187         30
   201         23
   202         58
   218        113
   219        748
   220        123
   221         10