##TITLE=Library Entry 25804
##JCAMP-DX=Revision 4.10 
##DATA TYPE=MASS SPECTRUM
##SAMPLE DESCRIPTION=Japan AIST/NIMC Database- Spectrum MS-IW-3493
##NAMES=HP
##CAS NAME=1-Nonadecene
##MOLFORM=C19H38
##CAS REGISTRY NO=18435-45-5
##MP= -300
##BP= -300
##MW= 266
##$RETENTION INDEX=1892
##$CONDENSED SPECTRUM=NO
##NPOINTS= 119
##XYDATA=(XY..XY) 1 
    15          1
    26          4
    27        104
    28         29
    29        353
    30          8
    31          1
    38          1
    39        101
    40         19
    41        797
    42        189
    43        928
    44         40
    45          2
    50          1
    51          3
    52          3
    53         51
    54        166
    55        941
    56        632
    57        999
    58         57
    59          3
    60          1
    65          8
    66         19
    67        187
    68        201
    69        837
    70        590
    71        602
    72         35
    73          5
    77          5
    78          1
    79         13
    80          9
    81        115
    82        359
    83        985
    84        409
    85        337
    86         21
    87          1
    91          2
    93          3
    94          4
    95         56
    96        212
    97        946
    98        269
    99         88
   100          6
   107          1
   108          2
   109         23
   110         97
   111        495
   112        184
   113         52
   114          4
   121          1
   122          2
   123         14
   124         62
   125        268
   126        123
   127         33
   128          3
   129          1
   135          1
   136          1
   137          9
   138         45
   139        133
   140         86
   141         21
   142          2
   151          2
   152         31
   153         80
   154         63
   155         14
   156          1
   165          1
   166         22
   167         52
   168         45
   169          9
   170          1
   180         16
   181         34
   182         32
   183          8
   194         10
   195         23
   196         27
   197          6
   208          6
   209         14
   210         15
   211          3
   222          4
   223          9
   224         16
   225          4
   226          1
   236          2
   237          5
   238         35
   239          7
   251          1
   264          3
   265          1
   266        168
   267         35
   268          4