##TITLE=Library Entry 24337
##JCAMP-DX=Revision 4.10 
##DATA TYPE=MASS SPECTRUM
##SAMPLE DESCRIPTION=Chemical Concepts
##NAMES=HP
##CAS NAME=Tetradecane, 3-methyl-
##MOLFORM=C15H32
##CAS REGISTRY NO=18435-22-8
##MP= -300
##BP= -300
##MW= 212
##$RETENTION INDEX=1470
##$CONDENSED SPECTRUM=NO
##NPOINTS= 87
##XYDATA=(XY..XY) 1 
    24          1
    26          5
    27         64
    28         44
    29        188
    30          5
    33          2
    36          0
    37          1
    38          0
    39         41
    40          1
    41        303
    42         63
    43        511
    44          9
    45          0
    50          1
    51          2
    53         16
    54         14
    55        163
    56        314
    57        999
    58         49
    65          1
    66          1
    67         13
    68          9
    69         66
    70         75
    71        463
    72         23
    73          1
    77          3
    78          0
    79          3
    81          1
    82         12
    83         36
    84         21
    85        293
    86         20
    88          1
    89          1
    91          0
    92          0
    95          2
    96          9
    97         26
    98         11
    99        121
   100          7
   106          0
   109          1
   110          4
   111         17
   112          9
   113         83
   114          5
   115          1
   124          3
   125         11
   126          7
   127         52
   128          7
   139          2
   140          4
   141         24
   142          2
   153          2
   154         21
   155         21
   156          3
   168          1
   169          2
   170          0
   182         80
   183        137
   184         21
   185          1
   186          0
   196          1
   197          7
   211          0
   212          8
   213          1