##TITLE=Library Entry 56417
##JCAMP-DX=Revision 4.10 
##DATA TYPE=MASS SPECTRUM
##SAMPLE DESCRIPTION=Japan AIST/NIMC Database- Spectrum MS-IW-3485
##NAMES=HP
##CAS NAME=2(3H)-Furanone, 3-hexyldihydro-
##MOLFORM=C10H18O2
##CAS REGISTRY NO=18436-37-8
##MP= -300
##BP= -300
##MW= 170
##$RETENTION INDEX=1441
##$CONDENSED SPECTRUM=NO
##NPOINTS= 67
##XYDATA=(XY..XY) 1 
    15          1
    26          3
    27         61
    28         11
    29         81
    30          2
    31          3
    38          2
    39         58
    40         11
    41        169
    42         86
    43        121
    44          7
    45          5
    50          1
    51          4
    52          2
    53         23
    54         18
    55        194
    56         67
    57         23
    58         54
    59          3
    60          1
    65          3
    66          1
    67         17
    68         13
    69         50
    70         32
    71          9
    72          1
    73          9
    77          2
    79          4
    81         26
    82          5
    83         14
    84          9
    85         64
    86        999
    87         55
    88          6
    91          1
    93          1
    95          4
    97          6
    98          2
    99        416
   100         31
   101          3
   109          1
   111          1
   112          2
   113          6
   123          1
   126          1
   127          4
   128          1
   129          1
   141          3
   151          1
   169          1
   170         11
   171          2