##TITLE=Library Entry 30940
##JCAMP-DX=Revision 4.10 
##DATA TYPE=MASS SPECTRUM
##SAMPLE DESCRIPTION=CCC 0006
##NAMES=HP
##CAS NAME=Pentaborane(11)
##MOLFORM=B5H11
##CAS REGISTRY NO=18433-84-6
##MP= -300
##BP= -300
##MW= 66
##$RETENTION INDEX=0
##$CONDENSED SPECTRUM=NO
##NPOINTS= 53
##XYDATA=(XY..XY) 1 
    10         59
    11        239
    12        127
    13        259
    14         24
    15          6
    20          4
    21         18
    22         19
    23         17
    24         69
    25         47
    26         52
    27         90
    28         17
    29         20
    30          2
    31          4
    32         17
    33         55
    34        120
    35        203
    36        199
    37        209
    38        198
    39         36
    40          8
    41         38
    42         39
    43        117
    44        201
    45        341
    46        507
    47        648
    48        557
    49        237
    50        137
    51         55
    52         63
    53         85
    54        202
    55        299
    56        328
    57        408
    58        572
    59        880
    60        999
    61        931
    62        837
    63        326
    64        210
    65         10
    66          4