##TITLE=Library Entry 26641
##JCAMP-DX=Revision 4.10 
##DATA TYPE=MASS SPECTRUM
##SAMPLE DESCRIPTION=Dmitri Zagorevskii, University of Missouri-Columbia, Co
lumbia, MO
##NAMES=HP
##CAS NAME=N-tert-Butoxycarbonyl-4-chloroaniline
##MOLFORM=C11H14ClNO2
##CAS REGISTRY NO=18437-66-6
##MP= -300
##BP= -300
##MW= 227
##$RETENTION INDEX=0
##$CONDENSED SPECTRUM=NO
##NPOINTS= 77
##XYDATA=(XY..XY) 1 
    26         22
    27        104
    29        272
    30          7
    31         86
    36          4
    37         45
    38         68
    39        259
    40         45
    41        680
    42         32
    43         61
    44        157
    47          6
    49         14
    50         54
    51         40
    52         32
    53         21
    54         10
    55         67
    56        138
    57        999
    58         63
    59        417
    60         13
    61         26
    62          0
    63        147
    64         73
    65        135
    66         15
    67          5
    72          9
    73         57
    74         19
    75         42
    76         18
    77          6
    85          5
    87          5
    88         10
    89         24
    90        113
    91         47
    92         87
    93          8
    98         11
    99         92
   100         52
   101         35
   102         16
   105          6
   111         17
   113          5
   125        111
   126         54
   127        709
   128         62
   129        221
   130         15
   140          5
   153        211
   154         22
   155         71
   156          7
   168          9
   170          7
   171        296
   172         26
   173         97
   174          8
   185          2
   227         46
   228          5
   229         14