##TITLE=Library Entry 63747
##JCAMP-DX=Revision 4.10 
##DATA TYPE=MASS SPECTRUM
##SAMPLE DESCRIPTION=Humboldt-Universitat zu Berlin, Department of Chemistry
, Analytical Group
##NAMES=HP
##CAS NAME=Acetic acid, [N-(2-methylpropenyl)-4-methylbenzenesulfamido]-, be
nzyl ester
##MOLFORM=C20H23NO4S
##CAS REGISTRY NO=184303-25-1
##MP= -300
##BP= -300
##MW= 373
##$RETENTION INDEX=0
##$CONDENSED SPECTRUM=NO
##NPOINTS= 178
##XYDATA=(XY..XY) 1 
    12          0
    14          0
    15          4
    16          0
    17          2
    18          8
    26          1
    27         21
    28         13
    29         31
    30          4
    31          0
    32          0
    37          0
    38          2
    39         52
    40          6
    41         64
    42         33
    43         11
    44          2
    45          2
    48          0
    49          0
    50          5
    51         17
    52          5
    53         11
    54          7
    55         43
    56          6
    57          2
    58          1
    59          0
    60          0
    61          0
    62          3
    63         17
    64          7
    65        122
    66          8
    67         12
    68         60
    69          5
    70          3
    71          2
    72          0
    73          1
    74          1
    75          1
    76          2
    77         22
    78          6
    79          6
    80          5
    81          2
    82        138
    83         70
    84         10
    85          1
    86          2
    87          0
    88          0
    89         22
    91        999
    92         92
    93          4
    94          0
    95          0
    96          0
    97          0
    98          7
    99          1
   100          0
   102          1
   103          1
   104          1
   105         10
   106          1
   107          3
   108          2
   109          0
   110          0
   111          1
   112          0
   113          0
   115          1
   116          0
   117          1
   118          0
   119          7
   120          3
   121          1
   122          0
   123          0
   124          0
   125          0
   126          7
   127          2
   128          2
   129          2
   130          1
   131          1
   132          1
   133         20
   134         21
   135          2
   136          0
   139         69
   140          8
   141          3
   142          0
   143          5
   144          1
   145          1
   146          0
   147          0
   148          0
   149          0
   150          0
   152          1
   153          0
   155         86
   156          8
   157          6
   158          1
   159          2
   160          1
   161          1
   162          0
   165          2
   166          1
   167          1
   168          0
   171          0
   172          2
   173          0
   174         18
   175          2
   176          0
   178          0
   179          0
   180          0
   181          0
   183          0
   184          1
   185          0
   189          0
   190          1
   191          0
   198          0
   202          0
   203          0
   207          0
   218        190
   219         27
   220          3
   221          0
   224          0
   225          0
   226          0
   238         51
   239          7
   240          3
   241          0
   250          0
   254          1
   282          1
   283          0
   294          2
   295          0
   309         24
   310          5
   311          0
   373         58
   374         14
   375          4
   376          0