##TITLE=Library Entry 7737
##JCAMP-DX=Revision 4.10 
##DATA TYPE=MASS SPECTRUM
##SAMPLE DESCRIPTION=Japan AIST/NIMC Database- Spectrum MS-NW-6236
##NAMES=HP
##CAS NAME=Distearyl sulfide
##MOLFORM=C36H74S
##CAS REGISTRY NO=1844-09-3
##MP= -300
##BP= -300
##MW= 538
##$RETENTION INDEX=0
##$CONDENSED SPECTRUM=NO
##NPOINTS= 193
##XYDATA=(XY..XY) 1 
    26          4
    27         49
    28         14
    29        156
    30          4
    32          1
    33          1
    34          2
    35          1
    37          1
    38          1
    39         38
    40          7
    41        414
    42         85
    43        999
    44         32
    45         11
    46          4
    47         23
    48          3
    49          3
    50          1
    51          2
    52          1
    53         19
    54         57
    55        693
    56        161
    57        943
    58         47
    59          7
    60         48
    61        150
    62          7
    63          8
    65          4
    66          8
    67        115
    68        113
    69        558
    70        137
    71        449
    72         26
    73         13
    74          9
    75         16
    76          2
    77          5
    78          1
    79         11
    80          6
    81         95
    82        138
    83        494
    84        101
    85        254
    86         16
    87        210
    88         53
    89         61
    90          7
    91          5
    92          1
    93          5
    94          4
    95         56
    96         87
    97        365
    98         68
    99         56
   100          5
   101         69
   102         13
   103         18
   104          3
   105          2
   107          2
   108          1
   109         21
   110         30
   111        156
   112         47
   113         31
   114          3
   115         18
   116          6
   117          9
   118          1
   119          1
   121          1
   123          7
   124         19
   125         69
   126         31
   127         18
   128          2
   129         50
   130          8
   131          9
   132          1
   137          4
   138         13
   139         31
   140         21
   141          9
   142          1
   143         22
   144          4
   145          9
   146          1
   147          1
   149          1
   150          1
   151          2
   152          9
   153         17
   154         14
   155          8
   156          1
   157         10
   158          2
   159          7
   160          1
   166          6
   167         10
   168          9
   169          6
   170          1
   171         15
   172          3
   173          7
   174          1
   180          4
   181          8
   182          8
   183          4
   184          1
   185         10
   186          2
   187          6
   188          1
   194          2
   195          4
   196          5
   197          2
   199         11
   200          3
   201          7
   202          1
   208          1
   209          3
   210          3
   211          1
   213          5
   214          1
   215          4
   216          1
   222          1
   223          2
   224          9
   225          2
   227          6
   228          1
   229          4
   241          9
   242          2
   243          3
   244          1
   250          1
   252         29
   253          6
   254          1
   255          1
   257          1
   283          4
   284         50
   285        267
   286         58
   287         19
   288          3
   299          7
   300          2
   313          2
   341          4
   342          1
   467          1
   481          1
   537          7
   538         36
   539         13
   540          4
   541          1