##TITLE=Library Entry 50314
##JCAMP-DX=Revision 4.10 
##DATA TYPE=MASS SPECTRUM
##SAMPLE DESCRIPTION=Chuck Anderson, Aldrich Chemical Co.
##NAMES=HP
##CAS NAME=Methyl 1-cyclohexene-1-carboxylate
##MOLFORM=C8H12O2
##CAS REGISTRY NO=18448-47-0
##MP= -300
##BP= -300
##MW= 140
##$RETENTION INDEX=0
##$CONDENSED SPECTRUM=NO
##NPOINTS= 92
##XYDATA=(XY..XY) 1 
    14          1
    15         75
    16          1
    25          0
    26         17
    27        169
    28         24
    29         49
    30          5
    31         12
    32          1
    33          4
    36          0
    37          6
    38         23
    39        220
    40         34
    41        203
    42         12
    43         25
    44          2
    45         15
    47          1
    49          1
    50         30
    51         59
    52         42
    53        154
    54         36
    55         38
    56          3
    57          3
    58          3
    59         77
    60          1
    61          4
    62          3
    63         12
    64          2
    65         49
    66         45
    67         45
    68         17
    69         18
    70          1
    71          9
    72          2
    73          2
    74         17
    75          3
    76          2
    77        155
    78         30
    79        613
    80        684
    81        999
    82         81
    83         19
    84          8
    85          7
    86          1
    87          1
    91          4
    92          1
    93         32
    94          4
    95         25
    96          2
    97         55
    98         11
    99          7
   100          0
   105          5
   106          0
   107         25
   108        370
   109        353
   110         29
   111         51
   112         26
   113          2
   121          0
   123          3
   124          0
   125         73
   126          4
   137          2
   138          1
   139          8
   140        412
   141         36
   142          2