##TITLE=Library Entry 100447
##JCAMP-DX=Revision 4.10 
##DATA TYPE=MASS SPECTRUM
##SAMPLE DESCRIPTION=NIST Mass Spectrometry Data Center
##NAMES=HP
##CAS NAME=1H-3a,6-Methanoazulene-3-carboxylic acid, octahydro-7,7-dimethyl-
8-methylene-, methyl ester, [3S-(3.alpha.,3a.alpha.,6.alpha.,8a.alpha.)]-
##MOLFORM=C16H24O2
##CAS REGISTRY NO=18444-89-8
##MP= -300
##BP= -300
##MW= 248
##$RETENTION INDEX=1739
##$CONDENSED SPECTRUM=NO
##NPOINTS= 152
##XYDATA=(XY..XY) 1 
    15          1
    26          1
    27         47
    28          6
    29         34
    30          2
    31          2
    33          3
    37          1
    38          3
    39        114
    40         23
    41        321
    42         13
    43         63
    44          3
    50          9
    51         46
    52         26
    53        122
    54         16
    55        222
    56         16
    57         15
    58          4
    59         74
    60          3
    61          4
    62          2
    63         20
    64         18
    65        124
    66         42
    67        212
    68         24
    69        131
    70         19
    71         25
    72          7
    73         11
    74          4
    76          5
    77        240
    78         70
    79        259
    80         39
    81        102
    82         19
    83         17
    84          7
    86          1
    87         69
    88          3
    89         10
    90         11
    91        390
    92         78
    93        113
    94         42
    95        155
    96         66
   100          3
   101          4
   103         77
   104         33
   105        210
   106         54
   107         87
   108         40
   109         66
   110         14
   111         19
   114          1
   115         99
   116         51
   117        411
   118        241
   119        999
   120        107
   121         76
   122          9
   125          4
   126         70
   127         26
   128         53
   129         78
   130         48
   131        175
   132         95
   133        234
   135          7
   138         20
   139          9
   140          5
   141         11
   142          8
   143         21
   144         26
   145        806
   146        115
   147        122
   148         15
   150         18
   151         14
   152          3
   153          3
   154          1
   155          2
   156          1
   157          4
   158          4
   162          5
   164         15
   165          4
   166          3
   167          1
   171          3
   172          2
   173        267
   174         39
   175          4
   176          7
   177         39
   178        273
   179         69
   180         10
   181          2
   182          1
   183          2
   188        641
   189        266
   190         35
   191          5
   192         11
   193          3
   194          1
   199          1
   201         17
   205        113
   206         19
   207          2
   216        124
   217         55
   218          7
   220          4
   221          1
   233        391
   234         62
   235          5
   248         80
   249         15
   250          2