##TITLE=Library Entry 57956
##JCAMP-DX=Revision 4.10 
##DATA TYPE=MASS SPECTRUM
##SAMPLE DESCRIPTION=Exported from NIST MS Search
##NAMES=HP
##CAS NAME=Nonanoic acid, 2,4,6-trimethyl-, methyl ester, (2S,4S,6R)-(+)-
##MOLFORM=C13H26O2
##CAS REGISTRY NO=18450-81-2
##MP= -300
##BP= -300
##MW= 214
##$RETENTION INDEX=0
##$CONDENSED SPECTRUM=NO
##NPOINTS= 98
##XYDATA=(XY..XY) 1 
    15         47
    26          4
    27         71
    28         18
    29        127
    30          5
    31          7
    32          3
    33          4
    37          4
    39         57
    40         13
    41        283
    42         77
    43        361
    44         15
    45         19
    51          3
    52          2
    53         31
    54          9
    55        228
    56         57
    57        242
    58         14
    59        128
    60          7
    61          4
    65          7
    66          3
    67         28
    68         13
    69        263
    70         57
    71        192
    72         13
    73         64
    74         14
    75          3
    77          6
    79          7
    80          1
    81         11
    82         13
    83        100
    84         16
    85         71
    86          8
    87         64
    88        999
    89         14
    90          3
    95         16
    96          3
    97         48
    98          7
    99         16
   100          3
   101        696
   102         64
   103          9
   106          3
   109         16
   110          4
   111         71
   112         18
   113         11
   114          3
   115          6
   121          4
   123          4
   124         13
   125          9
   127         46
   128          7
   129         65
   130         11
   131          2
   139         33
   140         16
   143         23
   144          4
   145          4
   149          6
   153          4
   155          7
   165         24
   166          4
   167         13
   171         37
   172          6
   181          4
   182          2
   183         27
   184          6
   199          6
   214         24
   215          6