##TITLE=Library Entry 57957
##JCAMP-DX=Revision 4.10 
##DATA TYPE=MASS SPECTRUM
##SAMPLE DESCRIPTION=Exported from NIST MS Search
##NAMES=HP
##CAS NAME=Nonanoic acid, 2,4,6-trimethyl-, methyl ester, (2R,4S,6R)-(-)-
##MOLFORM=C13H26O2
##CAS REGISTRY NO=18450-82-3
##MP= -300
##BP= -300
##MW= 214
##$RETENTION INDEX=0
##$CONDENSED SPECTRUM=NO
##NPOINTS= 115
##XYDATA=(XY..XY) 1 
    15         50
    16          2
    17          2
    18          1
    24          1
    26          5
    27         75
    28         22
    29        134
    30          6
    31          9
    32          1
    33          4
    37          5
    39         60
    40         18
    41        299
    42         94
    43        409
    44         18
    45         21
    51          3
    52          3
    53         30
    54         11
    55        250
    56         60
    57        255
    58         14
    59        150
    60          7
    61          5
    65          6
    66          3
    67         30
    68         13
    69        300
    70         60
    71        205
    72         18
    73         80
    74         21
    75          3
    77          6
    78          3
    79          6
    80          3
    81         13
    82         13
    83        120
    84         18
    85         78
    86          9
    87         23
    88        999
    89         73
    90          9
    91          3
    93          3
    94          2
    95         15
    96          4
    97         48
    98          8
    99         20
   100          4
   101        666
   102         65
   103         11
   107          4
   109         15
   110          6
   111         80
   112         21
   113         13
   114          3
   115          5
   121          4
   122          2
   123          4
   124         13
   125          9
   126          3
   127         42
   128          8
   129        112
   130         15
   131          4
   139         35
   140         18
   141          4
   142          2
   143         40
   144          5
   145          4
   149          6
   153          4
   155          8
   156          3
   163          2
   164          2
   165         19
   166          4
   167         14
   168          3
   171         53
   172         11
   181          4
   182          3
   183         40
   184          7
   185          3
   199          5
   214         20
   215          5