##TITLE=Library Entry 13136
##JCAMP-DX=Revision 4.10 
##DATA TYPE=MASS SPECTRUM
##SAMPLE DESCRIPTION=Chemical Concepts
##NAMES=HP
##CAS NAME=4-Hydroxy-3-isobutyramido-2(1H)-quinolinone
##MOLFORM=C13H14N2O3
##CAS REGISTRY NO=184536-23-0
##MP= -300
##BP= -300
##MW= 246
##$RETENTION INDEX=0
##$CONDENSED SPECTRUM=NO
##NPOINTS= 48
##XYDATA=(XY..XY) 1 
    34         11
    37         13
    38         34
    39        158
    40        211
    41        271
    43        999
    44        120
    50         37
    51         51
    52         30
    53         12
    54         11
    55         28
    57         12
    62         14
    63         47
    64         58
    65        131
    66         16
    69         17
    71        187
    74         10
    75         21
    76         50
    77         57
    78          9
    90         26
    91         41
    92        138
    93         41
   102         59
   103         27
   104         18
   118         16
   119         57
   120        113
   121          9
   130         37
   147        128
   148         26
   158         11
   176        867
   177         84
   202          9
   203         47
   246        206
   247         24