##TITLE=Library Entry 89345
##JCAMP-DX=Revision 4.10 
##DATA TYPE=MASS SPECTRUM
##SAMPLE DESCRIPTION=Exported from NIST MS Search
##NAMES=HP
##CAS NAME=1,3-Cyclohexanedione, 4-propyl-
##MOLFORM=C9H14O2
##CAS REGISTRY NO=18456-81-0
##MP= -300
##BP= -300
##MW= 154
##$RETENTION INDEX=0
##$CONDENSED SPECTRUM=NO
##NPOINTS= 40
##XYDATA=(XY..XY) 1 
    40         31
    41        344
    42        219
    43        203
    44          6
    50          6
    51         16
    52         16
    53         63
    54         31
    55        422
    56        150
    57         16
    58         31
    65          6
    66          6
    67         31
    68        125
    69        156
    70        391
    71         31
    77          6
    79         25
    81          6
    82          6
    83        250
    84        359
    85         31
    94          6
    95          3
    97        141
    98         16
   111         25
   112        999
   113         63
   114          6
   125         25
   126          6
   154         69
   155          6