##TITLE=Library Entry 57950
##JCAMP-DX=Revision 4.10 
##DATA TYPE=MASS SPECTRUM
##SAMPLE DESCRIPTION=Exported from NIST MS Search
##NAMES=HP
##CAS NAME=Heptanoic acid, 2,4-dimethyl-, methyl ester, (2S,4R)-(+)-
##MOLFORM=C10H20O2
##CAS REGISTRY NO=18450-78-7
##MP= -300
##BP= -300
##MW= 172
##$RETENTION INDEX=0
##$CONDENSED SPECTRUM=NO
##NPOINTS= 91
##XYDATA=(XY..XY) 1 
    15         70
    16          3
    17          3
    18          1
    26          6
    27        105
    28         34
    29        130
    30          6
    31         12
    32          2
    33          5
    37          6
    38          3
    39         79
    40         17
    41        262
    42         92
    43        309
    44         14
    45         27
    51          5
    52          4
    53         30
    54          9
    55        201
    56         74
    57        192
    58         14
    59        167
    60          9
    61          5
    63          4
    65          6
    66          4
    67         20
    68          9
    69        210
    70         48
    71        116
    72          9
    73        109
    74         31
    75          3
    77          5
    78          2
    79          5
    80          1
    81          7
    82          5
    83         26
    84          6
    85         52
    86          6
    87        135
    88        999
    89         54
    90          7
    91          3
    93          5
    95          4
    96          3
    97         57
    98         35
    99          5
   100          1
   101        380
   102         52
   103          9
   107          2
   111         11
   112          9
   113         28
   114          3
   115          3
   122          2
   123          3
   125          8
   129        140
   130         19
   131          3
   135          1
   139          3
   140          3
   141         46
   142          7
   143          3
   157         10
   158          2
   172          5
   173          1