##TITLE=Library Entry 44599
##JCAMP-DX=Revision 4.10 
##DATA TYPE=MASS SPECTRUM
##SAMPLE DESCRIPTION=R.T.HOLMAN,UNIVERSITY OF MINNESOTA
##NAMES=HP
##CAS NAME=7-Octynoic acid, methyl ester
##MOLFORM=C9H14O2
##CAS REGISTRY NO=18458-50-9
##MP= -300
##BP= -300
##MW= 154
##$RETENTION INDEX=0
##$CONDENSED SPECTRUM=NO
##NPOINTS= 84
##XYDATA=(XY..XY) 1 
    26         50
    27        530
    28        180
    29        260
    30         20
    31         60
    37         20
    38         70
    39        710
    40        120
    41        630
    42        150
    43        430
    44         30
    45        110
    46         10
    50         70
    51        130
    52         80
    53        310
    54        250
    55        800
    56         60
    57         50
    58         10
    59        560
    60         20
    61         10
    62         10
    63         40
    64         10
    65        100
    66         70
    67        300
    68         60
    69         30
    70         10
    71        110
    72         30
    73        220
    74        999
    75         70
    77        120
    78         40
    79        410
    80        560
    81        540
    82         50
    83         90
    84         30
    85         10
    87        130
    88         20
    91         40
    92         10
    93         90
    94        320
    95        650
    96         50
    97         50
    99         20
   100         10
   101         10
   107         20
   111         70
   112         40
   113         30
   114         90
   115        110
   116         10
   121         10
   122         20
   123         20
   125         20
   126         20
   127          2
   131          2
   137          2
   139         28
   140          2
   141          2
   153          5
   154          2
   155          2