##TITLE=Library Entry 82407
##JCAMP-DX=Revision 4.10 
##DATA TYPE=MASS SPECTRUM
##SAMPLE DESCRIPTION=A.A.Kutin, Moscow, Russia
##NAMES=HP
##CAS NAME=Cumarin, 3-nitro-4-(2-phenylamino)ethylthio-
##MOLFORM=C17H14N2O4S
##CAS REGISTRY NO=184581-65-5
##MP= -300
##BP= -300
##MW= 342
##$RETENTION INDEX=0
##$CONDENSED SPECTRUM=NO
##NPOINTS= 215
##XYDATA=(XY..XY) 1 
    33          2
    34          2
    35          1
    36          0
    37          3
    38         13
    39         56
    40         23
    41         10
    42         14
    43          5
    44         16
    45         14
    46          4
    47          3
    48          2
    50         24
    51         68
    52         15
    53          6
    54          3
    55          3
    56          1
    57          2
    58          4
    59          5
    60          2
    61          8
    62         23
    63         27
    64         18
    65         72
    66         13
    67          2
    69         17
    70          7
    71          2
    72          0
    73          1
    74          7
    75         11
    76         29
    77        184
    78         34
    79         52
    80          7
    81          2
    82          3
    83          1
    84          1
    85          2
    86          4
    87         10
    88         33
    89         20
    90         19
    91         45
    92         31
    93         24
    94         13
    95          2
    96          2
    97          1
    98          0
    99          0
   100          0
   101          4
   102         11
   103         15
   104         40
   106        999
   107         72
   108         14
   109          3
   110          1
   111          1
   112          0
   113          0
   114          2
   115          4
   116         12
   117         15
   118         60
   119         34
   120         44
   121         11
   122          3
   123          2
   124          5
   125          0
   126          0
   127          0
   128          0
   129          1
   130          2
   131          2
   132          4
   133          4
   134          9
   135          3
   136          4
   137          3
   138          0
   139          1
   140          0
   141          0
   143          0
   144          1
   145          2
   146          3
   147          2
   148          4
   149          3
   150          1
   151          2
   152          1
   153          1
   154          0
   157          0
   158          0
   159          1
   160          0
   161          3
   162          4
   163          1
   165          2
   166          2
   167          1
   168          0
   171          0
   172          0
   173          0
   174          1
   175          1
   176          1
   177          1
   178          3
   179          1
   180          1
   181          0
   185          0
   187          0
   188          0
   189          0
   190          0
   191          1
   192          1
   193          1
   194          0
   195          1
   196          0
   198          0
   201          0
   202          0
   203          2
   204          2
   205          0
   206          1
   207          1
   208          0
   209          0
   210          0
   211          0
   212          0
   216          0
   217          0
   218          0
   219          0
   220          1
   221          0
   222          1
   223          0
   224          0
   234          0
   235          0
   236          1
   237          0
   238          0
   239          0
   240          0
   248          0
   249          0
   250          0
   252          0
   254          0
   255          0
   262          0
   263          1
   264          0
   265          0
   266          0
   267          0
   268          1
   269          0
   278          0
   280          0
   281          0
   282          0
   292          0
   293          1
   295          7
   296         34
   297          7
   298          2
   299          0
   309          0
   310          0
   326          0
   339          0
   340          0
   341          0
   342         14
   343          3
   344          0
   345          0