##TITLE=Library Entry 77901
##JCAMP-DX=Revision 4.10 
##DATA TYPE=MASS SPECTRUM
##SAMPLE DESCRIPTION=Div. of Experiment Therapeutics WRAIR, WRAMC, Washingto
n DC 20307
##NAMES=HP
##CAS NAME=cis-2,6-Diphenyl-4-tetrahydrothiopyranone
##MOLFORM=C17H16OS
##CAS REGISTRY NO=18456-44-5
##MP= -300
##BP= -300
##MW= 268
##$RETENTION INDEX=0
##$CONDENSED SPECTRUM=NO
##NPOINTS= 103
##XYDATA=(XY..XY) 1 
    41          8
    42         10
    43         12
    45         70
    47          4
    49          6
    50         48
    51        183
    52         50
    53         14
    55          7
    58         18
    59         19
    60          0
    61          3
    62          6
    63         58
    65         42
    66          6
    67          2
    69         15
    70          3
    71          5
    74         11
    75         14
    76         16
    77        261
    78        250
    79         19
    81          2
    82          3
    84          6
    85          2
    86          3
    87          7
    89         30
    91        118
    92          7
    93          2
    95          4
    97          0
   101          4
   102         19
   103        212
   104        999
   105        100
   106          5
   108          4
   109          7
   110          2
   115         12
   116          6
   117          9
   118          2
   121        229
   122        211
   123         36
   124         11
   125          2
   127          2
   128          3
   129          5
   131         72
   132         13
   133         18
   134         26
   135        104
   136         81
   137          9
   138          4
   144          0
   145         10
   146         92
   147         11
   148          1
   149          4
   152          0
   161          1
   163          6
   164          2
   165          4
   167          3
   176          8
   177         16
   178          4
   180         16
   181          1
   189          1
   190          2
   191          2
   193          6
   194          1
   221          1
   223          0
   226          4
   235         14
   236          0
   250          3
   267          2
   268        331
   269         54
   270         18
   271          1