##TITLE=Library Entry 7921
##JCAMP-DX=Revision 4.10 
##DATA TYPE=MASS SPECTRUM
##SAMPLE DESCRIPTION=Exported from NIST MS Search
##NAMES=HP
##CAS NAME=1-Heptanol, 2,4-dimethyl-, (2S,4R)-(-)-
##MOLFORM=C9H20O
##CAS REGISTRY NO=18450-74-3
##MP= -300
##BP= -300
##MW= 144
##$RETENTION INDEX=0
##$CONDENSED SPECTRUM=NO
##NPOINTS= 42
##XYDATA=(XY..XY) 1 
    18         13
    27        197
    28         27
    29        323
    30         22
    31        271
    32         13
    39        170
    40         36
    41        641
    42        181
    43        999
    44         54
    45        100
    51         27
    53         61
    54         31
    55        668
    56        502
    57        740
    58         76
    59        118
    65         13
    67         49
    68         27
    69        316
    70        323
    71        619
    72         46
    73         18
    81         22
    82         31
    83        619
    84        717
    85        108
    97         94
    98         45
   101         63
   111         40
   112         18
   113         27
   126         45