##TITLE=Library Entry 67351
##JCAMP-DX=Revision 4.10 
##DATA TYPE=MASS SPECTRUM
##SAMPLE DESCRIPTION=NIST Mass Spectrometry Data Center, 1998.
##NAMES=HP
##CAS NAME=cis-Verbenol
##MOLFORM=C10H16O
##CAS REGISTRY NO=1845-30-3
##MP= -300
##BP= -300
##MW= 152
##$RETENTION INDEX=1142
##$CONDENSED SPECTRUM=NO
##NPOINTS= 102
##XYDATA=(XY..XY) 1 
    15         10
    26         10
    27        168
    28         19
    29        126
    30          4
    31         36
    37          5
    38         23
    39        400
    40         68
    41        595
    42         50
    43        360
    44         16
    45         24
    46          3
    48          1
    49          1
    50         44
    51        144
    52         58
    53        262
    54         50
    55        474
    56         80
    57         69
    58         14
    59        646
    60         32
    61         16
    62         18
    63         55
    64         17
    65        191
    66         60
    67        430
    68         66
    69        385
    70         48
    71         32
    72         42
    73          3
    74          9
    75          9
    76          6
    77        364
    78         90
    79        522
    80        198
    81        549
    82        223
    83        254
    84        227
    85         20
    86          3
    87          3
    89         18
    90          9
    91        681
    92        201
    93        241
    94        999
    95        447
    96        129
    97         72
    98          7
   101          1
   102         11
   103         52
   104         23
   105        170
   106         46
   107        252
   108         80
   109        884
   110         92
   111         19
   115         43
   116         11
   117         60
   118         11
   119        387
   120         45
   121        105
   122         32
   123         86
   124         13
   125          2
   128          2
   129          1
   131          3
   132          3
   133         11
   134         91
   135         25
   136          4
   137        145
   138         14
   150          6
   151          4
   152          3