##TITLE=Library Entry 109180
##JCAMP-DX=Revision 4.10 
##DATA TYPE=MASS SPECTRUM
##SAMPLE DESCRIPTION=V.A.Korolev, Moscow, Russia
##NAMES=HP
##CAS NAME=Methanesulfinylbenzene
##MOLFORM=C7H8OS
##CAS REGISTRY NO=18453-46-8
##MP= -300
##BP= -300
##MW= 140
##$RETENTION INDEX=0
##$CONDENSED SPECTRUM=NO
##NPOINTS= 64
##XYDATA=(XY..XY) 1 
    33          3
    37         29
    38         57
    39        182
    40          9
    41          9
    44         16
    45        193
    46         29
    47         31
    48         23
    49         30
    50        358
    51        834
    52         54
    53        137
    54          4
    57         13
    58         14
    59          3
    61         14
    62         28
    63         84
    64         21
    65        239
    66         37
    69         88
    70         16
    71         14
    73         24
    74        114
    75         70
    76         63
    77        872
    78        144
    79         18
    81         92
    82         26
    83          5
    91        106
    92         31
    93         32
    94        148
    95         30
    97        699
    98         42
    99         26
   107          2
   108         22
   109         94
   110         10
   111          7
   112         32
   121          2
   122          2
   123         28
   124        119
   125        999
   126         74
   127         42
   139         11
   140        810
   141         65
   142         34