##TITLE=Library Entry 41351
##JCAMP-DX=Revision 4.10 
##DATA TYPE=MASS SPECTRUM
##SAMPLE DESCRIPTION=O A MAMER, MCGILL UNIVERSITY, MONTREAL,
##NAMES=HP
##CAS NAME=Monoethyl methylmalonate, TMS derivative
##MOLFORM=C9H18O4Si
##CAS REGISTRY NO=18457-07-3
##MP= -300
##BP= -300
##MW= 218
##$RETENTION INDEX=0
##$CONDENSED SPECTRUM=NO
##NPOINTS= 99
##XYDATA=(XY..XY) 1 
    11          6
    19          8
    28         85
    29        163
    30          6
    31          8
    38          1
    39          8
    40         75
    41          8
    42          2
    43         54
    44         38
    45        115
    46          9
    47         57
    48          4
    49          3
    50          1
    51         25
    52          7
    53          1
    54          3
    55         35
    56        137
    57         27
    58         34
    59         29
    60         13
    61         55
    62          4
    63          3
    65          9
    66          2
    70          1
    71          2
    72         32
    73        999
    74         95
    75        957
    76         70
    77         40
    78          2
    79          7
    80          0
    83         12
    84          0
    85          1
    86         26
    87          8
    88          3
    89          8
    91          5
    98          5
    99          6
   100          3
   101         51
   102         14
   103        215
   104         22
   105          7
   113         10
   114          2
   115         13
   116         14
   117        109
   118         15
   119         26
   120          3
   128          6
   129         92
   130         57
   131        183
   132         21
   133          9
   143          2
   145          2
   146         11
   151          6
   152          9
   153          2
   157         19
   158          2
   159          8
   160          2
   161          2
   167          3
   172          4
   173         48
   174         46
   175        127
   176         16
   177          6
   203        174
   204         25
   205         12
   207          1
   218         11
   219          2