##TITLE=Library Entry 98526
##JCAMP-DX=Revision 4.10 
##DATA TYPE=MASS SPECTRUM
##SAMPLE DESCRIPTION=A.A.Kutin, Moscow, Russia
##NAMES=HP
##CAS NAME=Benzenecarboximidamide, 4-methyl-
##MOLFORM=C8H10N2
##CAS REGISTRY NO=18465-11-7
##MP= -300
##BP= -300
##MW= 134
##$RETENTION INDEX=0
##$CONDENSED SPECTRUM=NO
##NPOINTS= 70
##XYDATA=(XY..XY) 1 
    33          0
    39        139
    40          9
    41         29
    42         14
    43        146
    44          4
    49          6
    50         65
    51         72
    52         39
    53         15
    54          7
    55          2
    56          3
    57          3
    59         24
    60          2
    61         18
    62         47
    63         99
    64         36
    65        190
    66         30
    67          4
    68          2
    69          1
    71          2
    72          5
    73         39
    74         19
    75         24
    76         20
    77         36
    78          3
    79         13
    80         16
    81          8
    82         14
    83          2
    84          1
    85          6
    86         13
    87         12
    88         11
    89        128
    90        100
    91        302
    92         42
    93          5
    95          2
    96          1
    97          3
    98          2
   100          0
   102         11
   103          6
   104          0
   105          0
   106         44
   107         16
   108          2
   116         15
   117        219
   118        999
   119         94
   120          6
   134        673
   135         66
   136          4