##TITLE=Library Entry 17478
##JCAMP-DX=Revision 4.10 
##DATA TYPE=MASS SPECTRUM
##SAMPLE DESCRIPTION=Exported from NIST MS Search
##NAMES=HP
##CAS NAME=Arabinofuranose, 2,3,5-tri-O-methyl-, L-
##MOLFORM=C8H16O5
##CAS REGISTRY NO=18463-35-9
##MP= -300
##BP= -300
##MW= 192
##$RETENTION INDEX=0
##$CONDENSED SPECTRUM=NO
##NPOINTS= 42
##XYDATA=(XY..XY) 1 
    29        418
    31        212
    33         87
    39        112
    41        181
    42         37
    43        140
    45        999
    55        150
    57         84
    59        109
    68         56
    69         50
    71        156
    73        131
    74        118
    75        106
    83        290
    85         87
    87        899
    88        275
    89         87
   101        993
   102         53
   111         53
   114        812
   115         40
   116         25
   128         40
   131         37
   142         46
   144          6
   146         34
   148          5
   160         13
   161          2
   173          9
   175          4
   176          3
   187          3
   190          2
   191          1