##TITLE=Library Entry 2103
##JCAMP-DX=Revision 4.10 
##DATA TYPE=MASS SPECTRUM
##SAMPLE DESCRIPTION=R.T.HOLMAN,UNIVERSITY OF MINNESOTA
##NAMES=HP
##CAS NAME=2-Nonynoic acid
##MOLFORM=C9H14O2
##CAS REGISTRY NO=1846-70-4
##MP= -300
##BP= -300
##MW= 154
##$RETENTION INDEX=0
##$CONDENSED SPECTRUM=NO
##NPOINTS= 87
##XYDATA=(XY..XY) 1 
    12         80
    13          4
    15         70
    17         20
    18         80
    24          2
    25          7
    26        120
    27        930
    28        240
    29        670
    30         15
    31          2
    36          3
    37         57
    38        140
    39        980
    40        200
    41        999
    42        350
    43        870
    44        850
    45         10
    46          4
    47          1
    48          1
    49         14
    50        140
    51        220
    52        120
    53        340
    54        270
    55        470
    56         90
    57         20
    58         36
    59          7
    60          3
    61         10
    62         25
    63         50
    64          9
    65         80
    66         60
    67        460
    68        250
    69        210
    70        100
    71         47
    72          3
    73          3
    74         10
    75          6
    76          2
    77         60
    78         16
    79        120
    80         40
    81        730
    82        150
    83         10
    84          3
    85          4
    86          2
    87          1
    89          1
    91         10
    92          2
    93         10
    94          3
    95        240
    96         18
    97          2
    98          1
    99          1
   105          3
   106          1
   107          1
   109         10
   110          2
   111          1
   112          1
   113          2
   119          1
   128          3
   129          1
   154          1