##TITLE=Library Entry 71373
##JCAMP-DX=Revision 4.10 
##DATA TYPE=MASS SPECTRUM
##SAMPLE DESCRIPTION=LMC, NIDDK, NIH, Bethesda, MD 20892
##NAMES=HP
##CAS NAME=2-Azabutane, 2-formyl-1-[1-ethyl-2-pyrrolidyl]-4-[3,4-dichlorophe
nyl]-
##MOLFORM=C16H22Cl2N2O
##CAS REGISTRY NO=184637-54-5
##MP= -300
##BP= -300
##MW= 328
##$RETENTION INDEX=0
##$CONDENSED SPECTRUM=NO
##NPOINTS= 145
##XYDATA=(XY..XY) 1 
    41         26
    42         32
    43         32
    44         12
    45         39
    46         50
    47          1
    49          1
    50          0
    51          2
    52          1
    53          3
    54          8
    55         12
    56         17
    57          3
    58          5
    59          0
    61          0
    62          1
    63          2
    65          1
    67          4
    68         18
    69         10
    70         73
    71         11
    72          1
    73          1
    74          1
    75          3
    76          0
    77          4
    78          1
    80          2
    81          1
    82          9
    83          5
    84          6
    85          1
    86          1
    87          0
    88          0
    89          4
    91          1
    94          1
    95          1
    96         16
    98        999
    99         74
   100          3
   101          8
   102         10
   103          5
   107          0
   108          0
   109          1
   110          6
   111          9
   112          5
   113          1
   116          0
   118          0
   120          0
   121          0
   123          3
   124          2
   125          2
   126          1
   127          1
   132          0
   133          0
   135          1
   136          1
   137          7
   138          4
   139          3
   140          1
   141          1
   146          0
   147          0
   149          1
   152          0
   154          0
   155          0
   156          1
   159          6
   160          0
   161          5
   163          1
   168          1
   169          0
   170          0
   171          2
   172          8
   173          8
   174          6
   175          5
   176          1
   177          1
   180          0
   181          0
   182          0
   184          0
   186          0
   192          0
   193          0
   198          0
   206          0
   207          0
   213          0
   219          1
   223          0
   224          0
   226          0
   230          1
   232          1
   240          0
   246          0
   247          0
   256          0
   260          0
   261          0
   266          1
   274          1
   280          0
   283          0
   287          0
   288          0
   293          1
   299          0
   301          0
   302          0
   306          1
   313          0
   314          0
   315          0
   320          0
   326          0
   327          2
   328          1
   329          2
   330          0
   331          0
   332          1