##TITLE=Library Entry 82826
##JCAMP-DX=Revision 4.10 
##DATA TYPE=MASS SPECTRUM
##SAMPLE DESCRIPTION=A.A.Kutin, Moscow, Russia
##NAMES=HP
##CAS NAME=Benzoic acid, 4-aminomethyl-, methyl ester
##MOLFORM=C9H11NO2
##CAS REGISTRY NO=18469-52-8
##MP= -300
##BP= -300
##MW= 165
##$RETENTION INDEX=0
##$CONDENSED SPECTRUM=NO
##NPOINTS= 117
##XYDATA=(XY..XY) 1 
    33          9
    38          2
    39         87
    40         44
    41         33
    42        113
    43         27
    44         58
    45         15
    46          2
    47          0
    48          1
    50        158
    51        184
    52        115
    53        108
    54         26
    55         18
    56          6
    57         14
    59        151
    60         29
    61         10
    62         29
    63         91
    64         22
    65         30
    66         70
    67         16
    69          8
    70          5
    71          5
    72          2
    73         15
    74         51
    75         56
    76        120
    77        407
    78        138
    79        191
    80         19
    81          5
    82          4
    83          4
    84          4
    85          6
    86          7
    87          8
    89        268
    90         75
    91        120
    92         18
    93         44
    94          7
    95          3
    96          2
    97          2
    98          2
    99          2
   100          2
   101          4
   102         14
   103         35
   104        256
   105        651
   106        999
   107         85
   108          5
   109          5
   110          2
   111          2
   112          2
   115          3
   116         21
   117         13
   118         24
   119         13
   120         10
   121         55
   122          6
   123          3
   124          1
   125          1
   126          0
   127          0
   128          2
   129          2
   130         11
   132        234
   133        534
   134        319
   135         40
   136         14
   137         74
   138          8
   139          0
   140          0
   143          0
   144          0
   146          1
   147          1
   148          5
   149         39
   150        214
   151         20
   152          3
   153          0
   157          0
   160          1
   161          3
   162         16
   163         22
   164        443
   165        117
   166         12
   167          4
   168          0