##TITLE=Library Entry 34281
##JCAMP-DX=Revision 4.10 
##DATA TYPE=MASS SPECTRUM
##SAMPLE DESCRIPTION=D.HENNEBERG, MAX-PLANCK INSTITUTE, MULHEIM, WEST GERMAN
Y
##NAMES=HP
##CAS NAME=2,6-Octadiene, 4,5-dimethyl-
##MOLFORM=C10H18
##CAS REGISTRY NO=18476-57-8
##MP= -300
##BP= -300
##MW= 138
##$RETENTION INDEX=0
##$CONDENSED SPECTRUM=NO
##NPOINTS= 62
##XYDATA=(XY..XY) 1 
    22          0
    23          0
    26          2
    27         50
    29         35
    30          0
    35          1
    37          4
    38          4
    39         97
    40         18
    41        536
    42         26
    43         11
    49          0
    50          3
    51         11
    52          5
    53         49
    54          9
    55         30
    56          1
    57          1
    58          0
    62          1
    63          3
    64          0
    65         13
    66          7
    67         66
    68        134
    69        999
    70         56
    71          1
    75          0
    77         12
    78          2
    79         11
    80          1
    81         15
    82          5
    83          0
    89          0
    91          9
    92          1
    93          4
    94          0
    95          5
    96          5
    97          0
   103          0
   105          2
   106          0
   107          3
   108          0
   109         24
   110          1
   119          0
   121          0
   123          9
   124          0
   138          4