##TITLE=Library Entry 3377
##JCAMP-DX=Revision 4.10 
##DATA TYPE=MASS SPECTRUM
##SAMPLE DESCRIPTION=Chemical Concepts
##NAMES=HP
##CAS NAME=5-Hepten-1-ol, 2-ethenyl-6-methyl-
##MOLFORM=C10H18O
##CAS REGISTRY NO=18479-48-6
##MP= -300
##BP= -300
##MW= 154
##$RETENTION INDEX=0
##$CONDENSED SPECTRUM=NO
##NPOINTS= 77
##XYDATA=(XY..XY) 1 
    26         13
    27        278
    28         63
    29        151
    30          7
    31        122
    32          4
    37          2
    38          9
    39        306
    40         54
    41        999
    42         72
    43        142
    44          8
    45          7
    50         12
    51         35
    52         19
    53        156
    54        168
    55        502
    56         77
    57         58
    58          5
    59         16
    62          3
    63          9
    64          3
    65         36
    66         30
    67        455
    68        138
    69        667
    70         78
    71         18
    72          6
    75          2
    77         54
    78         17
    79        136
    80        137
    81        161
    82        488
    83        121
    84         17
    85         18
    86          4
    89          2
    91         48
    92         32
    93        419
    94         68
    95        164
    96         27
    97         12
    98         12
    99          3
   105         13
   106          5
   107         48
   108         36
   109          7
   110          5
   111         23
   112          6
   119          2
   120          3
   121        112
   122         13
   123        103
   124         10
   135          3
   136         78
   137         11
   139          4
   154         16