##TITLE=Library Entry 29638
##JCAMP-DX=Revision 4.10 
##DATA TYPE=MASS SPECTRUM
##SAMPLE DESCRIPTION=Chemical Concepts
##NAMES=HP
##CAS NAME=7-Octen-2-ol, 2,6-dimethyl-
##MOLFORM=C10H20O
##CAS REGISTRY NO=18479-58-8
##MP= -300
##BP= -300
##MW= 156
##$RETENTION INDEX=1064
##$CONDENSED SPECTRUM=NO
##NPOINTS= 88
##XYDATA=(XY..XY) 1 
    26         10
    27         71
    28         11
    29         70
    30          2
    31         91
    33          0
    36          0
    37          1
    38          2
    39         51
    40         11
    41        194
    42         20
    43        160
    44          7
    45         22
    46          0
    47          0
    48          0
    49          0
    50          5
    51          5
    52          4
    53         20
    54         16
    55        154
    56         44
    57         23
    58         31
    59        999
    60         30
    61          2
    62          1
    63          2
    64          0
    65          3
    66          3
    67         71
    68         40
    69         67
    70         51
    71         42
    72          2
    73          1
    74          0
    76          0
    77          3
    78          2
    79         10
    80          3
    81         44
    82         84
    83         74
    84          6
    85          7
    86          0
    87          0
    91          2
    92          0
    93          1
    94          4
    95         48
    96         12
    97          6
    98         17
    99          2
   101          3
   103          0
   104          0
   105          1
   107          0
   108          0
   109         16
   110          6
   111          0
   112          2
   113          1
   119          0
   121          0
   123         57
   124          5
   125          0
   138          3
   139          0
   141          5
   142          0
   152          0