##TITLE=Library Entry 42059
##JCAMP-DX=Revision 4.10 
##DATA TYPE=MASS SPECTRUM
##SAMPLE DESCRIPTION=Chemical Concepts
##NAMES=HP
##CAS NAME=1,2-Dihydrolinalool
##MOLFORM=C10H20O
##CAS REGISTRY NO=18479-51-1
##MP= -300
##BP= -300
##MW= 156
##$RETENTION INDEX=1120
##$CONDENSED SPECTRUM=NO
##NPOINTS= 86
##XYDATA=(XY..XY) 1 
    26         26
    27        189
    28         11
    29        210
    30          4
    31         48
    33          0
    36          0
    37          1
    38          4
    39        112
    40         29
    41        440
    42         29
    43        437
    44         16
    45         63
    46          1
    47          0
    48          0
    49          0
    50          7
    51          9
    52          7
    53         40
    54         14
    55        335
    56        142
    57        123
    58         27
    59         14
    60          0
    62          0
    63          1
    64          1
    65          6
    66          7
    67        107
    68        305
    69        419
    70         46
    71        170
    73        999
    74         40
    75          1
    76          0
    77          5
    78          1
    79         10
    80          7
    81         63
    82        182
    83         63
    84         26
    85         28
    86          1
    87          0
    91          4
    92          0
    93          3
    94          3
    95         27
    96         72
    97         12
    98          1
    99          0
   103          0
   105          1
   107          1
   109        457
   110         32
   111          2
   119          0
   121          0
   123         76
   124          6
   125          0
   127         19
   128          2
   136          0
   137          0
   138         24
   139          3
   140          0
   141          7
   142          0