##TITLE=Library Entry 83696
##JCAMP-DX=Revision 4.10 
##DATA TYPE=MASS SPECTRUM
##SAMPLE DESCRIPTION=Chemical Concepts
##NAMES=HP
##CAS NAME=.gamma.-Gurjunenepoxide-(2)
##MOLFORM=C15H24O
##CAS REGISTRY NO=184705-51-9
##MP= -300
##BP= -300
##MW= 220
##$RETENTION INDEX=0
##$CONDENSED SPECTRUM=NO
##NPOINTS= 122
##XYDATA=(XY..XY) 1 
    26         33
    27        372
    28         58
    29        487
    30         18
    31         31
    38         13
    39        334
    40         49
    41        771
    42         45
    43        365
    44         10
    45         11
    50         19
    51        113
    52         47
    53        234
    54         34
    55        643
    56         35
    57        101
    58         18
    59         36
    63         42
    64         19
    65        164
    66         42
    67        379
    68         54
    69        240
    70         20
    71         34
    75         14
    77        337
    78         95
    79        489
    80         93
    81        793
    82         81
    83        141
    84         34
    85         31
    88          9
    89         16
    90          8
    91        555
    92        102
    93        551
    94         99
    95        419
    96         86
    97        107
    98         31
   102         13
   103         54
   104         29
   105        634
   106        118
   107        999
   108        162
   109        183
   110         55
   111         48
   115         75
   116         30
   117         98
   118         40
   119        409
   120        143
   121        275
   122         89
   123         72
   124         22
   125         21
   127         10
   128         32
   129         34
   130         22
   131        136
   132         37
   133        247
   134        107
   135        140
   136         54
   137         31
   138         15
   139          8
   143         12
   144          8
   145        157
   146         91
   147        327
   148         59
   149         46
   150         12
   151         12
   159         99
   160         61
   161        680
   162        489
   163        361
   164         51
   165         13
   173         58
   174         23
   175         47
   176         10
   177         39
   178         17
   187        133
   188         22
   189        616
   190        131
   191         31
   192         14
   202        116
   203         22
   205         67
   206          9
   220        324
   221         65