##TITLE=Library Entry 52912
##JCAMP-DX=Revision 4.10 
##DATA TYPE=MASS SPECTRUM
##SAMPLE DESCRIPTION=CARL DJERASSI DEPT OF CHEM STANFORD UNIV STANFORD CALIF
 94305
##NAMES=HP
##CAS NAME=Carbonic acid, m-fluorophenyl methyl ester
##MOLFORM=C8H7FO3
##CAS REGISTRY NO=1847-99-0
##MP= -300
##BP= -300
##MW= 170
##$RETENTION INDEX=0
##$CONDENSED SPECTRUM=NO
##NPOINTS= 35
##XYDATA=(XY..XY) 1 
    44         30
    45         10
    50         80
    51         40
    56         40
    57        550
    59        430
    61         30
    62         60
    63        130
    64         20
    68         20
    69         40
    70         20
    73         10
    75        170
    76         10
    77         20
    78         10
    81         80
    82         40
    83        999
    84         50
    94         20
    95        350
    96        850
    97        430
    98         10
   111        100
   112         10
   125         20
   126        380
   127         20
   170        320
   171         20