##TITLE=Library Entry 67230
##JCAMP-DX=Revision 4.10 
##DATA TYPE=MASS SPECTRUM
##SAMPLE DESCRIPTION=Chemical Concepts
##NAMES=HP
##CAS NAME=3-Cyclohexene-1-ethanol, .beta.,4-dimethyl-
##MOLFORM=C10H18O
##CAS REGISTRY NO=18479-68-0
##MP= -300
##BP= -300
##MW= 154
##$RETENTION INDEX=1295
##$CONDENSED SPECTRUM=NO
##NPOINTS= 67
##XYDATA=(XY..XY) 1 
    26         11
    27        186
    28          7
    29        242
    30         10
    31        146
    38         10
    39        258
    40         78
    41        498
    42         64
    43        179
    44         10
    45         18
    50         15
    51         62
    52         32
    53        278
    54         53
    55        578
    56         69
    57         71
    58         63
    59         20
    63         16
    65         91
    66         48
    67        829
    68        836
    69        167
    70         30
    71         35
    77        232
    78         52
    79        736
    80        153
    81        557
    82         59
    83         29
    84         28
    85         19
    90          3
    91        237
    92        149
    93        949
    94        999
    95        766
    96         82
    97         55
    98          9
   103          9
   105         70
   106         20
   107        611
   108        141
   109         20
   119         12
   121        595
   122         70
   123        304
   124         33
   125          9
   135         10
   136        325
   137         39
   154        233
   155         29