##TITLE=Library Entry 50996
##JCAMP-DX=Revision 4.10 
##DATA TYPE=MASS SPECTRUM
##SAMPLE DESCRIPTION=A.A.Kutin, Moscow, Russia
##NAMES=HP
##CAS NAME=Purine-2,6(1H,3H)-dione, 1-(2-furfuryl)-3-(2-methylphenyl)-
##MOLFORM=C17H14N4O3
##CAS REGISTRY NO=184898-44-0
##MP= -300
##BP= -300
##MW= 322
##$RETENTION INDEX=0
##$CONDENSED SPECTRUM=NO
##NPOINTS= 239
##XYDATA=(XY..XY) 1 
    33          0
    34          0
    36          1
    37          2
    38          9
    39         55
    40         16
    41         19
    42          5
    43          8
    44         10
    45          5
    46          1
    50         11
    51         30
    52         24
    53        135
    54         11
    55          7
    56          6
    57          4
    58          1
    59          0
    60          1
    61          1
    62          5
    63         21
    64         11
    65         58
    66         12
    67          8
    68          8
    69          9
    70         41
    71          4
    72          1
    73          2
    74          1
    75          3
    76          5
    77         15
    78         10
    79          7
    81        999
    82         56
    83          5
    84          1
    85          2
    86          1
    87          1
    88          5
    89         54
    90         50
    91         78
    92          7
    93          3
    94          6
    95          7
    96         29
    97          8
    98          1
    99          1
   100          1
   101          2
   102          4
   103          5
   104          8
   105          3
   106          4
   107          3
   108          2
   109          1
   110          1
   111          1
   112          0
   114          4
   115          8
   116         52
   117         46
   118         25
   119          4
   120          2
   121          2
   122         19
   123          2
   124          1
   125          1
   127          1
   128          7
   129          7
   130          7
   131          2
   132          3
   133          2
   134          1
   135          2
   136          9
   137          1
   138          0
   139          1
   141          3
   142         11
   143         21
   144         14
   145          6
   146          2
   147          1
   148          1
   149          3
   150          0
   151          0
   152          1
   153         11
   154          4
   155          4
   156          3
   157          4
   158          2
   159          1
   160          0
   161          2
   162          0
   164          0
   165          0
   166          0
   167          1
   168          2
   169          8
   170         63
   171         32
   172          8
   173          2
   174          0
   175          0
   176          0
   177          0
   179          0
   180          0
   181          1
   182          3
   183          3
   184          3
   185          4
   186          1
   187          0
   188          0
   189          0
   191          0
   193          0
   194          0
   195          1
   196          6
   197         16
   198        117
   199         69
   200         16
   201          2
   202          1
   203          0
   205          0
   206          0
   207          1
   208          1
   209          1
   210          1
   211          2
   212          2
   214          9
   215          1
   216          0
   217          2
   218          0
   219          0
   220          0
   221          1
   222          2
   223          2
   224          3
   225          5
   226          6
   227          2
   228          1
   230          2
   231          1
   232          0
   233          0
   234          1
   235          1
   236          4
   237          1
   238          1
   239          1
   241         20
   242          4
   243          9
   244          1
   245          0
   248          0
   249          1
   250         16
   251          8
   252          3
   253          0
   254          1
   255          1
   256          0
   260          0
   261          0
   262          1
   263          1
   264          2
   265          1
   266          0
   267          0
   276          0
   277          1
   278          6
   279         10
   280          2
   281          0
   288          0
   289          0
   290          0
   292          0
   293          7
   294          2
   295          0
   304          0
   305          5
   306          1
   307          0
   315          7
   316          1
   317          0
   319          1
   322        356
   323         64
   324          8
   325          1