##TITLE=Library Entry 49176
##JCAMP-DX=Revision 4.10 
##DATA TYPE=MASS SPECTRUM
##SAMPLE DESCRIPTION=Japan AIST/NIMC Database- Spectrum MS-NW-7496
##NAMES=HP
##CAS NAME=(1R)-(-)-Myrtenal
##MOLFORM=C10H14O
##CAS REGISTRY NO=18486-69-6
##MP= -300
##BP= -300
##MW= 150
##$RETENTION INDEX=0
##$CONDENSED SPECTRUM=NO
##NPOINTS= 110
##XYDATA=(XY..XY) 1 
    14          1
    15         10
    26          9
    27        193
    28         27
    29        103
    30          2
    31          5
    37          5
    38         19
    39        269
    40         44
    41        352
    42         23
    43        165
    44          7
    45          3
    49          2
    50         41
    51        120
    52         53
    53        172
    54         26
    55         94
    56         16
    57         11
    58          6
    59         34
    60          9
    61          3
    62         10
    63         35
    64          9
    65        100
    66        141
    67        126
    68         46
    69         46
    70          8
    71          4
    72          4
    73          2
    74          8
    75          9
    76          6
    77        352
    78         81
    79        999
    80        116
    81         82
    82         22
    83         24
    84          2
    85          2
    86          2
    87          2
    88          1
    89          9
    90         15
    91        325
    92         76
    93        135
    94        123
    95         68
    96         22
    97          6
    98          2
   101          1
   102          5
   103         27
   104         12
   105        248
   106        320
   107        671
   108        378
   109         72
   110          8
   111          1
   113          1
   114          1
   115         28
   116          9
   117         82
   118         10
   119         26
   120          9
   121         77
   122         29
   123         10
   124          3
   125          2
   127          1
   128          4
   129          5
   130          3
   131         15
   132         16
   133         13
   134          5
   135        146
   136         16
   137          2
   145          1
   146          2
   147          2
   148          5
   149         12
   150         27
   151          5
   152          1