##TITLE=Library Entry 81391
##JCAMP-DX=Revision 4.10 
##DATA TYPE=MASS SPECTRUM
##SAMPLE DESCRIPTION=TAT 1217
##NAMES=HP
##CAS NAME=2-Imidazolidinone, 1-phenyl-
##MOLFORM=C9H10N2O
##CAS REGISTRY NO=1848-69-7
##MP= -300
##BP= -300
##MW= 162
##$RETENTION INDEX=0
##$CONDENSED SPECTRUM=NO
##NPOINTS= 45
##XYDATA=(XY..XY) 1 
    30         10
    37         40
    38        100
    39        210
    40         40
    41         40
    42         60
    43         30
    44         30
    48         10
    49        190
    50        430
    51        100
    52         10
    55         60
    60         30
    61         60
    62        160
    63        160
    64        110
    65         30
    72         10
    73         70
    74         60
    75         70
    76         80
    77        110
    78        100
    79         10
    88         10
    89         40
    90        200
    91         30
   102         30
   103        260
   104        190
   105        999
   106        100
   107         10
   116         40
   117         70
   118         30
   161         10
   162        500
   163         60