##TITLE=Library Entry 47153
##JCAMP-DX=Revision 4.10 
##DATA TYPE=MASS SPECTRUM
##SAMPLE DESCRIPTION=CARL DJERASSI DEPT OF CHEM STANFORD UNIV STANFORD CALIF
 94305
##NAMES=HP
##CAS NAME=Carbonic acid, methyl 4-methylphenyl ester
##MOLFORM=C9H10O3
##CAS REGISTRY NO=1848-01-7
##MP= -300
##BP= -300
##MW= 166
##$RETENTION INDEX=0
##$CONDENSED SPECTRUM=NO
##NPOINTS= 34
##XYDATA=(XY..XY) 1 
    41         30
    44        140
    50        110
    51        280
    52        160
    53        180
    59        350
    60         10
    61         10
    62         20
    63         80
    64         20
    65        170
    74         10
    75         50
    76         20
    77        999
    78        220
    79        850
    80         50
    89         30
    90         50
    91        720
    92        180
    93         30
   107        980
   108         80
   109         10
   121        880
   122        920
   123         80
   166        930
   167         80
   168         10