##TITLE=Library Entry 85723
##JCAMP-DX=Revision 4.10 
##DATA TYPE=MASS SPECTRUM
##SAMPLE DESCRIPTION=Exported from NIST MS Search
##NAMES=HP
##CAS NAME=Propane, 1,1,2,3-tetrachloro-
##MOLFORM=C3H4Cl4
##CAS REGISTRY NO=18495-30-2
##MP= -300
##BP= -300
##MW= 180
##$RETENTION INDEX=1009
##$CONDENSED SPECTRUM=NO
##NPOINTS= 123
##XYDATA=(XY..XY) 1 
    12          3
    13          4
    14          3
    24          2
    25          9
    26         41
    27         44
    28         27
    29          1
    32          9
    35         14
    36         16
    37         44
    38         50
    39         99
    40          5
    41          2
    42          1
    43          2
    44          2
    45          1
    47         32
    48         27
    49        212
    50         12
    51         66
    52          1
    53          2
    54          4
    55          5
    56          2
    57          1
    59          3
    60         19
    61        197
    62        901
    63         91
    64        288
    65          9
    70          1
    71          4
    72         14
    73         60
    74          7
    75         63
    76          3
    77         17
    78          1
    79          4
    80          1
    81          1
    82          9
    83        413
    84         10
    85        264
    86          4
    87         43
    88          1
    89          1
    90          1
    91          1
    92          1
    93          1
    94          3
    95         76
    96         98
    97        370
    98         70
    99        214
   100         14
   101         33
   102          1
   106          1
   107          5
   108          2
   109        999
   110         38
   111        630
   112         24
   113         58
   114          4
   115          1
   117         13
   119         13
   120          1
   121          5
   122          1
   123          1
   124          1
   125          1
   126          1
   127          1
   128          1
   129          1
   130         10
   131         44
   132         11
   133         42
   134          4
   135         13
   136          1
   137          2
   143         34
   144        118
   145         67
   146        116
   147         43
   148         38
   149         12
   150          4
   151          1
   165          3
   166          1
   167          4
   168          1
   169          2
   170          1
   180          2
   181          1
   182          2
   183          1
   184          1
   185          1