##TITLE=Library Entry 71395
##JCAMP-DX=Revision 4.10 
##DATA TYPE=MASS SPECTRUM
##SAMPLE DESCRIPTION=A.A.Kutin, Moscow, Russia
##NAMES=HP
##CAS NAME=Cyclohexanamine, 1-[3-(1-piperidinyl)-1-propynyl]-N-[2-(1-piperid
inyl)ethyl]-
##MOLFORM=C21H37N3
##CAS REGISTRY NO=184965-42-2
##MP= -300
##BP= -300
##MW= 331
##$RETENTION INDEX=0
##$CONDENSED SPECTRUM=NO
##NPOINTS= 158
##XYDATA=(XY..XY) 1 
    33          2
    39          8
    40          9
    41         53
    42         42
    43         18
    44         31
    45          2
    50          0
    51          2
    52          3
    53          6
    55         61
    56         20
    57          6
    58          6
    59          1
    60          0
    62          0
    63          1
    64          1
    65          5
    66          4
    67         16
    68          8
    69         16
    70         16
    71          2
    72          0
    74          0
    77          9
    78          5
    79         19
    80         11
    81          6
    82          8
    83          9
    84         58
    85          8
    86          4
    87          0
    88          0
    89          0
    91         18
    92          7
    93          9
    94          6
    96         25
    98        999
    99        217
   100         51
   101          3
   103          1
   105          8
   106          4
   107          3
   108          2
   109          2
   110          6
   111         24
   112         28
   113          2
   114          0
   115          1
   116          0
   117          2
   118          3
   119          4
   120         10
   121          8
   122         38
   123          4
   124          2
   125          4
   127         11
   128          1
   129          2
   130          2
   132          2
   133          3
   134          4
   135          2
   136          3
   137          0
   138          0
   139          0
   143          0
   144          0
   145          0
   146          2
   147          2
   148          3
   149          2
   150          2
   151          0
   155          0
   156          0
   157          0
   158          0
   159          1
   160          5
   161          4
   162         10
   163         27
   164          5
   165          0
   171          0
   172          0
   174          2
   175          1
   176          2
   177          0
   178          0
   187          0
   188          2
   189          1
   190          0
   191          0
   192          0
   196          0
   197          0
   199          2
   200          1
   202         16
   203         63
   204         58
   205         12
   206          1
   207          0
   209          4
   210          0
   211          0
   212          0
   213          0
   216          1
   217          2
   218          1
   219          4
   220          0
   221          0
   229          5
   230          1
   231          2
   233         74
   234         11
   235          1
   245          4
   246          9
   247          4
   248         14
   249          2
   250          0
   254          1
   255          0
   274          0
   314          0
   330          0
   331          0