##TITLE=Library Entry 32327
##JCAMP-DX=Revision 4.10 
##DATA TYPE=MASS SPECTRUM
##SAMPLE DESCRIPTION=Chemical Concepts
##NAMES=HP
##CAS NAME=Bicyclo[2.1.0]pentane
##MOLFORM=C5H8
##CAS REGISTRY NO=185-94-4
##MP= -300
##BP= -300
##MW= 68
##$RETENTION INDEX=0
##$CONDENSED SPECTRUM=NO
##NPOINTS= 30
##XYDATA=(XY..XY) 1 
    25          3
    26         27
    27        146
    28          7
    29         12
    31          9
    32          2
    36          2
    37         32
    38         67
    39        438
    40        179
    41        284
    42         94
    43          6
    49          6
    50         27
    51         38
    52         20
    53        304
    54         12
    61         11
    62         17
    63         22
    64          3
    65        110
    66         63
    67        999
    68        267
    69         13