##TITLE=Library Entry 71972
##JCAMP-DX=Revision 4.10 
##DATA TYPE=MASS SPECTRUM
##SAMPLE DESCRIPTION=Chemical Concepts
##NAMES=HP
##CAS NAME=Spiro[bicyclo[2.2.1]heptane-2,2'-[1,3]dioxolan]-3-one, 4,7,7-trim
ethyl-
##MOLFORM=C12H18O3
##CAS REGISTRY NO=18501-54-7
##MP= -300
##BP= -300
##MW= 210
##$RETENTION INDEX=0
##$CONDENSED SPECTRUM=NO
##NPOINTS= 115
##XYDATA=(XY..XY) 1 
    24         12
    26         12
    27         61
    28         16
    29         23
    30          1
    31          1
    37          1
    38          4
    39         50
    40         11
    41        115
    42         13
    43         12
    44          2
    45         15
    46          0
    49          0
    50          4
    51          8
    52          5
    53         32
    54          6
    55        351
    56          7
    57          2
    59          0
    61          0
    62          0
    63          2
    64          0
    65          7
    66          4
    67         23
    68         11
    69         17
    70          1
    71          0
    73         28
    74          1
    75          0
    76          1
    77         12
    78          4
    79         16
    80          2
    81         12
    82          3
    83         10
    84          1
    85          0
    86          1
    87          1
    89          0
    90          0
    91         10
    92          1
    93          8
    94          4
    95         20
    96          2
    97          4
    98          1
    99        999
   100         69
   101          8
   102          0
   103          0
   104          0
   105          2
   106          0
   107          3
   108          2
   109          5
   110          1
   111          1
   112          4
   113         12
   114          1
   115          0
   117          0
   119          0
   120          0
   121          1
   122          1
   123          1
   124          0
   125          1
   126          1
   127          2
   135          1
   136          0
   137          1
   138          0
   139          1
   140          0
   141         10
   142          1
   149          0
   151          0
   152          1
   153          1
   154          0
   165          6
   166          1
   167          4
   168          0
   180          1
   181          0
   182         59
   183          6
   184          0
   195          0
   210          2
   211          0