##TITLE=Library Entry 85096
##JCAMP-DX=Revision 4.10 
##DATA TYPE=MASS SPECTRUM
##SAMPLE DESCRIPTION=Chemical Concepts
##NAMES=HP
##CAS NAME=Carbamic acid, p-tolyl ester
##MOLFORM=C8H9NO2
##CAS REGISTRY NO=1850-13-1
##MP= -300
##BP= -300
##MW= 151
##$RETENTION INDEX=0
##$CONDENSED SPECTRUM=NO
##NPOINTS= 70
##XYDATA=(XY..XY) 1 
    25          0
    26          5
    27         44
    29          5
    30          0
    37          4
    38         16
    39         74
    40          7
    41          7
    42          4
    43         27
    44         52
    45          1
    49          1
    50         23
    51         53
    52         28
    53         33
    54          3
    55          8
    56          0
    58          0
    59          0
    60          0
    61          3
    62          8
    63         25
    64          9
    65         29
    66          6
    67          3
    68          4
    69          2
    70          0
    73          1
    74          4
    75          2
    76          2
    77        123
    78         34
    79        130
    80         50
    81          5
    82          1
    83         10
    84          0
    85          0
    86          1
    87          1
    88          0
    89         12
    90         58
    91         33
    92          2
    93          1
    94          0
    97          0
   105          2
   106          3
   107        373
   108        999
   109         74
   110          4
   119          0
   135          0
   150          0
   151         89
   152          8
   153          0