##TITLE=Library Entry 107779
##JCAMP-DX=Revision 4.10 
##DATA TYPE=MASS SPECTRUM
##SAMPLE DESCRIPTION=CARL DJERASSI DEPT OF CHEM STANFORD UNIV STANFORD CALIF
 94305
##NAMES=HP
##CAS NAME=1H-Indole-2-ethanol, .beta.-(3-ethylidene-1-methyl-4-piperidinyl)
-3-methyl-
##MOLFORM=C19H26N2O
##CAS REGISTRY NO=1850-29-9
##MP= -300
##BP= -300
##MW= 298
##$RETENTION INDEX=0
##$CONDENSED SPECTRUM=NO
##NPOINTS= 108
##XYDATA=(XY..XY) 1 
    41         39
    42         39
    43         51
    44        109
    45          9
    53         12
    55         33
    56         15
    57         51
    58         12
    60          3
    67          9
    68          3
    69         24
    70         15
    71         27
    73          3
    77         12
    78          6
    79         12
    81         27
    82         15
    83         18
    84          3
    85         15
    86          3
    91          6
    93          6
    94          9
    95         15
    96         15
    97         15
    98          6
    99          3
   107          3
   108         30
   109          9
   110          9
   111          9
   112          3
   113          3
   115          3
   117          3
   120          6
   121          6
   122         81
   123         69
   124        999
   125         90
   126          6
   127          3
   128          6
   129          6
   130         30
   131         33
   132         42
   133          6
   136          3
   137          3
   138          3
   139          3
   140          3
   143          6
   144         21
   145          3
   146          6
   149         21
   150          6
   152          3
   154          6
   155          3
   156          6
   157          6
   158          3
   159          3
   166          3
   167          9
   168          3
   174         90
   175         12
   180          6
   181          3
   182          6
   183          3
   191          3
   192          3
   193          3
   194          6
   195          3
   196          3
   206          3
   207          3
   208          6
   209          3
   210          3
   223          3
   224          3
   251          3
   265          3
   266          3
   267          3
   279          3
   280          9
   281          9
   296          6
   297          3
   298         24
   299          6