##TITLE=Library Entry 22637
##JCAMP-DX=Revision 4.10 
##DATA TYPE=MASS SPECTRUM
##SAMPLE DESCRIPTION=P.A. Leclercq, Lab. Instrum. Anal., Tech. Univ. Eindhov
en, Netherlands
##NAMES=HP
##CAS NAME=1,2-Bis(2-hydroxypropyl)hydrazine
##MOLFORM=C6H16N2O2
##CAS REGISTRY NO=18501-22-9
##MP= -300
##BP= -300
##MW= 148
##$RETENTION INDEX=0
##$CONDENSED SPECTRUM=NO
##NPOINTS= 51
##XYDATA=(XY..XY) 1 
    15        100
    16          1
    17          0
    18          5
    25          1
    26         15
    27         97
    28        205
    29        151
    30        178
    31         55
    37          2
    39        101
    40         33
    41        128
    42        233
    43         76
    44         32
    45         69
    46          2
    50          0
    51          1
    52          5
    54         31
    56        999
    57         58
    58         43
    59          5
    60          1
    67          0
    68          0
    69          4
    70          3
    71         11
    72         50
    73          3
    74          9
    81          0
    83         21
    85        636
    86         43
    87          0
    97          4
    99         24
   100          0
   101          1
   111          1
   113          0
   115         10
   130        105
   131          9