##TITLE=Library Entry 84255
##JCAMP-DX=Revision 4.10 
##DATA TYPE=MASS SPECTRUM
##SAMPLE DESCRIPTION=A.A.Kutin, Moscow, Russia
##NAMES=HP
##CAS NAME=Acetic acid, (3-nitro-2-pyridyl)thio-
##MOLFORM=C7H6N2O4S
##CAS REGISTRY NO=18504-80-8
##MP= -300
##BP= -300
##MW= 214
##$RETENTION INDEX=0
##$CONDENSED SPECTRUM=NO
##NPOINTS= 153
##XYDATA=(XY..XY) 1 
    33         12
    34         12
    35          4
    36         12
    37         64
    38        176
    39        484
    40        160
    41         76
    42         69
    43         63
    44        235
    45        414
    46        156
    47         48
    48         31
    49         34
    50        214
    51        258
    52        314
    53        190
    54         58
    55         41
    56         31
    57         50
    58         44
    59         41
    60         32
    61         12
    62         21
    63         52
    64        151
    65        120
    66        130
    67        158
    68         80
    69        144
    70        169
    71         62
    72         34
    73         19
    74          8
    75         31
    76         89
    77         79
    78        395
    79        347
    80         78
    81        126
    82        320
    83        187
    84         92
    85        220
    86         76
    87         17
    88          5
    89          5
    91         94
    92        260
    93         91
    94         87
    95         75
    96         80
    97         71
    98         57
    99         15
   100          8
   101          5
   102          1
   103         10
   104         13
   105         17
   107        999
   108         90
   109        108
   110        237
   111        162
   112        166
   113         36
   114         25
   115          7
   116          2
   118          1
   119          9
   120         13
   121        146
   122        122
   123        169
   124         51
   125         40
   126         33
   127          9
   128          5
   129          4
   130          1
   132          7
   133          7
   134          4
   135         16
   136        109
   137        127
   138         86
   139        130
   140        791
   141        111
   142         49
   143          9
   144          1
   147          3
   149         16
   150          7
   151         10
   152         31
   153         14
   154          9
   155         10
   156          4
   157          3
   158          6
   159          1
   160          1
   162          1
   163          1
   164          6
   165          9
   166        132
   167         20
   168         22
   169         42
   170         12
   171          6
   172          1
   177          2
   179          3
   180         10
   181          4
   182          7
   183          2
   184          9
   185          4
   186          5
   187          1
   191          1
   192          1
   194          2
   195          3
   196         10
   197         14
   198         10
   199          4
   200          3
   214         33
   215          3