##TITLE=Library Entry 78218
##JCAMP-DX=Revision 4.10 
##DATA TYPE=MASS SPECTRUM
##SAMPLE DESCRIPTION=Japan AIST/NIMC Database- Spectrum MS-NW-8631
##NAMES=HP
##CAS NAME=Tetramethyl orthocarbonate
##MOLFORM=C5H12O4
##CAS REGISTRY NO=1850-14-2
##MP= -300
##BP= -300
##MW= 136
##$RETENTION INDEX=830
##$CONDENSED SPECTRUM=NO
##NPOINTS= 32
##XYDATA=(XY..XY) 1 
    14          5
    15        407
    16          5
    17          1
    18          2
    27          2
    28         11
    29         84
    30         10
    31         43
    32          5
    33          4
    42          1
    43          3
    44          3
    45        323
    46         14
    47          7
    59        521
    60         13
    61        149
    62          6
    74         16
    75          9
    90          1
    91          1
    94          1
    96          1
   104          1
   105        999
   106         46
   107          7