##TITLE=Library Entry 88869
##JCAMP-DX=Revision 4.10 
##DATA TYPE=MASS SPECTRUM
##SAMPLE DESCRIPTION=NIST Mass Spectrometry Data Center
##NAMES=HP
##CAS NAME=4-Chlorophenylsulfonylacetonitrile
##MOLFORM=C8H6ClNO2S
##CAS REGISTRY NO=1851-09-8
##MP= -300
##BP= -300
##MW= 215
##$RETENTION INDEX=0
##$CONDENSED SPECTRUM=NO
##NPOINTS= 97
##XYDATA=(XY..XY) 1 
    13          1
    26          2
    27          4
    29          1
    32          1
    36          1
    37          9
    38         18
    39         18
    40         47
    41          6
    45         10
    47          2
    48         13
    49         12
    50        172
    51         68
    52          3
    53          1
    57          2
    58          2
    60          3
    61         19
    62         13
    63         25
    64          9
    65          2
    69         12
    70          2
    71          2
    72          3
    73         32
    74        103
    75        400
    76         81
    77          6
    79          3
    81          4
    82          3
    83          1
    84         13
    85         48
    86          6
    87         20
    88          3
    89          6
    90          1
    92          1
    93          2
    95          6
    96          4
    97          2
    98          1
    99         16
   100          1
   101          5
   102          1
   105          1
   106          1
   107          3
   108         13
   109          3
   110          9
   111        999
   112         74
   113        335
   114         24
   115          3
   116          2
   123          3
   124          2
   125          2
   126          1
   127          9
   129          3
   131         18
   132          1
   133          6
   140          3
   142          3
   143          3
   144          2
   145          1
   150          3
   152          1
   159         12
   160          1
   161          4
   175        520
   176         38
   177        185
   178         13
   179          8
   215         31
   216          3
   217         11
   218          1