##TITLE=Library Entry 47254
##JCAMP-DX=Revision 4.10 
##DATA TYPE=MASS SPECTRUM
##SAMPLE DESCRIPTION=V.A.KOPTYUG, ATLAS OF MASS SPECTRA OF ORGANIC COMPOUNDS
##NAMES=HP
##CAS NAME=3-Nitrodiphenylsulfone
##MOLFORM=C12H9NO4S
##CAS REGISTRY NO=18513-19-4
##MP= -300
##BP= -300
##MW= 263
##$RETENTION INDEX=0
##$CONDENSED SPECTRUM=NO
##NPOINTS= 101
##XYDATA=(XY..XY) 1 
    28        274
    29         18
    30         58
    32         18
    33         21
    34         21
    38         33
    39        139
    40         18
    41         58
    42         29
    43         73
    44         87
    45         51
    46         14
    50        306
    51        612
    52         51
    53         47
    54         18
    55         58
    56         25
    57         51
    60         40
    61         14
    62         21
    63         95
    64        111
    65        438
    66         43
    67         21
    68         18
    69         58
    70         36
    71         32
    72         18
    73         43
    74         65
    75        182
    76        314
    77        999
    78        182
    79         25
    80         21
    81         40
    82         18
    83         29
    90         14
    91         29
    92         87
    93        791
    94         73
    95         43
    96         51
    97        131
    98         25
    99         14
   107         14
   108         25
   109        113
   110         36
   111         21
   112         14
   115         51
   116         14
   121         14
   122         25
   123         25
   124         81
   125        793
   126        102
   127         69
   128         25
   129         18
   139         36
   140         43
   141        286
   142         29
   143         18
   150         29
   151         65
   152        124
   153         40
   154         14
   166         14
   167         25
   168         80
   169         84
   170        716
   171         87
   172         51
   182         14
   183         11
   233         62
   234         14
   260         29
   261         58
   262         87
   263        696
   264        124
   265         49