##TITLE=Library Entry 43745
##JCAMP-DX=Revision 4.10 
##DATA TYPE=MASS SPECTRUM
##SAMPLE DESCRIPTION=NIST Mass Spectrometry Data Center, 2010
##NAMES=HP
##CAS NAME=Butylated Hydroxytoluene, TMS derivative
##MOLFORM=C18H32OSi
##CAS REGISTRY NO=18510-49-1
##MP= -300
##BP= -300
##MW= 292
##$RETENTION INDEX=0
##$CONDENSED SPECTRUM=NO
##NPOINTS= 145
##XYDATA=(XY..XY) 1 
    27          4
    29         36
    31          1
    39         13
    41         98
    42          4
    43         25
    44         10
    45        118
    46          6
    47         10
    51          4
    52          2
    53         14
    55         41
    57        303
    58         16
    59         25
    60          1
    61         11
    63          2
    65          9
    67          6
    69          9
    70          1
    71          1
    73        999
    74         88
    75        134
    76          8
    77         24
    78          4
    79         13
    80          1
    81          6
    83          3
    85          1
    87          3
    88         10
    89          3
    91         41
    92          5
    93          7
    94          5
    95          9
    97          1
   101          4
   102          4
   103          8
   104          2
   105         51
   106          5
   107          6
   108          1
   109          6
   115         33
   116         13
   117         14
   118          2
   119         26
   120          3
   121         13
   123          3
   127          9
   128         33
   129         31
   130         11
   131         29
   132          3
   133         15
   134          3
   135         10
   137          2
   141         22
   142         12
   143         12
   144          3
   145         55
   146          9
   147         14
   148          4
   149         15
   150          1
   151          2
   152          2
   153          3
   154          1
   155          6
   156          4
   157          7
   158          3
   159         11
   160          3
   161         34
   162          5
   163         18
   164          2
   165         67
   166         10
   167          3
   171          2
   172          2
   173          7
   174          1
   175         10
   176          1
   177         15
   178          3
   179         17
   180          3
   187          7
   188          1
   189         46
   190          6
   191          6
   193          4
   201          2
   203         22
   204          7
   205         18
   206          2
   217          3
   218          1
   219         11
   220          2
   221        107
   222         19
   223          4
   233          6
   234          1
   235          7
   236          3
   245          1
   247          2
   261         34
   262          6
   263          2
   277        602
   278        139
   279         36
   280          4
   292        292
   293         74
   294         18
   295          2