##TITLE=Library Entry 22433
##JCAMP-DX=Revision 4.10 
##DATA TYPE=MASS SPECTRUM
##SAMPLE DESCRIPTION=Japan AIST/NIMC Database- Spectrum MS-IW- 612
##NAMES=HP
##CAS NAME=1-Undecene, 2-methyl-
##MOLFORM=C12H24
##CAS REGISTRY NO=18516-37-5
##MP= -300
##BP= -300
##MW= 168
##$RETENTION INDEX=1185
##$CONDENSED SPECTRUM=NO
##NPOINTS= 66
##XYDATA=(XY..XY) 1 
    26          1
    27         41
    28          7
    29         88
    30          2
    39         48
    40         11
    41        241
    42         64
    43        189
    44          5
    45          1
    51          3
    52          2
    53         23
    54         19
    55        256
    56        999
    57        423
    58         43
    59         17
    60          1
    65          4
    66          3
    67         37
    68         41
    69        349
    70        176
    71         60
    72         10
    73          2
    77          3
    79          5
    80          1
    81         19
    82         28
    83        114
    84         88
    85         32
    86          4
    91          1
    93          1
    95          9
    96          8
    97         58
    98         21
    99          5
   109          2
   110         12
   111         35
   112         66
   113          7
   123          1
   124          6
   125         20
   126         11
   127          2
   139          1
   140         42
   141          7
   142          1
   153         33
   154          4
   168         87
   169         11
   170          1