##TITLE=Library Entry 24692
##JCAMP-DX=Revision 4.10 
##DATA TYPE=MASS SPECTRUM
##SAMPLE DESCRIPTION=LAC, NIDDK, NIH, Bethesda, MD 20892
##NAMES=HP
##CAS NAME=Androstane-3,17-diol, (3.alpha.,5.beta.,17.beta.)-
##MOLFORM=C19H32O2
##CAS REGISTRY NO=1851-23-6
##MP= -300
##BP= -300
##MW= 292
##$RETENTION INDEX=2445
##$CONDENSED SPECTRUM=NO
##NPOINTS= 175
##XYDATA=(XY..XY) 1 
    41        866
    42         91
    43        598
    44        434
    45         89
    47         16
    48          6
    49         55
    50          4
    51         44
    52          8
    53        297
    54         90
    55        921
    57        999
    58        131
    59         22
    63          6
    65        121
    66         62
    67        699
    68        222
    69        254
    70         75
    71        116
    72          8
    73          4
    74          2
    77        291
    78         61
    79        621
    80        131
    81        529
    82         94
    83        141
    84         75
    85         30
    86         25
    88         10
    89          2
    91        462
    92         90
    93        530
    94        234
    95        358
    96         67
    97        103
    98         15
    99          7
   101          5
   103         25
   104         21
   105        296
   106        149
   107        466
   108        228
   109        209
   110         46
   111         92
   112         12
   113          2
   115         38
   116         13
   117         61
   118         27
   119        176
   120        126
   121        209
   122        152
   123        123
   124         80
   125         29
   126          7
   127          5
   128         15
   129         22
   130         10
   131         75
   132         21
   133        164
   134         70
   135        138
   136         47
   137         41
   138         28
   139          8
   141          7
   142          2
   143         15
   144          8
   145        114
   146         40
   147        204
   148        204
   149        197
   150         33
   151         36
   152         10
   153          8
   157         11
   158          5
   159         68
   160         47
   161         83
   162         48
   163         38
   164         30
   165        351
   166        242
   167         36
   168          5
   171         13
   172          5
   173         55
   174         30
   175         45
   176         19
   177         18
   178         20
   179         11
   180          7
   185         17
   186          3
   187         37
   188         18
   189         18
   190         12
   191         23
   192         32
   193          9
   194          4
   199         20
   200          7
   201         54
   202         18
   203         13
   204          8
   205         11
   206         21
   207          2
   213         11
   215        431
   216         82
   217        325
   218         60
   219         49
   220         18
   229          2
   230         55
   231         28
   232         17
   233        388
   234         81
   235         34
   236          5
   241         61
   242         13
   245          6
   246          6
   248        126
   249         22
   256         13
   257         11
   259        127
   260         23
   263          5
   273          2
   274        184
   275         39
   277        260
   278         46
   279          5
   292        724
   293        138
   294         16