##TITLE=Library Entry 18870
##JCAMP-DX=Revision 4.10 
##DATA TYPE=MASS SPECTRUM
##SAMPLE DESCRIPTION=Japan AIST/NIMC Database- Spectrum MS-NW-1084
##NAMES=HP
##CAS NAME=N-(n-Butoxymethyl)acrylamide
##MOLFORM=C8H15NO2
##CAS REGISTRY NO=1852-16-0
##MP= -300
##BP= -300
##MW= 157
##$RETENTION INDEX=0
##$CONDENSED SPECTRUM=NO
##NPOINTS= 73
##XYDATA=(XY..XY) 1 
    12          1
    13          2
    14          7
    15         15
    16          2
    17          1
    18          3
    24          2
    25         11
    26         84
    27        608
    28        150
    29        132
    30         39
    31        348
    32         25
    33         31
    36          2
    37         10
    38         14
    39         72
    40         20
    41        332
    42        140
    43        243
    44         20
    45         30
    46         16
    49          1
    50          4
    51          6
    52          7
    53         14
    54         16
    55        999
    56        406
    57        100
    58         12
    59          2
    63          1
    64          1
    65          2
    66          1
    67          1
    68          1
    69          3
    70          2
    71         10
    72         10
    73         11
    74          3
    81          2
    82          1
    83         54
    84        414
    85        129
    86          8
    87         12
    92          3
    93          3
    97          3
    98          8
    99          2
   100        156
   101         10
   102          1
   109          4
   112          1
   113          1
   114          4
   119          3
   124          3
   156          6