##TITLE=Library Entry 62220
##JCAMP-DX=Revision 4.10 
##DATA TYPE=MASS SPECTRUM
##SAMPLE DESCRIPTION=A.A.Kutin, Moscow, Russia
##NAMES=HP
##CAS NAME=Propanenitrile, 3-(benzyl)(3,4-dimethoxyphenylsulfonyl)amino-
##MOLFORM=C18H20N2O4S
##CAS REGISTRY NO=185299-48-3
##MP= -300
##BP= -300
##MW= 360
##$RETENTION INDEX=0
##$CONDENSED SPECTRUM=NO
##NPOINTS= 181
##XYDATA=(XY..XY) 1 
    33          1
    34          1
    36          0
    37          2
    38          8
    39         52
    40         18
    41         44
    42         26
    43         17
    44         14
    45         12
    46          1
    47          1
    48          3
    50         35
    51        111
    52         27
    53         36
    54         50
    55         20
    56          5
    57          9
    58          3
    59          7
    60          2
    61          2
    62         10
    63         39
    64         27
    65        112
    66         44
    67          7
    68          3
    69         15
    70          5
    71          5
    72          1
    73          2
    74          5
    75         10
    76         38
    77        189
    78         44
    79        173
    80         15
    81         13
    82          3
    83          5
    84          4
    85          3
    86          1
    87          1
    89         22
    91        999
    92        129
    93         14
    94         62
    95         20
    96          3
    97          3
    98          2
    99          3
   100          0
   101          1
   103          8
   104         19
   105         15
   106         27
   107         52
   108          8
   109         14
   110          4
   111          4
   112          3
   113          2
   114          1
   115          2
   116          3
   117          7
   118         42
   119          6
   120          8
   121         15
   122         46
   123         23
   124          4
   125          7
   126          1
   127          2
   128          6
   129          2
   130          2
   131          1
   132          2
   133          1
   134          2
   135          5
   137        376
   138         92
   139         13
   140          8
   141          4
   142          1
   143          1
   144          0
   148          1
   149          3
   150          4
   151          5
   153        107
   154         22
   155          5
   156          1
   157          4
   159        214
   160         23
   161          2
   162          1
   163          0
   164          1
   165          5
   166          1
   167          1
   169          3
   170          1
   171          3
   172          0
   176          1
   177          1
   181          1
   182          0
   183          1
   185         67
   186          7
   187          4
   188          0
   189          0
   195          0
   196          0
   197          1
   198          1
   201        329
   202        171
   203         32
   204          9
   205          1
   211          0
   212          0
   213          0
   214          0
   225          0
   226          1
   228         50
   229          7
   230          1
   240          0
   242          0
   256          2
   257          0
   269          0
   270          0
   281          0
   283          0
   291          0
   295          1
   301          0
   307          3
   308          0
   318          0
   320        159
   321         28
   322         11
   323          1
   338          2
   343          0
   360        276
   361         57
   362         18
   363          3
   364          0