##TITLE=Library Entry 35324
##JCAMP-DX=Revision 4.10 
##DATA TYPE=MASS SPECTRUM
##SAMPLE DESCRIPTION=Chemical Concepts
##NAMES=HP
##CAS NAME=1-Butene, 3-methyl-3-(1-ethoxyethoxy)
##MOLFORM=C9H18O2
##CAS REGISTRY NO=18526-72-2
##MP= -300
##BP= -300
##MW= 158
##$RETENTION INDEX=0
##$CONDENSED SPECTRUM=NO
##NPOINTS= 59
##XYDATA=(XY..XY) 1 
    26         23
    27        196
    29        112
    30         12
    31         38
    38          8
    39        125
    40         25
    41        433
    42         38
    43        200
    44         37
    45        655
    46         17
    47         24
    48          5
    49         11
    50         10
    51         23
    52         10
    53         85
    54         22
    55         38
    56         11
    57         13
    58          5
    59         44
    61         19
    63          4
    65          9
    66          5
    67         57
    68         38
    69        999
    70         52
    71         94
    72         17
    73        656
    74         33
    75         12
    77         12
    79          7
    83          5
    84         10
    85         19
    86          7
    87          4
    89          7
    91          6
    92          4
    93          5
    94          6
    97          5
    99         78
   100         15
   113         29
   114         23
   115          5
   143         23