##TITLE=Library Entry 71216
##JCAMP-DX=Revision 4.10 
##DATA TYPE=MASS SPECTRUM
##SAMPLE DESCRIPTION=Japan AIST/NIMC Database- Spectrum MS-NW-4449
##NAMES=HP
##CAS NAME=Undecanedioic acid
##MOLFORM=C11H20O4
##CAS REGISTRY NO=1852-04-6
##MP= -300
##BP= -300
##MW= 216
##$RETENTION INDEX=0
##$CONDENSED SPECTRUM=NO
##NPOINTS= 145
##XYDATA=(XY..XY) 1 
    14          1
    15          7
    17          4
    18         14
    26          7
    27        136
    28         38
    29        157
    30          7
    31         26
    32          1
    36          1
    38          2
    39         91
    40         17
    41        337
    42         64
    43        151
    44          7
    45         86
    46          3
    47          3
    50          2
    51          7
    52          3
    53         31
    54         39
    55        457
    56         59
    57         61
    58          9
    59         47
    60        341
    61         22
    62          3
    63          2
    64          2
    65          7
    66          5
    67         74
    68         57
    69        327
    70         50
    71         36
    72          4
    73        227
    74         23
    75          3
    77          8
    78          3
    79         28
    80         21
    81         70
    82         40
    83        136
    84        531
    85         47
    86          7
    87         45
    88          6
    89          1
    91          9
    92          8
    93         32
    94         54
    95         59
    96         47
    97        170
    98        999
    99         74
   100         16
   101         47
   102          6
   103          2
   104          1
   105          5
   106          3
   107         10
   108         17
   109         24
   110         37
   111         61
   112        263
   113         30
   114         15
   115         19
   116          4
   117          2
   118          5
   119          9
   120         15
   121         82
   122          9
   123         20
   124         35
   125         19
   126         22
   127          8
   128          3
   129         29
   130          8
   131          2
   133          7
   134         12
   135         10
   136         13
   137         11
   138         28
   139        208
   140         22
   141          3
   142          5
   143          7
   144          5
   147          1
   150          1
   151          9
   152        134
   153         17
   154         11
   155          5
   156          5
   157         40
   158          5
   159          1
   161          3
   162         10
   163          2
   165          1
   168          1
   169          1
   170         15
   171          2
   172         17
   173          2
   179          3
   180         60
   181          7
   182          1
   188          7
   189          2
   197          2
   198          5
   199         13
   200          2