##TITLE=Library Entry 57641
##JCAMP-DX=Revision 4.10 
##DATA TYPE=MASS SPECTRUM
##SAMPLE DESCRIPTION=Exported from NIST MS Search
##NAMES=HP
##CAS NAME=Heptanoic acid, 2,4-dimethyl-, methyl ester, (R,R)-(-)-
##MOLFORM=C10H20O2
##CAS REGISTRY NO=18524-86-2
##MP= -300
##BP= -300
##MW= 172
##$RETENTION INDEX=0
##$CONDENSED SPECTRUM=NO
##NPOINTS= 72
##XYDATA=(XY..XY) 1 
    14          2
    15         78
    26          6
    27        135
    28         25
    29        176
    30          9
    31          3
    33          9
    37          6
    39        114
    40         18
    41        280
    42        105
    43        320
    44         14
    45         25
    50          6
    51          7
    52          7
    53         32
    54          9
    55        201
    56         90
    57        227
    58         20
    59        163
    60         12
    61          7
    65          7
    67         29
    68         12
    69        200
    70         47
    71        125
    72         11
    73        114
    74         25
    77         11
    79          7
    81         11
    82         11
    83         41
    84         11
    85         63
    86         11
    87        163
    88        999
    89         67
    90         14
    94          6
    95          7
    97         65
    98         43
    99          7
   101        300
   102         54
   103         12
   111         16
   112         11
   113         34
   114          7
   115          7
   125         11
   126          9
   129        129
   130         11
   141         58
   142         11
   143          7
   157          7
   172          7