##TITLE=Library Entry 38539
##JCAMP-DX=Revision 4.10 
##DATA TYPE=MASS SPECTRUM
##SAMPLE DESCRIPTION=R. A. LYND
##NAMES=HP
##CAS NAME=3-Octen-2-ol, 2-methyl-, (Z)-
##MOLFORM=C9H18O
##CAS REGISTRY NO=18521-07-8
##MP= -300
##BP= -300
##MW= 142
##$RETENTION INDEX=0
##$CONDENSED SPECTRUM=NO
##NPOINTS= 89
##XYDATA=(XY..XY) 1 
    14         11
    15        114
    16          3
    17          7
    18         25
    19          3
    25          1
    26         26
    27        342
    28         45
    29        212
    30          5
    31         74
    32          1
    33          1
    37          6
    38         18
    39        237
    40         37
    41        396
    42         54
    43        937
    44         27
    45         51
    46          1
    47          1
    49          1
    50         14
    51         35
    52         16
    53         88
    54         20
    55        169
    56         37
    57         82
    58         18
    59        240
    60          7
    61          2
    62          3
    63          9
    64          3
    65         23
    66         14
    67        130
    68         89
    69        152
    70         19
    71        999
    72         86
    73          6
    74          2
    75          2
    77         25
    78          7
    79         34
    80          8
    81         74
    82         27
    83         49
    84         12
    85        495
    86         39
    87          3
    91          8
    92          2
    93          6
    94          3
    95         64
    96          6
    97          9
    98          3
    99         40
   100          6
   105          1
   107          2
   109         22
   110          2
   111          6
   113          2
   123          2
   124         32
   125         78
   126          8
   127        288
   128         26
   129          2
   142         25
   143          3