##TITLE=Library Entry 50878
##JCAMP-DX=Revision 4.10 
##DATA TYPE=MASS SPECTRUM
##SAMPLE DESCRIPTION=A.A.Kutin, Moscow, Russia
##NAMES=HP
##CAS NAME=Benzenesulfonamide, N-(3-cyanopropyl)-N-(2-furanylmethyl)-3,4-dim
ethoxy-
##MOLFORM=C17H20N2O5S
##CAS REGISTRY NO=185299-66-5
##MP= -300
##BP= -300
##MW= 364
##$RETENTION INDEX=0
##$CONDENSED SPECTRUM=NO
##NPOINTS= 153
##XYDATA=(XY..XY) 1 
    33          1
    34          1
    36          1
    37          3
    38         13
    39         70
    40         28
    41        115
    42         36
    43         22
    44         21
    45         11
    48          4
    50         31
    51         98
    52         42
    53        236
    54         25
    55         33
    56          6
    57         10
    58          3
    59          6
    60          2
    61          2
    62          8
    63         27
    64         25
    65         25
    66         44
    67         21
    68         43
    69         27
    70          6
    71          6
    72          1
    73          2
    74          3
    75          7
    76         30
    77        145
    78         32
    79        158
    81        999
    82         52
    83          9
    84          4
    85          3
    86          0
    87          1
    89          1
    90          3
    91         14
    92         51
    93         15
    94         63
    95         38
    96         37
    97          7
    98          2
    99          3
   101          1
   102          3
   103          2
   104          2
   105          8
   106          7
   107         57
   108         40
   109         24
   110         12
   111          5
   112          2
   113          2
   114          1
   115          3
   116          1
   117          1
   118          2
   119          1
   120          4
   121         16
   122         36
   123         23
   124          4
   125          9
   126          2
   127          1
   128          1
   129          0
   131          2
   132          1
   133          5
   134          8
   135         12
   137        144
   138         87
   139         15
   140          6
   141          2
   142          1
   143          1
   144          0
   145          1
   146          2
   147          2
   148          1
   149          5
   150          3
   151          2
   153        110
   154         39
   155          7
   156          1
   157          1
   158          0
   159          2
   160          3
   161         25
   163        844
   164         93
   165          7
   166          1
   169          2
   170          2
   171          2
   173          1
   175          2
   177          3
   178          1
   179          1
   183          2
   185        129
   186         13
   187          9
   188          2
   189          3
   190          0
   199          2
   201         31
   202        319
   203         33
   204         20
   205          2
   217          1
   218          0
   219          0
   271          2
   297          2
   310          0
   364         67
   365         11
   366          3