##TITLE=Library Entry 96402
##JCAMP-DX=Revision 4.10 
##DATA TYPE=MASS SPECTRUM
##SAMPLE DESCRIPTION=Humboldt-Universitat zu Berlin, Department of Chemistry
, Analytical Group
##NAMES=HP
##CAS NAME=4-Azido-benzonitrile
##MOLFORM=C7H4N4
##CAS REGISTRY NO=18523-41-6
##MP= -300
##BP= -300
##MW= 144
##$RETENTION INDEX=0
##$CONDENSED SPECTRUM=NO
##NPOINTS= 86
##XYDATA=(XY..XY) 1 
    12          8
    13          4
    14         22
    15          4
    16          2
    17         14
    18         53
    24          6
    25         21
    26        112
    27         67
    28        144
    29          8
    30          1
    31          8
    32          2
    36         32
    37        354
    38        415
    39        132
    40         46
    41         90
    42          8
    43         10
    44         32
    46          0
    48         11
    49         55
    50        156
    51        188
    52        225
    53         14
    54          1
    55          4
    56          2
    57          8
    58         37
    60         16
    61        118
    62        682
    63        408
    64        264
    65        241
    66         82
    67          4
    68          1
    69          3
    70          1
    71          2
    72          6
    73         15
    74         35
    75         90
    76        123
    77         21
    78          1
    79          0
    81          1
    82          1
    83          1
    84          1
    85          2
    86         15
    87         34
    88        115
    89        637
    90         75
    91          5
    95          1
    97          1
    98          2
    99          9
   100          4
   101          3
   102         11
   103          1
   111          1
   112          1
   113          1
   116        999
   117         87
   118          8
   119          0
   144        195
   145         21
   146          1