##TITLE=Library Entry 21306
##JCAMP-DX=Revision 4.10 
##DATA TYPE=MASS SPECTRUM
##SAMPLE DESCRIPTION=NIST Mass Spectrometry Data Center
##NAMES=HP
##CAS NAME=Androstane-3,17-diol, (3.alpha.,5.alpha.,17.beta.)-
##MOLFORM=C19H32O2
##CAS REGISTRY NO=1852-53-5
##MP= -300
##BP= -300
##MW= 292
##$RETENTION INDEX=2484
##$CONDENSED SPECTRUM=NO
##NPOINTS= 221
##XYDATA=(XY..XY) 1 
    19          2
    26          4
    27         59
    29        199
    30          9
    31         32
    34          2
    38          2
    39        127
    40         38
    41        703
    42         69
    43        415
    44         86
    45         44
    50          3
    51         25
    52         24
    53        319
    54         94
    55        999
    56         86
    57        442
    58         56
    59         23
    60          5
    64          5
    65        132
    66         51
    67        760
    68        221
    69        235
    70         53
    71        105
    72         10
    73         12
    75          5
    76          4
    77        323
    78         75
    79        819
    80        184
    81        720
    82        109
    83        164
    84         65
    85         35
    86          6
    87          6
    88         11
    89          6
    90          3
    91        662
    92        144
    93        830
    94        350
    95        546
    96        102
    97        155
    98         25
    99         12
   102          5
   103         38
   104         52
   105        566
   106        276
   107        884
   108        409
   109        395
   110        100
   111        188
   112         17
   113          6
   115         43
   116         18
   117        133
   118         53
   119        383
   120        251
   121        458
   122        344
   123        254
   124        157
   125         48
   127         22
   128         26
   129         34
   130         13
   131        186
   132         66
   133        367
   134        163
   135        293
   136        101
   137         84
   138         46
   139         14
   140          5
   141         16
   142         12
   143         35
   144         19
   145        257
   146         95
   147        489
   148        486
   149        388
   150         69
   151         87
   152         19
   153         17
   154          3
   155          5
   156          3
   157         38
   158         12
   159        185
   160        126
   161        227
   162         90
   163         80
   164         62
   165        667
   166        432
   167         68
   168         11
   169          5
   170          3
   171         32
   172         11
   173        116
   174         71
   175        103
   176         28
   177         40
   178         44
   179         14
   180          7
   181          4
   184          3
   185         47
   186         15
   187        100
   188         38
   189         34
   190         24
   191         44
   192         51
   193         15
   194          3
   195          4
   197          2
   199         48
   200         18
   201        112
   202         38
   203         26
   204         20
   205         22
   206         30
   209          2
   211          4
   212          2
   213         24
   214         13
   215        876
   216        181
   217        508
   218         86
   219         79
   220         39
   221          3
   227          5
   228          7
   229          6
   230         98
   231         45
   232         36
   233        605
   234        146
   235         56
   236          6
   237          6
   238          2
   239          2
   241        160
   242         36
   243          9
   244          7
   245          9
   246          9
   248        140
   249         25
   250          5
   253          7
   255          5
   256         20
   257         13
   259        249
   260         56
   261          4
   262          2
   263          7
   264          7
   269          3
   271          2
   272          9
   273          2
   274        287
   275         59
   276          8
   277        410
   278         89
   279          6
   286          2
   290         21
   291          8
   292        574
   293        113
   294         15
   295          3