##TITLE=Library Entry 40244
##JCAMP-DX=Revision 4.10 
##DATA TYPE=MASS SPECTRUM
##SAMPLE DESCRIPTION=MASS SPECTROMETRY CENTER, UNIV. OF UTAH EPA-PTSEL 5120
##NAMES=HP
##CAS NAME=Noruron
##MOLFORM=C13H22N2O
##CAS REGISTRY NO=18530-56-8
##MP= -300
##BP= -300
##MW= 222
##$RETENTION INDEX=1960
##$CONDENSED SPECTRUM=NO
##NPOINTS= 91
##XYDATA=(XY..XY) 1 
    15        166
    26          6
    27        123
    28         86
    29         41
    30         57
    38         13
    39        172
    40         38
    41        240
    42        118
    43         68
    44        318
    45        367
    46        182
    50         16
    51         37
    52         24
    53         75
    54         36
    55         50
    56         77
    58         12
    63         15
    65         56
    66         64
    67        154
    68         27
    69         25
    70          8
    71         13
    72        999
    73         75
    74          6
    77         74
    78         29
    79        106
    80         48
    81         42
    82         50
    84          3
    87          5
    88         41
    89        383
    90         15
    91         76
    92         29
    93         45
    94         17
    95         15
    99         35
   101         51
   102         57
   103          5
   105         29
   106         33
   107         21
   108         27
   110          2
   111          7
   113         22
   115         26
   116          4
   117          4
   119         35
   120         11
   121         10
   122          8
   125          3
   127         16
   133         12
   134         87
   135         26
   136          3
   139          3
   140          4
   141          8
   150        111
   151         16
   152         19
   153        554
   154         92
   155         17
   178         27
   179         10
   181          3
   193         52
   194         12
   207          8
   222        123
   223         25