##TITLE=Library Entry 68050
##JCAMP-DX=Revision 4.10 
##DATA TYPE=MASS SPECTRUM
##SAMPLE DESCRIPTION=NIST Mass Spectrometry Data Center, 1994
##NAMES=HP
##CAS NAME=Bicyclo[2.2.1]heptane, 2-isothiocyanato-, exo-
##MOLFORM=C8H11NS
##CAS REGISTRY NO=18530-33-1
##MP= -300
##BP= -300
##MW= 153
##$RETENTION INDEX=0
##$CONDENSED SPECTRUM=NO
##NPOINTS= 78
##XYDATA=(XY..XY) 1 
     4          2
    14          0
    15         10
    26         21
    27        159
    28         39
    29         37
    30          3
    32         10
    37          8
    38         31
    39        283
    40         59
    41        246
    42         17
    43          5
    44         12
    45         19
    46          2
    50         21
    51         52
    52         30
    53        109
    54         31
    55         76
    56          5
    57          8
    58         50
    59         37
    60         16
    61          5
    62          8
    63         19
    64          8
    65         88
    66         96
    67        549
    68         88
    69          7
    70         12
    71         14
    72         57
    73          4
    74          7
    75          2
    76          2
    77         51
    78         24
    79         57
    80         21
    81          6
    83          4
    84         15
    85         57
    86         28
    87          6
    89          1
    91         30
    92          9
    93         63
    94          1
    95        999
    96         76
    97          7
    98         41
    99         10
   100          3
   110          3
   111          5
   112          7
   118          2
   120          5
   124          4
   125          2
   138          7
   153        283
   154         27
   155         14