##TITLE=Library Entry 56268
##JCAMP-DX=Revision 4.10 
##DATA TYPE=MASS SPECTRUM
##SAMPLE DESCRIPTION=NIST Mass Spectrometry Data Center
##NAMES=HP
##CAS NAME=Clenbuterol, 2TMS derivative
##MOLFORM=C18H34Cl2N2OSi2
##CAS REGISTRY NO=185378-25-0
##MP= -300
##BP= -300
##MW= 420
##$RETENTION INDEX=2089
##$CONDENSED SPECTRUM=NO
##NPOINTS= 303
##XYDATA=(XY..XY) 1 
    27          2
    29         27
    30        451
    31          7
    36          1
    37          1
    38          1
    39          9
    40          1
    41         67
    42         12
    43         10
    44         11
    45         79
    46          5
    47          8
    49          1
    50          1
    51          2
    52          2
    53          2
    54          1
    55          8
    56         15
    57        183
    58         17
    59         14
    60          3
    61          4
    62          1
    63          5
    64          1
    65          9
    66          2
    67          2
    68          3
    69          3
    70         18
    71         15
    72          9
    73        537
    74         58
    75         52
    76          4
    77          6
    78          2
    79          5
    80          2
    81          1
    82          2
    83          2
    84          5
    86        999
    87         64
    88          5
    89          6
    90          3
    91          3
    92          2
    93         51
    94          6
    95         16
    96          3
    97          1
    98          1
    99          1
   100          8
   101          4
   102          5
   103          4
   104          6
   105          4
   106          1
   107          1
   111          2
   113          7
   114          5
   115         10
   116         22
   117          7
   118          5
   119          2
   120          2
   123          3
   124          1
   125          3
   126          1
   127          3
   128          2
   129          2
   130         10
   131          9
   132          7
   133          3
   134          1
   135          2
   138          3
   139          1
   140          3
   141          1
   142          2
   143          3
   144          5
   145          3
   146         10
   147         16
   148          9
   149          3
   150          5
   151          4
   152          2
   153          2
   154          4
   155          2
   156          4
   157          1
   158          5
   159          5
   160          5
   161          2
   162          3
   163          1
   164          1
   165          4
   166          2
   167          4
   168          4
   169          3
   170          2
   171          4
   172          7
   173          5
   174          8
   175          6
   176         14
   177          3
   178          1
   179          1
   180          5
   181          2
   182         14
   183          9
   184          6
   185          6
   186          5
   187          8
   188          8
   189          6
   190          6
   191          3
   192          2
   193          2
   194          4
   195          8
   196         12
   197          5
   198          3
   199          1
   200          1
   201          2
   202          3
   203          4
   204          6
   205          3
   206          2
   207          4
   208          9
   209         19
   210         19
   211          9
   212         14
   213          2
   214          4
   215          1
   216          3
   217          2
   218          3
   219          1
   220          3
   221          1
   222          5
   223          5
   224          7
   225          5
   226          5
   227         79
   228         17
   229         29
   230         14
   231          4
   232          6
   233          3
   234          1
   235          1
   236          1
   237          3
   238          7
   239          5
   240          7
   241          3
   242          3
   243          2
   244          9
   245          3
   246         15
   247          2
   248          9
   249          4
   250          2
   251          1
   252          1
   257          1
   258          1
   259          6
   260          9
   261          5
   262         44
   263          9
   264         34
   265          8
   266          6
   267          1
   268          4
   269          1
   270          1
   272          1
   273          3
   274          1
   275          6
   276          2
   277          4
   278          2
   279          1
   280          1
   281          1
   282          2
   284         15
   285          3
   286          9
   287          2
   288          1
   289          1
   290          1
   293          1
   294          1
   296          1
   297          4
   298         17
   299          7
   300        119
   301         34
   302         51
   303         12
   304          9
   305          1
   306          1
   308          1
   312          3
   313          2
   314          2
   315         33
   316          7
   317         16
   318         16
   319          8
   320         23
   321          5
   322         10
   323          2
   324          2
   328          1
   329          2
   330          2
   331          2
   332          5
   334        156
   335        282
   336        189
   337        215
   338         70
   339         43
   340         12
   341          4
   347          2
   348          2
   349          8
   350          2
   351          4
   352          1
   353          1
   369          4
   370          1
   371          2
   372          2
   377          1
   391          1
   403          1
   405         22
   406          5
   407         16
   408          5
   409          3
   410          1