##TITLE=Library Entry 83286
##JCAMP-DX=Revision 4.10 
##DATA TYPE=MASS SPECTRUM
##SAMPLE DESCRIPTION=A.A.Kutin, Moscow, Russia
##NAMES=HP
##CAS NAME=Benzenesulfonamide, N-benzyl-3,4-dimethoxy-
##MOLFORM=C15H17NO4S
##CAS REGISTRY NO=185300-34-9
##MP= -300
##BP= -300
##MW= 307
##$RETENTION INDEX=0
##$CONDENSED SPECTRUM=NO
##NPOINTS= 159
##XYDATA=(XY..XY) 1 
    33          5
    34          5
    35          9
    36         51
    37         10
    38         30
    39         77
    40         62
    41         56
    42         24
    43         44
    44         91
    45         23
    46          4
    47          1
    48          5
    50         67
    51        166
    52         45
    53         42
    54         10
    55         35
    56         17
    57         29
    58         33
    59         10
    60          8
    61          7
    62         17
    63         52
    64         31
    65         93
    66         44
    67         17
    68          8
    69         23
    70         13
    71         14
    72          8
    73         11
    74         12
    75         15
    76         46
    77        279
    78         80
    79        277
    80         29
    81         14
    82          7
    83         11
    84          9
    85         12
    86         82
    87         10
    88          2
    89         18
    91        381
    92        129
    93         24
    94         60
    95         59
    96         10
    97         10
    98          4
    99          5
   100          8
   101         17
   102          3
   103         10
   104         52
   106        999
   107        187
   108         19
   109         21
   110         12
   111         11
   112          4
   113          3
   114          2
   115          5
   116          2
   117          1
   118          3
   119          3
   120          6
   121         22
   122         48
   123        110
   124         15
   125         26
   126          5
   127          5
   128          5
   129          3
   132          1
   133          2
   134          1
   135         13
   137        208
   138        307
   139         48
   140         13
   141          5
   142          2
   143          0
   147          1
   149         40
   150          4
   151          6
   153        196
   154         69
   155          9
   156          2
   157          1
   163          1
   165          3
   166          4
   167          2
   168          4
   169          4
   170          3
   171          5
   177          2
   180          2
   181          1
   183          1
   185        226
   186         24
   187         16
   188          1
   195          0
   196          2
   197          1
   199          2
   200          3
   201         42
   202        322
   203         32
   204         19
   205          4
   207          1
   210          2
   211          1
   212          2
   217          1
   223          1
   226          5
   227          2
   228          4
   242          8
   243          2
   245          1
   273          0
   301          0
   305          5
   307        448
   308         77
   309         26
   310          4