##TITLE=Library Entry 1236
##JCAMP-DX=Revision 4.10 
##DATA TYPE=MASS SPECTRUM
##SAMPLE DESCRIPTION=ORMSBG,9(9)861(1974); BUDZIKIEWICZ
##NAMES=HP
##CAS NAME=Ethanamine, 2-(methylthio)-
##MOLFORM=C3H9NS
##CAS REGISTRY NO=18542-42-2
##MP= -300
##BP= -300
##MW= 91
##$RETENTION INDEX=0
##$CONDENSED SPECTRUM=NO
##NPOINTS= 12
##XYDATA=(XY..XY) 1 
    30        999
    40         20
    41         20
    42         70
    43        140
    44        200
    45         60
    46         80
    47         10
    61        100
    62        200
    91        360