##TITLE=Library Entry 29761
##JCAMP-DX=Revision 4.10 
##DATA TYPE=MASS SPECTRUM
##SAMPLE DESCRIPTION=Japan AIST/NIMC Database- Spectrum MS-NW-6635
##NAMES=HP
##CAS NAME=.alpha.-D-Glucofuranose, 1,2-O-(1-methylethylidene)-
##MOLFORM=C9H16O6
##CAS REGISTRY NO=18549-40-1
##MP= -300
##BP= -300
##MW= 220
##$RETENTION INDEX=0
##$CONDENSED SPECTRUM=NO
##NPOINTS= 118
##XYDATA=(XY..XY) 1 
    14          5
    15         63
    16          1
    17          3
    18         10
    19         11
    26          8
    27         55
    28         19
    29         66
    30          9
    31        137
    32          4
    37          1
    38          2
    39         40
    40          8
    41         65
    42         23
    43        495
    44         29
    45         42
    46          1
    47          8
    51          1
    53          6
    54          7
    55         62
    56         18
    57         61
    58         21
    59        999
    60         53
    61         70
    62          4
    64          1
    68          9
    69         43
    70          9
    71        100
    72         10
    73        483
    74         24
    75          5
    77          1
    80          2
    81         10
    82          1
    83         11
    84         11
    85        294
    86         34
    87         10
    88          1
    89          9
    91         17
    92          1
    95          4
    96          2
    97         20
    98          9
    99         20
   100        104
   101         86
   102         22
   103         15
   104         14
   105          1
   109         15
   110          1
   111          2
   112          1
   113         87
   114          9
   115         10
   116          2
   117          1
   119          5
   120          2
   123          5
   125          1
   126          2
   127        114
   128          9
   129         28
   130          6
   131         37
   132          4
   133          2
   139          1
   141          5
   142         13
   143          3
   144          4
   145         19
   146          1
   149         11
   150          1
   155          1
   159        250
   160         22
   161          4
   162          2
   169          1
   171          1
   173          3
   175          2
   177          9
   178          1
   187          6
   188          1
   189         12
   190          2
   201          1
   202          1
   205        258
   206         25
   207          5