##TITLE=Library Entry 30442
##JCAMP-DX=Revision 4.10 
##DATA TYPE=MASS SPECTRUM
##SAMPLE DESCRIPTION=Exported from NIST MS Search
##NAMES=HP
##CAS NAME=Butanoic acid, 2,2-dichloro-, methyl ester
##MOLFORM=C5H8Cl2O2
##CAS REGISTRY NO=18545-44-3
##MP= -300
##BP= -300
##MW= 170
##$RETENTION INDEX=957
##$CONDENSED SPECTRUM=NO
##NPOINTS= 124
##XYDATA=(XY..XY) 1 
    14          9
    15        216
    16          4
    17          8
    18         36
    25          3
    26         26
    27         58
    28         98
    29         88
    30         11
    31         47
    32         29
    33          3
    35          3
    36          8
    37         21
    38         33
    39        217
    40         43
    41        418
    42         25
    43         25
    44         35
    45         65
    46          2
    47         17
    48          7
    49        101
    50          7
    51         36
    52          2
    53         18
    54          6
    55         35
    56          7
    57         22
    58          7
    59        999
    60         36
    61         70
    62          9
    63         45
    64          3
    65          9
    66          1
    67          5
    68          4
    69         11
    70          1
    71         10
    72          7
    73         21
    74         16
    75        576
    76        117
    77        189
    78         39
    79         10
    80          2
    81          5
    82         12
    83         58
    84         10
    85         41
    86          3
    87          8
    88          1
    89         20
    90          1
    91         25
    92          2
    93          7
    94          1
    95          5
    96         13
    97         50
    98         11
    99         65
   100          6
   101         12
   102         19
   103         44
   104         21
   105         17
   106          5
   107         10
   108          9
   109         11
   110         76
   111        753
   112         72
   113        491
   114         25
   115         83
   116          4
   117          7
   118          7
   119          5
   120          6
   121          2
   122          1
   123          2
   125          3
   127         29
   128          2
   129         17
   131          3
   132          3
   133          2
   134          9
   135         25
   136         28
   137          5
   138          9
   139          5
   140          1
   141          6
   142        123
   143          8
   144         74
   145         10
   146         13
   147          6