##TITLE=Library Entry 30067
##JCAMP-DX=Revision 4.10 
##DATA TYPE=MASS SPECTRUM
##SAMPLE DESCRIPTION=Chemical Concepts
##NAMES=HP
##CAS NAME=2-Propenoic acid, 3-(methylsulfonyl)-, methyl ester
##MOLFORM=C5H8O4S
##CAS REGISTRY NO=1854-78-0
##MP= -300
##BP= -300
##MW= 164
##$RETENTION INDEX=0
##$CONDENSED SPECTRUM=NO
##NPOINTS= 90
##XYDATA=(XY..XY) 1 
    25         21
    26        335
    27         97
    28         65
    29        245
    30         34
    31        172
    33        206
    34         29
    37          8
    38         15
    39        139
    40         29
    41         74
    42        192
    43        305
    44        231
    45        167
    46         87
    47        105
    48        352
    49         69
    50         37
    51         12
    52         10
    53        338
    54        257
    55        125
    56         15
    57         45
    58         34
    59        999
    60         35
    61         53
    62         25
    63        984
    64        236
    65        131
    66         16
    67          6
    68         33
    69        167
    70         80
    71        897
    72         43
    73         25
    74         33
    75         14
    76         24
    77         22
    78          8
    79        517
    80         83
    81         45
    82          7
    83         14
    84         10
    85        157
    86         13
    87         13
    88         10
    89        206
    90         33
    91         17
    94         44
    95         15
    96          8
   100         14
   101        117
   102        546
   103         36
   104         38
   105         17
   115          9
   117         17
   118          8
   119         34
   121        102
   122         10
   123          9
   127          6
   128          6
   132         11
   133        843
   134         63
   135         72
   136          6
   149        365
   150         21
   151         27