##TITLE=Library Entry 57020
##JCAMP-DX=Revision 4.10 
##DATA TYPE=MASS SPECTRUM
##SAMPLE DESCRIPTION=Chemical Concepts
##NAMES=HP
##CAS NAME=Cyclododecanecarboxylic acid, methyl ester
##MOLFORM=C14H26O2
##CAS REGISTRY NO=1855-59-0
##MP= -300
##BP= -300
##MW= 226
##$RETENTION INDEX=0
##$CONDENSED SPECTRUM=NO
##NPOINTS= 139
##XYDATA=(XY..XY) 1 
    26          2
    27        111
    28         24
    29        205
    30          4
    31          8
    33          5
    39        102
    40         14
    41        539
    42         91
    43        191
    44          3
    45         29
    51          3
    52          4
    53         63
    54         90
    55        511
    56         79
    57         83
    58          5
    59         86
    60          2
    61          6
    65         10
    66          8
    67        166
    68         91
    69        273
    70         42
    71         38
    72          6
    73         19
    74        271
    75         48
    76          1
    77         10
    78          3
    79         28
    80         19
    81        136
    82         90
    83        199
    84        187
    85         37
    86          2
    87        999
    88         91
    89          6
    91          6
    92          2
    93         10
    94         34
    95         90
    96        210
    97        189
    98        233
    99         40
   100         37
   101         76
   102         16
   103          0
   105          1
   106          2
   107          7
   108         27
   109         50
   110        161
   111        124
   112         50
   113        159
   114         42
   115         40
   116         19
   117          0
   119         13
   120          6
   121          7
   122          7
   123         63
   124         48
   125         37
   126         11
   127         44
   128         35
   129         47
   130        140
   131          9
   132          0
   133         13
   134         18
   135          9
   136          5
   137         48
   138         51
   139         24
   140          8
   141         58
   142         13
   143         87
   144         20
   145          1
   147          8
   148          3
   150         61
   151         45
   152        171
   153         44
   154          3
   155         18
   156          4
   157         10
   158          9
   161          2
   163          0
   165         29
   166         20
   167         16
   169         22
   170          6
   171          5
   176         63
   177          8
   179          1
   183         32
   184          4
   185          4
   194        350
   195        118
   196         13
   197          7
   198          0
   208          8
   211          0
   225          1
   226        274
   227         42
   228          5