##TITLE=Library Entry 44134
##JCAMP-DX=Revision 4.10 
##DATA TYPE=MASS SPECTRUM
##SAMPLE DESCRIPTION=S. MARKEY UNIV. OF COLO. MED. CTR., DENVER, COLORADO, U
SA
##NAMES=HP
##CAS NAME=Xanthine, 3TMS derivative
##MOLFORM=C14H28N4O2Si3
##CAS REGISTRY NO=18551-03-6
##MP= -300
##BP= -300
##MW= 368
##$RETENTION INDEX=2010
##$CONDENSED SPECTRUM=NO
##NPOINTS= 60
##XYDATA=(XY..XY) 1 
    20         25
    40        234
    41         10
    43         66
    44         55
    45        189
    46         10
    47         41
    58         25
    59         50
    63         23
    65         23
    72         34
    73        999
    74         93
    75        227
    77         74
    78          9
    84         28
    93        108
    95         52
   100         61
   117         19
   130         16
   131         54
   132         10
   133         30
   147        386
   148         66
   149         36
   158         30
   238         27
   254         10
   265         32
   269         12
   278         12
   279        102
   280         34
   281         46
   282         28
   283         12
   294        160
   295         77
   296         48
   297         19
   315         10
   326         28
   337         16
   338         19
   339         19
   353        841
   354        285
   355         97
   356         27
   367         36
   368        566
   369        185
   370         88
   371         14
   372         12