##TITLE=Library Entry 26780
##JCAMP-DX=Revision 4.10 
##DATA TYPE=MASS SPECTRUM
##SAMPLE DESCRIPTION=A. Brossi, LC, NIDDK, NIH, Bethesda, MD 20892
##NAMES=HP
##CAS NAME=1,3-Pyrimidin-2-one, 4-t-butylcarbonylamino-
##MOLFORM=C9H13N3O2
##CAS REGISTRY NO=18556-79-1
##MP= -300
##BP= -300
##MW= 195
##$RETENTION INDEX=0
##$CONDENSED SPECTRUM=NO
##NPOINTS= 115
##XYDATA=(XY..XY) 1 
    41        410
    42         77
    43         30
    44         40
    45          6
    46          0
    47          2
    48          1
    49          8
    50          3
    51         12
    52         34
    53         23
    54         12
    55         64
    56         19
    57        999
    58         54
    59          1
    60          3
    61          0
    63          1
    64          1
    65          6
    66         19
    67         61
    68        123
    69        119
    70         27
    71          6
    72          1
    73          3
    74          0
    75          0
    76          1
    77          2
    78          2
    79          1
    80          1
    81          4
    82         23
    83         86
    84         19
    85         59
    86          6
    87          1
    88          0
    89          0
    91          1
    92          0
    93          8
    94         96
    95        120
    96         11
    97          7
    98          2
    99          1
   100          1
   101          1
   104          0
   105          1
   106          1
   107          1
   108          0
   109         15
   110          9
   111        387
   112         85
   113          7
   114          0
   115          1
   119          0
   120          5
   121          1
   122          1
   123          1
   124          4
   125          2
   126          0
   129          2
   131          1
   135          2
   136          4
   137          9
   138        801
   139        212
   140         24
   141          3
   142          0
   143          0
   149          2
   150          2
   151          2
   152         41
   153         34
   154          2
   157          0
   162          0
   164          1
   165          0
   166          2
   167          4
   168          0
   171          0
   178          3
   179          0
   180         37
   181          4
   185          0
   188          0
   194          3
   195        244
   196         66
   197          7
   198          0