##TITLE=Library Entry 32364
##JCAMP-DX=Revision 4.10 
##DATA TYPE=MASS SPECTRUM
##SAMPLE DESCRIPTION=Chemical Concepts
##NAMES=HP
##CAS NAME=Cyclooctene, 5-chloro-
##MOLFORM=C8H13Cl
##CAS REGISTRY NO=1855-55-6
##MP= -300
##BP= -300
##MW= 144
##$RETENTION INDEX=0
##$CONDENSED SPECTRUM=NO
##NPOINTS= 77
##XYDATA=(XY..XY) 1 
    25         52
    27        444
    29        142
    30          2
    31          0
    35          8
    36         37
    37         13
    38         46
    39        663
    40         91
    41        720
    42         55
    43         29
    44          1
    45          4
    49         27
    50         62
    51        129
    52         73
    53        252
    54        533
    55        218
    56         28
    57          3
    59          1
    61          8
    62         24
    63         36
    64         10
    65        115
    66        127
    67        999
    68        223
    69         46
    70          4
    73          6
    74          7
    75         59
    76         14
    77        154
    78         60
    79        424
    80        381
    81        407
    82        133
    83          5
    87          2
    88        102
    89         30
    90         44
    91         69
    92         11
    93        238
    94         18
    95        135
    96          9
   101         12
   102         67
   103         14
   104         23
   105          8
   107         19
   108         70
   109        191
   110         19
   111          2
   115         16
   116        407
   117         26
   118        124
   119          6
   129          4
   131          2
   144         58
   145          5
   146         18