##TITLE=Library Entry 77775
##JCAMP-DX=Revision 4.10 
##DATA TYPE=MASS SPECTRUM
##SAMPLE DESCRIPTION=Chemical Concepts
##NAMES=HP
##CAS NAME=Propanoyl chloride, 2-(4-bromophenyl)-
##MOLFORM=C9H8BrClO
##CAS REGISTRY NO=185756-11-0
##MP= -300
##BP= -300
##MW= 246
##$RETENTION INDEX=0
##$CONDENSED SPECTRUM=NO
##NPOINTS= 122
##XYDATA=(XY..XY) 1 
    24          0
    26         10
    27         65
    28          7
    29          2
    35          2
    36          6
    37          9
    38         26
    39         64
    40         69
    41          3
    43          5
    44          7
    49          9
    50        122
    51        257
    52         52
    53         15
    54          0
    55          2
    56          8
    57          2
    60          1
    61         11
    62         31
    63         69
    64          7
    65          8
    66          1
    69          0
    71          0
    73          9
    74         44
    75         72
    76         62
    77        263
    78        140
    79          9
    80          1
    81          1
    82          2
    84          1
    85          4
    86          6
    87         12
    88          6
    89         26
    90          3
    91          1
    92          4
    93          2
    97          1
    98          4
    99          2
   100          1
   101         20
   102         75
   103        250
   104        999
   105         81
   106          2
   107          0
   109          0
   111          1
   113          1
   114          0
   115          2
   116          1
   117          3
   118          0
   119          4
   123          1
   124          3
   125          0
   126          0
   128          0
   129          1
   130          0
   131          1
   132          1
   136          0
   138          3
   139          3
   140          1
   141          1
   143          2
   145          1
   155          4
   156          3
   157          5
   158          3
   167          1
   169          1
   171          1
   181          4
   182         15
   183        866
   184         85
   185        855
   186         74
   187          2
   190          2
   192          4
   194          1
   203          4
   205          4
   207          1
   210          3
   211          1
   212          3
   213          1
   214          0
   217          1
   219          2
   221          0
   246        116
   247         11
   248        147
   249         15
   250         40
   251          3