##TITLE=Library Entry 43015
##JCAMP-DX=Revision 4.10 
##DATA TYPE=MASS SPECTRUM
##SAMPLE DESCRIPTION=Chemical Concepts
##NAMES=HP
##CAS NAME=Anthracene, 9,10-dihydro-9,10-bis(trimethylsilyl)-
##MOLFORM=C20H28Si2
##CAS REGISTRY NO=18586-37-3
##MP= -300
##BP= -300
##MW= 324
##$RETENTION INDEX=0
##$CONDENSED SPECTRUM=NO
##NPOINTS= 139
##XYDATA=(XY..XY) 1 
    27          0
    29          8
    30          0
    31          2
    39          0
    41          0
    42          1
    43         29
    44         11
    45        123
    46          7
    47          3
    50          0
    51          0
    53          3
    54          0
    55          3
    56          0
    57          4
    58          6
    59          4
    60          0
    61          0
    62          0
    63          1
    65          0
    66          0
    67          0
    69          0
    70          1
    71          1
    72          3
    73        999
    74         72
    75         30
    76          2
    77          1
    78          0
    83          0
    85          0
    86          0
    87          0
    88          0
    89          1
    96          0
    98          0
    99          0
   101          0
   102          0
   103          0
   109          0
   110          0
   113          0
   115          2
   116          0
   117          0
   118          0
   125          0
   126          1
   127          0
   128          1
   129          0
   130          0
   131         13
   132          2
   133          0
   134          0
   139          1
   141          0
   149          0
   150          4
   151          7
   152         13
   153          2
   154          0
   155          0
   163          1
   164          0
   165          3
   166          0
   167          0
   172          0
   173          0
   174          0
   175          2
   176         17
   177         12
   178        143
   179         21
   180          2
   181          0
   187          0
   188          0
   189          4
   190          1
   191          5
   192          3
   193          1
   194          0
   195          1
   196          0
   202          1
   203          2
   204          2
   205          4
   206          0
   209          0
   215          0
   216          0
   217          5
   218          2
   219          5
   220          1
   221          6
   222          1
   223          0
   229          0
   230          0
   231          1
   232          0
   233          4
   234          1
   235         25
   236         57
   237         13
   238          2
   239          0
   249          0
   250         18
   251         63
   252         14
   253          3
   254          0
   309          1
   310          0
   324         23
   325          7
   326          2
   327          0