##TITLE=Library Entry 66920
##JCAMP-DX=Revision 4.10 
##DATA TYPE=MASS SPECTRUM
##SAMPLE DESCRIPTION=C.Apostolopoulos ET AL.Eur.Mass.Spectrom.2.301(1996)
##NAMES=HP
##CAS NAME=1-(4-Methoxyphenyl)-2-(4-pyridazinyl) ethanol
##MOLFORM=C13H14N2O2
##CAS REGISTRY NO=185848-13-9
##MP= -300
##BP= -300
##MW= 230
##$RETENTION INDEX=0
##$CONDENSED SPECTRUM=NO
##NPOINTS= 87
##XYDATA=(XY..XY) 1 
    36         12
    37         44
    38         92
    39        495
    40        235
    41        101
    42         61
    43         81
    44         24
    49          4
    50         53
    51        116
    52         32
    53         21
    54          9
    55         26
    56         66
    57         16
    58         56
    61          6
    62         16
    63         69
    64         46
    65        270
    66        115
    67         21
    68          9
    69          9
    70          6
    71         13
    73         16
    74         33
    75          9
    76         13
    77        175
    78         30
    79         38
    80          9
    81          6
    83          4
    84         18
    85          6
    86          6
    87          6
    88          6
    89         18
    90          6
    91         30
    92         33
    93         33
    94        999
    95         75
    98          6
   102          6
   103          6
   105         10
   106          6
   107         33
   108         26
   109        149
   110         10
   115         64
   116         27
   121         15
   124         10
   128          6
   130          6
   134         23
   135        135
   136         43
   137        387
   138         35
   139          6
   141         35
   143          6
   149         15
   150          6
   151         18
   152         18
   153          6
   157         15
   168          6
   186          6
   190          7
   211          6
   212         80
   213         10