##TITLE=Library Entry 26206
##JCAMP-DX=Revision 4.10 
##DATA TYPE=MASS SPECTRUM
##SAMPLE DESCRIPTION=Exported from NIST MS Search
##NAMES=HP
##CAS NAME=Heptane, 2-iodo-
##MOLFORM=C7H15I
##CAS REGISTRY NO=18589-29-2
##MP= -300
##BP= -300
##MW= 226
##$RETENTION INDEX=1106
##$CONDENSED SPECTRUM=NO
##NPOINTS= 62
##XYDATA=(XY..XY) 1 
    15          3
    26          4
    27         81
    28         37
    29        202
    30          3
    31          3
    32          6
    36          4
    38          4
    39         70
    40         12
    41        327
    42         49
    43        338
    44         12
    45          4
    50          3
    51          6
    52          3
    53         17
    54          8
    55        103
    56         40
    57        999
    58         46
    59         13
    65          3
    66          2
    67         10
    68          5
    69         34
    70         11
    71         15
    72          6
    73          2
    81          3
    82          1
    83          3
    84          2
    85         19
    86          2
    87          5
    93          1
    94          2
    95          3
    97          2
    98          5
    99        412
   100         32
   101          1
   127          9
   128          4
   136          2
   141          3
   153          1
   154          1
   155         11
   169          4
   183          1
   226         16
   227          1