##TITLE=Library Entry 67440
##JCAMP-DX=Revision 4.10 
##DATA TYPE=MASS SPECTRUM
##SAMPLE DESCRIPTION=C.Apostolopoulos ET AL.Eur.Mass.Spectrom.2,301(1996)
##NAMES=HP
##CAS NAME=1-(4-Methoxyphenyl)-2-(4-pyrimidinyl) ethanol
##MOLFORM=C13H14N2O2
##CAS REGISTRY NO=185848-10-6
##MP= -300
##BP= -300
##MW= 230
##$RETENTION INDEX=0
##$CONDENSED SPECTRUM=NO
##NPOINTS= 56
##XYDATA=(XY..XY) 1 
    37          7
    38         30
    39        137
    40         52
    41         40
    42         13
    43         13
    44         75
    50         34
    51         60
    52         34
    53         38
    62          9
    63         54
    64         57
    65         77
    66         65
    67         69
    68          6
    74          6
    75          6
    76         13
    77        286
    78         46
    79         38
    81         92
    86         23
    89          6
    91         10
    92         82
    93         35
    94        999
    95         78
   104          3
   105         12
   106          4
   107         74
   108         20
   109        202
   110         12
   115          7
   121         23
   135        405
   136        201
   137        484
   138         57
   150        164
   151         18
   168         18
   169         13
   197          6
   211         75
   212         18
   229          9
   230         80
   231          7