##TITLE=Library Entry 811
##JCAMP-DX=Revision 4.10 
##DATA TYPE=MASS SPECTRUM
##SAMPLE DESCRIPTION=NIST Mass Spectrometry Data Center, 1994
##NAMES=HP
##CAS NAME=Ethyl 4-chloro-3-trifluoromethylcarbanilate
##MOLFORM=C10H9ClF3NO2
##CAS REGISTRY NO=18585-06-3
##MP= -300
##BP= -300
##MW= 267
##$RETENTION INDEX=0
##$CONDENSED SPECTRUM=NO
##NPOINTS= 190
##XYDATA=(XY..XY) 1 
    12          5
    13          5
    14         19
    15         62
    16          7
    17          5
    18          7
    19         16
    20          3
    25          7
    26         57
    27        279
    28         88
    29        999
    30         45
    31        182
    32          2
    33          2
    35          8
    36          5
    37         34
    38         43
    39         23
    40         10
    41          7
    42         14
    43         31
    44         28
    45        110
    46         22
    47         10
    48          3
    49         17
    50         32
    51         23
    52         21
    53          1
    54          4
    55          3
    56         11
    57         26
    58          2
    60          6
    61         43
    62         73
    63        101
    64         30
    65          8
    66          2
    67          7
    68          1
    69        106
    70          5
    71          3
    72         17
    73         40
    74         36
    75         64
    76         10
    77          3
    79          7
    80          8
    81         34
    82         10
    83          6
    84          6
    85         14
    86          8
    87         32
    88         58
    89         21
    90         22
    91         19
    92          4
    93         21
    94          9
    95          5
    96          4
    97         31
    98         18
    99         36
   100         14
   101          9
   102          2
   104          3
   105          2
   106          7
   107          5
   108         29
   109         14
   110          6
   111         13
   112         16
   113         32
   114          7
   115          2
   117         13
   118          5
   119         10
   120         10
   121          2
   122          4
   123          2
   124         78
   125         28
   126         30
   127          7
   128          2
   129          7
   130          2
   131         35
   132        117
   133         14
   138         44
   139         40
   140         20
   141          6
   142          6
   143         28
   144         19
   145         35
   146          6
   147         31
   148         78
   149         13
   150         27
   151          3
   152          3
   153          2
   154          6
   155          2
   156          5
   157         17
   158         76
   159         21
   160         35
   161         13
   162          2
   163          4
   166         17
   167         36
   168         14
   169         13
   170          4
   171          8
   172          2
   173         43
   174         27
   175         43
   176         29
   177         12
   178          8
   179         26
   180          4
   181          9
   182          2
   186         36
   187          4
   188          6
   193        110
   194        100
   195        450
   196         66
   197        129
   198         10
   202         45
   203          7
   204         20
   205          2
   206          3
   207          2
   208        230
   209         27
   210         82
   211          7
   221        265
   222         54
   223         94
   224         16
   238          4
   239         16
   240          3
   241          5
   248         30
   249          4
   250         10
   267        193
   268         28
   269         58
   270          8