##TITLE=Library Entry 71439
##JCAMP-DX=Revision 4.10 
##DATA TYPE=MASS SPECTRUM
##SAMPLE DESCRIPTION=V.A.Korolev, Moscow, Russia
##NAMES=HP
##CAS NAME=3-(5-Amino-2H-1,2,4-triazol-3-yl)propan-1-ol
##MOLFORM=C5H10N4O
##CAS REGISTRY NO=18595-97-6
##MP= -300
##BP= -300
##MW= 142
##$RETENTION INDEX=0
##$CONDENSED SPECTRUM=NO
##NPOINTS= 65
##XYDATA=(XY..XY) 1 
    29         53
    30         16
    31         67
    33          8
    36          4
    37         16
    38         42
    39        170
    40        102
    41        295
    42        242
    43        329
    44        141
    45         50
    46          9
    47          3
    50         17
    51         44
    52         97
    53        138
    54        281
    55        163
    56        204
    57        439
    58        171
    59         12
    60         42
    61          1
    63          2
    64          8
    65          3
    66         34
    67         51
    68        240
    69        114
    70         25
    71         14
    73         30
    74        154
    75          6
    76          3
    77          3
    78          3
    79          3
    81         35
    82         23
    83          5
    84         10
    85         13
    86         10
    94          8
    95         11
    98        999
    99         60
   100          2
   103          3
   111        482
   112        143
   113          8
   124         26
   125          7
   126         10
   142        299
   143         21
   146          2