##TITLE=Library Entry 31089
##JCAMP-DX=Revision 4.10 
##DATA TYPE=MASS SPECTRUM
##SAMPLE DESCRIPTION=V. KRAMER
##NAMES=HP
##CAS NAME=Pyrido[2,3-d]thiazolo[3,2-b]pyridazin-4-ium, 2,3-dihydro-, bromid
e
##MOLFORM=C9H8BrN3S
##CAS REGISTRY NO=18592-68-2
##MP= -300
##BP= -300
##MW= 269
##$RETENTION INDEX=0
##$CONDENSED SPECTRUM=NO
##NPOINTS= 85
##XYDATA=(XY..XY) 1 
    41         68
    42         38
    43        112
    44        210
    45        190
    46         14
    47         11
    49         13
    50         72
    51         82
    52         59
    53         26
    54         22
    55         49
    56         21
    57         48
    58        205
    59        380
    60        999
    61         66
    62         73
    63         75
    64         63
    65         23
    66         11
    67         21
    68         18
    69         51
    70         31
    71         22
    73         19
    74         11
    75         51
    76        190
    77        100
    78         50
    79         57
    80        140
    81         70
    82        140
   103        300
   104        105
   105         57
   106         11
   107         17
   108         15
   109         32
   110         12
   111         11
   115         11
   116         27
   117         68
   118         64
   119         15
   120         10
   121         20
   122         15
   127         13
   128         24
   129         55
   130        160
   131         38
   132         27
   133         15
   134         25
   135         25
   136         39
   143        100
   144         61
   145         16
   147         50
   148         58
   149         19
   156         51
   157         56
   158         40
   159         17
   161         58
   162         56
   163         18
   187         66
   188        725
   189        640
   190        115
   191         51