##TITLE=Library Entry 6852
##JCAMP-DX=Revision 4.10 
##DATA TYPE=MASS SPECTRUM
##SAMPLE DESCRIPTION=Exported from NIST MS Search
##NAMES=HP
##CAS NAME=Butane, 1-(1-methylethoxy)-
##MOLFORM=C7H16O
##CAS REGISTRY NO=1860-27-1
##MP= -300
##BP= -300
##MW= 116
##$RETENTION INDEX=725
##$CONDENSED SPECTRUM=NO
##NPOINTS= 35
##XYDATA=(XY..XY) 1 
    14          8
    15         46
    26         14
    27        171
    28        187
    29        248
    30          6
    31        555
    32         39
    39         88
    40         14
    41        355
    42        110
    43        999
    44         47
    45        752
    46         18
    53          8
    55        102
    56        699
    57        603
    58         50
    59         74
    69          5
    70          5
    71         11
    72          7
    73        336
    74         17
    83         22
   101        320
   102         19
   115          2
   116         28
   117          3