##TITLE=Library Entry 75884
##JCAMP-DX=Revision 4.10 
##DATA TYPE=MASS SPECTRUM
##SAMPLE DESCRIPTION=Exported from NIST MS Search
##NAMES=HP
##CAS NAME=2-Heneicosenoic acid, 2,4-dimethyl-, ethyl ester, D-(Z)-
##MOLFORM=C25H48O2
##CAS REGISTRY NO=18607-49-3
##MP= -300
##BP= -300
##MW= 380
##$RETENTION INDEX=0
##$CONDENSED SPECTRUM=NO
##NPOINTS= 249
##XYDATA=(XY..XY) 1 
    15         16
    16         20
    17         20
    18         16
    25          4
    26         40
    27        100
    28        104
    29        300
    30         10
    31         20
    32          4
    38          4
    39         96
    40         16
    41        519
    42         96
    43        839
    44         60
    45         50
    46          2
    47          2
    48          2
    50          4
    51          2
    52         14
    53         80
    54         60
    55        519
    56        140
    57        499
    58         56
    59         60
    60          2
    61          2
    62          2
    63          2
    65         24
    66         20
    67        310
    68        100
    69        619
    70        104
    71        210
    72         20
    73         40
    74         60
    75         10
    77         36
    78         16
    79         90
    80         30
    81        256
    82        200
    83        719
    84         96
    85        160
    86         16
    87        104
    88         16
    89          4
    91         44
    92         10
    93         40
    94         44
    95        324
    96        140
    97        254
    98         56
    99         70
   100         20
   101         36
   102        999
   103         70
   104         16
   105         40
   106         16
   107         36
   108         30
   109        360
   110        180
   111        210
   112         64
   113        330
   114         80
   115        300
   116         30
   117          4
   118          4
   119          4
   121         34
   122         30
   123        120
   124         80
   125        110
   126         20
   127         84
   128         50
   129         36
   130         16
   133         10
   134          2
   135         20
   136         16
   137         64
   138         40
   139         36
   140         20
   141        190
   142        140
   143         40
   144         10
   145         10
   146          2
   147         16
   148          2
   149         24
   150         10
   151         24
   152         16
   153         40
   154         16
   155         74
   156        324
   157         60
   158         10
   159         10
   161          4
   162          2
   163         10
   164          4
   165         24
   166         10
   167         10
   168          2
   169         30
   170         16
   172          2
   174          2
   175          2
   176          2
   177          2
   178         10
   179         16
   180          2
   181          2
   182         10
   183         20
   184          4
   185          4
   187          2
   188          2
   190          2
   191         16
   192          2
   193         16
   194         10
   195          2
   197         14
   198          2
   199          2
   202          2
   205          2
   206          2
   207         40
   209          4
   211          4
   212          2
   213          2
   214          2
   215          2
   218          2
   219          2
   221         10
   222         10
   224          4
   225          2
   226          2
   227          4
   231          2
   232          2
   234          4
   235          2
   236          2
   237          4
   239          4
   242          4
   247          2
   249          4
   250          4
   251          2
   252          2
   253          2
   254          2
   255          4
   263          4
   264         14
   267         14
   268          2
   269          2
   275          2
   276          2
   277         10
   278         20
   279         20
   280         10
   281         20
   283          2
   284          4
   291          4
   292         10
   293          4
   294          4
   295         10
   297         10
   298          4
   305         20
   306         16
   307         10
   308          4
   309         10
   310          2
   311         16
   319         10
   320          2
   323          2
   333         14
   334         24
   335        160
   336         50
   337          4
   338          4
   348         24
   349         10
   350          2
   351         10
   352         10
   355         10
   356          2
   357          2
   365         20
   366          4
   367          4
   368          2
   378         20
   379         16
   380        619
   381        160
   382         20