##TITLE=Library Entry 54952
##JCAMP-DX=Revision 4.10 
##DATA TYPE=MASS SPECTRUM
##SAMPLE DESCRIPTION=Exported from NIST MS Search
##NAMES=HP
##CAS NAME=2-Docosanone, 4,21,21-trimethyl-, L-(-)-
##MOLFORM=C25H50O
##CAS REGISTRY NO=18607-44-8
##MP= -300
##BP= -300
##MW= 366
##$RETENTION INDEX=0
##$CONDENSED SPECTRUM=NO
##NPOINTS= 116
##XYDATA=(XY..XY) 1 
    14          1
    15         18
    18         22
    27         37
    28         84
    29         75
    30          3
    39         22
    40          1
    41        254
    42         56
    43        575
    44          9
    45          1
    53         18
    54         22
    55        273
    56        235
    57        796
    58        377
    59        537
    60          9
    65          3
    67         47
    68         37
    69        198
    70         66
    71        160
    72         15
    79          1
    80          3
    81         56
    82         37
    83        132
    84         41
    85        999
    86         94
    87          3
    93         15
    94          3
    95         47
    96         37
    97        141
    98         37
    99         66
   100          9
   105          1
   107          9
   108          9
   109         75
   110         37
   111         60
   112         18
   113         22
   114          3
   121          1
   122          1
   123         15
   124         18
   125         52
   126          9
   127         18
   128          9
   131          3
   137          3
   138          3
   139         15
   140          3
   141          3
   142          3
   152          3
   153          9
   154          3
   166          3
   167          3
   168          3
   169          3
   196          3
   207          9
   211          3
   250         18
   251          3
   252         52
   253         15
   254          3
   264          1
   266          1
   268          1
   281          3
   292          3
   293          9
   294          1
   295         13
   296          3
   306         18
   307          3
   308         79
   309         22
   310         22
   311         66
   312         18
   323          9
   333         15
   334          1
   337         34
   338          1
   348          9
   349          3
   351        113
   352         28
   353          1
   355          1
   364          1
   365          1
   366         41
   367         15