##TITLE=Library Entry 42167
##JCAMP-DX=Revision 4.10 
##DATA TYPE=MASS SPECTRUM
##SAMPLE DESCRIPTION=D.HENNEBERG, MAX-PLANCK INSTITUTE, MULHEIM, WEST GERMAN
Y
##NAMES=HP
##CAS NAME=Myristic acid, TMS derivative
##MOLFORM=C17H36O2Si
##CAS REGISTRY NO=18603-17-3
##MP= -300
##BP= -300
##MW= 300
##$RETENTION INDEX=1850
##$CONDENSED SPECTRUM=NO
##NPOINTS= 184
##XYDATA=(XY..XY) 1 
    24          1
    25          2
    26          7
    27         46
    28         23
    29        114
    30          3
    31          2
    34          0
    37          1
    39         23
    40          7
    41        170
    42         41
    43        227
    44          6
    45         62
    46          5
    47         37
    48          4
    49          4
    50          0
    51          1
    52          1
    53          8
    54         10
    55        210
    56         30
    57         78
    58         14
    59         26
    60          8
    61         47
    62          3
    63          3
    65          2
    66          1
    67         34
    68          6
    69         87
    70         12
    71         19
    72         22
    73        999
    74         88
    75        625
    76         45
    77         32
    78          1
    79          5
    80          1
    81         34
    82          6
    83         36
    84         21
    85         11
    86          6
    87          4
    88          6
    89         14
    90          3
    91          4
    92          0
    93          6
    94          1
    95         25
    96          2
    97         26
    98         22
    99         10
   100          1
   101          8
   102          1
   103          4
   105         17
   106          3
   107          3
   108          0
   109          8
   110          2
   111         10
   112          8
   113          2
   114          2
   115         11
   116         37
   117        632
   118         54
   119         27
   120          1
   121          4
   122          0
   123          3
   124          1
   125          3
   126          1
   127          1
   128          2
   129        184
   130         22
   131         71
   132        282
   133         47
   134         11
   135          3
   136          0
   137          1
   139          1
   140          1
   141          1
   142          1
   143         11
   144          2
   145        173
   146         20
   147          7
   148          0
   149          1
   153          0
   154          2
   155          1
   156          0
   157          3
   158          0
   159         12
   160          2
   161          1
   167          2
   168          0
   169          0
   171          6
   172          1
   173          2
   174          2
   175          0
   178          1
   179          0
   181          0
   185          6
   186          1
   187          8
   188          2
   191          0
   192          0
   195          0
   196          0
   199          2
   200          0
   201         22
   202          4
   203          1
   206          0
   210          0
   213          1
   215          3
   216          1
   217          0
   219          0
   221          0
   225          0
   227          1
   228          0
   229          1
   241         11
   242          2
   243          2
   244          1
   245          0
   255          1
   256          0
   257         10
   258          1
   259          0
   269          0
   271          1
   272          0
   285        190
   286         50
   287         14
   288          2
   299          1
   300         11
   301          3
   307          0