##TITLE=Library Entry 42737
##JCAMP-DX=Revision 4.10 
##DATA TYPE=MASS SPECTRUM
##SAMPLE DESCRIPTION=G.S. KING, CHEM. PATHOL. DEP., QUEEN CHARLOTTE'S HOSP.,
 LONDON
##NAMES=HP
##CAS NAME=Tartaric acid, 4TMS derivative
##MOLFORM=C16H38O6Si4
##CAS REGISTRY NO=18602-86-3
##MP= -300
##BP= -300
##MW= 438
##$RETENTION INDEX=1665
##$CONDENSED SPECTRUM=NO
##NPOINTS= 87
##XYDATA=(XY..XY) 1 
    43         24
    44         32
    45        132
    46         12
    47         12
    55         12
    57         12
    58         12
    59         32
    61         12
    69         12
    72         32
    73        999
    74        144
    75        124
    76         12
    77         24
    93         24
    95         12
    99         12
   101         12
   102         44
   103         24
   115         12
   117         24
   119         12
   130         24
   131         44
   132         12
   133         72
   134         12
   135         12
   143         84
   144         12
   145         12
   147        704
   148        104
   149         64
   150         12
   161         12
   163         12
   171         24
   173         12
   175         44
   176         12
   177         12
   189        152
   190         32
   191         32
   192         12
   204         24
   205         12
   207         12
   217         52
   218         12
   219        312
   220         64
   221         92
   222         24
   223         12
   231         12
   263         32
   264         12
   277         64
   278         24
   279         24
   280         12
   291         12
   292        512
   293        152
   294         84
   295         24
   305        124
   306         32
   307         24
   321         32
   322         12
   333         64
   334         12
   335         12
   351         24
   352         12
   367         12
   423        152
   424         64
   425         32
   426         12