##TITLE=Library Entry 46401
##JCAMP-DX=Revision 4.10 
##DATA TYPE=MASS SPECTRUM
##SAMPLE DESCRIPTION=A.Pleshkova, Nesmeyanov Inst.Org.Elem.Cpds, Moscow
##NAMES=HP
##CAS NAME=Phosphinic acid, bis(m-nitrophenyl)-, methyl ester
##MOLFORM=C13H11N2O6P
##CAS REGISTRY NO=18621-10-8
##MP= -300
##BP= -300
##MW= 322
##$RETENTION INDEX=0
##$CONDENSED SPECTRUM=NO
##NPOINTS= 129
##XYDATA=(XY..XY) 1 
    39         92
    40          3
    43        187
    44          6
    47        172
    48          7
    50        432
    51        154
    52          7
    58         55
    59          2
    63        123
    64        125
    65         81
    66          4
    69         81
    70          4
    74        114
    75        276
    76        999
    77        213
    78         61
    79         92
    80          7
    89         56
    90         51
    91        132
    92        198
    93         77
    94          6
    95         91
    96         72
    97          6
   107         99
   108          8
   109         44
   110          5
   115         66
   116          5
   119         65
   120        102
   121          9
   123        106
   124         42
   125          4
   126         68
   127          7
   128         42
   129          4
   133         62
   134          6
   136        143
   137         64
   138         42
   139        221
   140        112
   141         42
   142          4
   150        102
   151        152
   152        298
   153        102
   154        593
   155         62
   156          6
   157         72
   158          6
   165         43
   166          6
   167         66
   168        123
   169         13
   170        213
   171         54
   172          7
   181         42
   182          7
   184        302
   185         42
   186        177
   187         88
   188          9
   197         77
   198        122
   199        129
   200        685
   201         82
   202          8
   213         76
   214        102
   215         77
   216        119
   217         14
   227         51
   228         42
   229         66
   230        276
   231        122
   232         44
   233          5
   244         66
   245        153
   246         99
   247         11
   257         42
   258          5
   259         66
   260          7
   262        122
   263         15
   275        321
   276        188
   277         86
   278         11
   291         66
   292        302
   293         52
   294         72
   295         11
   296          2
   305        432
   306         82
   307         11
   308          1
   321        277
   322        201
   323         32
   324          5
   325          2