##TITLE=Library Entry 55669
##JCAMP-DX=Revision 4.10 
##DATA TYPE=MASS SPECTRUM
##SAMPLE DESCRIPTION=Japan AIST/NIMC Database- Spectrum MS-IW-3114
##NAMES=HP
##CAS NAME=D-Leucylglycylglycine
##MOLFORM=C10H19N3O4
##CAS REGISTRY NO=18625-22-4
##MP= -300
##BP= -300
##MW= 245
##$RETENTION INDEX=0
##$CONDENSED SPECTRUM=NO
##NPOINTS= 105
##XYDATA=(XY..XY) 1 
    15          3
    16          1
    26          1
    27         20
    28         44
    29         21
    30        305
    31          8
    38          1
    39          9
    40          2
    41         37
    42         30
    43         91
    44        207
    45          7
    51          1
    52          1
    53          3
    54          4
    55         16
    56         27
    57         17
    58          5
    59          4
    60          2
    65          1
    66          1
    67          4
    68          4
    69          9
    70         23
    71          4
    72          4
    73          1
    74          5
    75          2
    76         14
    77          1
    81          2
    82          2
    83          2
    84         18
    85         31
    86        999
    87         64
    88          4
    89          1
    95          2
    96          3
    97          5
    98          5
    99          6
   100          1
   101          4
   104          1
   105          1
   109          1
   110          2
   111          1
   112          2
   113         12
   114         43
   115          5
   117          2
   123          1
   124          1
   125          2
   126          1
   127          6
   128          1
   132          1
   133          8
   138          1
   141          3
   142          1
   143          5
   144          1
   152          1
   153          5
   154          1
   155          2
   159          1
   160          8
   161          2
   166          1
   169          1
   170          1
   171         14
   172          1
   174          1
   184          1
   188          3
   189          2
   201          3
   202          9
   203          1
   210          1
   213          1
   217          1
   227          2
   228          1
   230          1
   245          4
   246          1