##TITLE=Library Entry 42030
##JCAMP-DX=Revision 4.10 
##DATA TYPE=MASS SPECTRUM
##SAMPLE DESCRIPTION=A.A.Kutin, Moscow, Russia
##NAMES=HP
##CAS NAME=Dibenzene, 1,1':4,4'-bis(1,2-ethanediyl)-2-(1-hydroxypropyl)-3-tr
imethylsiloxy-
##MOLFORM=C22H30O2Si
##CAS REGISTRY NO=186269-32-9
##MP= -300
##BP= -300
##MW= 354
##$RETENTION INDEX=0
##$CONDENSED SPECTRUM=NO
##NPOINTS= 196
##XYDATA=(XY..XY) 1 
    33          2
    34          0
    36          4
    37         38
    39        166
    41        113
    43        229
    45        360
    47         68
    49         16
    50         80
    51         88
    52         46
    53         26
    55         54
    57         75
    59         66
    61         50
    63         47
    64          9
    65         45
    66          6
    67         10
    69         19
    70         11
    73        999
    75        307
    77        164
    78        266
    79         25
    81          6
    82          5
    83          9
    84          2
    85          7
    86          1
    87          2
    89         32
    91        105
    92          9
    93          4
    95          6
    96          1
    97          5
    98          2
   100          3
   101          6
   102         26
   103        198
   104        507
   105         54
   106         11
   107          3
   108          0
   109          3
   110          0
   111          2
   112          0
   113          1
   115         64
   117         53
   119         25
   120         10
   121          4
   122          0
   123          1
   124          0
   125          1
   126          2
   127         11
   128         27
   129         17
   131         15
   132          8
   133          7
   135          5
   136          0
   137          1
   139          4
   140          1
   141         11
   143         20
   145         58
   146          9
   147         10
   148          5
   149         13
   150          2
   151          3
   152          5
   153          2
   154          1
   155          3
   156          1
   157          4
   158          5
   159         72
   160         59
   161         17
   163         13
   164          3
   165          8
   167          3
   168          0
   169          0
   170          0
   171          2
   173          2
   174          2
   175          4
   176          5
   177         15
   178          9
   179          5
   180          1
   181          1
   182          0
   183          1
   184          1
   185          2
   187          5
   188          2
   189          9
   190          4
   191         11
   192          3
   193         14
   194          3
   195          1
   196          0
   197          0
   199          1
   200          1
   201          4
   202          6
   203          8
   204          4
   205         12
   206         10
   207         11
   208          2
   209          0
   211          0
   212          0
   213          0
   215          6
   217         54
   218         10
   220          9
   221         12
   222          2
   223          1
   224          0
   225          0
   226          0
   227          0
   228          1
   229          1
   231         12
   232         40
   233         14
   234          4
   235          5
   236          1
   237          0
   243          0
   245          0
   247          0
   248          0
   249         20
   250          4
   251          1
   252          1
   253          0
   263          0
   264          0
   265          0
   266          0
   277          0
   279          0
   282          0
   307          0
   321          0
   325          9
   326          2
   327          0
   336          0
   337          0
   339          0
   340          0
   343          0
   352          0
   354          6
   355          1
   356          0
   357          0