##TITLE=Library Entry 43254
##JCAMP-DX=Revision 4.10 
##DATA TYPE=MASS SPECTRUM
##SAMPLE DESCRIPTION=O A MAMER, MCGILL UNIVERSITY, MONTRE]
##NAMES=HP
##CAS NAME=D-Xylose, 4TMS derivative
##MOLFORM=C17H42O5Si4
##CAS REGISTRY NO=18623-22-8
##MP= -300
##BP= -300
##MW= 438
##$RETENTION INDEX=0
##$CONDENSED SPECTRUM=NO
##NPOINTS= 83
##XYDATA=(XY..XY) 1 
    26          5
    27          5
    29          4
    39          4
    40          4
    41         11
    43         12
    44         14
    45         74
    46          5
    47          7
    53          4
    55          6
    58          4
    59         42
    61          6
    68          6
    69         29
    72         18
    73        999
    74         87
    75         84
    76          5
    85          3
    89          5
    99          4
   101         43
   102          5
   103         54
   104          5
   105          3
   115         14
   116         32
   117         29
   118          3
   119          7
   127          4
   129         52
   130          6
   131         25
   132          4
   133         57
   134          8
   141          3
   143         19
   145          5
   147        221
   148         37
   149         29
   157          5
   161          5
   169         10
   175          7
   177          5
   189         50
   190         12
   191        334
   192         59
   193         28
   203         13
   204        829
   205        171
   206         73
   215          9
   217        352
   218         72
   219         39
   220          5
   230          5
   231         19
   232          5
   243          9
   259         17
   260          3
   265          7
   279          6
   291         14
   292          4
   305         32
   306          9
   307          6
   333         20
   334          6