##TITLE=Library Entry 33368
##JCAMP-DX=Revision 4.10 
##DATA TYPE=MASS SPECTRUM
##SAMPLE DESCRIPTION=A.A.Kutin, Moscow, Russia
##NAMES=HP
##CAS NAME=Tetrazolo[1,5-a]1,2,5-oxadiazolo[3,4-E]pyrazin-5-imine, 4,5-dihyd
ro-
##MOLFORM=C4H2N8O
##CAS REGISTRY NO=186205-16-3
##MP= -300
##BP= -300
##MW= 178
##$RETENTION INDEX=0
##$CONDENSED SPECTRUM=NO
##NPOINTS= 25
##XYDATA=(XY..XY) 1 
    38         48
    39         93
    40         94
    41         65
    42        103
    50          3
    52        118
    53        673
    54         91
    64         11
    65         11
    66         37
    68        999
    69         21
    78        296
    79         18
    80         48
    83         38
    91          1
    93         24
    94          5
   120        383
   121         20
   178        315
   179         20