##TITLE=Library Entry 6668
##JCAMP-DX=Revision 4.10 
##DATA TYPE=MASS SPECTRUM
##SAMPLE DESCRIPTION=A.A.Kutin, Moscow, Russia
##NAMES=HP
##CAS NAME=Di(1,2,5-oxadiazolo)[3,4-b:3,4-E]pyrazine, 4,8-diacetyl-
##MOLFORM=C8H6N6O4
##CAS REGISTRY NO=186205-18-5
##MP= -300
##BP= -300
##MW= 250
##$RETENTION INDEX=0
##$CONDENSED SPECTRUM=NO
##NPOINTS= 59
##XYDATA=(XY..XY) 1 
    33          1
    34          0
    36          0
    38          1
    40         14
    43        999
    44         21
    45          3
    46          0
    51          0
    52          2
    53          3
    54          1
    55          0
    56          0
    57          1
    58          0
    60          0
    64          0
    66          0
    67          0
    68          3
    69          1
    70          0
    71          0
    78          0
    79          0
    80          0
    81          0
    82          0
    83          0
    84          1
    85          3
    86          0
    91          0
    98          0
   105          0
   106          0
   109          0
   112          0
   119          0
   120          0
   127          0
   135          0
   136          6
   137          0
   141          0
   152          0
   166          9
   167          0
   206          0
   208          8
   209          0
   212          0
   241          0
   248          0
   250         11
   251          1
   252          0