##TITLE=Library Entry 8625
##JCAMP-DX=Revision 4.10 
##DATA TYPE=MASS SPECTRUM
##SAMPLE DESCRIPTION=NIST Mass Spectrometry Data Center, 1994
##NAMES=HP
##CAS NAME=2-Butene-1,4-diol, diacetate
##MOLFORM=C8H12O4
##CAS REGISTRY NO=18621-75-5
##MP= -300
##BP= -300
##MW= 172
##$RETENTION INDEX=1253
##$CONDENSED SPECTRUM=NO
##NPOINTS= 56
##XYDATA=(XY..XY) 1 
     4          2
    12          0
    13          2
    14         16
    15        102
    16          2
    17          0
    18          0
    25          0
    26          7
    27         34
    28         17
    29         28
    30          2
    31          7
    36          0
    37          1
    38          7
    39         63
    40         10
    41         38
    42          0
    43        999
    44         22
    45          5
    50          3
    51          5
    52          5
    53         14
    54         10
    55          4
    57          5
    58          0
    61         23
    62          0
    68          4
    69         28
    70        227
    71         16
    72          0
    73          1
    74          0
    82          6
    83          1
    84          1
    85          0
    86          2
    87          0
    99          4
   100          1
   101          0
   103          2
   112         27
   113         18
   114          1
   116          0