##TITLE=Library Entry 74207
##JCAMP-DX=Revision 4.10 
##DATA TYPE=MASS SPECTRUM
##SAMPLE DESCRIPTION=NIST Mass Spectrometry Data Center, 1995
##NAMES=HP
##CAS NAME=Butanoic acid, 4-(2,4-dichlorophenoxy)-, methyl ester
##MOLFORM=C11H12Cl2O3
##CAS REGISTRY NO=18625-12-2
##MP= -300
##BP= -300
##MW= 262
##$RETENTION INDEX=1810
##$CONDENSED SPECTRUM=NO
##NPOINTS= 84
##XYDATA=(XY..XY) 1 
    15         15
    26          8
    27         42
    37         11
    38         19
    39         83
    40         26
    41        222
    42         86
    43         29
    44          5
    45         22
    47          5
    49          7
    50         13
    51         11
    53         11
    55         13
    57          6
    59        873
    60         32
    61         18
    62         32
    63        100
    64          8
    69        204
    70         12
    71         11
    72         12
    73         57
    74         46
    75         46
    76          8
    77         11
    83         13
    84         10
    85         16
    87          6
    89          4
    91          4
    97         20
    98         48
    99         33
   100          4
   101        999
   102         61
   103         13
   107         12
   108          5
   109         47
   110         13
   111         40
   112         10
   113         10
   116          8
   125          8
   126         18
   127          5
   128         15
   133         84
   134          6
   135         50
   136          6
   137         13
   145         37
   147         29
   149          9
   161         51
   162        221
   163         54
   164        140
   165         19
   166         24
   175         22
   176          4
   177         19
   189          6
   231         79
   232          9
   233         56
   234          6
   235         14
   262         23
   264         14