##TITLE=Library Entry 12549
##JCAMP-DX=Revision 4.10 
##DATA TYPE=MASS SPECTRUM
##SAMPLE DESCRIPTION=S.Bose ET AJ.Biomed.Mass Spectrom.,4,305(1977)
##NAMES=HP
##CAS NAME=2,6-Diamino-8-azapurine
##MOLFORM=C4H5N7
##CAS REGISTRY NO=18620-97-8
##MP= -300
##BP= -300
##MW= 151
##$RETENTION INDEX=0
##$CONDENSED SPECTRUM=NO
##NPOINTS= 17
##XYDATA=(XY..XY) 1 
    41          2
    42         80
    43        999
    44         38
    53        267
    54        337
    68         66
    69         59
    81        381
    82         25
    95         13
    96        197
    97         13
   122         23
   123         13
   151        974
   152         68