##TITLE=Library Entry 32338
##JCAMP-DX=Revision 4.10 
##DATA TYPE=MASS SPECTRUM
##SAMPLE DESCRIPTION=D.HENNEBERG, MAX-PLANCK INSTITUTE, MULHEIM, WEST GERMAN
Y
##NAMES=HP
##CAS NAME=Cyclopropane, methylmethylene-
##MOLFORM=C5H8
##CAS REGISTRY NO=18631-84-0
##MP= -300
##BP= -300
##MW= 68
##$RETENTION INDEX=576
##$CONDENSED SPECTRUM=NO
##NPOINTS= 45
##XYDATA=(XY..XY) 1 
    25          5
    26         41
    27        286
    28         27
    29         48
    30          1
    31         47
    32          5
    33          2
    34          0
    36          3
    37         32
    38         72
    39        466
    40        340
    41        376
    42        137
    43          8
    44          1
    45          3
    47          0
    48          1
    49         11
    50         51
    51         67
    52         26
    53        365
    54         17
    55         12
    56          4
    57          2
    58          0
    59         31
    60          3
    61         13
    62         21
    63         23
    64          4
    65         79
    66         79
    67        999
    68        381
    69         20
    70          7
    71          0