##TITLE=Library Entry 2514
##JCAMP-DX=Revision 4.10 
##DATA TYPE=MASS SPECTRUM
##SAMPLE DESCRIPTION=Chemical Concepts
##NAMES=HP
##CAS NAME=Oxirane, tridecyl-
##MOLFORM=C15H30O
##CAS REGISTRY NO=18633-25-5
##MP= -300
##BP= -300
##MW= 226
##$RETENTION INDEX=0
##$CONDENSED SPECTRUM=NO
##NPOINTS= 125
##XYDATA=(XY..XY) 1 
    26          5
    27        216
    28         29
    29        535
    30         15
    31         85
    33          1
    37          0
    38          1
    39        136
    40         30
    41        999
    42        190
    43        949
    44         34
    45         82
    46          1
    47          0
    50          0
    51          4
    52          3
    53         56
    54        219
    55        841
    56        374
    57        516
    58        326
    59        109
    60          3
    63          0
    65         11
    66         70
    67        511
    68        608
    69        551
    70        241
    71        812
    72         63
    73          9
    74          0
    77          5
    78          2
    79         38
    80         39
    81        474
    82        935
    83        501
    84        162
    85        215
    86         16
    87          6
    91          3
    92          0
    93         10
    94         23
    95        367
    96        626
    97        348
    98         79
    99         35
   100          8
   101          2
   102          0
   106          0
   107          4
   108         10
   109        183
   110        186
   111        138
   112         41
   113         34
   114          5
   115          1
   121          1
   122          8
   123         94
   124         98
   125         52
   126         41
   127         29
   128          2
   129          0
   135          1
   136          3
   137         60
   138         66
   139         23
   140         21
   141         10
   142          1
   150          0
   151         32
   152         34
   153          8
   154          6
   155          5
   156          0
   157          0
   165         12
   166         35
   167          5
   168         43
   169         14
   170          1
   171          6
   179          6
   180         27
   181          5
   182          3
   183          8
   184          2
   185          6
   186          0
   193          1
   194         20
   195          3
   196          1
   197          3
   198          0
   208         14
   209          2
   211          0
   225          1
   226          6
   227          1