##TITLE=Library Entry 48058
##JCAMP-DX=Revision 4.10 
##DATA TYPE=MASS SPECTRUM
##SAMPLE DESCRIPTION=Chemical Concepts
##NAMES=HP
##CAS NAME=l-Alanine, N-acetyl-3-chloro-, methyl ester
##MOLFORM=C6H10ClNO3
##CAS REGISTRY NO=18635-38-6
##MP= -300
##BP= -300
##MW= 179
##$RETENTION INDEX=0
##$CONDENSED SPECTRUM=NO
##NPOINTS= 115
##XYDATA=(XY..XY) 1 
    25          1
    26          9
    27         29
    28         89
    29         20
    30          6
    31         10
    33         36
    34          0
    35          2
    36         12
    37          1
    38          4
    39          6
    40         16
    41         47
    42        122
    43        632
    44         26
    45         12
    47          1
    48          3
    49         21
    50          2
    51          9
    52          2
    53          4
    54          4
    55         23
    56         19
    57         13
    58          3
    59         44
    60         29
    61          6
    62          1
    63          3
    64          1
    65          1
    66          0
    67          1
    68          6
    69          3
    70         14
    71          5
    72          1
    73          2
    74          3
    75          2
    76         13
    77         17
    78        999
    79         33
    80        321
    81          9
    82          1
    83          2
    84         22
    85          7
    86          2
    87          3
    88        286
    89         19
    90          4
    91          4
    92          5
    93          2
    94          1
    95          0
    96          0
    97          1
    98          1
    99          3
   100          3
   101         25
   102         37
   103          6
   104         21
   105          2
   106          6
   107          0
   110          0
   111          6
   112          7
   113          0
   115          0
   116          0
   119          3
   120        399
   121         28
   122        127
   123          9
   124          0
   125          0
   126          0
   129          1
   130         20
   131          1
   132          0
   136          9
   137          7
   138          3
   139          2
   140          0
   141          0
   143          8
   144         16
   145          1
   147          1
   148         11
   150          4
   179         44
   180          3
   181         14
   182          1