##TITLE=Library Entry 66321
##JCAMP-DX=Revision 4.10 
##DATA TYPE=MASS SPECTRUM
##SAMPLE DESCRIPTION=RADIAN CORP
##NAMES=HP
##CAS NAME=Silane, chlorodimethyloctadecyl-
##MOLFORM=C20H43ClSi
##CAS REGISTRY NO=18643-08-8
##MP= -300
##BP= -300
##MW= 346
##$RETENTION INDEX=0
##$CONDENSED SPECTRUM=NO
##NPOINTS= 91
##XYDATA=(XY..XY) 1 
    27          5
    29          8
    39         12
    41         76
    42         17
    43        102
    53          7
    54          9
    55         69
    56         18
    57        111
    58         11
    59         23
    63         16
    65         32
    66          2
    67         26
    68         10
    69         42
    70         21
    71         96
    72          7
    77          5
    78         10
    79         55
    80          7
    81         26
    82         11
    83         35
    84         11
    85         78
    86          5
    91          2
    92          5
    93        999
    94         79
    95        349
    96         32
    97         48
    98          6
    99         33
   100          3
   105         13
   106          3
   107         19
   108          2
   109          7
   110          3
   111         28
   112          4
   113         22
   114          2
   119         24
   121        193
   122         19
   123         68
   124          8
   125         12
   126          2
   127         18
   133         12
   134          2
   135         20
   136          2
   137         14
   138          2
   139         10
   140          2
   141          9
   147         36
   148          4
   149         11
   151          2
   153          2
   155          2
   161          6
   163          5
   167          2
   177          3
   183          3
   224          2
   252         25
   253          5
   303          3
   311          5
   331        227
   332         58
   333         85
   334         21
   335          4
   346          4