##TITLE=Library Entry 4874
##JCAMP-DX=Revision 4.10 
##DATA TYPE=MASS SPECTRUM
##SAMPLE DESCRIPTION=CARL DJERASSI DEPT OF CHEM STANFORD UNIV STANFORD CALIF
 94305
##NAMES=HP
##CAS NAME=Methylamine, N-(1-propylpentylidene)-
##MOLFORM=C9H19N
##CAS REGISTRY NO=18641-75-3
##MP= -300
##BP= -300
##MW= 141
##$RETENTION INDEX=0
##$CONDENSED SPECTRUM=NO
##NPOINTS= 34
##XYDATA=(XY..XY) 1 
    29        110
    30         60
    39         40
    40         10
    41        180
    42        999
    43        110
    44         10
    53         10
    54         20
    55         60
    56         60
    57         80
    58         10
    67         10
    68         30
    69         10
    70         30
    71        830
    72         70
    82         10
    83         10
    84        600
    85         60
    96         10
    98        410
    99        270
   100         20
   112        140
   113         20
   126         50
   127         10
   140         10
   141         20