##TITLE=Library Entry 38288
##JCAMP-DX=Revision 4.10 
##DATA TYPE=MASS SPECTRUM
##SAMPLE DESCRIPTION=NIST Mass Spectrometry Data Center, 1990.
##NAMES=HP
##CAS NAME=3-Heptanone, 2,4-dimethyl-
##MOLFORM=C9H18O
##CAS REGISTRY NO=18641-71-9
##MP= -300
##BP= -300
##MW= 142
##$RETENTION INDEX=1456
##$CONDENSED SPECTRUM=NO
##NPOINTS= 27
##XYDATA=(XY..XY) 1 
    27         95
    28          5
    29         55
    31          3
    39         95
    40         26
    41        212
    42         93
    43        779
    44         27
    51          6
    53         15
    55         78
    56         22
    57         16
    67          7
    69         20
    71        999
    72         55
    73          3
    85         23
    99        101
   100        165
   101         11
   113          2
   142         50
   143          5