##TITLE=Library Entry 35511
##JCAMP-DX=Revision 4.10 
##DATA TYPE=MASS SPECTRUM
##SAMPLE DESCRIPTION=M. LUSTIG ROHM AND HAAS CO., HUNTSVILLE, ALABAMA, USA
##NAMES=HP
##CAS NAME=Difluorophosphinothioyl fluorosulfate
##MOLFORM=F3O3PS2
##CAS REGISTRY NO=18643-33-9
##MP= -300
##BP= -300
##MW= 200
##$RETENTION INDEX=0
##$CONDENSED SPECTRUM=NO
##NPOINTS= 14
##XYDATA=(XY..XY) 1 
    32        244
    47         74
    48         46
    50         84
    64        284
    67         95
    69        999
    80         85
    82         31
    83        785
    98         95
   101        379
   117         74
   200        173