##TITLE=Library Entry 8802
##JCAMP-DX=Revision 4.10 
##DATA TYPE=MASS SPECTRUM
##SAMPLE DESCRIPTION=CARL DJERASSI DEPT OF CHEM STANFORD UNIV STANFORD CALIF
 94305
##NAMES=HP
##CAS NAME=Pentane, 1-propoxy-
##MOLFORM=C8H18O
##CAS REGISTRY NO=18641-82-2
##MP= -300
##BP= -300
##MW= 130
##$RETENTION INDEX=0
##$CONDENSED SPECTRUM=NO
##NPOINTS= 14
##XYDATA=(XY..XY) 1 
    41        160
    42         90
    43        999
    44         40
    45         10
    55         70
    59         10
    61         20
    69         40
    70        130
    71        270
    72         10
    73        110
   101         10