##TITLE=Library Entry 72106
##JCAMP-DX=Revision 4.10 
##DATA TYPE=MASS SPECTRUM
##SAMPLE DESCRIPTION=NIST Mass Spectrometry Data Center, 1990.
##NAMES=HP
##CAS NAME=2-Isobutylthiazole
##MOLFORM=C7H11NS
##CAS REGISTRY NO=18640-74-9
##MP= -300
##BP= -300
##MW= 141
##$RETENTION INDEX=1043
##$CONDENSED SPECTRUM=NO
##NPOINTS= 80
##XYDATA=(XY..XY) 1 
    13          0
    14          1
    15         11
    17          0
    18          2
    25          2
    26         16
    27         64
    28         12
    29         19
    30          0
    32          3
    33          1
    37          5
    38         13
    39         77
    40         18
    41        117
    42         13
    43         93
    44          4
    45         41
    46          5
    47          3
    50          5
    51         10
    52         16
    53         11
    54         54
    55          8
    56          6
    57         51
    58        297
    59         86
    60         17
    61          5
    62          3
    63          3
    64          3
    65          4
    66          2
    67          4
    68          3
    69          5
    70          6
    71         11
    72         16
    73          3
    74          1
    75          0
    78          1
    80          2
    82          2
    83          2
    84          3
    85          5
    86          7
    93          1
    94          0
    95          0
    96          2
    98        129
    99        999
   100         56
   101         42
   102          3
   110          2
   111          1
   112          4
   113          1
   123          2
   124          9
   125         11
   126        114
   127          8
   128          5
   140         28
   141         18
   142          2
   143          0