##TITLE=Library Entry 38748
##JCAMP-DX=Revision 4.10 
##DATA TYPE=MASS SPECTRUM
##SAMPLE DESCRIPTION=CARL DJERASSI DEPT OF CHEM STANFORD UNIV STANFORD CALIF
 94305
##NAMES=HP
##CAS NAME=Methylamine, N-(1-methylheptylidene)-
##MOLFORM=C9H19N
##CAS REGISTRY NO=18641-72-0
##MP= -300
##BP= -300
##MW= 141
##$RETENTION INDEX=0
##$CONDENSED SPECTRUM=NO
##NPOINTS= 21
##XYDATA=(XY..XY) 1 
    29         50
    30         80
    39         20
    41         80
    42        160
    43        100
    54         10
    55         30
    56        720
    57         90
    58         30
    68         10
    69         10
    70         30
    71        999
    72        180
    73         10
    84        180
    85         40
    98         50
   126         20