##TITLE=Library Entry 23996
##JCAMP-DX=Revision 4.10 
##DATA TYPE=MASS SPECTRUM
##SAMPLE DESCRIPTION=CONTINENTAL OIL CO., PONCA CITY, OKLA, USA
##NAMES=HP
##CAS NAME=3-Hexanone, 2,4-dimethyl-
##MOLFORM=C8H16O
##CAS REGISTRY NO=18641-70-8
##MP= -300
##BP= -300
##MW= 128
##$RETENTION INDEX=1178
##$CONDENSED SPECTRUM=NO
##NPOINTS= 67
##XYDATA=(XY..XY) 1 
    18          5
    19          0
    25          1
    26         32
    27        304
    28        103
    29        292
    30          7
    31          4
    32          2
    37          5
    38         12
    39        152
    40         24
    41        368
    42         53
    43        651
    44         22
    45          5
    49          0
    50          5
    51          7
    52          2
    53         15
    54          4
    55         43
    56         50
    57        999
    58         45
    59          1
    63          1
    65          1
    66          1
    67          4
    68          1
    69         14
    70         15
    71        203
    72         10
    73          2
    74          0
    77          1
    79          1
    81          2
    83          3
    84         24
    85        169
    86         10
    87          1
    95          1
    97          1
    99          1
   100         12
   101          1
   103          0
   104          1
   105          5
   106          1
   113          2
   115          0
   116          0
   117          3
   118          1
   119          3
   128         72
   129          7
   130          1