##TITLE=Library Entry 3041
##JCAMP-DX=Revision 4.10 
##DATA TYPE=MASS SPECTRUM
##SAMPLE DESCRIPTION=R.T.HOLMAN,UNIVERSITY OF MINNESOTA
##NAMES=HP
##CAS NAME=Docosanoic acid, 1,2,3-propanetriyl ester
##MOLFORM=C69H134O6
##CAS REGISTRY NO=18641-57-1
##MP= -300
##BP= -300
##MW= 1058
##$RETENTION INDEX=0
##$CONDENSED SPECTRUM=NO
##NPOINTS= 380
##XYDATA=(XY..XY) 1 
    26         21
    27         68
    28         50
    29        121
    30         18
    31         40
    36         31
    37         12
    38         21
    39        100
    40         34
    41        999
    42        146
    43        750
    44        184
    45        140
    46         12
    50         25
    51         43
    52         21
    53         75
    54         90
    55        687
    56        212
    57        781
    58        115
    59        118
    60        228
    61         96
    62         12
    63         18
    64         21
    65         31
    66         31
    67        215
    68        143
    69        531
    70        231
    71        531
    72         71
    73        353
    74         53
    75         37
    76         31
    77         68
    78         37
    79         96
    80         56
    81        240
    82        171
    83        437
    84        193
    85        312
    86         90
    87        137
    88        140
    89         65
    90         15
    91         93
    92         37
    93         93
    94         53
    95        200
    96        137
    97        390
    98        337
    99        125
   100         81
   101        293
   102         53
   103         50
   104         43
   105        125
   106         40
   107         87
   108         53
   109        131
   110         84
   111        200
   112        140
   113        150
   114         43
   115        146
   116         75
   117         87
   118         37
   119         68
   120         31
   121         87
   122         37
   123         84
   124         56
   125        137
   126         56
   127         53
   128         50
   129        178
   130         43
   131         62
   132         28
   133         84
   134         31
   135         90
   136         37
   137         56
   138         37
   139         62
   140         43
   141         93
   142         43
   143         65
   144         28
   145         68
   146         31
   147         56
   148         31
   149        190
   150         37
   151         37
   152         34
   153         34
   154         37
   155         65
   156         31
   157         53
   158         53
   159         75
   160         34
   161         40
   162         21
   163         71
   164         21
   165         53
   166         34
   167         62
   168         28
   169         46
   170         21
   171         81
   172         31
   173         34
   174         18
   175         28
   176         15
   177         25
   178         25
   179         28
   180         21
   181         25
   182         21
   183         40
   184         15
   185        178
   186         31
   187         25
   188         28
   189         37
   190         21
   191         34
   192         28
   193         37
   194         28
   195         37
   196         25
   197         75
   198         25
   199         46
   200         18
   201         25
   202         18
   203         25
   204         18
   205         28
   206         25
   207         28
   208         21
   209         25
   210         50
   211         37
   212         15
   213         46
   214         15
   215         25
   216         25
   217         68
   218         65
   219        178
   220         43
   221         18
   222         25
   223         21
   224         18
   225         34
   226         18
   227         56
   228         28
   229         25
   230         12
   231         21
   232         15
   233         12
   234         25
   235         15
   236         25
   237         25
   238         21
   239         40
   240         21
   241         56
   242         28
   243         15
   244          9
   245         12
   246         15
   247         25
   248         15
   249         18
   250         21
   251         15
   252         18
   253         37
   254         15
   255         43
   256         28
   257         21
   258         12
   259         28
   260         21
   261         15
   262         12
   263         18
   264         15
   265         15
   266         21
   267         28
   268         12
   269         25
   270         18
   271         15
   272         12
   273         21
   274         21
   275         43
   276         18
   277          9
   278         12
   279         21
   280         12
   281         21
   282         15
   283         31
   284         21
   285         21
   286         12
   287         12
   288         12
   289         12
   290         12
   291         12
   292         12
   293         12
   294         12
   295         18
   296         15
   297         53
   298         18
   299         15
   300         12
   301         25
   302         15
   303         12
   304         12
   305         12
   306         12
   307         15
   308         15
   309         15
   310         12
   311         21
   312         15
   313         37
   314         21
   315         15
   316         12
   317         12
   318         12
   319         12
   320         18
   321         21
   322         31
   323        100
   324         34
   325         15
   326         28
   327         15
   328         12
   329         12
   330         12
   331         12
   332         12
   333          9
   337         15
   338         15
   339         15
   340        137
   341         40
   342          9
   343          6
   350          9
   351         12
   352         15
   353         34
   354         18
   355         12
   356          9
   357         31
   358         18
   359          9
   364          9
   365         15
   366          9
   367         15
   368         37
   369         15
   370          9
   371         21
   372         12
   373          9
   375         12
   378         12
   379         15
   380         31
   381         78
   382         28
   383          9
   384          9
   386         40
   387         21
   388         12
   391         25
   392         12
   393         12
   395         18
   396         12
   397         43
   398         21
   399         15
   400          9
   401          9
   407         15
   408          9
   409          9
   423         12
   424          9
   425         15
   437         12
   438         34
   439         25
   440         15
   451        115
   452         43
   453         12
   465         12
   466         12
   467          9
   468          9
   491         18
   492          9
   512         43
   513         21
   514          9
   675         21
   676         12
   689         12
   690         12
   691         12
   718         84
   719        109
   720         56
   721         21