##TITLE=Library Entry 8703
##JCAMP-DX=Revision 4.10 
##DATA TYPE=MASS SPECTRUM
##SAMPLE DESCRIPTION=CARL DJERASSI DEPT OF CHEM STANFORD UNIV STANFORD CALIF
 94305
##NAMES=HP
##CAS NAME=Methylamine, N-(1-ethylpentylidene)-
##MOLFORM=C8H17N
##CAS REGISTRY NO=18641-73-1
##MP= -300
##BP= -300
##MW= 127
##$RETENTION INDEX=0
##$CONDENSED SPECTRUM=NO
##NPOINTS= 28
##XYDATA=(XY..XY) 1 
    40        150
    41         30
    42        260
    43        999
    44         60
    45         20
    51         20
    52         20
    53         40
    54         80
    55        130
    56        270
    57        150
    67         20
    68        130
    69         30
    70        850
    71         60
    82         20
    84         70
    85        520
    86         30
    98        480
    99         40
   112         20
   125         10
   126         10
   127         30