##TITLE=Library Entry 35015
##JCAMP-DX=Revision 4.10 
##DATA TYPE=MASS SPECTRUM
##SAMPLE DESCRIPTION=Exported from NIST MS Search
##NAMES=HP
##CAS NAME=5,9-Tridecadien-1-ol, 10-propyl-, acetate
##MOLFORM=C18H32O2
##CAS REGISTRY NO=18654-86-9
##MP= -300
##BP= -300
##MW= 280
##$RETENTION INDEX=0
##$CONDENSED SPECTRUM=NO
##NPOINTS= 83
##XYDATA=(XY..XY) 1 
    39         47
    40          7
    41        308
    42         26
    43        313
    44        109
    45          9
    50          7
    51          7
    52          7
    53         52
    54         68
    55        586
    56         76
    57        161
    58          7
    60         21
    61         19
    65         21
    66         30
    67        296
    68         92
    69        999
    70         71
    71         57
    77         26
    78         42
    79        268
    80        477
    81        296
    82        123
    83        565
    84         73
    85         23
    91         47
    92         11
    93        263
    94         71
    95        237
    96         97
    97         71
    98         14
   105         23
   106          7
   107         64
   108        541
   109        166
   110         68
   111         28
   112          7
   113          7
   119         30
   120          7
   121         73
   122         33
   123         61
   124         47
   125        173
   126         26
   145          7
   147          7
   149         30
   150          9
   151         90
   152         28
   163         21
   164          4
   165         21
   166          7
   175         19
   176         11
   177         71
   178         19
   189          7
   191         28
   192          7
   220         19
   237         68
   238         11
   251         26
   252          4
   280         54
   281         11