##TITLE=Library Entry 69609
##JCAMP-DX=Revision 4.10 
##DATA TYPE=MASS SPECTRUM
##SAMPLE DESCRIPTION=Chemical Concepts
##NAMES=HP
##CAS NAME=3-Azabicyclo[3.1.0]hexane-2,4-dione, 6,6-dimethyl-3-phenyl-
##MOLFORM=C13H13NO2
##CAS REGISTRY NO=18650-36-7
##MP= -300
##BP= -300
##MW= 215
##$RETENTION INDEX=0
##$CONDENSED SPECTRUM=NO
##NPOINTS= 118
##XYDATA=(XY..XY) 1 
    26         16
    27         53
    29         12
    37          2
    38         10
    39         69
    40         37
    41         77
    42         20
    43          3
    44         13
    50         10
    51         34
    52         12
    53         93
    54         25
    55          9
    56          1
    57          3
    60          0
    61          0
    62          2
    63         13
    64         23
    65         22
    66         10
    67        160
    68        119
    69          9
    70          1
    71          2
    72          0
    74          1
    75          1
    76          3
    77         40
    78          5
    79          1
    80          2
    81        312
    82         16
    83          3
    84          0
    85          1
    86          0
    89          1
    90          3
    91         26
    92          6
    93         18
    94          3
    95         74
    96        999
    97         58
    98          3
   100          0
   102          0
   103          4
   104          7
   105          1
   106          1
   109          0
   110          0
   111          0
   112          0
   113          0
   115          2
   116          1
   117          4
   118          4
   119         31
   120          7
   121          0
   122          0
   123          1
   125          0
   127          0
   128          4
   129          5
   130          2
   131          0
   132          2
   133          0
   134          0
   141          0
   142          0
   143          3
   144          7
   145          2
   146          3
   147          0
   154          1
   155          0
   156          1
   157          0
   158          4
   159          2
   167          0
   168          1
   170         10
   171          2
   172         18
   173          6
   174         17
   175          2
   186         29
   187         38
   188          4
   193          0
   196          0
   197          0
   200          8
   201          1
   214          4
   215        519
   216         70
   217          6
   218          0