##TITLE=Library Entry 98646
##JCAMP-DX=Revision 4.10 
##DATA TYPE=MASS SPECTRUM
##SAMPLE DESCRIPTION=A.Pleshkova, Nesmeyanov Inst.Org.Elem.Cpds, Moscow
##NAMES=HP
##CAS NAME=N-(3-Methylbut-4-en-2-yl)-1H-benzimidazole
##MOLFORM=C12H14N2
##CAS REGISTRY NO=186527-71-9
##MP= -300
##BP= -300
##MW= 186
##$RETENTION INDEX=0
##$CONDENSED SPECTRUM=NO
##NPOINTS= 52
##XYDATA=(XY..XY) 1 
    50         10
    51         26
    53         20
    55         22
    57         11
    58         91
    59          8
    63         41
    64         36
    65         22
    67         31
    68        100
    69        178
    70          4
    73         53
    74          4
    75        234
    76         36
    77         82
    78         19
    79         19
    90         46
    91        130
    92         18
    93          5
   115         39
   116          6
   117         75
   118        999
   119        166
   120          5
   128          4
   129         15
   130          7
   131         56
   132         21
   133         23
   144         11
   145        120
   146          6
   155         10
   156         32
   157         59
   158          3
   169         28
   170         11
   171        221
   172         23
   183          6
   185         36
   186        482
   187         66