##TITLE=Library Entry 8104
##JCAMP-DX=Revision 4.10 
##DATA TYPE=MASS SPECTRUM
##SAMPLE DESCRIPTION=Chemical Concepts
##NAMES=HP
##CAS NAME=2,15-Hexadecanedione
##MOLFORM=C16H30O2
##CAS REGISTRY NO=18650-13-0
##MP= -300
##BP= -300
##MW= 254
##$RETENTION INDEX=0
##$CONDENSED SPECTRUM=NO
##NPOINTS= 112
##XYDATA=(XY..XY) 1 
    26          2
    27         37
    29         56
    30          2
    37          1
    38          1
    39         31
    40          4
    41        138
    42         33
    43        999
    44         20
    45         16
    51          1
    52          2
    53         14
    54         23
    55        157
    56         20
    57         44
    58        370
    59         89
    60          3
    63          1
    65          1
    66          2
    67         47
    68         25
    69         79
    70          7
    71        249
    72         18
    73          3
    77          3
    78          3
    79          9
    80          7
    81         65
    82         35
    83         97
    84         18
    85         37
    86          5
    87          2
    91          2
    92          1
    93          6
    94          9
    95         85
    96         36
    97         70
    98         10
    99         13
   100         22
   101          7
   105          3
   107          3
   108          6
   109         59
   110         11
   111         21
   112          3
   113         11
   114         15
   115         10
   116         10
   117          1
   121          5
   122          4
   123         25
   124         12
   125         21
   126          6
   127          9
   128         10
   129          2
   135          4
   136          7
   137          9
   138         16
   139          6
   141          6
   142          2
   149          2
   151          3
   152          4
   153          2
   154          2
   155          3
   163          2
   165          1
   166          1
   167          1
   169          2
   175          1
   178         10
   179         25
   180          4
   181          2
   184          3
   185          1
   193          1
   194          1
   196         16
   197         42
   198          4
   211          2
   212          1
   236          1
   239          3
   254          7
   255          1