##TITLE=Library Entry 14768
##JCAMP-DX=Revision 4.10 
##DATA TYPE=MASS SPECTRUM
##SAMPLE DESCRIPTION=A.A.Kutin, Moscow, Russia
##NAMES=HP
##CAS NAME=2,5-Cyclohexadiene-1,4-dione, 2,5-diacetoxy-3,6-dibromo-
##MOLFORM=C10H6Br2O6
##CAS REGISTRY NO=186518-18-3
##MP= -300
##BP= -300
##MW= 380
##$RETENTION INDEX=0
##$CONDENSED SPECTRUM=NO
##NPOINTS= 109
##XYDATA=(XY..XY) 1 
    36          2
    37          0
    38          0
    40          4
    41          4
    43        999
    45          3
    48          0
    52          4
    53          2
    54          0
    64          0
    65          0
    66          0
    68          5
    69         17
    70          0
    79          2
    80          3
    81          2
    82          4
    85          5
    91          9
    92          1
    93          8
    94          0
   103          1
   105          1
   106          0
   107          0
   109          0
   111          0
   115          1
   117          2
   119          6
   120          1
   121          6
   122          1
   123          0
   127          0
   128          0
   131          6
   132          0
   133          6
   134          0
   135          0
   144          0
   145          0
   147         15
   149         17
   150          0
   151          0
   161          0
   163          0
   165          0
   171          1
   173          1
   175          0
   188          0
   189          4
   190          0
   191          3
   196          0
   201          0
   211          1
   213          2
   215          1
   216          0
   217          8
   218          0
   219          8
   220          0
   237          1
   238          0
   239          0
   241          1
   243          0
   250          0
   252          1
   254          0
   259          3
   260          0
   261          3
   262          0
   268          5
   269          0
   270          8
   271          1
   272          4
   294          0
   296         36
   297          2
   298         66
   299          5
   300         42
   301          3
   302          6
   303          0
   338         32
   339          4
   340         74
   341          6
   342         36
   343          3
   344          1
   380          2
   382          3
   383          0
   384          2