##TITLE=Library Entry 114864
##JCAMP-DX=Revision 4.10 
##DATA TYPE=MASS SPECTRUM
##SAMPLE DESCRIPTION=M.J. LYNCH, CENT. RES., PFIZER INC., GROTON, CONN., USA
##NAMES=HP
##CAS NAME=Methyl quinoxaline-2-carboxylate
##MOLFORM=C10H8N2O2
##CAS REGISTRY NO=1865-11-8
##MP= -300
##BP= -300
##MW= 188
##$RETENTION INDEX=0
##$CONDENSED SPECTRUM=NO
##NPOINTS= 99
##XYDATA=(XY..XY) 1 
    40          4
    41          2
    42          2
    43          2
    44          2
    45          4
    46          0
    47          0
    48          1
    49         12
    50        143
    51        148
    52         49
    53         39
    54          3
    55          1
    56          0
    57          1
    59         95
    60          3
    61         10
    62         16
    63         32
    64         33
    66          1
    67          0
    68          0
    69          1
    70          0
    71          0
    72          1
    73         10
    74         59
    75        272
    76        234
    77         40
    78          6
    79          1
    81          0
    82          0
    83          0
    84          0
    85          0
    86          1
    87          3
    88          5
    89          9
    90         14
    91          2
    92          0
    93          0
    95          0
    97          0
    98          1
    99         12
   100         13
   101         32
   102        415
   103        184
   104         17
   105          0
   111          0
   112          0
   113          0
   114          0
   115          0
   116          6
   117          7
   118          2
   119          0
   124          0
   125          0
   128         32
   129        402
   130        999
   131         83
   132          4
   141          0
   142          0
   143          2
   144          4
   145          1
   146          1
   149          0
   155          0
   156          1
   157         31
   158        284
   159         33
   160          2
   161          0
   168          0
   174          0
   179          0
   185          0
   188        269
   189         51
   190          5
   191          0