##TITLE=Library Entry 40105
##JCAMP-DX=Revision 4.10 
##DATA TYPE=MASS SPECTRUM
##SAMPLE DESCRIPTION=B.WEBSTER ICI PHARMACEUTICALS DIVISION, ALDERLEY PARK C
HESHIRE
##NAMES=HP
##CAS NAME=Methanetricarboxaldehyde
##MOLFORM=C4H4O3
##CAS REGISTRY NO=18655-47-5
##MP= -300
##BP= -300
##MW= 100
##$RETENTION INDEX=0
##$CONDENSED SPECTRUM=NO
##NPOINTS= 19
##XYDATA=(XY..XY) 1 
    40         36
    41        130
    42        261
    43        239
    44         43
    45         22
    52         22
    53        341
    54        326
    55         94
    68         25
    69         87
    70         43
    71        362
    72        999
    73         79
    99         14
   100        413
   101         29