##TITLE=Library Entry 33971
##JCAMP-DX=Revision 4.10 
##DATA TYPE=MASS SPECTRUM
##SAMPLE DESCRIPTION=J.VOTH UNIV. OF CALIFORNIA, DAVIS, CALIFORNIA, 95616, U
SA
##NAMES=HP
##CAS NAME=1-Propyne, 3-(2-bromoethoxy)-
##MOLFORM=C5H7BrO
##CAS REGISTRY NO=18668-74-1
##MP= -300
##BP= -300
##MW= 162
##$RETENTION INDEX=0
##$CONDENSED SPECTRUM=NO
##NPOINTS= 74
##XYDATA=(XY..XY) 1 
    12         12
    13         21
    14         54
    15         16
    16          4
    17          3
    18         10
    24          7
    25         33
    26        130
    27        403
    28          5
    29        171
    30         16
    31         11
    35          2
    36          2
    37         50
    38        104
    39        855
    40         46
    41        181
    42         26
    43         29
    44          4
    45          1
    50          9
    51         21
    52         21
    53        136
    54         23
    55        211
    56         13
    57          9
    65          2
    68          1
    69        999
    70         44
    71          2
    77          2
    78          2
    79         33
    80         14
    81         35
    82         15
    83         13
    84         13
    86          7
    87          1
    91          7
    92          7
    93         79
    94         17
    95         71
    96          9
    97          1
   104          1
   105          4
   106         59
   107         98
   108         57
   109         92
   110          2
   112          3
   114          1
   117          1
   119          3
   120          1
   121          1
   122          1
   123          5
   125          1
   161          1
   163          1