##TITLE=Library Entry 18406
##JCAMP-DX=Revision 4.10 
##DATA TYPE=MASS SPECTRUM
##SAMPLE DESCRIPTION=J.VOTH UNIV. OF CALIFORNIA, DAVIS, CALIFORNIA, 95616, U
SA
##NAMES=HP
##CAS NAME=Ethanol, 2-[(1-methyl-2-propynyl)oxy]-
##MOLFORM=C6H10O2
##CAS REGISTRY NO=18668-75-2
##MP= -300
##BP= -300
##MW= 114
##$RETENTION INDEX=0
##$CONDENSED SPECTRUM=NO
##NPOINTS= 74
##XYDATA=(XY..XY) 1 
    12          5
    13         11
    14         35
    15        109
    16          4
    17          5
    18         14
    19         29
    24          2
    25         12
    26         61
    27        451
    28         77
    29        173
    30         19
    31        323
    32         13
    36          2
    37         16
    38         42
    39        166
    40         20
    41         39
    42         30
    43        140
    44         63
    45        264
    46          6
    47          1
    48          1
    49         13
    50         68
    51         97
    52         66
    53        999
    54        199
    55        149
    56         11
    57          9
    58          6
    60          2
    61         18
    62          1
    63          1
    65          6
    66         33
    67         10
    68          4
    69         41
    70         16
    71        226
    72         10
    73          1
    79          3
    80          1
    81          8
    82          7
    83        153
    84          9
    85          2
    87          1
    94          1
    95          5
    96          1
    97          3
    98          1
    99         61
   100          3
   101          1
   107          1
   108          1
   113          1
   114          1
   115          1