##TITLE=Library Entry 13491
##JCAMP-DX=Revision 4.10 
##DATA TYPE=MASS SPECTRUM
##SAMPLE DESCRIPTION=Chemical Concepts
##NAMES=HP
##CAS NAME=4-(4-Bromobenzylidene)-2-methyl-5-oxazolone
##MOLFORM=C11H8BrNO2
##CAS REGISTRY NO=186605-19-6
##MP= -300
##BP= -300
##MW= 265
##$RETENTION INDEX=0
##$CONDENSED SPECTRUM=NO
##NPOINTS= 48
##XYDATA=(XY..XY) 1 
    33          4
    38         15
    39         18
    40         17
    41         15
    43        999
    49          2
    50         22
    51         18
    52          2
    61          9
    62         18
    63         23
    64          6
    65          2
    73          2
    74         12
    75         18
    76          1
    79          4
    81          7
    85          2
    86          2
    88         38
    89         45
   100          1
   101          6
   114         29
   115         37
   116         34
   167          4
   168          1
   169          1
   170          2
   182          1
   193          1
   195        142
   196        127
   197        176
   198          9
   237         49
   238          1
   239         45
   264          1
   265        116
   266          1
   267        129
   268          9