##TITLE=Library Entry 67734
##JCAMP-DX=Revision 4.10 
##DATA TYPE=MASS SPECTRUM
##SAMPLE DESCRIPTION=W.SUCROW ORGAN. CHEM.INST., TECHNISCHEN UNIV., BERLIN,
 G.D.R.
##NAMES=HP
##CAS NAME=1,4-Hexadiene, 2,3-dimethyl-
##MOLFORM=C8H14
##CAS REGISTRY NO=18669-52-8
##MP= -300
##BP= -300
##MW= 110
##$RETENTION INDEX=0
##$CONDENSED SPECTRUM=NO
##NPOINTS= 36
##XYDATA=(XY..XY) 1 
    27        220
    28         40
    29        110
    30         30
    38         30
    39        470
    40         80
    41        650
    42        140
    43         60
    44         40
    50         30
    51         80
    52         40
    53        220
    54         50
    55        300
    56         40
    65         60
    67        570
    68         80
    69        120
    70         30
    77         90
    78         20
    79        100
    80         40
    81        120
    91         40
    93         70
    95        999
    96         80
    98         20
   109         20
   110        270
   111         20