##TITLE=Library Entry 58137
##JCAMP-DX=Revision 4.10 
##DATA TYPE=MASS SPECTRUM
##SAMPLE DESCRIPTION=J.H.BOWIE UNIVERSITY OF ADELAIDE, ADELAIDE, AUSTRALIA
##NAMES=HP
##CAS NAME=Propanoic acid, 3-(ethylthio)-, methyl ester
##MOLFORM=C6H12O2S
##CAS REGISTRY NO=18673-13-7
##MP= -300
##BP= -300
##MW= 148
##$RETENTION INDEX=0
##$CONDENSED SPECTRUM=NO
##NPOINTS= 24
##XYDATA=(XY..XY) 1 
    27        110
    29         80
    41         60
    45        220
    47        210
    55        140
    57        140
    58        120
    59        430
    60        400
    61        460
    62         60
    73         60
    75        700
    77        160
    86        460
    88        999
    89        490
   116         70
   117        250
   119        190
   148        999
   149         90
   150         60