##TITLE=Library Entry 19131
##JCAMP-DX=Revision 4.10 
##DATA TYPE=MASS SPECTRUM
##SAMPLE DESCRIPTION=NIST Mass Spectrometry Data Center
##NAMES=HP
##CAS NAME=Pentafluoropropionic acid, octyl ester
##MOLFORM=C11H17F5O2
##CAS REGISTRY NO=1867-95-4
##MP= -300
##BP= -300
##MW= 276
##$RETENTION INDEX=1077
##$CONDENSED SPECTRUM=NO
##NPOINTS= 86
##XYDATA=(XY..XY) 1 
    15          3
    26          9
    27        129
    28         41
    29        245
    30          7
    31          8
    33          4
    37          1
    39        178
    40         44
    41        851
    42        321
    43        677
    46          1
    47          6
    48          1
    50         14
    51         14
    52          6
    53         73
    54         91
    55        999
    56        844
    57        672
    58         28
    59          4
    61          3
    62          1
    63          2
    64          1
    65         12
    66          6
    67        116
    68        253
    69        792
    70        804
    71        427
    72         21
    77          7
    78          8
    79         13
    80          3
    81         22
    82        186
    83        673
    84        617
    85         46
    86          2
    91          2
    93          4
    95          4
    96          3
    97         84
    98          6
    99          3
   100         46
   101          3
   109          7
   110          6
   111          8
   112         90
   113          9
   117          2
   119        602
   120         12
   128          9
   129          1
   139          5
   140          1
   145          1
   147         94
   148          3
   149         17
   157         46
   158          4
   163          2
   165          3
   175          1
   177         12
   178          1
   188          1
   190          1
   191          2
   203          1
   205          6