##TITLE=Library Entry 62429
##JCAMP-DX=Revision 4.10 
##DATA TYPE=MASS SPECTRUM
##SAMPLE DESCRIPTION=A.Pleshkova, Nesmeyanov Inst.Org.Elem.Cpds, Moscow
##NAMES=HP
##CAS NAME=3-Benzyl-5-trifluoromethylthiazolidine-2-thione
##MOLFORM=C11H10F3NS2
##CAS REGISTRY NO=186791-25-3
##MP= -300
##BP= -300
##MW= 277
##$RETENTION INDEX=0
##$CONDENSED SPECTRUM=NO
##NPOINTS= 34
##XYDATA=(XY..XY) 1 
    46         13
    50         14
    51         35
    59         15
    63         44
    64         17
    65        119
    66         19
    72         22
    76         21
    77         73
    78         16
    89         50
    90         28
    91        999
    92         61
    93          9
   104         40
   105         14
   107         10
   109         11
   121         57
   122         18
   123         20
   139         24
   148        576
   149         69
   150         30
   244         32
   276         14
   277        501
   278         86
   279         62
   280          5