##TITLE=Library Entry 84091
##JCAMP-DX=Revision 4.10 
##DATA TYPE=MASS SPECTRUM
##SAMPLE DESCRIPTION=Chemical Concepts
##NAMES=HP
##CAS NAME=Neodihydrocarveol
##MOLFORM=C10H18O
##CAS REGISTRY NO=18675-34-8
##MP= -300
##BP= -300
##MW= 154
##$RETENTION INDEX=0
##$CONDENSED SPECTRUM=NO
##NPOINTS= 101
##XYDATA=(XY..XY) 1 
    25          0
    26         12
    27        273
    29        153
    30         14
    31         54
    37          2
    38         19
    39        390
    40         81
    41        761
    42         88
    43        568
    44         23
    45         37
    46          1
    47          0
    48          0
    49          1
    50         21
    51         62
    52         34
    53        256
    54         53
    55        568
    56        105
    57        157
    58        112
    59         12
    60          1
    61          1
    62          5
    63         21
    64          4
    65         72
    66         37
    67        456
    68        333
    69        365
    70         79
    71        115
    72         80
    73          5
    74          2
    75          0
    76          0
    77        126
    78         31
    79        794
    80        121
    81        449
    82        207
    83        176
    84         89
    85         20
    86          3
    87          0
    89          2
    91        152
    92        109
    93        897
    94        325
    95        194
    96        182
    97        151
    98         18
    99          2
   100          0
   103          5
   104          0
   105         74
   106         22
   107        999
   108        306
   109         41
   110         18
   111        131
   112         28
   113         10
   115          1
   117          1
   119         13
   120          3
   121        974
   122         92
   123         14
   124          0
   125          2
   126          1
   134          0
   135         13
   136        849
   137         99
   138         10
   139          8
   140          0
   152          3
   153          1
   154         78
   155          8
   156          0