##TITLE=Library Entry 24136
##JCAMP-DX=Revision 4.10 
##DATA TYPE=MASS SPECTRUM
##SAMPLE DESCRIPTION=Chemical Concepts
##NAMES=HP
##CAS NAME=1-Decanol, 2-methyl-
##MOLFORM=C11H24O
##CAS REGISTRY NO=18675-24-6
##MP= -300
##BP= -300
##MW= 172
##$RETENTION INDEX=1803
##$CONDENSED SPECTRUM=NO
##NPOINTS= 84
##XYDATA=(XY..XY) 1 
    25          6
    26         46
    27        160
    28         68
    29        221
    30         13
    31        112
    37          7
    38         12
    39        142
    40         44
    41        527
    42        212
    43        833
    44         38
    45         40
    49          2
    50          8
    51         10
    52          7
    53         40
    54         48
    55        415
    56        534
    57        999
    58         80
    59         24
    60          2
    63          3
    65          8
    66          9
    67         68
    68         71
    69        444
    70        417
    71        417
    72         28
    73          3
    75          4
    77          6
    78          3
    79         10
    80          4
    81         40
    82        113
    83        281
    84        252
    85        360
    86         28
    87         11
    91          5
    92          2
    93          4
    94          2
    95         19
    96         55
    97        210
    98        162
    99         64
   100          6
   105          3
   107          3
   109          7
   110         28
   111        149
   112        126
   113         16
   119          2
   121          2
   123          3
   124          7
   125         63
   126         84
   127          9
   128          2
   139         11
   140         20
   141          7
   142          2
   152          2
   154         69
   155         13
   169          2
   170          3