##TITLE=Library Entry 71577
##JCAMP-DX=Revision 4.10 
##DATA TYPE=MASS SPECTRUM
##SAMPLE DESCRIPTION=H-F. GRUTZMACHER UNIVERSITY OF HAMBURG, W. GERMANY
##NAMES=HP
##CAS NAME=14,15,16-Trinor-8-.xi.-labd-5-ene, 8,13-epoxy-, (-)-
##MOLFORM=C17H28O
##CAS REGISTRY NO=18671-37-9
##MP= -300
##BP= -300
##MW= 248
##$RETENTION INDEX=0
##$CONDENSED SPECTRUM=NO
##NPOINTS= 98
##XYDATA=(XY..XY) 1 
    39         69
    40         23
    41        306
    42         27
    43        547
    44         61
    45         17
    51         15
    52          8
    53         71
    54         14
    55        220
    56         21
    57         27
    58         27
    65         36
    66         13
    67         78
    68         10
    69         78
    70         13
    71         67
    75         15
    77         88
    78         19
    79        115
    80         17
    81         71
    82         19
    83         44
    85         73
    86          6
    88         10
    91        128
    92         21
    93        109
    94         99
    95         55
    96         13
    97         36
    98        999
    99        117
   100          8
   103         13
   104          6
   105         92
   106         19
   107         99
   108         23
   109         57
   111         31
   112          6
   115         17
   116          8
   117         23
   118          6
   119         84
   120         19
   121         61
   122         21
   123         23
   124          8
   125         27
   128         10
   129         13
   130          6
   131         23
   132          6
   133         38
   134         13
   135        679
   136         75
   137         16
   145         27
   146          6
   147         36
   148          8
   149         27
   150        516
   151         63
   159         19
   161         17
   162          6
   163         23
   165          8
   173         10
   175         17
   177         19
   178          6
   187          8
   189         17
   191          6
   205          5
   215         10
   233        136
   234         21
   248        149
   249         27