##TITLE=Library Entry 10995
##JCAMP-DX=Revision 4.10 
##DATA TYPE=MASS SPECTRUM
##SAMPLE DESCRIPTION=Chemical Concepts
##NAMES=HP
##CAS NAME=2-Oxabicyclo[2.2.2]octan-6-ol, 1,3,3-trimethyl-
##MOLFORM=C10H18O2
##CAS REGISTRY NO=18679-48-6
##MP= -300
##BP= -300
##MW= 170
##$RETENTION INDEX=1228
##$CONDENSED SPECTRUM=NO
##NPOINTS= 80
##XYDATA=(XY..XY) 1 
    25          3
    27         97
    28         12
    29         88
    30          3
    31         33
    38          4
    39        136
    40         24
    41        342
    42         36
    43        999
    44         32
    45         32
    50          5
    51         18
    52          8
    53         68
    54         15
    55        242
    56         86
    57         68
    58        195
    59         92
    60          4
    63          4
    65         24
    66          9
    67        130
    68        166
    69        391
    70         64
    71        611
    72         44
    73          4
    74         18
    77         29
    78          6
    79         39
    80          8
    81         58
    82         77
    83        231
    84         44
    85         11
    91         26
    92          9
    93        321
    94         37
    95         32
    96          5
    97         70
    98         13
    99          5
   100          6
   101          4
   105          3
   107         12
   108        758
   109        116
   110          9
   111        342
   112         65
   113          7
   119          5
   121          4
   122          3
   123          4
   125          8
   126        603
   127         57
   128          4
   129          4
   137         10
   152          3
   153          3
   155          6
   170        140
   171         15
   172          3