##TITLE=Library Entry 64426
##JCAMP-DX=Revision 4.10 
##DATA TYPE=MASS SPECTRUM
##SAMPLE DESCRIPTION=A.A.Kutin, Moscow, Russia
##NAMES=HP
##CAS NAME=Benzenepropanoic acid, 4-benzyloxy-, ethyl ester
##MOLFORM=C18H20O3
##CAS REGISTRY NO=186895-45-4
##MP= -300
##BP= -300
##MW= 284
##$RETENTION INDEX=0
##$CONDENSED SPECTRUM=NO
##NPOINTS= 146
##XYDATA=(XY..XY) 1 
    37          0
    38          5
    39         42
    40          5
    41         12
    42          5
    43          4
    44          0
    45          3
    50          8
    51         23
    52         12
    53          4
    54          0
    55          3
    56          0
    58          0
    60          0
    61          0
    62          5
    63         23
    65        113
    66          9
    67          1
    68          0
    73          0
    74          1
    75          1
    76          2
    77         21
    78         26
    79          4
    80          0
    81          0
    82          0
    84          0
    85          0
    86          0
    87          0
    89         20
    91        999
    92         98
    93          4
    94          1
    95          2
    96          0
    97          0
    98          0
    99          0
   101          0
   102          1
   103          4
   104          1
   105          3
   106          7
   107          8
   108          0
   109          0
   113          0
   115          1
   116          0
   117          0
   119         24
   120         13
   121          3
   122          3
   123         13
   124          1
   125          0
   126          0
   127          0
   128          0
   129          0
   130          0
   131          0
   132          0
   133          0
   134          0
   135          0
   139          0
   140          0
   141          0
   142          0
   143          0
   144          0
   147          2
   148          1
   149          0
   150          0
   151          3
   152          2
   153          1
   154          0
   155          0
   156          0
   157          0
   161          1
   162          0
   163          0
   164          0
   165          3
   166          1
   167          3
   168          0
   169          0
   170          0
   176          0
   177          0
   178          0
   179          0
   181          2
   182          0
   183          0
   184          0
   185          0
   189          0
   190          0
   191          0
   193          1
   194          1
   195          3
   197         44
   198          7
   199          0
   206          0
   207          0
   208          0
   210          8
   211          2
   212          0
   213          0
   220          0
   221          0
   223          0
   225          0
   239         10
   240          1
   241          0
   253          0
   255          0
   281          0
   284        145
   285         29
   286          3
   287          0
   288          0