##TITLE=Library Entry 66219
##JCAMP-DX=Revision 4.10 
##DATA TYPE=MASS SPECTRUM
##SAMPLE DESCRIPTION=Chemical Concepts
##NAMES=HP
##CAS NAME=3(7)-Carene, 4-hydroxymethyl-, exo-
##MOLFORM=C11H18O
##CAS REGISTRY NO=18680-59-6
##MP= -300
##BP= -300
##MW= 166
##$RETENTION INDEX=0
##$CONDENSED SPECTRUM=NO
##NPOINTS= 70
##XYDATA=(XY..XY) 1 
    27         45
    29         16
    31         72
    38          1
    39         47
    41         63
    42          5
    43        198
    50          2
    51         13
    52          6
    53         26
    54          2
    55         15
    56          3
    57          2
    63          8
    64          1
    65         35
    66          5
    67         17
    68          1
    77        159
    78         26
    79         59
    80          9
    81         19
    82          1
    83          0
    84          2
    89          5
    91        243
    92         57
    93        999
    94         69
    95         19
    97          0
   100          1
   102          3
   103         23
   104         13
   105        221
   106         29
   107         61
   108          9
   109          5
   110          1
   115         14
   116          3
   117         23
   118          4
   119        103
   120         21
   121          7
   122          1
   123          3
   129          1
   131          6
   132          1
   133         53
   134         91
   135        234
   136         23
   137          2
   147          0
   148          6
   149          0
   151          3
   166         67
   167          8