##TITLE=Library Entry 10631
##JCAMP-DX=Revision 4.10 
##DATA TYPE=MASS SPECTRUM
##SAMPLE DESCRIPTION=Chuck Anderson, Aldrich Chemical Co.
##NAMES=HP
##CAS NAME=(1S,2S,3R,5S)-(+)-Pinanediol
##MOLFORM=C10H18O2
##CAS REGISTRY NO=18680-27-8
##MP= -300
##BP= -300
##MW= 170
##$RETENTION INDEX=1316
##$CONDENSED SPECTRUM=NO
##NPOINTS= 80
##XYDATA=(XY..XY) 1 
    15         18
    18         11
    19          8
    26         11
    27        215
    28         49
    29        181
    30          5
    31         36
    38          6
    39        172
    40         28
    41        379
    42         37
    43        999
    44         39
    45         42
    50          6
    51         28
    52         11
    53        105
    54         23
    55        270
    56        101
    57         70
    58         62
    59         19
    63          4
    65         35
    66         16
    67        137
    68         68
    69        252
    70         90
    71        684
    72        358
    73         28
    74        136
    75          4
    77         63
    78         11
    79        153
    80         18
    81        290
    82         65
    83        259
    84         65
    85         33
    86          3
    87         49
    91         47
    92         10
    93        151
    94         30
    95         69
    96         16
    97         40
    98         34
    99        935
   100         84
   101         15
   105          7
   107         18
   108        255
   109        135
   110         16
   111        454
   112         35
   113          5
   119         18
   121          3
   123          5
   125          4
   126        299
   127         27
   134          0
   135          3
   137         26
   152          4
   155          1