##TITLE=Library Entry 91250
##JCAMP-DX=Revision 4.10 
##DATA TYPE=MASS SPECTRUM
##SAMPLE DESCRIPTION=NIST Mass Spectrometry Data Center, 1998.
##NAMES=HP
##CAS NAME=Ambroxol
##MOLFORM=C13H18Br2N2O
##CAS REGISTRY NO=18683-91-5
##MP= -300
##BP= -300
##MW= 376
##$RETENTION INDEX=2670
##$CONDENSED SPECTRUM=NO
##NPOINTS= 234
##XYDATA=(XY..XY) 1 
    15          3
    26          3
    27         32
    28         78
    29         68
    30        133
    31         33
    32          3
    37          3
    38          7
    39         62
    40         11
    41        162
    42         42
    43        112
    44         30
    45          7
    46          2
    49          1
    50         24
    51         67
    52         64
    53         64
    54         60
    55        100
    56        276
    57         91
    58         11
    59         21
    60          1
    61          5
    62         18
    63         49
    64         17
    65         41
    66         18
    67         24
    68         30
    69         50
    70         16
    71          5
    73         15
    74         14
    75         47
    76         67
    77        147
    78         46
    79         75
    80         18
    81        134
    82         20
    83         11
    84          5
    85          6
    86         11
    87          6
    88          8
    89         17
    90         49
    91         36
    92         26
    93         11
    94          6
    95          4
    96        162
    97         95
    98         22
    99          6
   100          7
   101          5
   102         45
   103         79
   104        245
   105         30
   106          5
   107          2
   108          2
   110          8
   112         16
   114        999
   115         80
   116         18
   117         23
   118         20
   119         25
   120          8
   121          2
   125          2
   126          3
   127          3
   128        111
   129         15
   130          9
   131         12
   132         10
   133          4
   134          1
   139          3
   140          5
   141          6
   142          4
   143         12
   144          5
   145         11
   146          7
   147          2
   153          2
   154          3
   155         15
   156         26
   157         18
   158         25
   159          6
   160          4
   161          2
   165          1
   166          2
   167          2
   168          8
   169         11
   170         16
   171         37
   172         11
   173         29
   174          4
   180          5
   181          5
   182         89
   183        111
   184        110
   185        108
   186         25
   187          2
   193          1
   195          9
   196          6
   197         17
   198         40
   199         19
   200         31
   201         10
   202          1
   207          5
   208          5
   209          7
   210          9
   211          5
   212          4
   213          2
   221          4
   222          3
   223          8
   224          4
   225          7
   226          2
   227          1
   234          2
   235          3
   236          5
   237          6
   238          4
   239          4
   240          2
   247          2
   249         10
   250          5
   251         17
   252         12
   253          8
   254          6
   259          1
   260          7
   261         13
   262        483
   263         61
   264        930
   265         89
   266        450
   267         39
   268          2
   273          1
   274          3
   275          5
   276          8
   277        346
   278         45
   279        650
   280         70
   281        322
   282         29
   283          1
   286          5
   287          5
   288         25
   289         78
   290         41
   291        143
   292         28
   293         69
   294          7
   299          1
   300          2
   301          2
   302          7
   303          7
   304          5
   305         10
   306          3
   307          3
   314          1
   315          5
   316          2
   317         52
   318          6
   319         87
   320         10
   321         41
   322          4
   329          1
   331          2
   333          1
   357          1
   358          2
   359          2
   360          3
   362          2
   374          2
   375          1
   376         31
   377          5
   378         60
   379          8
   380         27
   381          4