##TITLE=Library Entry 6352
##JCAMP-DX=Revision 4.10 
##DATA TYPE=MASS SPECTRUM
##SAMPLE DESCRIPTION=MUS216 A. Mujsce, AT&T Bell Labs., Murray Hill, N.J., U
SA
##NAMES=HP
##CAS NAME=Germane, trichloro(1-methylethyl)-
##MOLFORM=C3H7Cl3Ge
##CAS REGISTRY NO=18689-03-7
##MP= -300
##BP= -300
##MW= 222
##$RETENTION INDEX=0
##$CONDENSED SPECTRUM=NO
##NPOINTS= 106
##XYDATA=(XY..XY) 1 
    26          3
    27         91
    28         21
    35          3
    36          1
    37          5
    38         10
    39         81
    40         18
    41        313
    42         70
    43        999
    44         35
    45          1
    61          1
    62          5
    63          1
    64          1
    70         17
    71          6
    72         27
    73         16
    74         36
    75         11
    76          9
    77          3
    79          0
    83          1
    84          2
    85          6
    86          3
    87         10
    88          6
    89         11
    90          1
    91          2
    94          1
    95          3
    96          0
    97          4
    98          2
    99          7
   100          1
   101          4
   103          0
   105         95
   107        165
   108         41
   109        238
   110         18
   111        104
   112          6
   113         18
   114          1
   115          2
   117          1
   119          0
   123          0
   124          0
   125          0
   133          0
   134          0
   140         22
   142         44
   143         11
   144         63
   145          9
   146         45
   147          3
   148         23
   149          4
   150         18
   151          2
   152         12
   154          4
   157          1
   158          0
   159          0
   165          0
   167          2
   168          0
   169          2
   170          0
   171          2
   173          1
   175         24
   177         49
   178          9
   179         77
   180          8
   181         58
   182          6
   183         41
   185         47
   186         17
   187         62
   188          9
   189         35
   190          2
   191          8
   193          0
   220          3
   222          5
   223          1
   224          4
   226          1