##TITLE=Library Entry 88605
##JCAMP-DX=Revision 4.10 
##DATA TYPE=MASS SPECTRUM
##SAMPLE DESCRIPTION=A.A.Kutin, Moscow, Russia
##NAMES=HP
##CAS NAME=Propane-1,2,3-trione, 1-(2-thienyl)-, 2-phenylhydrazone
##MOLFORM=C13H10N2O2S
##CAS REGISTRY NO=186965-60-6
##MP= -300
##BP= -300
##MW= 258
##$RETENTION INDEX=0
##$CONDENSED SPECTRUM=NO
##NPOINTS= 104
##XYDATA=(XY..XY) 1 
    33         20
    34          2
    36          5
    38         33
    39        472
    40         79
    41         16
    42         10
    43         15
    44         42
    45         66
    50         18
    51         99
    52         22
    53         34
    54         24
    55          6
    57         41
    58         17
    59          2
    60          3
    61          1
    62          5
    63         35
    64         51
    65        314
    66         46
    67          2
    69         29
    70          7
    71          8
    72          1
    74          6
    75          1
    77        364
    78         30
    79          3
    81         10
    82         22
    83        122
    84        116
    85         18
    86          5
    87          1
    88          1
    89          1
    90          9
    91         68
    92        150
    93        651
    94         49
    95          3
    96          5
    97         28
    99          4
   102          1
   105         38
   106          4
   108          3
   109         11
   111        999
   112         64
   113         42
   115          4
   118         11
   119         18
   120          8
   121          3
   123          2
   124          1
   125         15
   126          6
   128          8
   130          4
   135          1
   136          1
   138        767
   139         67
   140         42
   141          1
   145         14
   146         12
   147         12
   149          2
   153          7
   171          5
   173         36
   174         46
   175         18
   176          4
   184          2
   197          7
   202          1
   212          3
   213          1
   225          8
   229         24
   230          7
   241          9
   257        394
   258        401
   259         74
   260         25
   261          1