##TITLE=Library Entry 114819
##JCAMP-DX=Revision 4.10 
##DATA TYPE=MASS SPECTRUM
##SAMPLE DESCRIPTION=V.Zaikin,Inst.Petrochem.Synth.,RAS,Moscow
##NAMES=HP
##CAS NAME=4-Cyanobenzoic acid, benzyl ester
##MOLFORM=C15H11NO2
##CAS REGISTRY NO=18693-97-5
##MP= -300
##BP= -300
##MW= 237
##$RETENTION INDEX=0
##$CONDENSED SPECTRUM=NO
##NPOINTS= 103
##XYDATA=(XY..XY) 1 
    25          2
    26         10
    27         42
    29         21
    39        106
    40          5
    41         40
    42         10
    43         13
    44          1
    50         98
    51        156
    52         34
    53         10
    55         15
    56          9
    57         16
    59          4
    61          7
    62         27
    63         66
    64         22
    65        134
    66         13
    67          4
    68          3
    69         14
    70         16
    71         17
    72          4
    73          8
    74         34
    75         95
    76         72
    77        123
    78         28
    79        115
    80          4
    81          4
    82          3
    83          9
    84          9
    85          5
    87          3
    88          6
    89         87
    90        303
    91        807
    92         76
    94          2
    95          5
    96          7
    97          2
    98          2
    99          3
   100          4
   101         10
   102        253
   103        133
   104         11
   105         50
   106         19
   107        133
   108         13
   112          5
   117          2
   118          3
   119          5
   122          2
   125          2
   126          5
   127          3
   128          4
   129         16
   130        999
   131        156
   132         17
   133          6
   135         31
   136          4
   137          2
   139          3
   147         13
   148          5
   150          2
   152         25
   153          4
   165          4
   167          3
   186          2
   189          2
   190          4
   191          4
   192         11
   193          5
   202          3
   218          2
   219         32
   220          5
   236         11
   237        306
   238         46
   239          7