##TITLE=Library Entry 51597
##JCAMP-DX=Revision 4.10 
##DATA TYPE=MASS SPECTRUM
##SAMPLE DESCRIPTION=A.A.Kutin, Moscow, Russia
##NAMES=HP
##CAS NAME=Butyramide, 2-cyano-2-ethyl-
##MOLFORM=C7H12N2O
##CAS REGISTRY NO=18705-38-9
##MP= -300
##BP= -300
##MW= 140
##$RETENTION INDEX=0
##$CONDENSED SPECTRUM=NO
##NPOINTS= 69
##XYDATA=(XY..XY) 1 
    35          0
    37         15
    38         31
    39        176
    40         40
    41        214
    42         44
    43         36
    44        234
    45          9
    46          1
    47          1
    48          0
    49          1
    50          8
    51         21
    52         68
    53         78
    54         47
    55        320
    56         16
    57          2
    58          0
    59          0
    61          0
    62          2
    63          6
    64         15
    65         11
    66         22
    67         27
    68         55
    69         48
    70         44
    71          4
    72          0
    73          0
    75          0
    76          1
    77          1
    78          1
    79          9
    80         25
    82        999
    83         67
    84         10
    85          4
    86          0
    87          0
    91          0
    92          0
    94         13
    95          7
    96         42
    97        484
    98         30
    99          1
   100          0
   107          0
   108          3
   109          0
   110          1
   111         26
   112         42
   113          2
   123          0
   124          0
   125          9
   126          0