##TITLE=Library Entry 84817
##JCAMP-DX=Revision 4.10 
##DATA TYPE=MASS SPECTRUM
##SAMPLE DESCRIPTION=Div. of Experiment Therapeutics WRAIR, WRAMC, Washingto
n DC 20307
##NAMES=HP
##CAS NAME=.alpha.-(2-Pyridyl)-6,8-dimethyl-2-trifluoromethyl-4-quinolinemet
hanol
##MOLFORM=C18H15F3N2O
##CAS REGISTRY NO=18709-94-9
##MP= -300
##BP= -300
##MW= 332
##$RETENTION INDEX=0
##$CONDENSED SPECTRUM=NO
##NPOINTS= 172
##XYDATA=(XY..XY) 1 
    41         25
    43          8
    50         40
    51        221
    52        267
    53        159
    54         10
    55          6
    56          6
    57          4
    58          3
    62         13
    63         51
    64         15
    65         32
    66          7
    67          7
    69         18
    70          5
    71          3
    74          9
    75         31
    76         23
    77         69
    78        617
    79        994
    80        451
    81         35
    82          8
    83         10
    84          7
    86          3
    87         15
    88         17
    89         29
    90         10
    91         16
    92         22
    93         19
    94          6
    95          9
    96         18
    97          6
    98          3
    99          8
   100          6
   101         24
   102         36
   103         22
   104         12
   106        119
   108        999
   109         77
   110         21
   111          2
   112          2
   113         15
   114         18
   115         51
   116         22
   117         21
   119          2
   121         12
   122         10
   123         30
   124         14
   125         10
   126         20
   127         65
   128         94
   129         28
   130         11
   131         19
   132          9
   133          8
   134         25
   137          6
   138          4
   139         12
   140         46
   141         34
   142         20
   143          6
   144          7
   146         16
   147         59
   148          9
   149          4
   150         18
   151         14
   152         17
   153         14
   154         38
   155         24
   156         65
   157         35
   158         15
   159          3
   163          7
   164         11
   165         13
   166         18
   167          4
   171          4
   172          3
   174          1
   175          1
   176          9
   177          9
   178          9
   182          4
   184         10
   185          4
   186          8
   189         11
   190         26
   191         20
   192          8
   202          9
   203         14
   204         24
   205         33
   206         39
   207          6
   210         24
   211          7
   216         10
   217          6
   218          9
   219          8
   224         17
   225         39
   226         32
   227          5
   229          7
   233          7
   234          9
   235          4
   237          1
   238         20
   243          4
   245          6
   246          1
   253          3
   254         78
   255         11
   261          1
   263         14
   264          6
   273          4
   283         10
   287          7
   293          3
   297         10
   298          4
   299         17
   300         24
   301         90
   302         21
   303         38
   304          9
   311         11
   313         90
   314         45
   315         62
   316         24
   317         89
   318         17
   331        227
   332        436
   333         89
   334         14