##TITLE=Library Entry 84816
##JCAMP-DX=Revision 4.10 
##DATA TYPE=MASS SPECTRUM
##SAMPLE DESCRIPTION=Div. of Experiment Therapeutics WRAIR, WRAMC, Washingto
n DC 20307
##NAMES=HP
##CAS NAME=a-(2-Pyridyl)-8-methyl-2-trifluoromethyl-4-quinolinemethanol
##MOLFORM=C17H13F3N2O
##CAS REGISTRY NO=18709-92-7
##MP= -300
##BP= -300
##MW= 318
##$RETENTION INDEX=0
##$CONDENSED SPECTRUM=NO
##NPOINTS= 112
##XYDATA=(XY..XY) 1 
    41         30
    43         21
    50         58
    51        281
    52        300
    53        156
    57         14
    62         31
    63        104
    64         25
    65         78
    69         32
    70         15
    74         24
    75         52
    76         30
    77         33
    78        676
    79        847
    80        378
    81         38
    82         17
    83         16
    84         24
    86         15
    87         31
    88         52
    89        116
    90         20
    91         28
    92         21
    93         16
    95         30
    96         40
    97          9
    99          6
   100          6
   101         30
   102         39
   103         15
   106        100
   108        999
   109        110
   110         29
   112         19
   113         46
   114         67
   115        231
   116         58
   117         14
   121         19
   123         21
   124         41
   125         25
   126          7
   127         18
   128         16
   133         18
   134         42
   135          7
   139         21
   140        113
   141         91
   142        103
   143         26
   148         33
   149         42
   150         39
   151         21
   152         14
   158         15
   160         20
   163         16
   164         19
   165         13
   172         18
   176         17
   189         19
   190         50
   191         57
   192         54
   204          6
   210         68
   211         38
   212         27
   218          6
   219         39
   220         15
   231          6
   238          6
   240         35
   247         13
   249         19
   267          7
   268         16
   269         14
   273         65
   285         17
   286        170
   287         46
   288          9
   297         23
   299        163
   300         95
   301        167
   302         35
   303         30
   315         75
   316        120
   317        359
   318        488
   319         97