##TITLE=Library Entry 79171
##JCAMP-DX=Revision 4.10 
##DATA TYPE=MASS SPECTRUM
##SAMPLE DESCRIPTION=Japan AIST/NIMC Database- Spectrum MS-IW-7786
##NAMES=HP
##CAS NAME=2H-Azirine-2-carboxylic acid, 3-phenyl-, methyl ester
##MOLFORM=C10H9NO2
##CAS REGISTRY NO=18709-45-0
##MP= -300
##BP= -300
##MW= 175
##$RETENTION INDEX=0
##$CONDENSED SPECTRUM=NO
##NPOINTS= 85
##XYDATA=(XY..XY) 1 
    15         18
    26          2
    27          7
    28         11
    29         12
    30          2
    31          3
    32          2
    37          8
    38         10
    39         58
    40          3
    41          3
    42         18
    43          4
    44          5
    49          2
    50         49
    51         96
    52         13
    53          2
    55          1
    57          2
    58          7
    59          5
    61          9
    62         37
    63        112
    64         11
    65          7
    66          1
    67          1
    68          1
    73          3
    74         14
    75         18
    76         51
    77        350
    78         26
    85          3
    86          8
    87         11
    88         18
    89        202
    90         26
    91          6
    92          2
    99          1
   101          1
   102          8
   103         72
   104         32
   105        999
   106         78
   107          6
   114          5
   115          5
   116        269
   117        101
   118         32
   119          9
   120        209
   121         53
   122         16
   123          2
   127          1
   129          1
   130          2
   132         89
   133          9
   134          6
   135          1
   144        108
   145         13
   146         73
   147        113
   148         11
   149          2
   160          9
   161          4
   162          1
   174          1
   175         15
   176          2
   177          3