##TITLE=Library Entry 6421
##JCAMP-DX=Revision 4.10 
##DATA TYPE=MASS SPECTRUM
##SAMPLE DESCRIPTION=A.A.Kutin, Moscow, Russia
##NAMES=HP
##CAS NAME=Acetic acid, 2,2-dichloro-1,3,3-trimethylcyclopropyl ester
##MOLFORM=C8H12Cl2O2
##CAS REGISTRY NO=187022-68-0
##MP= -300
##BP= -300
##MW= 210
##$RETENTION INDEX=0
##$CONDENSED SPECTRUM=NO
##NPOINTS= 100
##XYDATA=(XY..XY) 1 
    35          1
    36          9
    37          5
    38         14
    39         79
    40         18
    41        228
    43        999
    45         59
    46          0
    47          3
    49          7
    50         17
    51         94
    52         18
    53         72
    54          2
    55          4
    56          3
    57         10
    59         26
    60          6
    61         16
    62          6
    63         14
    64          1
    65          3
    66          0
    67          1
    68          7
    69        100
    70         11
    72          3
    73         14
    75         11
    76          2
    77          2
    78          0
    79          1
    81         12
    83          7
    84          1
    85          9
    87         92
    88         20
    89         41
    90          7
    91          5
    95          3
    96          6
    97         34
    98          3
    99          1
   100          0
   101          0
   103          1
   104          2
   105         19
   107          8
   108          0
   109          4
   110          1
   111          1
   112          1
   114          0
   115          6
   116          5
   117          5
   118          1
   119          0
   123        142
   125         96
   126          7
   127         14
   128          1
   131          2
   132          9
   133         35
   135         15
   136          2
   138          1
   140          2
   141          1
   142          1
   143          0
   150          7
   151         71
   152          7
   153         45
   154          3
   155          7
   165          0
   168        145
   169         10
   170         90
   171          5
   172         14
   173          0
   195          1
   197          1