##TITLE=Library Entry 87311
##JCAMP-DX=Revision 4.10 
##DATA TYPE=MASS SPECTRUM
##SAMPLE DESCRIPTION=V.A.Korolev, Moscow, Russia
##NAMES=HP
##CAS NAME=1-Cyclopentylpyrrolidine
##MOLFORM=C9H17N
##CAS REGISTRY NO=18707-33-0
##MP= -300
##BP= -300
##MW= 139
##$RETENTION INDEX=0
##$CONDENSED SPECTRUM=NO
##NPOINTS= 45
##XYDATA=(XY..XY) 1 
    33          1
    34          2
    38          5
    39        109
    40         92
    41        265
    42        114
    43         87
    44         65
    45          1
    46          1
    48          0
    49          4
    51          6
    52          7
    53         28
    54         76
    55        106
    56         42
    57         45
    58          4
    60          1
    61          3
    65         12
    66          3
    67         51
    68         91
    69         92
    70        143
    71         27
    80         14
    81         15
    82         46
    83         53
    84         69
    96        444
    97        164
    98         13
   110        999
   111        118
   112         13
   124         11
   138         84
   139        168
   140         14