##TITLE=Library Entry 29988
##JCAMP-DX=Revision 4.10 
##DATA TYPE=MASS SPECTRUM
##SAMPLE DESCRIPTION=Div. of Experiment Therapeutics WRAIR, WRAMC, Washingto
n DC 20307
##NAMES=HP
##CAS NAME=1-Phenyl-4-nitropyrrole-2-carboxaldehyde valerhydrazone
##MOLFORM=C16H18N4O3
##CAS REGISTRY NO=18711-35-8
##MP= -300
##BP= -300
##MW= 314
##$RETENTION INDEX=0
##$CONDENSED SPECTRUM=NO
##NPOINTS= 146
##XYDATA=(XY..XY) 1 
    41        400
    42         35
    43         94
    44         22
    45          3
    47          2
    49         13
    50         25
    51        136
    52         34
    53         17
    54         16
    55         61
    56          5
    57        860
    58         29
    59        999
    60         24
    62          8
    63         31
    64         14
    65         22
    66          7
    67          5
    68          3
    69          7
    71         15
    72        159
    73         37
    74          7
    75         13
    76         28
    77        316
    78         41
    79          8
    80          7
    81          7
    82          1
    83          9
    84         12
    85        276
    86         45
    87         10
    88          7
    89         23
    90         14
    91         82
    92         40
    93         42
    94         10
    96          4
    99          1
   100         12
   101        245
   102         40
   103         44
   104         99
   105         15
   106          4
   110          1
   113         13
   114         20
   115         35
   116         19
   117         16
   118         26
   119          6
   125          8
   126         31
   127         56
   128         36
   129         33
   130         27
   131          8
   139          4
   140         50
   141         38
   142         21
   143         13
   144          5
   145         10
   152         15
   153         63
   154        143
   155         68
   156         26
   157         25
   158         12
   159          3
   166          7
   167         28
   168         76
   169         24
   170         13
   171          1
   172          6
   174          1
   181          6
   182         73
   183        131
   184         90
   185         16
   188          6
   195         14
   196         28
   197         50
   198         11
   199         26
   200          5
   201         15
   203         10
   210          2
   211         15
   212        297
   213        630
   214        169
   215         21
   216          5
   228          2
   229        195
   230        704
   231         91
   232          9
   241         31
   242         10
   253          1
   255          3
   256          5
   257          4
   268          5
   270          3
   272         20
   273          6
   285         13
   286          1
   297          7
   298         16
   299         11
   300         13
   301          9
   304          1
   313         41
   314        536
   315        111
   316         55
   317          7