##TITLE=Library Entry 52763
##JCAMP-DX=Revision 4.10 
##DATA TYPE=MASS SPECTRUM
##SAMPLE DESCRIPTION=Japan AIST/NIMC Database- Spectrum MS-NW-1588
##NAMES=HP
##CAS NAME=Decanedinitrile
##MOLFORM=C10H16N2
##CAS REGISTRY NO=1871-96-1
##MP= -300
##BP= -300
##MW= 164
##$RETENTION INDEX=0
##$CONDENSED SPECTRUM=NO
##NPOINTS= 89
##XYDATA=(XY..XY) 1 
    14          2
    15         13
    26         13
    27        153
    28         35
    29        151
    30         30
    37          2
    38          9
    39        154
    40         34
    41        564
    42        114
    43        109
    44         13
    50          5
    51         13
    52         20
    53         62
    54        295
    55        483
    56         52
    57         29
    58         12
    59          3
    62          1
    63          2
    64          5
    65         11
    66         17
    67         62
    68         76
    69        263
    70         22
    71          5
    72          1
    76          1
    77          9
    78          3
    79         55
    80         21
    81         69
    82        700
    83        999
    84         65
    85          3
    91         10
    92          2
    93         10
    94         17
    95         18
    96        281
    97        127
    98          9
    99          1
   103          1
   104          1
   105          5
   106          2
   107         28
   108         16
   109          8
   110         57
   111          9
   112          1
   117          1
   118          2
   119          2
   120          3
   121         11
   122         10
   123          4
   124        263
   125         24
   126          1
   131          1
   134          2
   135         17
   136          7
   137          1
   138          5
   141          1
   146          1
   147          1
   149          2
   163         10
   164          1
   165          1
   166          1