##TITLE=Library Entry 88468
##JCAMP-DX=Revision 4.10 
##DATA TYPE=MASS SPECTRUM
##SAMPLE DESCRIPTION=Chemical Concepts
##NAMES=HP
##CAS NAME=Propane, 1,2,3-trichloro-2-methyl-
##MOLFORM=C4H7Cl3
##CAS REGISTRY NO=1871-58-5
##MP= -300
##BP= -300
##MW= 160
##$RETENTION INDEX=918
##$CONDENSED SPECTRUM=NO
##NPOINTS= 71
##XYDATA=(XY..XY) 1 
    26         14
    27         90
    28          0
    29         23
    35          9
    36         37
    37         21
    38         36
    39        237
    40         20
    41         64
    43          9
    44          9
    47         15
    48         11
    49        174
    50         30
    51         73
    52         18
    53        165
    54         20
    55         50
    56          6
    57         12
    60          8
    61         35
    62         17
    63        100
    64          7
    65         29
    67          6
    68          4
    69          7
    70          9
    73         26
    74          6
    75        515
    76         61
    77        164
    78         23
    79          8
    81         10
    83        103
    85         57
    88         15
    89        165
    90         25
    91         61
    92          8
    93          6
    95          8
    97          7
    98         10
   105          8
   109         28
   110        407
   111        999
   112        281
   113        644
   114         72
   115        119
   116          7
   123         15
   124        132
   125         83
   126         69
   127         57
   128         14
   129          8
   162          0
   164          0