##TITLE=Library Entry 79082
##JCAMP-DX=Revision 4.10 
##DATA TYPE=MASS SPECTRUM
##SAMPLE DESCRIPTION=Japan AIST/NIMC Database- Spectrum MS-NW-8433
##NAMES=HP
##CAS NAME=2,6-Dimethylphenyl benzoate
##MOLFORM=C15H14O2
##CAS REGISTRY NO=1871-36-9
##MP= -300
##BP= -300
##MW= 226
##$RETENTION INDEX=0
##$CONDENSED SPECTRUM=NO
##NPOINTS= 36
##XYDATA=(XY..XY) 1 
    27          9
    28          3
    38          1
    39         12
    40          1
    41          5
    43          1
    50         11
    51         53
    52          6
    53          7
    62          1
    63          3
    64          1
    65          9
    66          1
    74          2
    75          3
    76          8
    77        269
    78         22
    79          4
    89          1
    91         22
    92          3
    93          2
   103          2
   104          3
   105        999
   106         76
   107          7
   121          9
   122          8
   139          2
   226         55
   227          9