##TITLE=Library Entry 57680
##JCAMP-DX=Revision 4.10 
##DATA TYPE=MASS SPECTRUM
##SAMPLE DESCRIPTION=Chuck Anderson, Aldrich Chemical Co.
##NAMES=HP
##CAS NAME=1-Propene, 3-chloro-2-(chloromethyl)-
##MOLFORM=C4H6Cl2
##CAS REGISTRY NO=1871-57-4
##MP= -300
##BP= -300
##MW= 124
##$RETENTION INDEX=799
##$CONDENSED SPECTRUM=NO
##NPOINTS= 91
##XYDATA=(XY..XY) 1 
    12          0
    13          0
    14          1
    15          1
    24          0
    25          4
    26         51
    27        284
    28         40
    29          8
    30          0
    31          0
    32          0
    35         13
    36         16
    37         64
    38         93
    39        426
    40         79
    41         26
    42          1
    43          3
    44          4
    45          1
    47         14
    48         16
    49        193
    50        118
    51        233
    52         72
    53        849
    54         50
    55          1
    56          0
    59          0
    60          8
    61         41
    62        150
    63         47
    64         48
    65         11
    66          0
    70          0
    71          1
    72          4
    73         31
    74          4
    75        219
    76          7
    77         63
    78          2
    79          0
    82          0
    83          9
    84          2
    85          8
    86          2
    87         25
    88        999
    89        612
    90        288
    91        196
    92          8
    93          0
    94          0
    95          0
    96          5
    97          1
    98          3
    99          0
   100          0
   101          0
   102          0
   105          0
   107          0
   108          0
   109         22
   110          0
   111         15
   112          0
   113          2
   114          0
   121          0
   122          0
   123          1
   124        170
   125          7
   126        108
   127          4
   128         16
   129          0