##TITLE=Library Entry 82816
##JCAMP-DX=Revision 4.10 
##DATA TYPE=MASS SPECTRUM
##SAMPLE DESCRIPTION=Exported from NIST MS Search
##NAMES=HP
##CAS NAME=Selenocyanic acid, 2-methylpyrrol-3-yl ester
##MOLFORM=C6H6N2Se
##CAS REGISTRY NO=18713-26-3
##MP= -300
##BP= -300
##MW= 186
##$RETENTION INDEX=0
##$CONDENSED SPECTRUM=NO
##NPOINTS= 112
##XYDATA=(XY..XY) 1 
    12          1
    14          2
    15         23
    17          1
    18         13
    24          6
    25          1
    26         40
    27        149
    28        258
    29          6
    30          1
    36          4
    37         34
    38         38
    39          6
    40         16
    41         29
    42         68
    43          1
    48          1
    49         20
    50        108
    51        210
    52        183
    53        278
    54         27
    55          1
    61          4
    62          6
    63          6
    64         16
    65          4
    66          2
    67         40
    68         13
    75          6
    76         16
    77         13
    78        108
    79        102
    80        727
    81         70
    82         13
    83          1
    89         10
    90         10
    91         27
    92          6
    93         54
    94          4
    95         10
   101          2
   102          6
   103         16
   104         43
   105        959
   106        999
   107         65
   108          9
   109         24
   113         16
   114         24
   115         54
   116         27
   117        108
   118         61
   119         29
   120         10
   121          2
   126          2
   127          6
   128          6
   129         16
   130         13
   131         20
   132         16
   133          6
   134          4
   140          1
   141          2
   142          6
   143          1
   144         10
   145          1
   146          1
   153          2
   154         13
   155         40
   156        102
   157        129
   158        190
   159        176
   160        285
   161         54
   162         51
   163          6
   167          2
   168          1
   169          6
   171         13
   173          1
   180         12
   181          4
   182        136
   183        122
   184        342
   185         54
   186        727
   187         54
   188        122
   189          6