##TITLE=Library Entry 48184
##JCAMP-DX=Revision 4.10 
##DATA TYPE=MASS SPECTRUM
##SAMPLE DESCRIPTION=D.HENNEBERG, MAX-PLANCK INSTITUTE, MULHEIM, WEST GERMAN
Y
##NAMES=HP
##CAS NAME=1,3,5-Cyclooctatriene
##MOLFORM=C8H10
##CAS REGISTRY NO=1871-52-9
##MP= -300
##BP= -300
##MW= 106
##$RETENTION INDEX=898
##$CONDENSED SPECTRUM=NO
##NPOINTS= 78
##XYDATA=(XY..XY) 1 
    23          0
    24          0
    25          2
    26         21
    27        165
    28          0
    29          4
    31          0
    33          2
    34          2
    35          2
    36          0
    37         13
    38         33
    39        274
    40         28
    41         71
    42          2
    43          6
    46          1
    47          1
    48          2
    49         11
    50         89
    51        194
    52        109
    53         48
    54         12
    55          3
    57          4
    58          2
    59          2
    60          1
    61          8
    62         16
    63         53
    64          8
    65        125
    66         32
    67         11
    69          0
    70          0
    71          0
    72          1
    73          4
    74         19
    75         20
    76         21
    77        229
    78        999
    79        267
    80         18
    81          2
    83          0
    85          0
    86          1
    87          2
    88          0
    89         10
    90          4
    91        471
    92         39
    93          1
    94          1
    95          0
    96          0
    97          0
    98          2
    99          0
   100          0
   101          4
   102         11
   103         61
   104         23
   105        158
   106        212
   107         18
   108          0