##TITLE=Library Entry 96558
##JCAMP-DX=Revision 4.10 
##DATA TYPE=MASS SPECTRUM
##SAMPLE DESCRIPTION=Institute of Organic Chemistry, Novosibirsk, USSR 1988
##NAMES=HP
##CAS NAME=Trivinylchlorosilane
##MOLFORM=C6H9ClSi
##CAS REGISTRY NO=1871-21-2
##MP= -300
##BP= -300
##MW= 144
##$RETENTION INDEX=0
##$CONDENSED SPECTRUM=NO
##NPOINTS= 48
##XYDATA=(XY..XY) 1 
    26          6
    27         30
    28         37
    29         19
    39         20
    43          8
    53         47
    54         29
    55         90
    56         20
    57         16
    63        351
    64         37
    65        329
    66         21
    67         80
    78          6
    79        104
    80         51
    81         62
    82         19
    83         32
    88          6
    89         52
    90        308
    91        653
    92        141
    93        210
    94         17
   103         61
   104         19
   105         31
   106         25
   107         39
   108        203
   109         60
   110          8
   115         60
   116        999
   117        492
   118        381
   119        157
   120         29
   129        119
   130         10
   131         53
   143         31
   145          9