##TITLE=Library Entry 20551
##JCAMP-DX=Revision 4.10 
##DATA TYPE=MASS SPECTRUM
##SAMPLE DESCRIPTION=CARL DJERASSI DEPT OF CHEM STANFORD UNIV STANFORD CALIF
 94305
##NAMES=HP
##CAS NAME=7-Octenoic acid
##MOLFORM=C8H14O2
##CAS REGISTRY NO=18719-24-9
##MP= -300
##BP= -300
##MW= 142
##$RETENTION INDEX=0
##$CONDENSED SPECTRUM=NO
##NPOINTS= 51
##XYDATA=(XY..XY) 1 
    41        520
    42        110
    43        210
    44         20
    45        110
    50         10
    51         20
    52         10
    53         90
    54        170
    55        999
    56        170
    57         80
    58         70
    59        130
    60        490
    61         40
    65         10
    66         20
    67        300
    68        160
    69        130
    70         80
    71         60
    72         10
    73        220
    74         40
    77         10
    79         30
    80         90
    81        120
    82        680
    83        260
    84         20
    86         10
    87        100
    88         10
    93         10
    95         60
    96        310
    97         30
    98         40
   100        170
   101         60
   106         10
   109         20
   113         40
   114         10
   124        300
   125         40
   142         10