##TITLE=Library Entry 100278
##JCAMP-DX=Revision 4.10 
##DATA TYPE=MASS SPECTRUM
##SAMPLE DESCRIPTION=Exported from NIST MS Search
##NAMES=HP
##CAS NAME=2-Propanol, 1,3-dibromo-, phosphate (3:1)
##MOLFORM=C9H15Br6O4P
##CAS REGISTRY NO=18713-51-4
##MP= -300
##BP= -300
##MW= 692
##$RETENTION INDEX=0
##$CONDENSED SPECTRUM=NO
##NPOINTS= 119
##XYDATA=(XY..XY) 1 
    15         98
    17         20
    18         84
    26         78
    27        169
    28        129
    29        189
    30         29
    31        303
    32         20
    37         46
    38         75
    39        546
    40         62
    41        245
    42         78
    43        285
    44        225
    45        162
    46         67
    47         43
    48         80
    49         40
    55         46
    56         35
    57        221
    58         26
    59         60
    60         26
    61         24
    63         22
    64        160
    65         33
    73         53
    75         53
    77         67
    78         31
    79         78
    80         42
    81        116
    82         53
    83         40
    84         25
    88         29
    89         24
    91         44
    92         26
    93        185
    94         38
    95        162
    96         62
    97         31
    98         55
    99        178
   101         67
   103         29
   104         24
   105         73
   106         60
   107         38
   108         60
   109         42
   110         53
   111         42
   113         37
   115         29
   116         22
   117         64
   118         22
   119        999
   120         67
   121        993
   122         93
   123        608
   124         53
   125        522
   126         44
   129         51
   131         40
   133         22
   135         40
   136         37
   137        247
   138         26
   139         42
   141         22
   143         40
   154         29
   155         29
   180         29
   185         22
   187         22
   189         22
   195         26
   196         42
   197         17
   198        116
   199        207
   200        189
   201        383
   202        107
   203        171
   207         58
   217        272
   218         24
   219        263
   257         55
   279         22
   281         60
   283         24
   297         31
   299         60
   301         31
   321         40
   323         80
   325         42
   335         31
   337         33
   339         31