##TITLE=Library Entry 57584
##JCAMP-DX=Revision 4.10 
##DATA TYPE=MASS SPECTRUM
##SAMPLE DESCRIPTION=Japan AIST/NIMC Database- Spectrum MS-IW-7566
##NAMES=HP
##CAS NAME=N,N'-Bis-(2-hydroxyethyl)-oxamide
##MOLFORM=C6H12N2O4
##CAS REGISTRY NO=1871-89-2
##MP= -300
##BP= -300
##MW= 176
##$RETENTION INDEX=0
##$CONDENSED SPECTRUM=NO
##NPOINTS= 128
##XYDATA=(XY..XY) 1 
    12          6
    13          6
    14         18
    15         62
    16          9
    17          5
    18         16
    19          3
    24          2
    25          8
    26         59
    27        161
    28        250
    29        169
    30        822
    31        102
    32          5
    33          1
    36          1
    37          3
    38         18
    39         22
    40         52
    41        115
    42        219
    43        202
    44        251
    45        468
    46         76
    47          1
    50          4
    51         17
    52         32
    53         46
    54          9
    55          7
    56         53
    57         19
    58         56
    59         56
    60        111
    61         66
    62         24
    63          1
    66          8
    67          4
    68          4
    69         24
    70        768
    71         51
    72         19
    73          2
    74          5
    75          5
    76          1
    77          3
    78          1
    79          1
    80          2
    81          1
    82          1
    83          7
    84          3
    85          9
    86          7
    87         19
    88        999
    89         57
    90          9
    91          1
    92          1
    93          2
    94          2
    95          3
    96          5
    97          3
    98         20
    99         11
   100          5
   101         12
   102          4
   103         11
   104          2
   105          2
   106          1
   107          1
   108          1
   109          1
   110         12
   111          4
   112          2
   113          6
   114         11
   115        121
   116         11
   117        150
   118         13
   119        118
   120          9
   121          2
   122          1
   125          1
   126          1
   127         65
   128         63
   129          8
   130          4
   131         15
   132          2
   133        409
   134         25
   135          4
   139          9
   140         39
   141          4
   145        169
   146         53
   147          6
   148         12
   149          3
   151          2
   157          4
   158         20
   159          4
   161          1
   176         89
   177         12
   178          1