##TITLE=Library Entry 2055
##JCAMP-DX=Revision 4.10 
##DATA TYPE=MASS SPECTRUM
##SAMPLE DESCRIPTION=NIST Mass Spectrometry Data Center, 1994
##NAMES=HP
##CAS NAME=2-Octenoic acid, (E)-
##MOLFORM=C8H14O2
##CAS REGISTRY NO=1871-67-6
##MP= -300
##BP= -300
##MW= 142
##$RETENTION INDEX=1227
##$CONDENSED SPECTRUM=NO
##NPOINTS= 78
##XYDATA=(XY..XY) 1 
    13          2
    14          8
    15         59
    16          3
    17          3
    18          5
    26        105
    27        731
    28        131
    29        994
    30         27
    31         47
    37         17
    39        734
    40        172
    41        999
    42        461
    43        344
    44         31
    45        253
    46          7
    47          3
    50         34
    51         66
    52         36
    53        181
    54        106
    55        689
    56        234
    57        215
    58         40
    59         10
    60         42
    61         12
    62          7
    63         13
    64          3
    65         36
    66         33
    67        200
    68        302
    69        119
    70        437
    71        125
    72          7
    73        726
    74         55
    75          7
    77         17
    78          4
    79         19
    80         18
    81        105
    82        279
    83        103
    84         15
    85          4
    86        264
    87        124
    88         12
    91          6
    93          5
    95         68
    96        233
    97         41
    98          5
    99        245
   100         91
   101         20
   106          7
   109         16
   113         50
   114          3
   124         97
   125         25
   127         21
   142          5
   143          0