##TITLE=Library Entry 44563
##JCAMP-DX=Revision 4.10 
##DATA TYPE=MASS SPECTRUM
##SAMPLE DESCRIPTION=J. ARTAUD, DEP. CHIM., INST. UNIV. TECHNOL., MARSEILLE,
 FR.
##NAMES=HP
##CAS NAME=Methyl 7-methylhexadecanoate
##MOLFORM=C18H36O2
##CAS REGISTRY NO=18720-85-9
##MP= -300
##BP= -300
##MW= 284
##$RETENTION INDEX=0
##$CONDENSED SPECTRUM=NO
##NPOINTS= 106
##XYDATA=(XY..XY) 1 
    27         71
    29        239
    30         13
    31         13
    34          4
    38          4
    39         46
    40         10
    41        556
    42        123
    43        864
    44         34
    45         22
    53         27
    54         22
    55        565
    56        111
    57        427
    58         31
    59        123
    67         39
    68         13
    69        180
    70         46
    71        114
    72         13
    73         22
    74        999
    75        239
    76         18
    79          4
    81         44
    82         22
    83        121
    84         48
    85         61
    86          9
    87        769
    88         57
    89          9
    95         40
    96         13
    97        230
    98         65
    99         18
   101        130
   102          4
   106          4
   107         27
   108          4
   109         31
   110         13
   111         61
   112         13
   113          4
   115         46
   116         22
   121         18
   122         18
   123          9
   124          9
   125        186
   126         48
   127          9
   128          4
   129        242
   130         59
   131         22
   135         74
   136          9
   139         18
   140          4
   141          4
   143         21
   144          9
   149          4
   150          4
   151          4
   152          4
   157        391
   158         30
   166         18
   167          9
   168          4
   171         18
   172          4
   179          4
   185         86
   186          4
   195          4
   207          4
   208         27
   213         22
   214          4
   220          4
   221          4
   227         18
   234         34
   235         31
   236          4
   241         27
   242          4
   253          4
   255          4
   284         80
   285         18