##TITLE=Library Entry 45227
##JCAMP-DX=Revision 4.10 
##DATA TYPE=MASS SPECTRUM
##SAMPLE DESCRIPTION=TNO Volatile Compounds in Food - Chemical Concepts
##NAMES=HP
##CAS NAME=1-Pentanol, 5-(ethylthio)-
##MOLFORM=C7H16OS
##CAS REGISTRY NO=18721-63-6
##MP= -300
##BP= -300
##MW= 148
##$RETENTION INDEX=0
##$CONDENSED SPECTRUM=NO
##NPOINTS= 90
##XYDATA=(XY..XY) 1 
    26         11
    27        141
    29        141
    30         10
    31        128
    32         80
    33          4
    34          5
    35         54
    37          5
    38          4
    39         78
    41        307
    42         31
    43         62
    44         42
    45         85
    46         55
    47        277
    48         25
    49         14
    50          6
    51          6
    52          3
    53         37
    54         11
    55        147
    56         52
    57        179
    58         26
    59         77
    60         93
    61        174
    62        161
    63         72
    64         12
    65         15
    66          9
    67        250
    68        377
    69        178
    70         15
    71         21
    72          5
    73         29
    74         10
    75        999
    76         68
    77         42
    78          4
    79          4
    81          6
    82          1
    83          5
    84          6
    85         54
    86          9
    87         32
    88         27
    89         65
    90          7
    91          1
    95          2
    96          7
    97          4
    99          5
   100          2
   101        203
   102        127
   103         22
   104          7
   105          2
   109          2
   111          3
   115         34
   116          3
   117          9
   118          4
   119          6
   127          3
   130         87
   131         12
   132          8
   133          1
   146          3
   147          3
   148        230
   149         24
   150         13
   151          2