##TITLE=Library Entry 30226
##JCAMP-DX=Revision 4.10 
##DATA TYPE=MASS SPECTRUM
##SAMPLE DESCRIPTION=CONTINENTAL OIL CO., PONCA CITY, OKLA, USA
##NAMES=HP
##CAS NAME=3-Heptanol, 6-methyl-
##MOLFORM=C8H18O
##CAS REGISTRY NO=18720-66-6
##MP= -300
##BP= -300
##MW= 130
##$RETENTION INDEX=1398
##$CONDENSED SPECTRUM=NO
##NPOINTS= 84
##XYDATA=(XY..XY) 1 
    13          1
    14         12
    15         64
    16          4
    17          4
    18         14
    19          1
    25          1
    26         21
    27        299
    28         98
    29        330
    30         21
    31        297
    32          9
    33          1
    36          5
    37          4
    38          9
    39        151
    40         28
    41        441
    42         73
    43        253
    44         45
    45         47
    46          2
    47          0
    48          0
    49          1
    50          4
    51          9
    52          4
    53         25
    54          9
    55        419
    56        126
    57        219
    58         92
    59        999
    60         34
    61          3
    62          1
    63          2
    64          0
    65          3
    66          1
    67          9
    68          8
    69         60
    70         30
    71         23
    72         11
    73          6
    74          1
    77          2
    78          1
    79          2
    80          0
    81          7
    82          5
    83        584
    84         46
    85          0
    86          0
    87          0
    95          3
    96          0
    97         18
    98          1
    99          2
   100          8
   101        155
   102         10
   103          0
   110          0
   111          2
   112         16
   113          1
   115          0
   127          0
   128          1
   129          2
   130          0