##TITLE=Library Entry 34314
##JCAMP-DX=Revision 4.10 
##DATA TYPE=MASS SPECTRUM
##SAMPLE DESCRIPTION=Exported from NIST MS Search
##NAMES=HP
##CAS NAME=3-Heptanol, 2-methyl-
##MOLFORM=C8H18O
##CAS REGISTRY NO=18720-62-2
##MP= -300
##BP= -300
##MW= 130
##$RETENTION INDEX=970
##$CONDENSED SPECTRUM=NO
##NPOINTS= 44
##XYDATA=(XY..XY) 1 
    18         12
    19          2
    27        406
    28         95
    29        314
    30         20
    31        154
    32          6
    33          8
    41        520
    42         63
    43        411
    44         85
    45        183
    46          4
    55        237
    56         47
    57        213
    58         28
    59         93
    60          3
    67         10
    68          7
    69        999
    70         63
    71         26
    72         25
    73        516
    74         24
    81          1
    82          1
    83          4
    84          2
    85         13
    86        103
    87        441
    88         23
    97          5
    98          1
   101         12
   102          1
   115          2
   129          2
   130          2