##TITLE=Library Entry 25428
##JCAMP-DX=Revision 4.10 
##DATA TYPE=MASS SPECTRUM
##SAMPLE DESCRIPTION=Japan AIST/NIMC Database- Spectrum MS-NW-7279
##NAMES=HP
##CAS NAME=Cyclopentanol, 3-methyl-
##MOLFORM=C6H12O
##CAS REGISTRY NO=18729-48-1
##MP= -300
##BP= -300
##MW= 100
##$RETENTION INDEX=837
##$CONDENSED SPECTRUM=NO
##NPOINTS= 62
##XYDATA=(XY..XY) 1 
    15          7
    18          2
    26         11
    27        114
    28         53
    29        107
    30         26
    31         50
    32          3
    37          5
    38         14
    39        146
    40         39
    41        398
    42         55
    43        119
    44        167
    45         66
    46          3
    47          2
    49          2
    50         14
    51         21
    52          8
    53         58
    54         43
    55        137
    56        496
    57        999
    58        263
    59         39
    60          2
    61          2
    62          2
    63          5
    64          1
    65         10
    66          7
    67        277
    68         20
    69         42
    70         15
    71        924
    72         92
    73          6
    74          2
    75          1
    77          8
    78          2
    79         13
    80          2
    81         44
    82        154
    83         22
    84          2
    85         52
    86          3
    97          1
    98          3
    99         10
   100         26
   101          2