##TITLE=Library Entry 90320
##JCAMP-DX=Revision 4.10 
##DATA TYPE=MASS SPECTRUM
##SAMPLE DESCRIPTION=Chemical Concepts
##NAMES=HP
##CAS NAME=Allyldichloromethylsilane
##MOLFORM=C4H8Cl2Si
##CAS REGISTRY NO=1873-92-3
##MP= -300
##BP= -300
##MW= 154
##$RETENTION INDEX=0
##$CONDENSED SPECTRUM=NO
##NPOINTS= 107
##XYDATA=(XY..XY) 1 
    25          2
    26         13
    27         25
    28          7
    29          5
    30          0
    31          0
    35          3
    36          3
    37         11
    38         28
    39        147
    40         11
    41         57
    42         12
    43         23
    44          2
    45          0
    47          0
    48          1
    49          1
    50          3
    51          4
    52          2
    53         15
    54          3
    55          3
    56          3
    58          1
    59          0
    63        209
    64         14
    65         74
    66         10
    67          7
    68          1
    69          2
    70          0
    73          0
    74          0
    75          0
    76          4
    77         18
    78         18
    79         27
    80          8
    81          7
    82          1
    83          2
    84          0
    88          1
    89          2
    90          3
    91          3
    92          9
    93          8
    94          4
    95          3
    96          0
    97          0
    98         29
    99         28
   100         21
   101         21
   102          5
   103         33
   104          3
   105         12
   106          0
   107          0
   108          0
   111          2
   112         24
   113        999
   114         83
   115        699
   116         47
   117        131
   118         58
   119         52
   120         32
   121         17
   122          2
   123          3
   125          4
   126          1
   127          2
   128          0
   129          0
   133          1
   135          1
   136          1
   137          3
   138          4
   139        200
   140         18
   141        131
   142         13
   143         26
   144          2
   145          1
   147          0
   154        175
   155         19
   156        127
   157         11
   158         23