##TITLE=Library Entry 53021
##JCAMP-DX=Revision 4.10 
##DATA TYPE=MASS SPECTRUM
##SAMPLE DESCRIPTION=V.Zaikin,Inst.Petrochem.Synth.,RAS,Moscow
##NAMES=HP
##CAS NAME=Cyclohexanecarboxylic acid, 2-methylphenyl ester
##MOLFORM=C14H18O2
##CAS REGISTRY NO=18731-58-3
##MP= -300
##BP= -300
##MW= 218
##$RETENTION INDEX=0
##$CONDENSED SPECTRUM=NO
##NPOINTS= 57
##XYDATA=(XY..XY) 1 
    25          3
    26         24
    27        148
    28         13
    29         83
    30          3
    39        191
    40         42
    41        405
    42         33
    43         40
    44          2
    52         16
    53         26
    54         62
    55        628
    56         32
    57          7
    60          5
    61          4
    62         14
    63         22
    64          8
    65         49
    66         11
    67        101
    68         24
    69         14
    70          3
    73          9
    74          5
    75          6
    76          6
    79        119
    80         34
    81         79
    82         40
    83        999
    84        142
    85          6
    88          2
    89         14
    90         40
    91         63
    92          8
    93          3
   105          6
   106         14
   107        141
   108        720
   109         77
   110        299
   111        477
   112         38
   113          3
   218         91
   219         16