##TITLE=Library Entry 81552
##JCAMP-DX=Revision 4.10 
##DATA TYPE=MASS SPECTRUM
##SAMPLE DESCRIPTION=MUS317 A. Mujsce, AT&T Bell Labs., Murray Hill, N.J., U
SA
##NAMES=HP
##CAS NAME=Silane, (4-bromophenyl)triphenyl-
##MOLFORM=C24H19BrSi
##CAS REGISTRY NO=18737-40-1
##MP= -300
##BP= -300
##MW= 414
##$RETENTION INDEX=0
##$CONDENSED SPECTRUM=NO
##NPOINTS= 192
##XYDATA=(XY..XY) 1 
    51        496
    53         70
    58          4
    59          2
    60          2
    62          8
    63         31
    64          9
    65         13
    66         13
    67         15
    69          5
    70          4
    74         52
    75        170
    76        235
    77        660
    78        212
    79        245
    80         23
    81         14
    85          3
    86          6
    87         14
    88         14
    89         20
    90         17
    91         25
    92          9
    93          7
    94          2
    95          1
    97          2
    98          5
    99          8
   100          7
   101         34
   102         46
   103        312
   105        999
   106        123
   107        268
   109        228
   110         11
   111         11
   112          7
   113          9
   115         50
   116         20
   117         11
   118          3
   119          4
   120          1
   121          2
   125          9
   126         36
   127         64
   128         99
   129        200
   130         40
   131         35
   132          7
   133          5
   134          3
   135          3
   136          4
   137          2
   138          1
   139         13
   141         15
   142         10
   143          8
   145          3
   146          3
   147          5
   149          9
   150         31
   151         63
   152        305
   153        197
   154        166
   155        341
   156         63
   157         37
   158          8
   159          9
   161          2
   162          2
   163          6
   164          7
   165         24
   167         75
   168         61
   169         50
   171          3
   175          3
   177         24
   179        200
   180        538
   181        948
   182        316
   183        111
   184         44
   185         37
   186         30
   187         11
   188          3
   189          7
   190          4
   191          6
   192          2
   194          2
   199          1
   200          7
   202         30
   203         22
   204         16
   205         43
   206         11
   207         14
   208          4
   209          7
   211          4
   212          2
   213          6
   214          2
   215         16
   216          3
   217          6
   218          3
   219          2
   223          1
   224          4
   226         29
   227         21
   228         46
   229         85
   230        246
   231         77
   232         17
   233          6
   234          8
   241          5
   242          2
   243          1
   244          2
   245          1
   252          6
   253         23
   254         52
   255        155
   257        193
   258        145
   259        623
   260        370
   261        224
   262        276
   263        112
   264         21
   265          6
   276          1
   277          1
   278          2
   281          2
   285          4
   286          1
   287          3
   288          2
   304          1
   305          2
   307          1
   308          3
   309          4
   311          2
   312          3
   332          1
   333          5
   335        853
   336        235
   337        900
   339        826
   340        205
   341         53
   342          6
   410          2
   412          2
   414        461
   415        299
   416        498
   417        147
   418         34
   419          7