##TITLE=Library Entry 66794
##JCAMP-DX=Revision 4.10 
##DATA TYPE=MASS SPECTRUM
##SAMPLE DESCRIPTION=A.A.Kutin, Moscow, Russia
##NAMES=HP
##CAS NAME=Piperidine-2,6-dione, 4-[2-(2,6-dioxocyclohexylidene)-2-phenylami
noethyl]-
##MOLFORM=C19H20N2O4
##CAS REGISTRY NO=187387-75-3
##MP= -300
##BP= -300
##MW= 340
##$RETENTION INDEX=0
##$CONDENSED SPECTRUM=NO
##NPOINTS= 230
##XYDATA=(XY..XY) 1 
    34          2
    37          1
    38          6
    39         98
    40         48
    41        183
    42        126
    43         83
    44         45
    45          5
    48          1
    50         10
    51         97
    52         23
    53         33
    54         14
    55        226
    56         20
    57         12
    58         10
    59         10
    60          4
    62          2
    63         15
    64         13
    65         59
    66         47
    67         32
    68         33
    69         46
    70         17
    71         10
    72          2
    73          2
    74          3
    75          6
    76         16
    77        420
    78         52
    79         19
    80         10
    81         16
    82          9
    83         18
    84         35
    85          7
    86          2
    87          1
    88          1
    89         24
    90         21
    91         49
    92         58
    93        999
    94        123
    95         38
    97         18
    98         10
    99          5
   100          1
   101          3
   102         10
   103         32
   104         47
   105         19
   106         25
   107          8
   108          5
   109          8
   110         11
   111          8
   112         47
   113          8
   114          5
   115         26
   116         27
   117         66
   118         96
   119         19
   120         13
   121         15
   122          4
   123         12
   125         22
   126         12
   127         12
   128         24
   129         22
   130        133
   131         34
   132         13
   133          7
   134          3
   135          6
   136          5
   137          5
   138         70
   139         20
   140          7
   141         15
   142         13
   143         32
   144        125
   145         25
   146         15
   147          3
   148          2
   149          9
   150          4
   151          3
   152         21
   153         18
   154         49
   155         12
   156         26
   157         14
   158         97
   159         52
   160         44
   161         10
   162          3
   163          3
   164          3
   165          5
   166          5
   167         23
   168         18
   169          7
   170         24
   171         11
   172         50
   173        171
   174         25
   175          3
   176          3
   177          1
   178          6
   179          5
   180         10
   181          5
   182         11
   183         14
   184         25
   185          8
   186         35
   187         43
   188         11
   189          6
   190          2
   191          3
   192          2
   193          5
   194          4
   195          1
   196         15
   197          4
   198         10
   199          5
   200         56
   201         28
   202          7
   203          4
   204          3
   205          0
   206          4
   207          2
   208          2
   209          5
   210         10
   211          6
   212         24
   213          7
   214        262
   215         45
   216         75
   217         10
   218          5
   219          2
   220          5
   221         15
   222          6
   223          1
   224          3
   225          9
   226          6
   227         14
   228        522
   229        279
   230         40
   231          4
   236          3
   237          1
   238          8
   239          2
   240         27
   241          7
   242          1
   246          1
   248          6
   250          1
   251          2
   252          9
   253          6
   254         17
   255          3
   256          1
   263         11
   264          5
   265          3
   266          1
   267          1
   268          1
   269          4
   270          0
   280         10
   281          4
   282         10
   283          2
   284          3
   295          1
   297          3
   312          4
   321          1
   322          1
   323         47
   324          9
   339          9
   340        195
   341         40
   342          5