##TITLE=Library Entry 6052
##JCAMP-DX=Revision 4.10 
##DATA TYPE=MASS SPECTRUM
##SAMPLE DESCRIPTION=Exported from NIST MS Search
##NAMES=HP
##CAS NAME=Propane, 1-isocyanato-2-methyl-
##MOLFORM=C5H9NO
##CAS REGISTRY NO=1873-29-6
##MP= -300
##BP= -300
##MW= 99
##$RETENTION INDEX=0
##$CONDENSED SPECTRUM=NO
##NPOINTS= 23
##XYDATA=(XY..XY) 1 
    26         17
    27        261
    28        120
    29         48
    30        103
    38          5
    39         86
    40         20
    41        431
    42        114
    43        999
    44         34
    55         28
    56        281
    57         28
    58         40
    70          5
    71         97
    82          5
    84         23
    98         25
    99         57
   100          8