##TITLE=Library Entry 37049
##JCAMP-DX=Revision 4.10 
##DATA TYPE=MASS SPECTRUM
##SAMPLE DESCRIPTION=Exported from NIST MS Search
##NAMES=HP
##CAS NAME=Cyanic acid, sec-butyl ester
##MOLFORM=C5H9NO
##CAS REGISTRY NO=1873-13-8
##MP= -300
##BP= -300
##MW= 99
##$RETENTION INDEX=0
##$CONDENSED SPECTRUM=NO
##NPOINTS= 21
##XYDATA=(XY..XY) 1 
    26         56
    27        205
    28        213
    29        161
    39        161
    40         40
    41        576
    42        241
    43        229
    44         20
    45        153
    55        121
    56        375
    57        322
    58         12
    69         44
    70        999
    71         36
    84        108
    85          8
    99         40