##TITLE=Library Entry 70772
##JCAMP-DX=Revision 4.10 
##DATA TYPE=MASS SPECTRUM
##SAMPLE DESCRIPTION=CARL DJERASSI DEPT OF CHEM STANFORD UNIV STANFORD CALIF
 94305
##NAMES=HP
##CAS NAME=2-Propanone, 1-(1-methyl-2-piperidinyl)-, (.+/-.)-
##MOLFORM=C9H17NO
##CAS REGISTRY NO=18747-42-7
##MP= -300
##BP= -300
##MW= 155
##$RETENTION INDEX=0
##$CONDENSED SPECTRUM=NO
##NPOINTS= 20
##XYDATA=(XY..XY) 1 
    41        420
    42        320
    43        140
    55        110
    56        100
    57         70
    58         70
    68        130
    70        420
    82        100
    96        250
    97        150
    98        999
    99        200
   112        100
   138         10
   140         30
   154         20
   155         70
   156         10