##TITLE=Library Entry 97115
##JCAMP-DX=Revision 4.10 
##DATA TYPE=MASS SPECTRUM
##SAMPLE DESCRIPTION=NIST Mass Spectrometry Data Center
##NAMES=HP
##CAS NAME=Stearic acid, TMS derivative
##MOLFORM=C21H44O2Si
##CAS REGISTRY NO=18748-91-9
##MP= -300
##BP= -300
##MW= 356
##$RETENTION INDEX=2246
##$CONDENSED SPECTRUM=NO
##NPOINTS= 211
##XYDATA=(XY..XY) 1 
    26          1
    27         12
    28          3
    29         42
    30          1
    31          1
    39         15
    40          5
    41        156
    42         37
    43        263
    44         14
    45         41
    46          3
    47         20
    48          1
    49          1
    51          1
    52          1
    53         11
    54         17
    55        252
    56         53
    57        167
    58         22
    59         23
    60          7
    61         41
    62          3
    63          2
    65          3
    66          1
    67         40
    68         11
    69        102
    70         23
    71         43
    72         31
    73        770
    74         78
    75        579
    76         41
    77         27
    78          1
    79         13
    80          3
    81         41
    82          9
    83         66
    84         24
    85         26
    86          8
    87          7
    88          5
    89         25
    90          4
    91          7
    92          1
    93         12
    94          2
    95         42
    96          7
    97         54
    98         40
    99         19
   100          2
   101         12
   102          2
   103          4
   105         16
   106          2
   107          9
   108          2
   109         16
   110          3
   111         25
   112         13
   113          5
   114          2
   115          9
   116         68
   117        999
   118         99
   119         42
   120          2
   121         10
   122          2
   123          5
   124          2
   125          7
   126          3
   127          4
   129        480
   130         61
   131        122
   132        556
   133        114
   134         29
   135         11
   136          1
   137          2
   138          1
   139          3
   140          2
   141          2
   142          2
   143         34
   145        378
   146         50
   147         17
   148          1
   149          3
   150          1
   151          1
   152          1
   153          2
   154          5
   155          3
   156          1
   157         10
   158          2
   159         31
   160          5
   161          2
   163          1
   165          1
   167          2
   168          2
   169          1
   171         24
   172          4
   173          9
   174          6
   175          1
   177          1
   181          2
   182          1
   183          1
   185         36
   186          5
   187         29
   188          8
   189          2
   191          1
   195          1
   196          1
   199          9
   200          2
   201         63
   202         10
   203          4
   209          1
   210          2
   213          8
   214          1
   215          6
   216          1
   223          3
   224          1
   227         11
   228          2
   229          4
   230          1
   237          1
   238          1
   241         11
   242          2
   243          9
   244          2
   245          1
   255          9
   256          2
   257         15
   258          3
   259          1
   265          1
   266          1
   267          1
   269          4
   270          1
   271          8
   272          2
   283          3
   284          1
   285          4
   286          1
   297         35
   298          9
   299          8
   300          2
   301          1
   311          4
   312          2
   313         34
   314          9
   315          2
   325          1
   327          7
   328          2
   329          1
   339          2
   341        671
   342        186
   343         49
   344          8
   345          1
   355          5
   356         86
   357         25
   358          7
   359          1