##TITLE=Library Entry 40703
##JCAMP-DX=Revision 4.10 
##DATA TYPE=MASS SPECTRUM
##SAMPLE DESCRIPTION=NIST Mass Spectrometry Data Center
##NAMES=HP
##CAS NAME=2-(2-Bromoethyl)-1,3-dioxolane
##MOLFORM=C5H9BrO2
##CAS REGISTRY NO=18742-02-4
##MP= -300
##BP= -300
##MW= 180
##$RETENTION INDEX=0
##$CONDENSED SPECTRUM=NO
##NPOINTS= 54
##XYDATA=(XY..XY) 1 
    13          2
    14         14
    15         36
    16          2
    19         33
    26         44
    27        169
    28         72
    29        169
    30         10
    31         23
    37          5
    38         14
    39         73
    40         12
    41         81
    42         21
    43         60
    45        337
    46          6
    47          1
    53          3
    55         17
    56          7
    57         23
    58          1
    69          1
    71         58
    73        999
    74         31
    75          4
    79          5
    80          5
    81          6
    82          5
    92          1
    93         10
    94          1
    95          9
    99         10
   100          1
   101          2
   105          1
   107         33
   109         31
   119          1
   121          2
   123          1
   135          9
   137          9
   150          3
   152          4
   179         18
   181         15