##TITLE=Library Entry 80710
##JCAMP-DX=Revision 4.10 
##DATA TYPE=MASS SPECTRUM
##SAMPLE DESCRIPTION=Japan AIST/NIMC Database- Spectrum MS-NW-5631
##NAMES=HP
##CAS NAME=Benzeneethanol, 3-methyl-
##MOLFORM=C9H12O
##CAS REGISTRY NO=1875-89-4
##MP= -300
##BP= -300
##MW= 136
##$RETENTION INDEX=0
##$CONDENSED SPECTRUM=NO
##NPOINTS= 80
##XYDATA=(XY..XY) 1 
    14          1
    15          4
    18          1
    26          3
    27         46
    28         25
    29          9
    30          1
    31         34
    32          5
    37          4
    38         10
    39         69
    40          8
    41         14
    42          1
    43         14
    44          2
    45          1
    49          1
    50         20
    51         49
    52         18
    53         24
    54          2
    55          3
    57          3
    58          7
    59          1
    61          4
    62         11
    63         35
    64          9
    65         49
    66          8
    67          3
    73          1
    74          8
    75          8
    76          8
    77        143
    78         47
    79        127
    80          9
    81          1
    82          1
    83          1
    85          1
    86          3
    87          3
    88          1
    89         16
    90          7
    91        283
    92         70
    93         12
    94          2
    98          1
    99          1
   101          2
   102          9
   103         78
   104         32
   105        999
   106        513
   107         47
   108          3
   115         20
   116          5
   117         36
   118         50
   119          9
   120          2
   121          2
   133          2
   134          8
   135          6
   136        441
   137         45
   138          3