##TITLE=Library Entry 109614
##JCAMP-DX=Revision 4.10 
##DATA TYPE=MASS SPECTRUM
##SAMPLE DESCRIPTION=NIST Mass Spectrometry Data Center
##NAMES=HP
##CAS NAME=4-Chlorophenyl methyl carbinol
##MOLFORM=C8H9ClO
##CAS REGISTRY NO=1875-88-3
##MP= -300
##BP= -300
##MW= 156
##$RETENTION INDEX=0
##$CONDENSED SPECTRUM=NO
##NPOINTS= 87
##XYDATA=(XY..XY) 1 
    15          1
    26          3
    27          7
    28          2
    29         14
    30          2
    31         45
    35          1
    36          1
    37          5
    38         12
    39         45
    40          5
    41          5
    42          1
    43          8
    44          4
    45          4
    47          1
    49          7
    50         36
    51         48
    52          6
    53          4
    55          1
    59          2
    60          3
    61         11
    62         29
    63         89
    64         18
    65         39
    66          3
    68          1
    72          3
    73         27
    74         20
    75         41
    76          8
    77         39
    78          6
    79          1
    84          3
    85          8
    86         10
    87         10
    89        198
    90         63
    91        348
    92         28
    93          2
    96          1
    97          4
    99         65
   100          5
   101         34
   102         18
   103         23
   104          4
   110          1
   111          5
   112         13
   113          3
   114          5
   115          1
   118          1
   119          2
   120          1
   121          4
   122          1
   123          3
   125        999
   126        274
   127        356
   128         88
   129          6
   136          2
   137          7
   138         18
   139          5
   140          6
   141          1
   154          3
   156        269
   157         25
   158         88
   159          8