##TITLE=Library Entry 41085
##JCAMP-DX=Revision 4.10 
##DATA TYPE=MASS SPECTRUM
##SAMPLE DESCRIPTION=Chemical Concepts
##NAMES=HP
##CAS NAME=Silane, trimethyloctadecyl-
##MOLFORM=C21H46Si
##CAS REGISTRY NO=18753-04-3
##MP= -300
##BP= -300
##MW= 326
##$RETENTION INDEX=0
##$CONDENSED SPECTRUM=NO
##NPOINTS= 139
##XYDATA=(XY..XY) 1 
    27         18
    28         18
    29         55
    30          1
    31          5
    36          0
    38          0
    39          8
    40          2
    41         76
    42         17
    43        121
    44         10
    45         30
    46          1
    47          1
    50          0
    51          0
    52          0
    53          4
    54          5
    55         44
    56         21
    57         58
    58         13
    59        154
    60         14
    61          5
    62          0
    63          0
    65          1
    66          0
    67          7
    68          4
    69         23
    70          9
    71         19
    72         14
    73        999
    74         84
    75         28
    76          2
    77          1
    78          0
    79          1
    80          0
    81          4
    82          2
    83         15
    84          4
    85         16
    86          2
    87         22
    88          1
    89          0
    91          0
    93          0
    95          2
    96          1
    97          9
    98          2
    99         21
   100          2
   101         22
   102          2
   103          1
   105          0
   109          1
   110          0
   111          5
   112          1
   113          9
   114          2
   115          4
   116          0
   117          0
   119          0
   120          0
   123          0
   124          0
   125          2
   126          1
   127          9
   128          1
   129         17
   130          2
   131          0
   139          1
   140          0
   141          2
   143          2
   153          0
   154          0
   155          0
   157         13
   158          2
   168          0
   169          0
   171          1
   181          0
   183          0
   184          0
   185         11
   186          1
   187          0
   196          0
   197          1
   199          1
   211          0
   213          8
   214          2
   215          0
   225          0
   227          0
   239          0
   241          5
   242          1
   243          0
   252          1
   253          0
   255          1
   267          0
   269          4
   270          1
   281          0
   283          4
   284          1
   285          0
   295          0
   297          3
   298          0
   307          0
   308          0
   309          1
   311        141
   312         40
   313          9
   314          1
   326          0