##TITLE=Library Entry 53242
##JCAMP-DX=Revision 4.10 
##DATA TYPE=MASS SPECTRUM
##SAMPLE DESCRIPTION=Chemical Concepts
##NAMES=HP
##CAS NAME=5,9(1H,6H)-Benzocyclooctenedione, octahydro-7,7-dimethyl-
##MOLFORM=C14H22O2
##CAS REGISTRY NO=18766-90-0
##MP= -300
##BP= -300
##MW= 222
##$RETENTION INDEX=0
##$CONDENSED SPECTRUM=NO
##NPOINTS= 105
##XYDATA=(XY..XY) 1 
    27        147
    29        130
    30          5
    37          3
    38          8
    39        161
    40         23
    41        243
    42         23
    43        181
    45          0
    46          3
    47          6
    48         11
    50          6
    51         14
    52          7
    53         88
    54         91
    55        169
    56        110
    57         24
    58          1
    59         12
    60          0
    61          3
    62          6
    63          3
    65         14
    66         13
    67        167
    68         32
    69         38
    70         60
    71          9
    77         25
    78          5
    79         57
    80        116
    81        178
    82         58
    83        999
    84         54
    85         14
    86          1
    91         16
    92          5
    93         14
    94         33
    95        164
    96         46
    97         59
    98          5
    99         45
   100          3
   101          3
   105          6
   106          1
   107          9
   108          9
   109        207
   110         18
   111         33
   112        326
   113         37
   114          0
   120          7
   121         11
   122          4
   123         28
   124         22
   125         28
   126          3
   127          0
   128          1
   133          1
   134          1
   135          4
   137          9
   138        150
   139         18
   140        204
   141        898
   142         83
   143         12
   147          3
   148          1
   149          6
   151          6
   153         14
   154          6
   164          2
   165          8
   166         68
   167         22
   179          8
   180          2
   181          4
   194          4
   195          2
   207         37
   208          4
   222        232
   223         37
   224          4