##TITLE=Library Entry 3781
##JCAMP-DX=Revision 4.10 
##DATA TYPE=MASS SPECTRUM
##SAMPLE DESCRIPTION=Chemical Concepts
##NAMES=HP
##CAS NAME=1-(1H-Benzotriazol-1-yl)-3,4,4-trichloro-2-nitro-1-piperidino-1,3
-butadiene
##MOLFORM=C15H14Cl3N5O2
##CAS REGISTRY NO=187652-55-7
##MP= -300
##BP= -300
##MW= 401
##$RETENTION INDEX=0
##$CONDENSED SPECTRUM=NO
##NPOINTS= 230
##XYDATA=(XY..XY) 1 
    33         19
    36        211
    39        462
    41        999
    42        240
    43         61
    44         61
    46         11
    47          7
    50        163
    51         78
    52         42
    53         66
    55        381
    56         72
    57         24
    58          3
    63        185
    64        101
    65         42
    67         61
    69        217
    70         20
    71          8
    73         31
    74         38
    75         81
    76        103
    77        111
    78         30
    79         21
    80         19
    82         64
    84        275
    85         35
    86         22
    87         23
    88         22
    90        112
    92        795
    93         48
    94          9
    96         26
    97         36
    98         15
    99         33
   100         16
   101         19
   102         41
   103         30
   104         21
   105         12
   106         20
   107         29
   108         20
   109         43
   110         44
   111         56
   112        121
   113         26
   114         17
   115         10
   117         46
   119        143
   120         23
   121         13
   122          9
   123         12
   124         16
   125         16
   126         25
   127         17
   128         15
   129         18
   130         18
   132         78
   133         35
   134         72
   135         22
   136         15
   138         66
   139         28
   140         27
   141         30
   143         40
   145         74
   146         69
   147         48
   148         41
   149         15
   150         13
   151         10
   152         17
   153         13
   154         12
   155         15
   156          9
   157         22
   158          9
   159         20
   160         13
   161         32
   162         27
   163         16
   164         16
   165         17
   166         27
   167         30
   168         18
   169         17
   170         11
   171         10
   172         15
   173         45
   174         62
   175         23
   176         23
   177         10
   178          7
   179         14
   180         15
   181         25
   182         19
   183         20
   184         15
   185         11
   186         12
   187         18
   188         11
   189         16
   190         32
   191         25
   192         31
   193         28
   194         16
   195         12
   196         16
   197         12
   198         15
   199         20
   200         44
   202        223
   203         41
   204        104
   205         20
   206         24
   207         14
   208         23
   209         42
   210         47
   211         36
   212         21
   213          8
   214          8
   215         22
   216         13
   217         16
   218         28
   219         16
   220         22
   221         29
   222         43
   223         35
   224         23
   225         20
   227         84
   228         25
   229         42
   230         12
   231         13
   232         13
   233          7
   234         11
   237        440
   238        107
   239        316
   240         60
   241        101
   242         15
   243         17
   244         14
   245         23
   246         19
   247         10
   248          9
   249         20
   250         12
   251         17
   252         10
   253          8
   255         26
   256         19
   257         33
   258         18
   259         12
   260          5
   262          3
   263          9
   264          6
   265          9
   266         16
   267          9
   268          3
   270          2
   271          4
   272          5
   273         11
   274         12
   275          6
   276          5
   277          4
   279          4
   280          3
   282          3
   286          3
   291         19
   292         10
   293         11
   294          8
   295          4
   306          3
   308          4
   309          3
   310          6
   312          3
   320          3
   327          3
   329          3
   401          9
   403          8