##TITLE=Library Entry 1572
##JCAMP-DX=Revision 4.10 
##DATA TYPE=MASS SPECTRUM
##SAMPLE DESCRIPTION=R.M.TEETER CHEVRON RESEARCH CO., RICHMOND, CALIF., USA.
##NAMES=HP
##CAS NAME=Succinic acid, bis(2,2,3,3,4,4,5,5,6,6,7,7-dodecafluoroheptyl)est
er
##MOLFORM=C18H10F24O4
##CAS REGISTRY NO=18770-68-8
##MP= -300
##BP= -300
##MW= 746
##$RETENTION INDEX=0
##$CONDENSED SPECTRUM=NO
##NPOINTS= 150
##XYDATA=(XY..XY) 1 
    12          6
    13          5
    14          6
    15         11
    16          2
    17         28
    18         41
    19          0
    20         14
    22          3
    24          1
    25          5
    26         27
    27         33
    28         76
    29        152
    30         17
    31        999
    32         11
    37          2
    38          2
    39         15
    40          3
    41         32
    42         27
    43         32
    44        288
    45          8
    46          1
    47          2
    48         20
    49         40
    50         12
    51        210
    52          3
    53          5
    54          6
    61         28
    62          5
    64         16
    65          3
    69         94
    70         12
    81         22
    82        223
    83         17
    84          6
    85         16
    86          2
    87          1
    91          8
    95         28
    96          5
    97         14
    98          4
    99          4
   100         31
   101         36
   102          2
   109          6
   110          3
   111         14
   112          6
   113         34
   114          2
   115          4
   116          1
   119         12
   120          2
   123          4
   124          2
   125          7
   126          4
   127          4
   128          5
   129         12
   130          2
   131         85
   132          4
   133          6
   134          1
   135          8
   151          7
   152          2
   161          5
   162          3
   163         14
   164          1
   165          3
   166          1
   175          8
   176          2
   181          7
   182          1
   188          1
   189          4
   190          2
   245         30
   246          3
   247          1
   282          8
   283          1
   313          2
   314          1
   315          6
   316          1
   317         10
   318          1
   329          2
   364          2
   365          0
   366          0
   367         10
   368          1
   387          5
   388          2
   395          8
   396          1
   413          3
   414         53
   415        508
   416         39
   417          5
   418          0
   433          0
   437          0
   443          0
   451          0
   460          0
   486          0
   487          0
   495          5
   496          0
   546          0
   571          0
   596          0
   645          0
   646          0
   675          0
   678          0
   695          0
   699          0
   701          0
   702          0
   725          0
   727         12
   728          2
   729          0
   746          2
   747          0