##TITLE=Library Entry 14896
##JCAMP-DX=Revision 4.10 
##DATA TYPE=MASS SPECTRUM
##SAMPLE DESCRIPTION=R.M.TEETER CHEVRON RESEARCH CO., RICHMOND, CALIF., USA.
##NAMES=HP
##CAS NAME=Octanoic acid, 2,2,3,3,4,4,5,5,6,6,7,7-dodecafluoroheptyl ester
##MOLFORM=C15H18F12O2
##CAS REGISTRY NO=18770-62-2
##MP= -300
##BP= -300
##MW= 458
##$RETENTION INDEX=0
##$CONDENSED SPECTRUM=NO
##NPOINTS= 224
##XYDATA=(XY..XY) 1 
    14          2
    15          3
    16          1
    24          0
    25          0
    26          6
    27         71
    28         33
    29        162
    30          8
    31         85
    32          1
    33          7
    34          0
    35          0
    36          0
    37          0
    38          1
    39         46
    40         11
    41        295
    42         80
    43        999
    44         46
    45         10
    46          1
    47          5
    48          2
    49          7
    50          2
    51        104
    52          2
    53         11
    54         15
    55        275
    56         52
    57        393
    58         13
    59          5
    60          4
    61          6
    62          1
    63          1
    64          9
    65          3
    66          1
    67         32
    68         13
    69        165
    70         25
    71          9
    72          1
    73         10
    74          1
    75          2
    76          0
    77          3
    78          2
    79          4
    80          5
    81          9
    82         52
    83         65
    84         90
    85        120
    86          7
    87          0
    88          0
    89          1
    90          0
    91          1
    92          0
    93          3
    94          0
    95         20
    96          2
    97         31
    98         45
    99          3
   100          8
   101         17
   102          0
   103          0
   105          0
   106          0
   107          1
   108          4
   109         23
   110          2
   111          4
   112          1
   113         11
   114          1
   115          0
   117          0
   119          5
   120          0
   121          0
   122          0
   123          8
   124          1
   125          6
   126          3
   127        434
   128         33
   129          2
   131         24
   132          1
   133          4
   134          0
   135          1
   136          0
   137          0
   139          2
   140          0
   141          0
   142          0
   143          0
   144          0
   145          2
   146          0
   147          0
   148          0
   149          0
   151          3
   152          0
   153          0
   157          1
   159          0
   161          0
   162          1
   163          3
   164          1
   169          1
   175          2
   176          0
   181          2
   182          0
   183          0
   189          0
   191          0
   193          0
   195          2
   196          0
   197          0
   207          8
   208          1
   209          0
   211          0
   213          1
   214          2
   215          0
   223          0
   225          0
   231          0
   237          0
   245          5
   246          0
   263          0
   267          0
   274          0
   281          2
   282          1
   283          0
   287          0
   292          0
   293          0
   317          0
   337          1
   339          0
   341          1
   342          0
   345          1
   354          0
   355          1
   356          0
   357          0
   358          0
   359         36
   360          3
   361          0
   367          4
   368          0
   369          0
   371          1
   372          2
   373         12
   374        541
   375         71
   377          0
   383          0
   384          0
   385          1
   386          0
   387        418
   388         44
   389          4
   390          0
   397          1
   398          0
   399          0
   400          0
   401         51
   402          6
   403          0
   408          0
   411          0
   413          0
   414          0
   415        101
   416         13
   417          2
   429         46
   430          6
   431          0
   439         11
   440          2
   441          0
   443          4
   444          0
   457          0
   458         57
   459          9
   460          1