##TITLE=Library Entry 52362
##JCAMP-DX=Revision 4.10 
##DATA TYPE=MASS SPECTRUM
##SAMPLE DESCRIPTION=R.M.TEETER CHEVRON RESEARCH CO., RICHMOND, CALIF., USA.
##NAMES=HP
##CAS NAME=Cyclohexanecarboxylic acid, 2,2,3,3,4,4,5,5,6,6,7,7-dodecafluoroh
eptyl ester
##MOLFORM=C14H14F12O2
##CAS REGISTRY NO=18770-66-6
##MP= -300
##BP= -300
##MW= 442
##$RETENTION INDEX=0
##$CONDENSED SPECTRUM=NO
##NPOINTS= 148
##XYDATA=(XY..XY) 1 
    12          2
    13          0
    14          1
    15          8
    16          5
    17         25
    18        102
    19          1
    20          8
    22          0
    25          1
    26         12
    27        104
    28        118
    29        178
    30         20
    31        246
    32          4
    33         19
    36          1
    37          2
    38          6
    39        130
    40         30
    41        470
    42         76
    43        175
    44         79
    45         20
    46          0
    47          5
    48          0
    49         42
    50          9
    51        238
    52         11
    53         87
    54        114
    55        887
    56        282
    57         12
    60          2
    61         17
    62          3
    63          2
    64         20
    65         14
    66         16
    67        206
    68        490
    69        192
    70          7
    74          2
    75          5
    76          1
    77         20
    78          7
    79         56
    80         19
    81        222
    82        196
    83        999
    84        784
    85         11
    86          1
    90          0
    91          7
    92          6
    93         69
    94          6
    95         42
    96          1
    97         11
    98          1
    99          8
   100         21
   101         48
   102          2
   109         30
   110        176
   111        270
   112         24
   113         28
   114          1
   119         10
   120          0
   131         70
   132          2
   145          4
   151          5
   163          7
   165          0
   169          2
   181          3
   182          3
   183          1
   191          8
   201          3
   211          1
   231          3
   245          7
   246          0
   282          1
   287          0
   293          1
   308          0
   312          1
   316          0
   336          0
   337          0
   341         11
   342          1
   345          0
   359         12
   360          1
   361          1
   367          8
   368          1
   369          0
   371          4
   372          2
   373          2
   374         42
   375         16
   376          1
   385          6
   386          2
   387        284
   388         43
   389          3
   392          2
   393          1
   399          3
   400         23
   401         32
   402          4
   413         57
   414          9
   415          1
   423         15
   424          3
   425          1
   427         17
   428          2
   441          6
   442        190
   443         34
   444          3