##TITLE=Library Entry 80017
##JCAMP-DX=Revision 4.10 
##DATA TYPE=MASS SPECTRUM
##SAMPLE DESCRIPTION=A.A.Kutin, Moscow, Russia
##NAMES=HP
##CAS NAME=Benzamide, N-[6-(2-thienyl)-2-oxo-2H-pyran-3-yl]-
##MOLFORM=C16H11NO3S
##CAS REGISTRY NO=187749-78-6
##MP= -300
##BP= -300
##MW= 297
##$RETENTION INDEX=0
##$CONDENSED SPECTRUM=NO
##NPOINTS= 90
##XYDATA=(XY..XY) 1 
    33          2
    37          0
    39         45
    40         26
    41          6
    43         94
    44         12
    45         16
    50         13
    51         52
    52         37
    53         25
    54          5
    55          5
    56          1
    57          8
    58          7
    59         15
    60          3
    62          1
    63          5
    64          0
    65          6
    66          1
    67          1
    68          0
    69          9
    70          3
    71          2
    72          6
    73          0
    74          1
    75          4
    76         14
    77        339
    78         24
    80        104
    81          9
    82          4
    83         11
    84          5
    85          5
    86          1
    87          1
    92          0
    93          1
    94          0
    96          2
    97          1
   100          0
   105        999
   106         68
   107          3
   109         20
   110         10
   111         29
   112          3
   113          0
   120          2
   121         11
   122          3
   132          0
   135          1
   136         36
   137         13
   138          2
   146          0
   147          1
   148          0
   157          0
   164         21
   165         60
   166          6
   167          3
   171          1
   193         96
   194         18
   195          5
   196          0
   213          2
   235         49
   236          7
   237          3
   269         11
   270          1
   295          0
   296          0
   297        176
   298         34
   299         11