##TITLE=Library Entry 5495
##JCAMP-DX=Revision 4.10 
##DATA TYPE=MASS SPECTRUM
##SAMPLE DESCRIPTION=R.M.TEETER CHEVRON RESEARCH CO., RICHMOND, CALIF., USA.
##NAMES=HP
##CAS NAME=Dodecanoic acid, 2,2,3,3,4,4,5,5,6,6,7,7-dodecafluoroheptyl ester
##MOLFORM=C19H26F12O2
##CAS REGISTRY NO=18770-63-3
##MP= -300
##BP= -300
##MW= 514
##$RETENTION INDEX=0
##$CONDENSED SPECTRUM=NO
##NPOINTS= 257
##XYDATA=(XY..XY) 1 
    12          2
    13          0
    14          2
    15          3
    16          1
    17         84
    18        687
    19          1
    20          7
    22          4
    24          0
    25          1
    26          6
    27         57
    28         23
    29        164
    30          8
    31        333
    32          3
    33         10
    34          1
    36          0
    37          0
    38          1
    39         35
    40          9
    41        313
    42         98
    43        999
    44         41
    45         13
    46          1
    47          4
    48          1
    49         18
    50          3
    51         94
    52          2
    53         12
    54         31
    55        350
    56         65
    57        417
    58         14
    59          3
    60          3
    61         12
    62          2
    63          4
    64          5
    66          2
    67         40
    68         43
    69        223
    70         49
    71        170
    72          9
    73          7
    74          1
    75          2
    76          0
    77          4
    78          3
    79          8
    80          4
    81         38
    82         31
    83        110
    84         59
    85        143
    86          9
    87          0
    89          0
    90          0
    91          3
    92          1
    93          7
    94          3
    95         63
    96         28
    97         77
    98         56
    99         33
   100         11
   101         13
   102          0
   103          0
   104          0
   105          1
   106          0
   107          4
   108          1
   109         22
   110         13
   111         30
   112         13
   113         14
   114          1
   115          1
   116          0
   117          0
   118          0
   119          4
   120          0
   121          4
   122          1
   123         11
   124          2
   125          8
   126          3
   127          2
   128          0
   129          0
   130          0
   131         34
   132          1
   133          3
   134          0
   135          3
   136          1
   137          1
   138         51
   139          9
   140         28
   141         15
   142          1
   143          0
   144          0
   145          1
   146          0
   147          0
   148          0
   149          1
   150          0
   151          3
   152          0
   153          2
   154          1
   155          0
   156          0
   157          0
   158          0
   159          0
   161          0
   162          0
   163          5
   164          7
   165          2
   166          0
   167          0
   169          1
   172          0
   173          0
   175          2
   176          0
   177          0
   180          0
   181          4
   182          1
   183        279
   184         31
   185          2
   187          0
   189          0
   191          0
   193          0
   195          0
   207          3
   208          0
   211          0
   213          0
   221          0
   223          0
   225          0
   230          0
   231          0
   243          0
   245          0
   246          0
   263          7
   264          1
   281          0
   282          1
   283          0
   287          0
   313          0
   317          0
   324          0
   325          0
   337          1
   341          1
   345          1
   354          0
   355          0
   358          0
   359         23
   360          2
   361          0
   367          4
   368          0
   369          0
   371          1
   372          1
   373          9
   374        450
   375         91
   376          8
   377          0
   384          1
   385          1
   386          0
   387        463
   388         51
   389          4
   390          0
   397          1
   398          0
   399          0
   400          1
   401         42
   402          7
   403          0
   411          1
   412          1
   413          0
   414          0
   415         31
   416          5
   417          0
   425          0
   427          0
   428          0
   429         48
   430          7
   431          1
   443         92
   444         14
   445          1
   446          0
   457         12
   458          3
   459          0
   471         67
   472         12
   473          1
   474          0
   485         24
   486          4
   487          0
   495         11
   496          2
   497          0
   499          0
   514        146
   515         34
   516          3
   517          0