##TITLE=Library Entry 8331
##JCAMP-DX=Revision 4.10 
##DATA TYPE=MASS SPECTRUM
##SAMPLE DESCRIPTION=Exported from NIST MS Search
##NAMES=HP
##CAS NAME=1H-Benzotriazole, 1-acetyl-
##MOLFORM=C8H7N3O
##CAS REGISTRY NO=18773-93-8
##MP= -300
##BP= -300
##MW= 161
##$RETENTION INDEX=0
##$CONDENSED SPECTRUM=NO
##NPOINTS= 18
##XYDATA=(XY..XY) 1 
    43        999
    44         30
    63        270
    64        430
    65        100
    78        100
    90        240
    91        400
    92        100
   104        100
   105        130
   106         10
   119        190
   120         20
   133        340
   134         30
   161        360
   162         30