##TITLE=Library Entry 7017
##JCAMP-DX=Revision 4.10 
##DATA TYPE=MASS SPECTRUM
##SAMPLE DESCRIPTION=R.M.TEETER CHEVRON RESEARCH CO., RICHMOND, CALIF., USA.
##NAMES=HP
##CAS NAME=Decanoic acid, 2,2,3,3,4,4,5,5,6,6,7,7,8,8,9,9-hexadecafluoronony
l ester
##MOLFORM=C19H22F16O2
##CAS REGISTRY NO=18770-65-5
##MP= -300
##BP= -300
##MW= 586
##$RETENTION INDEX=0
##$CONDENSED SPECTRUM=NO
##NPOINTS= 323
##XYDATA=(XY..XY) 1 
    31        480
    33         17
    34          1
    35         11
    36          9
    37          6
    38          7
    39         65
    40         16
    41        348
    42        161
    43        999
    44         17
    45         13
    46          5
    47         40
    48         25
    49         41
    50         17
    51        219
    52          6
    53         21
    54         39
    55        497
    56         94
    57        355
    58         16
    59          5
    60          7
    61         24
    62          4
    63          5
    64         28
    65          8
    66          4
    67         46
    68         60
    69        345
    70         55
    71        264
    72         18
    73         15
    74          3
    75          8
    76          2
    77         12
    78         11
    79         12
    80          5
    81         53
    82         39
    83        115
    84         67
    85         61
    86          4
    87         16
    88          2
    89          2
    90          0
    91          8
    92          2
    93         13
    94          7
    95         70
    96         20
    97         53
    98         48
    99          5
   100         24
   101         32
   102          1
   103          2
   104          2
   105          4
   106          1
   107          4
   108          3
   109         10
   110         69
   111         39
   112         65
   113         52
   114          7
   115          5
   116          3
   117          4
   118          5
   119         14
   120          5
   121          3
   122          2
   123          9
   124          2
   125          9
   126          4
   127          6
   128          9
   129          2
   130          0
   131         82
   132          3
   133          8
   134          0
   135          9
   136          8
   137          7
   138          1
   139          6
   140          0
   141          5
   142          1
   143          2
   144          3
   145          3
   146          1
   147          1
   148          0
   149          1
   150          0
   151          8
   152          3
   153          7
   154          2
   155        340
   156         39
   157          4
   158          0
   159          1
   160          2
   161          2
   162          2
   163          5
   164          0
   165          0
   166          0
   167          0
   168          0
   169          4
   170          0
   171          0
   172          0
   173          0
   174          0
   175          2
   176          0
   177          0
   178          0
   179          0
   180          0
   181          6
   182          0
   183          0
   184          0
   185          0
   186          0
   187          0
   188          0
   189          0
   191          1
   192          0
   193          2
   194          0
   195          1
   196          0
   197          0
   199          0
   200          0
   201          0
   202          0
   203          0
   204          0
   205          0
   206          0
   207         12
   208          7
   209          2
   210          0
   211          0
   212          0
   213          2
   214          0
   215          0
   216          0
   217          0
   218          0
   219          0
   221          0
   222          0
   223          0
   224          0
   225          1
   226          0
   229          0
   230          0
   231          2
   232          0
   235          9
   236          1
   237          0
   239          0
   243          0
   245          0
   249          0
   250          0
   252          0
   253          0
   254          0
   257          0
   258          0
   259          0
   263          1
   264          0
   265          0
   267          0
   268          0
   269          0
   275          0
   281          2
   282          0
   283          0
   285          0
   286          0
   287          0
   295          0
   313          0
   317          0
   323          0
   327          0
   331          0
   336          0
   337          0
   341          0
   342          0
   343          0
   345          4
   346          0
   355          0
   363          1
   364          0
   367          0
   374          0
   382          1
   383          0
   385          0
   386          0
   387          0
   393          0
   401          0
   413          1
   414          0
   416          0
   424          0
   435          0
   436          0
   437          1
   438          0
   441          1
   445          1
   449          0
   454          0
   455          0
   458          0
   459         21
   460          2
   461          0
   467          4
   468          0
   469          0
   471          2
   472          2
   473          9
   474        301
   475         71
   476          7
   477          1
   481          0
   484          1
   485          2
   486          1
   487        299
   488         46
   489          5
   490          0
   497          1
   498          0
   499          0
   500          2
   501         40
   502          6
   511          0
   512          0
   513          1
   514          0
   515         13
   516          3
   517          1
   518          0
   525          0
   526          0
   527          0
   528          0
   529         26
   530          5
   531          0
   535          0
   536          0
   543        115
   544         19
   545          2
   546          0
   557         14
   558          3
   559          0
   567         21
   568          4
   569          0
   571          0
   584          0
   585          0
   586        125
   587         25
   588          3
   589          0