##TITLE=Library Entry 79949
##JCAMP-DX=Revision 4.10 
##DATA TYPE=MASS SPECTRUM
##SAMPLE DESCRIPTION=A.A.Kutin, Moscow, Russia
##NAMES=HP
##CAS NAME=m-Benzamido-phenoxyacetic acid
##MOLFORM=C15H13NO4
##CAS REGISTRY NO=1878-89-3
##MP= -300
##BP= -300
##MW= 271
##$RETENTION INDEX=0
##$CONDENSED SPECTRUM=NO
##NPOINTS= 136
##XYDATA=(XY..XY) 1 
    36          1
    37          2
    38          8
    39         20
    40          5
    41          7
    42         12
    43          5
    44          6
    45         30
    50         39
    51         97
    52         27
    53         12
    54          1
    55          3
    57          0
    58          0
    59          2
    60          1
    61          1
    62          7
    63         30
    64         29
    65         16
    66          3
    67          1
    68          3
    69          1
    73          1
    74         12
    75         15
    77        471
    78         38
    79         18
    80         28
    81         23
    82          1
    83          1
    87          0
    88          0
    89          4
    90         11
    91         31
    92         15
    93          4
    94          3
   100          0
   102          4
   103         14
   105        999
   106         80
   107         13
   108         20
   109          7
   111         14
   113          5
   115          2
   116          0
   117          1
   118          4
   119          2
   120          2
   121          9
   122         17
   123          2
   127          0
   128          2
   129          1
   130          1
   131          1
   132          3
   133         16
   134          3
   135         23
   136          2
   137          0
   138          0
   139          1
   140          1
   141          0
   144          0
   146          0
   147          0
   148         14
   149         32
   150          6
   151          1
   152          1
   153          2
   154          4
   155          1
   156          1
   162          0
   163          2
   164          0
   165          1
   166          6
   167          7
   168          3
   169          0
   170          0
   171          0
   178          1
   179          0
   180          0
   182          1
   183          2
   184          3
   185          1
   190          4
   193          0
   194          3
   195          0
   196          2
   197          2
   198          3
   204          0
   208          8
   209          1
   210          0
   211          2
   212          1
   213         24
   214          2
   223          0
   224          5
   226         34
   227         12
   228          0
   247          1
   268          1
   269          2
   271        386
   272         56
   273          6