##TITLE=Library Entry 109294
##JCAMP-DX=Revision 4.10 
##DATA TYPE=MASS SPECTRUM
##SAMPLE DESCRIPTION=Japan AIST/NIMC Database- Spectrum MS-NW-7166
##NAMES=HP
##CAS NAME=m-Chlorophenylacetic acid
##MOLFORM=C8H7ClO2
##CAS REGISTRY NO=1878-65-5
##MP= -300
##BP= -300
##MW= 170
##$RETENTION INDEX=0
##$CONDENSED SPECTRUM=NO
##NPOINTS= 96
##XYDATA=(XY..XY) 1 
    14          1
    17          1
    18          4
    26          4
    27          8
    28         13
    29          5
    31          1
    35          1
    36          5
    37         10
    38         22
    39         71
    40          7
    41          6
    42          2
    43         15
    44         26
    45         31
    47          2
    48          1
    49          9
    50         36
    51         42
    52          6
    53          6
    55          3
    56          1
    57          6
    60          4
    61         18
    62         48
    63        118
    64         24
    65         34
    66          2
    67          5
    69          1
    71          3
    72          3
    73         34
    74         12
    75         24
    76          6
    77         35
    78          7
    79          9
    80          1
    83          1
    84          4
    85          9
    86         12
    87         12
    88          6
    89        220
    90         78
    91        515
    92         42
    93          1
    96          1
    97          5
    98          1
    99         62
   100          4
   101         21
   102          2
   105          2
   107         25
   108          3
   111          3
   112          1
   113          3
   115          1
   123          6
   124         21
   125        999
   126        101
   127        326
   128         39
   129          2
   130          3
   134          2
   135          3
   139          2
   141          2
   142          1
   145          2
   152         26
   153          4
   154          9
   155          1
   170        392
   171         38
   172        136
   173         14
   174          1