##TITLE=Library Entry 62920
##JCAMP-DX=Revision 4.10 
##DATA TYPE=MASS SPECTRUM
##SAMPLE DESCRIPTION=NIST Mass Spectrometry Data Center, 1994
##NAMES=HP
##CAS NAME=3-Bromophenylacetic acid
##MOLFORM=C8H7BrO2
##CAS REGISTRY NO=1878-67-7
##MP= -300
##BP= -300
##MW= 214
##$RETENTION INDEX=0
##$CONDENSED SPECTRUM=NO
##NPOINTS= 75
##XYDATA=(XY..XY) 1 
    14          5
    17          5
    25          3
    26         18
    27         30
    28         25
    29         20
    31          5
    32          2
    37         37
    38         90
    39        201
    40         25
    41         11
    42          9
    43         34
    44         34
    45        172
    49         20
    50        129
    51        126
    52         25
    53         21
    55          9
    60          6
    61         57
    62        166
    63        361
    64        101
    65         99
    66          7
    67          6
    73         10
    74         39
    75         34
    76         17
    77        100
    78         42
    79         53
    80         13
    81         13
    82          7
    85         33
    86         42
    87         33
    88          7
    89        529
    90        611
    91        999
    92         83
    93          7
   105          7
   106          6
   107         45
   108          3
   116          3
   117         17
   118          5
   119         17
   134          5
   135          8
   143         14
   145         12
   169        684
   170         85
   171        658
   172         70
   173          3
   174          5
   198          4
   214        437
   215         48
   216        401
   217         41
   218          4