##TITLE=Library Entry 2072
##JCAMP-DX=Revision 4.10 
##DATA TYPE=MASS SPECTRUM
##SAMPLE DESCRIPTION=Exported from NIST MS Search
##NAMES=HP
##CAS NAME=1-Butanethiol, 2-methyl-
##MOLFORM=C5H12S
##CAS REGISTRY NO=1878-18-8
##MP= -300
##BP= -300
##MW= 104
##$RETENTION INDEX=773
##$CONDENSED SPECTRUM=NO
##NPOINTS= 66
##XYDATA=(XY..XY) 1 
    14         10
    15         90
    24          1
    25          5
    26         67
    27        452
    28         73
    29        667
    30         18
    31          1
    32         16
    33         35
    34         21
    35         16
    36          3
    37         20
    38         42
    39        382
    40         52
    41        999
    42        268
    43        202
    44         14
    45        196
    46         82
    47        426
    48         74
    49         51
    50         25
    51         28
    52          9
    53         47
    54         16
    55        507
    56        285
    57        615
    58         53
    59         32
    60         10
    61         39
    62          7
    63          5
    64          1
    65          3
    66          1
    67          6
    68          5
    69         35
    70        612
    71         75
    72          5
    73         10
    74         24
    75        131
    76         10
    77          6
    78          1
    84          1
    85          3
    87          3
    88          1
    89          5
   103          2
   104        432
   105         28
   106         21