##TITLE=Library Entry 39835
##JCAMP-DX=Revision 4.10 
##DATA TYPE=MASS SPECTRUM
##SAMPLE DESCRIPTION=V.G. Zaikin, R.S.Borisov, TIPS RAS, Moscow, Russia
##NAMES=HP
##CAS NAME=3-Pentadecanone
##MOLFORM=C15H30O
##CAS REGISTRY NO=18787-66-1
##MP= -300
##BP= -300
##MW= 226
##$RETENTION INDEX=1672
##$CONDENSED SPECTRUM=NO
##NPOINTS= 88
##XYDATA=(XY..XY) 1 
    26          7
    27         72
    28        124
    29        311
    30          5
    31          5
    36          1
    38          1
    39         46
    40         10
    41        310
    42         71
    43        453
    44         10
    45          6
    51          1
    52          1
    53         22
    54         29
    55        297
    56         84
    57        906
    58         40
    59         10
    65          3
    66          2
    67         55
    68         23
    69        216
    70         54
    71        265
    72        999
    73        364
    74         15
    77          2
    79          6
    80          3
    81         53
    82         26
    83        140
    84         33
    85        307
    86         25
    87         34
    88          1
    91          1
    93          2
    94          1
    95         75
    96         28
    97        116
    98         25
    99         40
   100          4
   101         10
   107          1
   109         35
   110         13
   111         37
   112          9
   113         12
   114         13
   115          5
   123         17
   124          6
   125          8
   126          4
   127          7
   128          4
   129          2
   133          4
   137          6
   138          2
   139          1
   140          3
   141          9
   142          1
   143          1
   152          9
   154          4
   155          8
   157          1
   169          2
   179          1
   183          5
   197         81
   198          9
   226          2