##TITLE=Library Entry 84383
##JCAMP-DX=Revision 4.10 
##DATA TYPE=MASS SPECTRUM
##SAMPLE DESCRIPTION=NIST Mass Spectrometry Data Center
##NAMES=HP
##CAS NAME=Acetic acid, (2-methylphenoxy)-
##MOLFORM=C9H10O3
##CAS REGISTRY NO=1878-49-5
##MP= -300
##BP= -300
##MW= 166
##$RETENTION INDEX=0
##$CONDENSED SPECTRUM=NO
##NPOINTS= 75
##XYDATA=(XY..XY) 1 
    14          3
    15          5
    26          9
    27         43
    29         24
    30          5
    31         47
    37          7
    38         28
    39        164
    40         12
    41         32
    42         31
    43         11
    44         11
    45         51
    49          4
    50         70
    51        153
    52         77
    53         69
    54          5
    55          8
    59          5
    60         17
    61         10
    62         34
    63        105
    64         33
    65        262
    66         21
    67          4
    73          3
    74         18
    75         12
    76         12
    77        448
    78        159
    79        176
    80         29
    81          7
    82         12
    85          3
    86          7
    87          5
    89         99
    90         72
    91        971
    92        112
    93         88
    94         12
   103          6
   104          9
   105         18
   106         21
   107        999
   108        244
   109         34
   110          3
   118          3
   119         50
   120         85
   121        498
   122        107
   123         13
   133         10
   134          3
   135          5
   137          1
   148         35
   149          3
   154          4
   166        987
   167         99
   168         10