##TITLE=Library Entry 109595
##JCAMP-DX=Revision 4.10 
##DATA TYPE=MASS SPECTRUM
##SAMPLE DESCRIPTION=NIST Mass Spectrometry Data Center, 1994
##NAMES=HP
##CAS NAME=Benzeneacetic acid, 4-chloro-
##MOLFORM=C8H7ClO2
##CAS REGISTRY NO=1878-66-6
##MP= -300
##BP= -300
##MW= 170
##$RETENTION INDEX=0
##$CONDENSED SPECTRUM=NO
##NPOINTS= 85
##XYDATA=(XY..XY) 1 
    12          1
    14          2
    16          1
    17          5
    18          7
    25          2
    26         16
    27          8
    28         10
    32          0
    35          6
    36          5
    37         29
    38         49
    39        123
    40         11
    41          3
    42          7
    43         15
    44          0
    45        110
    46          2
    47          6
    48          2
    49         20
    50         75
    51         73
    52         10
    53          8
    55          2
    60          7
    61         37
    62         86
    63        194
    64         33
    65         33
    66          3
    67          3
    71          1
    73         55
    74         16
    75         41
    76          8
    77         46
    78          8
    79         12
    80          1
    84          5
    85         16
    86         23
    87         20
    88          1
    89        286
    90         79
    91        174
    92         14
    96          2
    97         10
    99         82
   100          6
   101         27
   102          2
   105          1
   107          3
   111          2
   112          1
   113          3
   115          0
   123          6
   125        999
   126         85
   127        325
   128         27
   129          1
   130          1
   135          1
   139          1
   141          1
   151          1
   152          4
   154          1
   170        270
   171         25
   172         84
   173          8