##TITLE=Library Entry 39138
##JCAMP-DX=Revision 4.10 
##DATA TYPE=MASS SPECTRUM
##SAMPLE DESCRIPTION=V.Zaikin,Topchiev Inst.Petrochem.Synth.,Moscow
##NAMES=HP
##CAS NAME=4-Hexadecanone
##MOLFORM=C16H32O
##CAS REGISTRY NO=18787-65-0
##MP= -300
##BP= -300
##MW= 240
##$RETENTION INDEX=0
##$CONDENSED SPECTRUM=NO
##NPOINTS= 107
##XYDATA=(XY..XY) 1 
    25          3
    26         16
    27        108
    28         20
    29        137
    30          3
    31          3
    37          3
    38          5
    39         71
    40         17
    41        424
    42         91
    43        952
    44         26
    45         10
    50          2
    51          4
    52          2
    53         25
    54         26
    55        260
    56         72
    57        401
    58        740
    59         25
    60          2
    65          5
    66          4
    67         52
    68         20
    69        100
    70         50
    71        999
    72         40
    73          4
    77          5
    78          1
    79         11
    80          4
    81         55
    82         23
    83         60
    84         28
    85        117
    86        968
    87        480
    88         23
    89          1
    91          2
    93          4
    94          2
    95         80
    96         23
    97         54
    98         28
    99        276
   100         21
   101          2
   107          2
   109         48
   110         21
   111         20
   112          8
   113         46
   114          5
   115          1
   121          2
   123         26
   124         15
   125          6
   126          3
   127         10
   128         26
   129          3
   137          8
   138          6
   139          2
   141         14
   142          9
   151          1
   152         34
   153          5
   154         10
   155         20
   156          3
   166          2
   169          4
   170          1
   179          5
   180          2
   183          2
   184          2
   194          1
   195          1
   196          1
   197        685
   198         75
   199          6
   211          7
   212          4
   222          5
   225          5
   239          2
   240         50
   241         17
   242          2