##TITLE=Library Entry 28245
##JCAMP-DX=Revision 4.10 
##DATA TYPE=MASS SPECTRUM
##SAMPLE DESCRIPTION=Chemical Concepts
##NAMES=HP
##CAS NAME=2-Hexadecanone
##MOLFORM=C16H32O
##CAS REGISTRY NO=18787-63-8
##MP= -300
##BP= -300
##MW= 240
##$RETENTION INDEX=1805
##$CONDENSED SPECTRUM=NO
##NPOINTS= 120
##XYDATA=(XY..XY) 1 
    26          2
    27         68
    28         11
    29        146
    30          3
    31          2
    38          0
    39         57
    41        258
    42         59
    43        594
    44         14
    45         10
    50          0
    51          2
    52          2
    53         19
    54         25
    55        234
    56         66
    57        237
    58        999
    59        619
    60         21
    61          2
    63          0
    65          4
    66          4
    67         50
    68         34
    69        100
    70         44
    71        393
    72         34
    73          1
    74          0
    77          3
    78          0
    79          9
    80          4
    81         44
    82         95
    83         64
    84         28
    85        106
    86         12
    87          1
    91          1
    93          2
    94          2
    95         41
    96        100
    97         60
    98         17
    99         17
   100         22
   101          1
   105          0
   107          1
   108          1
   109         24
   110         30
   111         27
   112         10
   113         18
   114         17
   115          1
   121          0
   123         10
   124         15
   125         16
   126          6
   127         28
   128          6
   129          0
   135          0
   137          5
   138         12
   139          8
   140          3
   141          7
   142          5
   143          0
   151          3
   152         11
   153          5
   154          7
   155          5
   156          5
   157          0
   165          1
   166          5
   167          0
   169          4
   170          2
   179          1
   180         29
   181          3
   182         45
   183         11
   184          5
   185          0
   193          1
   194          1
   196          1
   197         11
   198          4
   199          0
   207          1
   211          5
   212          2
   221          1
   222         18
   223          3
   225         26
   226          4
   239          0
   240        108
   241         27
   242          3