##TITLE=Library Entry 9445
##JCAMP-DX=Revision 4.10 
##DATA TYPE=MASS SPECTRUM
##SAMPLE DESCRIPTION=Div. of Experiment Therapeutics WRAIR, WRAMC, Washingto
n DC 20307
##NAMES=HP
##CAS NAME=2-Pyridinol, 1-acetyl-3,6-bis(tert-butylthio)-1,2,3,6-tetrahydro-
, acetate (ester)
##MOLFORM=C17H29NO3S2
##CAS REGISTRY NO=18794-20-2
##MP= -300
##BP= -300
##MW= 359
##$RETENTION INDEX=0
##$CONDENSED SPECTRUM=NO
##NPOINTS= 97
##XYDATA=(XY..XY) 1 
    41        674
    42         48
    43        999
    44         21
    45         49
    46          8
    47         33
    48          9
    49         11
    50          8
    51          4
    52         33
    53         85
    54         10
    55         57
    56         30
    57        829
    58         43
    59         69
    60         29
    61         18
    62         13
    67         31
    68         73
    69         17
    70          9
    71          8
    72          5
    73         12
    74         12
    75          6
    77          1
    78         77
    79         43
    80        956
    81         55
    82          1
    83          6
    84          4
    85         30
    86          2
    87          6
    88          9
    89         15
    93          1
    94          1
    96        371
    97         30
    98          3
    99          2
   100         13
   101         13
   102         15
   103          9
   104          8
   110          8
   111         44
   112        709
   113         96
   114         40
   115          6
   122         99
   123          7
   128         27
   129          9
   130         40
   138        212
   139         17
   144         31
   145          1
   154        155
   155         27
   156          7
   166          7
   168        759
   169         78
   170         43
   171          6
   172         27
   178          1
   180         60
   181          6
   186          6
   200         13
   208          2
   210        377
   211         46
   212         22
   214          6
   228         12
   242          1
   270        319
   271         45
   272         17
   300         11
   302         18
   359         18