##TITLE=Library Entry 109232
##JCAMP-DX=Revision 4.10 
##DATA TYPE=MASS SPECTRUM
##SAMPLE DESCRIPTION=L.BAUER UNIV. OF ILLINOIS, CHICAGO, ILLINOIS, USA
##NAMES=HP
##CAS NAME=4-Picoline, 2-(tert-butylthio)-
##MOLFORM=C10H15NS
##CAS REGISTRY NO=18794-36-0
##MP= -300
##BP= -300
##MW= 181
##$RETENTION INDEX=0
##$CONDENSED SPECTRUM=NO
##NPOINTS= 14
##XYDATA=(XY..XY) 1 
    29         70
    39        110
    41        110
    53         50
    57        120
    65         70
    80         80
    81        200
    92         60
   125        999
   126        140
   127         50
   181         90
   182         10