##TITLE=Library Entry 88106
##JCAMP-DX=Revision 4.10 
##DATA TYPE=MASS SPECTRUM
##SAMPLE DESCRIPTION=Exported from NIST MS Search
##NAMES=HP
##CAS NAME=Pyridine, 2-[(1,1-dimethylethyl)thio]-
##MOLFORM=C9H13NS
##CAS REGISTRY NO=18794-29-1
##MP= -300
##BP= -300
##MW= 167
##$RETENTION INDEX=0
##$CONDENSED SPECTRUM=NO
##NPOINTS= 14
##XYDATA=(XY..XY) 1 
    29        160
    39        184
    41        200
    50         80
    56        216
    67        424
    78        112
    83         32
   111        999
   112         96
   113         56
   152         32
   167         64
   168         16