##TITLE=Library Entry 3451
##JCAMP-DX=Revision 4.10 
##DATA TYPE=MASS SPECTRUM
##SAMPLE DESCRIPTION=Mark Whitten, Florida Museum of Natural History, U. of
 Florida
##NAMES=HP
##CAS NAME=(E)-.beta.-Famesene
##MOLFORM=C15H24
##CAS REGISTRY NO=18794-84-8
##MP= -300
##BP= -300
##MW= 204
##$RETENTION INDEX=1457
##$CONDENSED SPECTRUM=NO
##NPOINTS= 82
##XYDATA=(XY..XY) 1 
    41        999
    42         51
    43         71
    44          4
    49          1
    50          8
    51         43
    52         24
    53        176
    54         19
    55        172
    56         14
    57         38
    58          2
    62          2
    63         10
    65         77
    66         27
    67        231
    68         94
    69        788
    70         45
    71         27
    75          1
    77        124
    78         25
    79        204
    80         31
    81        162
    82         50
    83         10
    84          4
    89          2
    91        165
    92         74
    93        451
    94         55
    95         42
    96          5
    97          2
   102          2
   103          6
   104          5
   105         69
   106         25
   107         82
   108         11
   109         46
   110          6
   111          8
   112          6
   113          2
   115          6
   116          2
   117          6
   119         66
   120        162
   121         42
   122          6
   123          8
   128          1
   129          1
   131          3
   133        193
   134         43
   135         18
   136          5
   137          4
   146          1
   147         21
   148         23
   149          5
   159          1
   161         96
   162         20
   163          2
   175          4
   176          3
   189         14
   190          2
   204         39
   205          6