##TITLE=Library Entry 67407
##JCAMP-DX=Revision 4.10 
##DATA TYPE=MASS SPECTRUM
##SAMPLE DESCRIPTION=Div. of Experiment Therapeutics WRAIR, WRAMC, Washingto
n DC 20307
##NAMES=HP
##CAS NAME=2-Pyridinol, 1-acetyl-3,6-bis(tert-butylthio)-1,2,3,6-tetrahydro-
4-methyl-, acetate (ester)
##MOLFORM=C18H31NO3S2
##CAS REGISTRY NO=18794-22-4
##MP= -300
##BP= -300
##MW= 373
##$RETENTION INDEX=0
##$CONDENSED SPECTRUM=NO
##NPOINTS= 49
##XYDATA=(XY..XY) 1 
    41        429
    42         38
    43        516
    45         13
    47         48
    49         20
    51          6
    53         29
    55         52
    57        579
    58         22
    59         72
    60         39
    65         52
    67         40
    80         15
    81         12
    82         69
    84         14
    86          9
    92         84
    93        115
    94        999
    95         64
    99         14
   110        451
   111         45
   125         64
   126        910
   127        125
   128         50
   136         81
   142         42
   144         22
   152        222
   158         10
   168        123
   169         11
   182        647
   183         78
   184         47
   186         29
   194         50
   224        288
   225         42
   226         11
   284        457
   285         62
   286         21