##TITLE=Library Entry 16322
##JCAMP-DX=Revision 4.10 
##DATA TYPE=MASS SPECTRUM
##SAMPLE DESCRIPTION=Humboldt-Universitat zu Berlin, Department of Chemistry
, Analytical Group
##NAMES=HP
##CAS NAME=1-(4,5-Diphenyl-oxazol-2-yl)-ethylamine
##MOLFORM=C17H16N2O
##CAS REGISTRY NO=187994-18-9
##MP= -300
##BP= -300
##MW= 264
##$RETENTION INDEX=0
##$CONDENSED SPECTRUM=NO
##NPOINTS= 155
##XYDATA=(XY..XY) 1 
    12          0
    14          0
    15          7
    16          1
    17          8
    18         88
    19          0
    26          1
    27         13
    28         42
    29          9
    30          6
    36          0
    37          0
    38          3
    39         20
    40          3
    41          9
    42         25
    44        999
    45         25
    50          8
    51         40
    52          4
    53          1
    54          5
    55          4
    56         13
    57          2
    58          7
    59          0
    61          1
    62          7
    63         20
    64          3
    65          3
    66          0
    67          1
    68          0
    69          2
    70          2
    71          1
    73          1
    74          3
    75          5
    76          8
    77         94
    78          8
    79          1
    80          0
    81          1
    83          2
    84          0
    85          1
    86          2
    87          4
    88          6
    89         20
    90         12
    91          9
    92          1
    94          0
    95          0
    97          1
    98          1
    99          1
   100          0
   101          1
   102          2
   103          4
   104         10
   105         25
   106          2
   107          0
   111          4
   112          0
   113          2
   114          3
   115         14
   116          7
   117         10
   118         19
   119          2
   122          0
   123          1
   124         13
   126          2
   127          1
   128          3
   129          0
   130          2
   131          0
   132          1
   133          0
   137          1
   138          1
   139          5
   140          2
   141          0
   142          1
   143          1
   144          0
   149          0
   150          1
   151          2
   152          4
   153          1
   157          0
   159        100
   160         11
   161          1
   162          0
   163          6
   164          6
   165         39
   166          8
   167          3
   168          0
   171          0
   173          0
   175          0
   176          3
   177          2
   178          5
   179          1
   187          0
   188          0
   189          0
   190          3
   191          1
   192          4
   193         14
   194          3
   195          0
   203          0
   204          0
   206          0
   218          0
   219          0
   220          2
   221         17
   222          7
   223          1
   235          0
   236          0
   247          0
   248          1
   249         17
   250          3
   251          0
   262          0
   263          1
   264         25
   265          5
   266          0