##TITLE=Library Entry 109116
##JCAMP-DX=Revision 4.10 
##DATA TYPE=MASS SPECTRUM
##SAMPLE DESCRIPTION=L.BAUER UNIV. OF ILLINOIS, CHICAGO, ILLINOIS, USA
##NAMES=HP
##CAS NAME=2-Picoline, 5-(tert-butylthio)-
##MOLFORM=C10H15NS
##CAS REGISTRY NO=18794-44-0
##MP= -300
##BP= -300
##MW= 181
##$RETENTION INDEX=0
##$CONDENSED SPECTRUM=NO
##NPOINTS= 16
##XYDATA=(XY..XY) 1 
    29        120
    32         90
    39        100
    41        230
    53        100
    57        430
    81         90
    84         70
    97         50
   124        100
   125        999
   126        110
   127         50
   166         30
   181        140
   182         17