##TITLE=Library Entry 34125
##JCAMP-DX=Revision 4.10 
##DATA TYPE=MASS SPECTRUM
##SAMPLE DESCRIPTION=A.SELVA POLITECNICO DI MILANO, ITALY
##NAMES=HP
##CAS NAME=.beta.-Resorcylic acid, 3-(3,7-dimethyl-2,6-octadienyl)-6-pentyl-
, ethyl ester, (E)-
##MOLFORM=C24H36O4
##CAS REGISTRY NO=18793-33-4
##MP= -300
##BP= -300
##MW= 388
##$RETENTION INDEX=0
##$CONDENSED SPECTRUM=NO
##NPOINTS= 156
##XYDATA=(XY..XY) 1 
    17        250
    18        520
    19        120
    27        170
    28        690
    29        350
    30         70
    31        720
    32        410
    39        150
    40         50
    41        950
    42        110
    43        820
    44        530
    45        750
    46        330
    53        120
    54         30
    55        490
    56        100
    57        300
    58         30
    59         50
    60         40
    67        210
    68        100
    69        999
    70        120
    71        180
    72         30
    73         50
    77        240
    78         60
    79        160
    80        100
    81        290
    82        130
    83        140
    84         50
    85         80
    91        180
    92         70
    93        280
    94         80
    95        140
    96         50
   105        270
   106         60
   107        160
   108         60
   109        170
   110         40
   111         60
   119        100
   120         40
   121        260
   122        200
   123        290
   124         80
   135        100
   136        120
   137        190
   138         50
   145         50
   146         20
   147         80
   148         30
   149        140
   150         80
   151         40
   159         30
   160         30
   161         90
   162         50
   163        110
   164         40
   165         30
   173         50
   174         50
   175        180
   176         70
   177        100
   178         70
   179         30
   187         60
   188         30
   189        100
   190         50
   191        100
   192         40
   193        130
   194         40
   195         20
   201         80
   202         40
   203        170
   204         60
   205         40
   217        120
   218         70
   219        510
   220        150
   221         40
   229         30
   230         50
   231        220
   232        120
   233         80
   234         20
   243         50
   244         20
   245         40
   246         20
   247         40
   248         10
   257        100
   258         40
   259         90
   260         60
   261         20
   264         20
   265        340
   266        120
   267         20
   271         50
   272         40
   273        240
   274         80
   275         20
   284         30
   285         20
   286         40
   287         20
   288         10
   303        160
   304         50
   305        110
   306         30
   315         10
   316         20
   317         20
   318         10
   319         50
   320         10
   327         20
   328         10
   340         20
   341         10
   342        100
   343         90
   344         30
   345         10
   388         90
   389         40
   390         10