##TITLE=Library Entry 14315
##JCAMP-DX=Revision 4.10 
##DATA TYPE=MASS SPECTRUM
##SAMPLE DESCRIPTION=R.M.TEETER CHEVRON RESEARCH CO., RICHMOND, CALIF., USA.
##NAMES=HP
##CAS NAME=Decanoic acid, 2,2,3,3,4,4,5,5-octafluoropentyl ester
##MOLFORM=C15H22F8O2
##CAS REGISTRY NO=18798-10-2
##MP= -300
##BP= -300
##MW= 386
##$RETENTION INDEX=0
##$CONDENSED SPECTRUM=NO
##NPOINTS= 275
##XYDATA=(XY..XY) 1 
    12          3
    13          0
    14          3
    15          7
    16         19
    24          0
    25          1
    26         11
    27         86
    28        130
    29        215
    30         10
    31        180
    32          2
    33         10
    35          0
    36          1
    37          1
    38          2
    39         56
    40         14
    41        331
    42        126
    43        999
    44         30
    45         19
    46          2
    47          5
    48          2
    49         12
    50          4
    51         90
    52          3
    53         21
    54         35
    55        306
    56         79
    57        363
    58         17
    59          4
    60          7
    61         11
    62          2
    63          2
    64          9
    65          5
    66          3
    67         39
    68         50
    69        246
    70         54
    71        268
    72         15
    73         11
    74          2
    75          3
    76          1
    77          7
    78          4
    79          9
    80          4
    81         45
    82         34
    83         96
    84         66
    85         52
    86          4
    87          3
    88          0
    89          1
    90          0
    91          5
    92          1
    93          5
    94          4
    95         61
    96          8
    97         51
    98         54
    99          6
   100          5
   101         12
   102          0
   103          1
   104          1
   105          2
   106          1
   107          4
   108          2
   109          9
   110         71
   111         26
   112         73
   113         44
   114          3
   115          1
   116          0
   117          1
   118          1
   119          2
   120          1
   121          2
   122          1
   123          6
   124          1
   125          8
   126          4
   127          2
   128          0
   129          1
   130          0
   131         14
   132          1
   133          5
   134          0
   135          3
   136         11
   137          5
   138          1
   139          3
   140          0
   141          0
   142          0
   143          0
   144          0
   145         22
   146          1
   147          0
   148          0
   149          1
   150          0
   151          5
   152          1
   153          4
   154          2
   155        317
   156         36
   157          2
   158          0
   159          0
   160          0
   161          0
   162          0
   163          2
   164          0
   165          0
   166          0
   167          0
   168          0
   169          0
   170          0
   171          0
   172          0
   173          0
   174          0
   175          0
   176          0
   177          1
   178          0
   179          0
   180          0
   181          0
   182          4
   183          0
   184          0
   185          0
   186          0
   187          0
   188          0
   189          0
   190          0
   191          0
   192          0
   193          0
   194          0
   195          0
   196          0
   197          0
   202          0
   203          0
   204          0
   205          0
   206          0
   207          4
   208          0
   209          0
   211          0
   212          0
   213          0
   214          0
   215          0
   216          0
   217          0
   218          0
   219          0
   220          0
   221          0
   223          0
   224          0
   225          0
   226          0
   228          0
   229          0
   230          0
   231          0
   232          0
   233          0
   235          9
   236          1
   237          0
   238          0
   239          0
   241          1
   245          3
   246          0
   253          0
   254          0
   255          0
   258          0
   259         38
   260          2
   261          0
   267          6
   268          0
   269          0
   271          2
   272          2
   273         15
   274        623
   275        104
   276          9
   277          0
   281          0
   283          0
   284          1
   285          2
   286          0
   287        546
   288         55
   289          5
   290          0
   297          1
   298          1
   299          0
   300          2
   301         63
   302          8
   303          1
   306          0
   311          1
   312          0
   313          1
   314          0
   315         22
   316          4
   317          0
   325          0
   329         51
   330          8
   331          1
   332        194
   333         30
   334          3
   357         29
   358          5
   359          0
   367         11
   368          2
   369          0
   371          0
   385          0
   386        146
   387         29
   388          3
   389          0