##TITLE=Library Entry 109115
##JCAMP-DX=Revision 4.10 
##DATA TYPE=MASS SPECTRUM
##SAMPLE DESCRIPTION=L.BAUER UNIV. OF ILLINOIS, CHICAGO, ILLINOIS, USA
##NAMES=HP
##CAS NAME=4-Picoline, 3-(tert-butylthio)-
##MOLFORM=C10H15NS
##CAS REGISTRY NO=18794-37-1
##MP= -300
##BP= -300
##MW= 181
##$RETENTION INDEX=0
##$CONDENSED SPECTRUM=NO
##NPOINTS= 17
##XYDATA=(XY..XY) 1 
    29        200
    39        170
    41        240
    45         90
    51         50
    53        180
    57        590
    65         40
    79         60
    80         60
    97         70
   124         90
   125        999
   126        120
   127         50
   181        160
   182         20