##TITLE=Library Entry 36719
##JCAMP-DX=Revision 4.10 
##DATA TYPE=MASS SPECTRUM
##SAMPLE DESCRIPTION=A.SELVA POLITECNICO DI MILANO, ITALY
##NAMES=HP
##CAS NAME=.beta.-Resorcylic acid, 5-(3,7-dimethyl-2,6-octadienyl)-6-pentyl-
, ethyl ester, (E)-
##MOLFORM=C24H36O4
##CAS REGISTRY NO=18793-34-5
##MP= -300
##BP= -300
##MW= 388
##$RETENTION INDEX=0
##$CONDENSED SPECTRUM=NO
##NPOINTS= 202
##XYDATA=(XY..XY) 1 
    17        100
    18        510
    27        140
    28        580
    29        290
    30         20
    31        250
    32        340
    39        150
    40         40
    41        910
    42         80
    43        890
    44        750
    45        150
    46         50
    51         40
    52         20
    53        140
    54         30
    55        500
    56         70
    57        240
    58         50
    65         80
    66         30
    67        260
    68         80
    69        999
    70        100
    71        190
    72         20
    77        210
    78         60
    79        220
    80         80
    81        420
    82        110
    83        150
    84         30
    85         90
    86         10
    91        260
    92         60
    93        270
    94         60
    95        220
    96         50
    97         70
    98         40
   104         30
   105        200
   106         40
   107        250
   108         90
   109        390
   110         70
   111         60
   112         20
   119        120
   120         50
   121        260
   122        150
   123        360
   124        110
   125         50
   126         20
   133        110
   134         60
   135        240
   136        150
   137        240
   138         50
   139         50
   140         10
   144         30
   145        100
   146         30
   147        150
   148         70
   149        180
   150        220
   151         70
   152         40
   153         30
   159         70
   160         50
   161        170
   162         80
   163        200
   164         70
   165         50
   166         20
   173         70
   174        120
   175        240
   176        100
   177        160
   178         60
   179         50
   180         50
   181         30
   182         10
   187         90
   188         50
   189        150
   190         50
   191        180
   192         50
   193        400
   194         80
   195         40
   196         20
   201        100
   202         40
   203        160
   204         60
   205        100
   206        150
   207         60
   208         60
   209         20
   217        160
   218         80
   219        970
   220        100
   221         60
   222         20
   229         40
   230         50
   231        690
   232        210
   233        340
   234         80
   235         20
   243         50
   244         20
   245        110
   246         40
   247        150
   248         30
   249         30
   250         20
   251        150
   252         20
   257        140
   258         50
   259        140
   260         90
   261         50
   262         10
   263         40
   264        240
   265        330
   266         50
   271         90
   272         50
   273        250
   274         60
   275         30
   276         20
   277         90
   278         20
   289         70
   290         20
   291         40
   292         10
   299        110
   300         30
   301         30
   302         30
   303        150
   304         40
   305        160
   306         30
   314         10
   315         60
   316         50
   317        130
   318         50
   319         10
   320         20
   327         90
   328         20
   329         10
   330         10
   331         10
   332        100
   333         20
   341         20
   342        200
   343        370
   344         80
   345         10
   367         30
   368         10
   371         10
   374         40
   375         10
   388        190
   389         40
   390         10