##TITLE=Library Entry 60695
##JCAMP-DX=Revision 4.10 
##DATA TYPE=MASS SPECTRUM
##SAMPLE DESCRIPTION=Div. of Experiment Therapeutics WRAIR, WRAMC, Washingto
n DC 20307
##NAMES=HP
##CAS NAME=N1-[[2-p-Tolylsulfonyl]ethyl]-N2-carbobenzoxyglycine amide
##MOLFORM=C19H22N2O5S
##CAS REGISTRY NO=18807-56-2
##MP= -300
##BP= -300
##MW= 390
##$RETENTION INDEX=0
##$CONDENSED SPECTRUM=NO
##NPOINTS= 85
##XYDATA=(XY..XY) 1 
    41         15
    42         22
    43         66
    44         59
    45          9
    49         11
    50          5
    51         20
    52          5
    53          3
    56         21
    57         18
    58          3
    59          0
    62          2
    63         16
    64          5
    65        104
    66          5
    67          3
    70         45
    71          4
    72          6
    74         64
    75          3
    76          0
    77         25
    78          6
    79         21
    80          1
    84          7
    85          6
    86         11
    89         23
    90         19
    91        999
    92        151
    93         11
    99          5
   104         82
   105         14
   106         10
   107         38
   108         80
   109          6
   117          5
   118          8
   119          9
   120         23
   121          3
   127         16
   132          4
   133          3
   134         22
   135          2
   139         17
   140          2
   150          2
   155        129
   156         11
   157          8
   165          9
   177          6
   181          1
   183          9
   191          4
   200         48
   201          5
   202          2
   210          5
   226         81
   227          9
   228          4
   235          2
   241         11
   255          7
   256          4
   283        136
   284         19
   285          7
   347          5
   390         87
   391         20
   392          9
   393          2