##TITLE=Library Entry 45572
##JCAMP-DX=Revision 4.10 
##DATA TYPE=MASS SPECTRUM
##SAMPLE DESCRIPTION=Dmitri Zagorevskii, University of Missouri-Columbia, Co
lumbia, MO
##NAMES=HP
##CAS NAME=3-Hydroxymethyl-4-(1-hydroxy-2-methylprop-2-enyl)toluene,  TBDMS
 derivative
##MOLFORM=C18H30O2Si
##CAS REGISTRY NO=188014-73-5
##MP= -300
##BP= -300
##MW= 306
##$RETENTION INDEX=0
##$CONDENSED SPECTRUM=NO
##NPOINTS= 72
##XYDATA=(XY..XY) 1 
    27         17
    29         28
    31          2
    39         24
    41         58
    42          6
    43         20
    45         16
    47         33
    51          7
    53         10
    55          9
    56         10
    57         40
    58          5
    59         22
    60          2
    61         13
    63          3
    65         10
    69          7
    73         90
    74         12
    75        999
    76         93
    77         80
    78         13
    79         26
    89          7
    91         46
   102          3
   103         21
   104         15
   105        583
   106         52
   107         22
   115         30
   116          9
   117         19
   119         15
   127          9
   128         30
   129         40
   131         17
   132         16
   133         92
   134         10
   141         39
   142         96
   143         68
   144         14
   145         28
   146          6
   147          2
   149          2
   155          8
   156         13
   157        474
   158         83
   159         83
   160         13
   161          5
   163          9
   173         14
   174         34
   175          8
   207          2
   231         26
   232          7
   233          9
   249         23
   250          3