##TITLE=Library Entry 97232
##JCAMP-DX=Revision 4.10 
##DATA TYPE=MASS SPECTRUM
##SAMPLE DESCRIPTION=Div. of Experiment Therapeutics WRAIR, WRAMC, Washingto
n DC 20307
##NAMES=HP
##CAS NAME=1,4,5,6-Tetrahydro-6-[phenylmethyl]-2H-1,2,4,5-tetrazine-3-thione
##MOLFORM=C9H12N4S
##CAS REGISTRY NO=18801-57-5
##MP= -300
##BP= -300
##MW= 208
##$RETENTION INDEX=0
##$CONDENSED SPECTRUM=NO
##NPOINTS= 108
##XYDATA=(XY..XY) 1 
    41         33
    42         29
    43         49
    45         86
    46         12
    47         15
    48          6
    50         34
    51         71
    52         20
    53          7
    54          1
    55          5
    56          2
    57         10
    59        133
    60        138
    62         48
    63         62
    65        191
    66          9
    67          1
    68          0
    69          1
    70          1
    71          1
    72          3
    73          6
    74         12
    75         29
    76          8
    77         53
    78         25
    79          8
    80          2
    83          2
    84          9
    85          6
    87         18
    89         59
    90         20
    91        610
    92        118
    93         13
    94          1
    97          1
    99          3
   100         16
   101          4
   102         10
   103         50
   104         23
   105          9
   106         10
   107          1
   108          0
   109          0
   111          2
   116         17
   117        999
   118         98
   119        104
   120         32
   121          4
   123          4
   124          0
   125          0
   127          2
   128          0
   129          2
   130          0
   131          7
   132          2
   133          5
   134          2
   135          6
   136          1
   137          0
   143          0
   144          0
   145          3
   146          5
   147          4
   148          3
   149          1
   150          1
   151          7
   152          0
   153          0
   158          0
   162          2
   163          0
   164          0
   170          1
   172          2
   174          0
   175          1
   177         16
   178          2
   179          0
   191          0
   192          0
   206          4
   207          1
   208        159
   209         20
   210          8
   211          1