##TITLE=Library Entry 57670
##JCAMP-DX=Revision 4.10 
##DATA TYPE=MASS SPECTRUM
##SAMPLE DESCRIPTION=TNO Volatile Compounds in Food - Chemical Concepts
##NAMES=HP
##CAS NAME=Carbonimidodithioic acid, methyl-, dimethyl ester
##MOLFORM=C4H9NS2
##CAS REGISTRY NO=18805-25-9
##MP= -300
##BP= -300
##MW= 135
##$RETENTION INDEX=0
##$CONDENSED SPECTRUM=NO
##NPOINTS= 39
##XYDATA=(XY..XY) 1 
    27         12
    29          5
    30          4
    33          2
    34          2
    35          2
    38          1
    39          1
    40          4
    41         19
    42        162
    43          9
    44         17
    45        180
    46         71
    47        159
    48         22
    49          3
    56         47
    57         18
    58          4
    59          5
    61         47
    64         16
    70          2
    71          1
    72         73
    73        141
    74         54
    75          6
    76          6
    79         36
    88        999
    89         40
    90         43
    91         11
    94         10
   135         36
   137          0