##TITLE=Library Entry 79170
##JCAMP-DX=Revision 4.10 
##DATA TYPE=MASS SPECTRUM
##SAMPLE DESCRIPTION=Japan AIST/NIMC Database- Spectrum MS-IW-1146
##NAMES=HP
##CAS NAME=Isoxazole, 5-methoxy-3-phenyl-
##MOLFORM=C10H9NO2
##CAS REGISTRY NO=18803-02-6
##MP= -300
##BP= -300
##MW= 175
##$RETENTION INDEX=0
##$CONDENSED SPECTRUM=NO
##NPOINTS= 93
##XYDATA=(XY..XY) 1 
    14          1
    15         24
    17          3
    18         15
    26          3
    27         14
    28         12
    29         14
    30          2
    31          2
    32          2
    37          9
    38         13
    39         78
    40          5
    41         29
    42         23
    43          6
    44          4
    49          4
    50         63
    51        122
    52         16
    53          2
    55          2
    56          2
    57          3
    58          7
    59          6
    61         12
    62         46
    63        138
    64         16
    65          9
    66          1
    67          1
    68          2
    69          2
    73          3
    74         17
    75         20
    76         59
    77        352
    78         24
    79          1
    85          3
    86          9
    87         14
    88         20
    89        216
    90         31
    91         11
    92          1
    98          1
    99          1
   100          1
   101          1
   102         15
   103         76
   104         35
   105        999
   106         81
   107         11
   108          1
   114          6
   115          6
   116        319
   117        131
   118         44
   119         14
   120        199
   121         17
   122          1
   128          1
   129          4
   130          8
   131          2
   132        106
   133         11
   134          1
   144        169
   145         18
   146        106
   147        115
   148         11
   149          2
   160          9
   161          2
   174          2
   175         78
   176          9
   177          7
   178          1