##TITLE=Library Entry 37720
##JCAMP-DX=Revision 4.10 
##DATA TYPE=MASS SPECTRUM
##SAMPLE DESCRIPTION=NIST Mass Spectrometry Data Center
##NAMES=HP
##CAS NAME=Methyl 1-acetylpyrrolidine-2-carboxylate
##MOLFORM=C8H13NO3
##CAS REGISTRY NO=18800-83-4
##MP= -300
##BP= -300
##MW= 171
##$RETENTION INDEX=1432
##$CONDENSED SPECTRUM=NO
##NPOINTS= 19
##XYDATA=(XY..XY) 1 
    28         25
    29         12
    39         13
    40          5
    41         56
    42         32
    43        114
    44          9
    68         65
    69         27
    70        999
    71         53
    72          5
   112        393
   113         24
   114          5
   171         80
   172         12
   173          4