##TITLE=Library Entry 76501
##JCAMP-DX=Revision 4.10 
##DATA TYPE=MASS SPECTRUM
##SAMPLE DESCRIPTION=Dmitri Zagorevskii, University of Missouri-Columbia, Co
lumbia, MO
##NAMES=HP
##CAS NAME=5-Methyl-2-(triisopropylsiloxy-2-methylprop-2-enyl)benzyl alcohol
##MOLFORM=C21H36O2Si
##CAS REGISTRY NO=188014-74-6
##MP= -300
##BP= -300
##MW= 348
##$RETENTION INDEX=0
##$CONDENSED SPECTRUM=NO
##NPOINTS= 128
##XYDATA=(XY..XY) 1 
    26          6
    27         33
    29         18
    31          9
    39         30
    41         70
    42         15
    43         41
    44          8
    45         57
    46          2
    47         18
    51          7
    53         16
    55         15
    56          6
    57         15
    58          8
    59        182
    60         22
    61        487
    62         30
    63         23
    65         13
    66         17
    67          7
    69         17
    71         13
    72          7
    73        121
    74         11
    75        934
    76          7
    77         99
    78         12
    79         20
    80          2
    81          9
    83          2
    85         13
    87         48
    88         10
    89        144
    90         13
    91         63
    92          5
    93          2
    94          3
    99          2
   101         20
   102          8
   103        999
   104        104
   105        157
   106         13
   107          4
   108          7
   113          7
   115         74
   116         21
   117         31
   118          5
   119        353
   120         35
   121         15
   127         19
   128         84
   129         94
   130         66
   131        614
   132         76
   133        126
   134         15
   135          6
   141         52
   142        112
   143        106
   144         34
   145        118
   146         19
   147         32
   148          6
   149         15
   153          7
   155         13
   156         11
   157        541
   158         78
   159        204
   160         28
   161         47
   162          9
   163         20
   165         13
   173         16
   174         13
   175         57
   176         10
   177          9
   179          5
   189         19
   191         14
   193          2
   199          6
   201          7
   203         70
   204         16
   205         16
   215          4
   217         10
   221         10
   231         24
   232          6
   233          3
   235          2
   245         55
   246         13
   247         11
   263         27
   264          6
   287        115
   288         30
   289         16
   290          2
   305        389
   306         97
   307         33
   308          5