##TITLE=Library Entry 62240
##JCAMP-DX=Revision 4.10 
##DATA TYPE=MASS SPECTRUM
##SAMPLE DESCRIPTION=LAC, NIDDK, NIH, Bethesda, MD 20892
##NAMES=HP
##CAS NAME=4-Methylbenzenesulfonic acid, 4'-hydroxybenzyl ester
##MOLFORM=C14H14O4S
##CAS REGISTRY NO=188128-73-6
##MP= -300
##BP= -300
##MW= 278
##$RETENTION INDEX=0
##$CONDENSED SPECTRUM=NO
##NPOINTS= 115
##XYDATA=(XY..XY) 1 
    41         66
    42          7
    43         11
    45        144
    46         15
    47         13
    48         33
    49         15
    50         86
    51        146
    52         48
    53         54
    54          7
    55          7
    56          1
    57          7
    58         10
    59          5
    61         18
    62         68
    63        207
    64        100
    65        481
    66         30
    67         13
    69         45
    70         10
    71         18
    72          2
    73          9
    74         18
    75         19
    77        243
    78         58
    79        131
    80         56
    81         18
    82         13
    83          8
    84          9
    85          7
    86         14
    87         12
    89        167
    90         88
    91        999
    92         83
    93          8
    94          3
    95         11
    96          4
    97         16
    98          1
   104          2
   105         24
   106         62
   107        202
   108        137
   109         12
   110          3
   111          9
   115          4
   120          2
   121         43
   122         20
   123        199
   124         23
   125         10
   128          1
   137          2
   139        511
   140         40
   141         27
   142          2
   147          1
   152          3
   153          3
   154         16
   155        349
   156         32
   157         19
   158          1
   161          1
   165         11
   166          4
   167          1
   169          1
   170          3
   171        263
   172        139
   173         25
   174          8
   178          3
   179          1
   181          5
   182          3
   184         16
   185          2
   187          3
   197         10
   198         10
   199         10
   200          1
   211          2
   212          2
   213          7
   214         11
   215          1
   246          4
   261          6
   262          1
   278        423
   279         73
   280         45
   281          7