##TITLE=Library Entry 64792
##JCAMP-DX=Revision 4.10 
##DATA TYPE=MASS SPECTRUM
##SAMPLE DESCRIPTION=Japan AIST/NIMC Database- Spectrum MS-IW-3011
##NAMES=HP
##CAS NAME=3-Benzyloxy-4-methyl-2-nitro-N-(2-oxo-3-pyrrolidinyl)benzamide
##MOLFORM=C19H19N3O5
##CAS REGISTRY NO=18813-37-1
##MP= -300
##BP= -300
##MW= 369
##$RETENTION INDEX=0
##$CONDENSED SPECTRUM=NO
##NPOINTS= 159
##XYDATA=(XY..XY) 1 
    26          1
    27          5
    28          8
    29          3
    30          9
    31          1
    37          1
    38          1
    39         14
    40          2
    41         11
    42          4
    43          7
    44          4
    45          1
    50          5
    51         20
    52         11
    53         10
    54          3
    55          4
    56         10
    57          3
    62          3
    63         10
    64          6
    65         50
    66          5
    67          2
    68          1
    69          2
    70          2
    71          4
    72          1
    74          1
    75          2
    76          4
    77         29
    78          9
    79          6
    80          2
    81          2
    82          5
    83          5
    84          6
    85          3
    89         13
    90          9
    91        999
    92         84
    93          5
    94          1
    95          1
    96          1
    97          9
    98          2
    99         11
   100          2
   103          1
   104          3
   105         17
   106         25
   107          8
   108          2
   109          1
   111          1
   115          1
   117          2
   118          4
   119          4
   120          5
   121          4
   122          2
   123          1
   127          1
   128          1
   132          2
   133          3
   134          6
   135          5
   136          2
   141          2
   145          1
   146          1
   147          1
   148          2
   149          7
   150          5
   151          2
   152          3
   153          1
   155          1
   160          1
   161          2
   162          1
   163          9
   164          9
   165          6
   166          1
   167          1
   168          1
   172          2
   173          8
   174          1
   175          1
   176          1
   177          1
   178          1
   179          2
   180          9
   181          3
   187         10
   188          2
   189         29
   190          5
   191          2
   194          2
   195          2
   196          1
   197          1
   201          1
   202          1
   203          1
   208          1
   209          3
   210          1
   223          3
   224          3
   225          1
   229          1
   232          5
   233          1
   236          8
   237          1
   238          1
   243          2
   244          1
   245          1
   246          3
   248          4
   249          4
   250          1
   252          1
   253          2
   263          1
   266          1
   278          3
   279          3
   322          1
   323          2
   324          1
   334          1
   335          3
   336          1
   339          2
   354          1
   369        154
   370         34
   371          5