##TITLE=Library Entry 73068
##JCAMP-DX=Revision 4.10 
##DATA TYPE=MASS SPECTRUM
##SAMPLE DESCRIPTION=Div. of Experiment Therapeutics WRAIR, WRAMC, Washingto
n DC 20307
##NAMES=HP
##CAS NAME=Methyl 4-keto-5-morpholino valerate
##MOLFORM=C10H17NO4
##CAS REGISTRY NO=18813-22-4
##MP= -300
##BP= -300
##MW= 215
##$RETENTION INDEX=0
##$CONDENSED SPECTRUM=NO
##NPOINTS= 71
##XYDATA=(XY..XY) 1 
    41         41
    42         99
    43         23
    44         18
    45         31
    47          7
    48          3
    49          3
    50          4
    51          1
    53          3
    54         11
    55         68
    56        165
    57         49
    58          6
    59         45
    60          0
    67          0
    68          5
    69          5
    70         60
    71          9
    72         27
    73         12
    77          3
    82          3
    83          3
    84         27
    85         14
    86         36
    87         30
    88         10
    97          2
    98          9
    99          4
   100        999
   101        108
   102          5
   108          3
   110          0
   111          1
   112          3
   114         18
   115         52
   116          3
   124          4
   129          3
   130          1
   136          8
   137         35
   138          3
   140          3
   142         10
   154          1
   156         23
   157          2
   164          5
   165          6
   170         12
   171          0
   183          5
   184        133
   185         13
   187          2
   200          4
   201          0
   214          4
   215         37
   216          5
   217          1