##TITLE=Library Entry 77907
##JCAMP-DX=Revision 4.10 
##DATA TYPE=MASS SPECTRUM
##SAMPLE DESCRIPTION=Asinex Ltd, Moscow, Russia
##NAMES=HP
##CAS NAME=4H-1,2,4-Triazole-3-thiol, 4-(2-phenylethyl)-5-(4-pyridyl)-
##MOLFORM=C15H14N4S
##CAS REGISTRY NO=188182-42-5
##MP= -300
##BP= -300
##MW= 282
##$RETENTION INDEX=0
##$CONDENSED SPECTRUM=NO
##NPOINTS= 188
##XYDATA=(XY..XY) 1 
    33          3
    34          1
    35          0
    36          0
    37          5
    38         14
    39         59
    40         13
    41         20
    42          5
    43          7
    44          8
    45         19
    46          4
    47          4
    48          1
    50         65
    51        149
    52         35
    53         17
    54          4
    55         21
    56          1
    57          2
    58          5
    59         23
    60         31
    61          5
    62         20
    63         51
    64         31
    65         89
    66         11
    67          3
    68          2
    69          4
    70          5
    71          2
    72          8
    73          3
    74         11
    75         19
    76         41
    77        210
    78        243
    79         73
    80          6
    81          1
    82          3
    83          2
    85         10
    86          3
    87          4
    88          3
    89         26
    90         18
    91        126
    92         27
    93          4
    94          4
    95          5
    96          1
    97          1
    98          1
    99          1
   100          1
   101          6
   102         35
   103        206
   104        999
   105        147
   106         11
   107          5
   108          3
   109          8
   110          3
   111          2
   112          0
   113          1
   114          1
   115          3
   116          7
   117         11
   118         18
   119         45
   120         15
   121          6
   122          3
   123          2
   124          2
   125          1
   126          1
   127          1
   128          7
   129          2
   130          1
   131          1
   132          4
   133          5
   134         11
   135          8
   136          2
   137          4
   138          1
   139          1
   140          1
   141          4
   142          1
   143          1
   144          4
   145          5
   146          2
   147          2
   148          2
   149          1
   150          3
   151          1
   152          2
   153          1
   154          0
   155          0
   157          0
   158          2
   159          0
   160          0
   162         11
   163          1
   164          2
   165          1
   166          1
   167          1
   168          0
   169          0
   170          0
   171          1
   172          0
   173          0
   174          0
   175          0
   176          1
   178         45
   179         38
   180          7
   181          3
   182          0
   190          0
   191          3
   192          4
   193          3
   194          1
   195          0
   196          0
   200          0
   201          0
   202          1
   203         22
   204          9
   205          5
   206          1
   207          1
   208          0
   216          0
   217          1
   218          3
   219         21
   220          3
   221          7
   222          1
   223          0
   235          0
   237          0
   238          0
   244          1
   245          0
   246          2
   247          2
   248          1
   249          5
   250          2
   251          0
   253          0
   254          0
   255          0
   266          0
   282        309
   283         53
   284         16
   285          2