##TITLE=Library Entry 2026
##JCAMP-DX=Revision 4.10 
##DATA TYPE=MASS SPECTRUM
##SAMPLE DESCRIPTION=TNO Volatile Compounds in Food - Chemical Concepts
##NAMES=HP
##CAS NAME=2-Heptenal, (E)-
##MOLFORM=C7H12O
##CAS REGISTRY NO=18829-55-5
##MP= -300
##BP= -300
##MW= 112
##$RETENTION INDEX=958
##$CONDENSED SPECTRUM=NO
##NPOINTS= 48
##XYDATA=(XY..XY) 1 
    26         77
    27        506
    28        415
    29        251
    30         24
    31          2
    34         16
    37          7
    38         26
    39        446
    40         67
    41        999
    42        154
    43        271
    44         10
    45         23
    50         23
    51         36
    52         29
    53         78
    54         25
    55        427
    56        323
    57        354
    58         20
    60          9
    63         12
    65          3
    66          6
    67         36
    68        206
    69        207
    70        236
    71         31
    73          9
    77         20
    78          8
    79         27
    80         14
    81         39
    82          7
    83        383
    84         74
    90          8
    92          7
    94         20
    95          6
    97         31