##TITLE=Library Entry 45814
##JCAMP-DX=Revision 4.10 
##DATA TYPE=MASS SPECTRUM
##SAMPLE DESCRIPTION=Insect Chem. Ecol. Lab., USDA, Beltsville, MD 20705
##NAMES=HP
##CAS NAME=Nonanal dimethyl acetal
##MOLFORM=C11H24O2
##CAS REGISTRY NO=18824-63-0
##MP= -300
##BP= -300
##MW= 188
##$RETENTION INDEX=1267
##$CONDENSED SPECTRUM=NO
##NPOINTS= 79
##XYDATA=(XY..XY) 1 
    41         88
    43         83
    44          5
    45         46
    47         59
    48          1
    49          0
    50          0
    51          1
    53          9
    54          5
    55         59
    56         10
    57         33
    58         36
    59         11
    60          7
    61         10
    63          0
    65          1
    66          1
    67         13
    68          4
    69         86
    71         71
    72          3
    73         10
    74          3
    75        999
    76         30
    77          6
    79          5
    81         12
    82          7
    83         44
    84          6
    85          7
    86          1
    87          3
    88          1
    89          6
    91          1
    93          1
    94          0
    95          5
    96          3
    97          5
    98          3
    99          3
   101          5
   103          0
   107          4
   109          2
   111          2
   112          1
   113          2
   114          1
   115          3
   117          0
   121          0
   123          2
   124          3
   125          3
   126          0
   127          1
   128          2
   129          3
   139          1
   141          2
   144          0
   155          2
   156          0
   157         97
   158         11
   159          2
   172          0
   173          1
   174          0
   188          3