##TITLE=Library Entry 7304
##JCAMP-DX=Revision 4.10 
##DATA TYPE=MASS SPECTRUM
##SAMPLE DESCRIPTION=Japan AIST/NIMC Database- Spectrum MS-NW-8842
##NAMES=HP
##CAS NAME=2-Nonenal, (E)-
##MOLFORM=C9H16O
##CAS REGISTRY NO=18829-56-6
##MP= -300
##BP= -300
##MW= 140
##$RETENTION INDEX=1162
##$CONDENSED SPECTRUM=NO
##NPOINTS= 88
##XYDATA=(XY..XY) 1 
    15          9
    17          1
    18          3
    26         10
    27        285
    28         53
    29        447
    30         10
    31          9
    32          1
    37          1
    38          7
    39        289
    40         55
    41        844
    42        344
    43        999
    44         40
    45          8
    47          2
    50          5
    51         19
    52         11
    53         98
    54        159
    55        891
    56        378
    57        565
    58         93
    59          9
    60          2
    61          1
    62          1
    63          4
    64          1
    65         21
    66         32
    67        234
    68        113
    69        516
    70        861
    71        120
    72        119
    73         11
    74          1
    75          1
    77         24
    78          9
    79         88
    80         48
    81        248
    82         67
    83        677
    84        354
    85         49
    86          5
    87          1
    89          1
    91         14
    92          4
    93        142
    94         60
    95         31
    96        288
    97        162
    98        140
    99         16
   100          1
   101          1
   103          3
   105          3
   106          1
   107         51
   108          5
   109         37
   110          5
   111         81
   112         27
   113          2
   121          3
   122         33
   123         12
   124          1
   125          8
   139          8
   140          5
   141         26
   142          2