##TITLE=Library Entry 24119
##JCAMP-DX=Revision 4.10 
##DATA TYPE=MASS SPECTRUM
##SAMPLE DESCRIPTION=NIST Mass Spectrometry Data Center
##NAMES=HP
##CAS NAME=Nonacos-1-ene
##MOLFORM=C29H58
##CAS REGISTRY NO=18835-35-3
##MP= -300
##BP= -300
##MW= 406
##$RETENTION INDEX=2885
##$CONDENSED SPECTRUM=NO
##NPOINTS= 55
##XYDATA=(XY..XY) 1 
    27         27
    29        108
    39         44
    41        492
    42        123
    43        949
    53         33
    54        169
    55        908
    56        389
    57        999
    58         42
    67        252
    68        176
    69        882
    70        410
    71        590
    72         33
    81        161
    82        263
    83        823
    84        233
    85        329
    86         18
    95         92
    96        171
    97        745
    98        141
    99         77
   109         45
   110         78
   111        446
   112        105
   113         46
   123         23
   124         51
   125        213
   126         64
   127         26
   138         32
   139         79
   140         38
   141         17
   152         19
   153         43
   166         14
   167         24
   180         10
   182         14
   195         11
   208          7
   210          7
   378          5
   406         38
   407         17