##TITLE=Library Entry 7739
##JCAMP-DX=Revision 4.10 
##DATA TYPE=MASS SPECTRUM
##SAMPLE DESCRIPTION=COC 4051
##NAMES=HP
##CAS NAME=1-Hexacosene
##MOLFORM=C26H52
##CAS REGISTRY NO=18835-33-1
##MP= -300
##BP= -300
##MW= 364
##$RETENTION INDEX=2595
##$CONDENSED SPECTRUM=NO
##NPOINTS= 202
##XYDATA=(XY..XY) 1 
    25          2
    26         11
    27        144
    28         94
    29        364
    30         10
    36          2
    37          3
    38          5
    39         91
    40         24
    41        654
    42        162
    43        999
    44         73
    50          4
    51          6
    52          5
    53         44
    54        104
    55        794
    56        339
    57        819
    58         36
    63          3
    65          9
    66         15
    67        147
    68        150
    69        482
    70        255
    71        383
    72         21
    77         11
    78          8
    79         26
    80         17
    81        119
    82        171
    83        471
    84        149
    85        223
    86         16
    91         48
    92         33
    93         42
    94         36
    95        134
    96        166
    97        581
    98        174
    99        100
   100         42
   104         29
   105         48
   106         30
   107         32
   108         28
   109         76
   110         79
   111        281
   112        113
   113         64
   115         27
   117         26
   118         22
   119         33
   120         22
   121         24
   122         21
   123         44
   124         46
   125        121
   126         76
   127         46
   128         23
   129         20
   131         20
   132         16
   133         20
   134         16
   135         19
   136         16
   137         30
   138         33
   139         58
   140         50
   141         34
   142         17
   143         15
   145         15
   152         24
   153         37
   154         41
   155         28
   156         14
   157         12
   159         11
   161         11
   163         13
   164         10
   165         16
   166         20
   167         29
   168         30
   169         21
   175          9
   177         11
   178          9
   179         13
   180         16
   181         21
   182         28
   183         18
   189          9
   191         10
   192          8
   193         11
   194         14
   195         18
   196         20
   197         15
   203          7
   205          8
   207         10
   208         12
   209         14
   210         20
   211         13
   217          7
   219          7
   221          8
   222         11
   223         12
   224         15
   225         11
   231          6
   233          7
   235          7
   236         10
   237         10
   238         15
   239         11
   245          6
   247          6
   249          7
   250          9
   251          9
   252         12
   253          9
   259          5
   261          6
   263          7
   264          9
   265          8
   266         12
   267          9
   273          5
   277          6
   278          8
   279          8
   280         10
   281          8
   287          6
   289          5
   291          6
   292          8
   293          7
   294         10
   295          8
   301          5
   303          5
   305          6
   306          7
   307          7
   308         11
   309          8
   315          5
   316          5
   319          6
   320          7
   321          7
   322          9
   323          7
   329          5
   330          7
   331          6
   332          5
   333          6
   334          9
   336         23
   337         12
   344          6
   348          6
   349          6
   356          5
   358         16
   359          9
   360          7
   362         24
   364         71
   365         30