##TITLE=Library Entry 24114
##JCAMP-DX=Revision 4.10 
##DATA TYPE=MASS SPECTRUM
##SAMPLE DESCRIPTION=Chemical Concepts
##NAMES=HP
##CAS NAME=1-Tricosene
##MOLFORM=C23H46
##CAS REGISTRY NO=18835-32-0
##MP= -300
##BP= -300
##MW= 322
##$RETENTION INDEX=2292
##$CONDENSED SPECTRUM=NO
##NPOINTS= 108
##XYDATA=(XY..XY) 1 
    26         50
    27         19
    29        189
    30          6
    39         55
    40         13
    41        582
    42        133
    43        990
    44         32
    51          2
    52          3
    53         33
    54        115
    55        824
    56        417
    57        999
    58         43
    65          5
    66         12
    67        121
    68        138
    69        676
    70        347
    71        485
    72         27
    77          4
    79          9
    80          7
    81         70
    82        226
    83        818
    84        266
    85        308
    86         20
    91          3
    93          2
    94          4
    95         42
    96        134
    97        703
    98        180
    99         69
   100          6
   109         20
   110         55
   111        348
   112        123
   113         43
   114          3
   123         11
   124         32
   125        160
   126         82
   127         28
   128          2
   137          7
   138         23
   139         75
   140         56
   141         19
   142          2
   149          5
   151          2
   152         16
   153         45
   154         41
   155         14
   156          2
   166         12
   168         30
   169         32
   170          9
   180          9
   181         20
   182         24
   183          7
   194          8
   195         15
   196         18
   197          6
   208          5
   209          9
   210         15
   211          3
   222          4
   223          7
   224         12
   225          3
   236          4
   237          6
   238         10
   239          3
   250          3
   251          4
   252          9
   253          2
   264          2
   265          3
   266          5
   279          2
   280          7
   281          2
   294         13
   295          3
   322         52
   323         14
   324          2