##TITLE=Library Entry 109488
##JCAMP-DX=Revision 4.10 
##DATA TYPE=MASS SPECTRUM
##SAMPLE DESCRIPTION=L.BAUER UNIV. OF ILLINOIS, CHICAGO, ILLINOIS, USA
##NAMES=HP
##CAS NAME=3-Picoline, 2-(tert-butylthio)-
##MOLFORM=C10H15NS
##CAS REGISTRY NO=18833-87-9
##MP= -300
##BP= -300
##MW= 181
##$RETENTION INDEX=0
##$CONDENSED SPECTRUM=NO
##NPOINTS= 16
##XYDATA=(XY..XY) 1 
    29         70
    39        110
    41        100
    57        100
    65         70
    78         50
    79         80
    80         50
    81        120
    92         60
   124        130
   125        999
   126        110
   127         50
   181         60
   182         10