##TITLE=Library Entry 78652
##JCAMP-DX=Revision 4.10 
##DATA TYPE=MASS SPECTRUM
##SAMPLE DESCRIPTION=R. J. LOSURE, U. S. FOOD AND DRUG ADMIN. WASHINGTON, DC
##NAMES=HP
##CAS NAME=Benzamide, N-(2-hydroxyethyl)-
##MOLFORM=C9H11NO2
##CAS REGISTRY NO=18838-10-3
##MP= -300
##BP= -300
##MW= 165
##$RETENTION INDEX=0
##$CONDENSED SPECTRUM=NO
##NPOINTS= 61
##XYDATA=(XY..XY) 1 
    31         32
    32         36
    33         82
    38          5
    39         13
    40         35
    41         12
    42          3
    43         11
    44         14
    45         19
    46          9
    49          4
    50         97
    51        284
    52         26
    53          3
    54          3
    55          3
    57          3
    59          3
    60         14
    61          3
    62          0
    63         14
    64          4
    65          6
    67          2
    74         25
    75         19
    76         51
    77        666
    78         60
    79         29
    80          3
    89         16
    90         15
    91         15
    92          3
   102          3
   103         11
   104         26
   105        999
   106         87
   107          4
   116          6
   117         84
   118         11
   120          2
   121          5
   122        200
   123         13
   134         89
   135         41
   136          4
   146          3
   147        136
   148         12
   163          3
   165         22
   166          3