##TITLE=Library Entry 50864
##JCAMP-DX=Revision 4.10 
##DATA TYPE=MASS SPECTRUM
##SAMPLE DESCRIPTION=Exported from NIST MS Search
##NAMES=HP
##CAS NAME=Furan, 2-[[(1-methylethyl)thio]methyl]-
##MOLFORM=C8H12OS
##CAS REGISTRY NO=1883-78-9
##MP= -300
##BP= -300
##MW= 156
##$RETENTION INDEX=1112
##$CONDENSED SPECTRUM=NO
##NPOINTS= 15
##XYDATA=(XY..XY) 1 
    27         70
    40         33
    41         55
    43         33
    45         52
    47         12
    53        100
    59         18
    81        999
    82         55
    85          9
   113          9
   156        218
   157         20
   158         10