##TITLE=Library Entry 6036
##JCAMP-DX=Revision 4.10 
##DATA TYPE=MASS SPECTRUM
##SAMPLE DESCRIPTION=R.T.HOLMAN,UNIVERSITY OF MINNESOTA
##NAMES=HP
##CAS NAME=Dodecanoic acid, 3-hydroxy-
##MOLFORM=C12H24O3
##CAS REGISTRY NO=1883-13-2
##MP= -300
##BP= -300
##MW= 216
##$RETENTION INDEX=0
##$CONDENSED SPECTRUM=NO
##NPOINTS= 193
##XYDATA=(XY..XY) 1 
    24          4
    25          5
    26         34
    27        388
    28        583
    29        544
    30         22
    31         45
    32         56
    33          3
    34          2
    35          7
    36         18
    37          8
    38         15
    39        255
    40         54
    41        850
    42        325
    43        999
    44        333
    45        200
    46         11
    47         14
    48          7
    49          7
    50         10
    51         16
    52         13
    53        116
    54        144
    55        672
    56        394
    57        611
    58        116
    59         43
    60        144
    61         36
    62          7
    63          5
    64          3
    65         21
    66         35
    67        222
    68        266
    69        400
    70        388
    71        311
    72         50
    73        338
    74         24
    75         15
    76          6
    77         22
    78          9
    79         36
    80         21
    81        250
    82        263
    83        322
    84        266
    85        111
    86        144
    87         72
    88         13
    89         37
    90          3
    91         18
    92          7
    93         21
    94         22
    95        166
    96        216
    97        211
    98        150
    99        166
   100         83
   101        100
   102         19
   103         10
   104         12
   105         11
   106          6
   107         13
   108         12
   109         88
   110        133
   111         66
   112        155
   113         83
   114         86
   115        116
   116         19
   117         14
   118          8
   119         12
   120          7
   121          8
   122          8
   123         48
   124         32
   125         22
   126         50
   127         49
   128         32
   129         42
   130         20
   131         20
   132          6
   133         12
   134          5
   135          6
   136         37
   137         40
   138        102
   139         23
   140         11
   141         17
   142          8
   143         12
   144          6
   145         11
   146          5
   147          6
   148          3
   149         10
   150          3
   151         22
   152         14
   153          6
   154         12
   155         16
   156          5
   157         17
   158          8
   159          8
   160          9
   161          5
   162         15
   163          5
   164          4
   165          6
   166          3
   167          5
   168          3
   169         12
   170         13
   171         11
   172          4
   173          7
   174          2
   175          2
   176          2
   177          2
   178          3
   179          4
   180         36
   181         14
   182          7
   183         13
   184          7
   185         10
   186          4
   187          5
   188          3
   189          2
   190          2
   191          2
   192          2
   193          2
   194          2
   195          3
   196          4
   197          4
   198          6
   199          7
   200         11
   201          6
   202          3
   203          3
   204          2
   205          2
   206          2
   207          6
   208          3
   209          4
   210          3
   211          2
   212          2
   213          5
   214          2
   215          4
   216          3