##TITLE=Library Entry 41246
##JCAMP-DX=Revision 4.10 
##DATA TYPE=MASS SPECTRUM
##SAMPLE DESCRIPTION=Chemical Concepts
##NAMES=HP
##CAS NAME=D-Mannohexadecane-1,2,3,4,5-pentaol
##MOLFORM=C16H34O5
##CAS REGISTRY NO=188436-17-1
##MP= -300
##BP= -300
##MW= 306
##$RETENTION INDEX=0
##$CONDENSED SPECTRUM=NO
##NPOINTS= 161
##XYDATA=(XY..XY) 1 
    26          3
    27         44
    29         95
    30          2
    31         37
    38          0
    39         18
    40          1
    41        134
    42         19
    43        133
    44         42
    45         39
    46          2
    47          3
    49          0
    51          0
    52          0
    53          7
    54          9
    55        109
    56         46
    57         79
    58         12
    59          2
    60         46
    61         85
    62          3
    63          0
    65          1
    66          3
    67         37
    68         13
    69         73
    70         12
    71         21
    72          3
    73        999
    74        224
    75         15
    76          1
    77          2
    78          0
    79          8
    80          3
    81         35
    82         23
    83         49
    84          7
    85         15
    86         38
    87          9
    88          2
    89          3
    90          0
    91         28
    92          3
    93          6
    94          3
    95         37
    96         18
    97         50
    98          8
    99          3
   100          0
   101          1
   102          1
   103         38
   104         63
   105          4
   106          0
   107          4
   108          1
   109         20
   110          8
   111         26
   112          4
   113          2
   114          0
   115          4
   116          1
   117          0
   119          0
   120          0
   121          5
   122          1
   123         11
   124          6
   125          5
   126          1
   127          1
   128          0
   129          1
   133         16
   134          1
   135          4
   136          1
   137          4
   138          3
   139          1
   140          0
   141          1
   143          0
   147          0
   149          1
   150          0
   151          1
   152          2
   153          0
   154          1
   155          0
   157          0
   163          0
   164          0
   165          0
   166          2
   167          0
   170          0
   177          0
   179          1
   180          5
   181          0
   183          3
   184          1
   185         26
   186          2
   187          0
   191          1
   192          2
   193          0
   195          0
   197          8
   198          3
   199          0
   203          0
   208          0
   209          1
   210          1
   211          0
   213          0
   214          0
   215         16
   216          2
   217          0
   221          0
   225          0
   226          0
   227          9
   228          2
   229          1
   239          1
   240          0
   241          0
   244          0
   245          0
   257         39
   258          6
   259          0
   270          0
   271          0
   307          0