##TITLE=Library Entry 52082
##JCAMP-DX=Revision 4.10 
##DATA TYPE=MASS SPECTRUM
##SAMPLE DESCRIPTION=Chemical Concepts
##NAMES=HP
##CAS NAME=Cyano-(3-oxocyclopentyl)acetic acid, ethyl ester
##MOLFORM=C10H13NO3
##CAS REGISTRY NO=188484-22-2
##MP= -300
##BP= -300
##MW= 195
##$RETENTION INDEX=0
##$CONDENSED SPECTRUM=NO
##NPOINTS= 70
##XYDATA=(XY..XY) 1 
    26         19
    27        150
    28         76
    29        466
    30         12
    31         13
    38         19
    39        162
    40         33
    41        114
    42        110
    43         46
    44         22
    45         22
    50          8
    51         20
    52         29
    53         94
    54         74
    55        588
    56         66
    57         15
    64         14
    65         29
    66         84
    67        171
    68         55
    69         18
    77         13
    78          7
    79         12
    80         77
    81         43
    82        340
    83        999
    84         66
    85        285
    86         49
    93         42
    94        128
    95         60
    96         32
    99         11
   107          9
   108         72
   109          8
   110         76
   111         18
   112         19
   113        190
   114        182
   115         13
   120          6
   121         48
   122        121
   123         20
   124          7
   126          6
   127          9
   138         72
   139         38
   140         10
   141         36
   149          9
   150         79
   151          9
   166          8
   167         25
   195          9
   196          4