##TITLE=Library Entry 41244
##JCAMP-DX=Revision 4.10 
##DATA TYPE=MASS SPECTRUM
##SAMPLE DESCRIPTION=Chemical Concepts
##NAMES=HP
##CAS NAME=D-Mannodecane-1,2,3,4,5-pentaol
##MOLFORM=C12H26O5
##CAS REGISTRY NO=188436-15-9
##MP= -300
##BP= -300
##MW= 250
##$RETENTION INDEX=0
##$CONDENSED SPECTRUM=NO
##NPOINTS= 125
##XYDATA=(XY..XY) 1 
    25          0
    26          4
    27         71
    28         13
    29        103
    30          4
    31         59
    38          0
    39         26
    41        124
    42         17
    43         89
    44         45
    45         45
    46          2
    47          4
    49          0
    50          0
    51          1
    52          0
    53          9
    54          6
    55        106
    56         43
    57         93
    58         18
    59          4
    60         56
    61        102
    62          4
    63          0
    65          2
    66          5
    67         33
    68         16
    69        121
    70         13
    71         19
    72          4
    73        999
    74        151
    75         12
    76          0
    77          3
    78          0
    79          9
    80          4
    81         44
    82         29
    83         23
    84          6
    85         16
    86         41
    87          7
    88          3
    89          3
    91         25
    92          2
    93          6
    94          2
    95         20
    96         11
    97          9
    98          6
    99          5
   100          1
   101          1
   102          2
   103         40
   104         48
   105          3
   106          0
   107          4
   108          0
   109          5
   110          4
   111         28
   112          3
   113          1
   114          0
   115          2
   116          0
   117          0
   119          0
   120          0
   121          2
   122          0
   123         10
   124          9
   125          1
   126          0
   127          5
   128          2
   129         43
   130          3
   131          0
   133         10
   134          0
   135          4
   136          4
   137          1
   139          0
   140          0
   141          9
   142          8
   143          1
   147          1
   152          0
   153          2
   154          1
   158          0
   159         12
   160          1
   165          0
   170          0
   171          6
   172          1
   183          0
   184          0
   188          0
   189          2
   201         39
   202          5
   203          0
   215          0