##TITLE=Library Entry 18129
##JCAMP-DX=Revision 4.10 
##DATA TYPE=MASS SPECTRUM
##SAMPLE DESCRIPTION=Q-Y. CHEN, DEP. FLUORINE CHEM., ACAD. SIN., SHANGHAI, C
HINA
##NAMES=HP
##CAS NAME=Difluoromethyl trifluoromethanesulfonate
##MOLFORM=C2HF5O3S
##CAS REGISTRY NO=1885-46-7
##MP= -300
##BP= -300
##MW= 200
##$RETENTION INDEX=0
##$CONDENSED SPECTRUM=NO
##NPOINTS= 8
##XYDATA=(XY..XY) 1 
    48        109
    51        999
    64         71
    69        620
   115         26
   117          6
   133         25
   201         15