##TITLE=Library Entry 46754
##JCAMP-DX=Revision 4.10 
##DATA TYPE=MASS SPECTRUM
##SAMPLE DESCRIPTION=NIST Mass Spectrometry Data Center, 1998.
##NAMES=HP
##CAS NAME=Phenyl chloroformate
##MOLFORM=C7H5ClO2
##CAS REGISTRY NO=1885-14-9
##MP= -300
##BP= -300
##MW= 156
##$RETENTION INDEX=0
##$CONDENSED SPECTRUM=NO
##NPOINTS= 66
##XYDATA=(XY..XY) 1 
    25          2
    26         14
    27         13
    28         11
    29          3
    31          9
    32          4
    35         24
    36          5
    37         52
    38        122
    39        376
    40         13
    41          7
    42          1
    44         10
    45          3
    46          1
    47          3
    48          2
    49         20
    50        114
    51        166
    52          9
    53         13
    54          2
    55          2
    56          1
    61         32
    62         60
    63        384
    64         61
    65        720
    66         43
    67          2
    72          1
    73         13
    74         32
    75         19
    76         20
    77        999
    78         69
    79          2
    92          8
    93        350
    94         25
    95          2
    99          5
   100         23
   101          3
   102          8
   112        228
   113         15
   114         74
   115          5
   121         75
   122          6
   128         39
   129          2
   130         13
   131          1
   156        425
   157         33
   158        142
   159         11
   160          1