##TITLE=Library Entry 81521
##JCAMP-DX=Revision 4.10 
##DATA TYPE=MASS SPECTRUM
##SAMPLE DESCRIPTION=NIST Mass Spectrometry Data Center
##NAMES=HP
##CAS NAME=Isoxathion
##MOLFORM=C13H16NO4PS
##CAS REGISTRY NO=18854-01-8
##MP= -300
##BP= -300
##MW= 313
##$RETENTION INDEX=2222
##$CONDENSED SPECTRUM=NO
##NPOINTS= 211
##XYDATA=(XY..XY) 1 
    15          1
    26          4
    27         29
    28          8
    29         78
    30          3
    31          2
    35          1
    37          1
    38          2
    39         11
    40          2
    41          1
    42          2
    43         10
    44          2
    45         31
    46          3
    47         17
    48          3
    49          1
    50         30
    51         95
    52         14
    53          2
    54          1
    55          1
    56          2
    58          1
    59          5
    60         12
    61         22
    62         10
    63         34
    64          8
    65         87
    66          3
    67          3
    68          8
    69         20
    70          2
    71          2
    72          1
    73          2
    74         16
    75         22
    76         46
    77        355
    78         37
    79         14
    80         10
    81         64
    82          3
    83          3
    84          1
    85          1
    86          2
    87          4
    88          6
    89         62
    90         25
    91         40
    92          6
    93         46
    94          5
    95          2
    96         16
    97        221
    98          5
    99         39
   100          4
   101          9
   102        146
   103         30
   104         40
   105        999
   106         88
   107          8
   108          5
   109        102
   110         12
   111          6
   113         95
   114         16
   115         23
   116        130
   117         20
   118          7
   119          3
   120          5
   121         44
   122         10
   123          8
   124          4
   125         75
   126          6
   127         28
   128         21
   129         64
   130        254
   131         41
   132         25
   133         12
   134         15
   135          5
   136         78
   137         20
   138          6
   139          7
   140          1
   141         83
   142          7
   143         14
   144         13
   145         34
   146         18
   147         24
   148         22
   149         53
   150         15
   151          5
   152          2
   153         22
   154          4
   155          3
   156          1
   157          6
   158         10
   159        208
   160         31
   161         89
   162         72
   163          8
   164         38
   165          5
   166          3
   167          2
   169         35
   170          6
   171          8
   172         29
   173          5
   174         29
   175          5
   177        718
   178         81
   179         40
   180         12
   181          1
   182          1
   185          1
   186         10
   187          2
   188         18
   189          3
   190          4
   191          1
   192         13
   193          4
   194          1
   197          2
   198          1
   199          1
   200          1
   204          2
   205          9
   206          2
   207          6
   208        101
   209         11
   210          1
   211          5
   212          1
   213          2
   214          1
   217          1
   218          1
   223          1
   224          7
   225          3
   226          1
   228          9
   229          1
   230          3
   236          8
   237          1
   239          4
   240         18
   241          4
   242          2
   252          2
   256          5
   257          9
   258          3
   259          1
   267          1
   268          3
   269          2
   270          3
   271          1
   284          9
   285         47
   286          8
   287          3
   298          1
   312         13
   313        365
   314         61
   315         24
   316          3
   317          1