##TITLE=Library Entry 1691
##JCAMP-DX=Revision 4.10 
##DATA TYPE=MASS SPECTRUM
##SAMPLE DESCRIPTION=Chemical Concepts
##NAMES=HP
##CAS NAME=2-Butyn-1-ol, 4-methoxy-
##MOLFORM=C5H8O2
##CAS REGISTRY NO=18857-03-9
##MP= -300
##BP= -300
##MW= 100
##$RETENTION INDEX=0
##$CONDENSED SPECTRUM=NO
##NPOINTS= 73
##XYDATA=(XY..XY) 1 
    25         24
    26        105
    27        278
    28        134
    29        669
    30         66
    31        329
    32         40
    33         35
    34          1
    36         10
    37         82
    38        161
    39        999
    40        198
    41        734
    42        163
    43        108
    44         64
    45        389
    46         11
    47          1
    48          3
    49         34
    50        136
    51        196
    52        179
    53        124
    54         26
    55        219
    56         55
    57        606
    58         32
    59         10
    60          2
    61         13
    62          0
    63          1
    65          4
    66         33
    67         31
    68        166
    69        681
    70        136
    71        522
    72         28
    73          5
    74          1
    75          4
    76          0
    77          7
    78          2
    79          3
    80          1
    81         12
    82         18
    83         37
    84         33
    85        271
    86         14
    87          2
    89         10
    90          0
    91          4
    92          0
    93          2
    95          2
    96          1
    97          4
    98          9
    99         25
   100         13
   101          1