##TITLE=Library Entry 97980
##JCAMP-DX=Revision 4.10 
##DATA TYPE=MASS SPECTRUM
##SAMPLE DESCRIPTION=Japan AIST/NIMC Database- Spectrum MS-NW-3354
##NAMES=HP
##CAS NAME=Benzonitrile, 2-amino-
##MOLFORM=C7H6N2
##CAS REGISTRY NO=1885-29-6
##MP= -300
##BP= -300
##MW= 118
##$RETENTION INDEX=0
##$CONDENSED SPECTRUM=NO
##NPOINTS= 60
##XYDATA=(XY..XY) 1 
    15          1
    25          1
    26          5
    27          7
    28         26
    29          1
    30          1
    36          2
    37         24
    38         37
    39         55
    40         15
    41         38
    42          4
    43          1
    44          5
    45          9
    46          1
    48          1
    49          5
    50         20
    51         21
    52         52
    53          7
    54          7
    58          6
    59         21
    60          3
    61         12
    62         22
    63         75
    64        116
    65         44
    66         14
    67          7
    73          2
    74          5
    75         12
    76         13
    77          6
    78          8
    79          4
    86          2
    87          5
    88          8
    89          8
    90         68
    91        326
    92         27
    93          1
    99          2
   100          1
   101          1
   102          1
   103          1
   116          4
   117         38
   118        999
   119         84
   120          3