##TITLE=Library Entry 47922
##JCAMP-DX=Revision 4.10 
##DATA TYPE=MASS SPECTRUM
##SAMPLE DESCRIPTION=J.M. MILLER,BROCK UNIVERSITY,ONTARIO,CANADA
##NAMES=HP
##CAS NAME=Benzenamine, N-[[4-(1-methylethyl)phenyl]phenylmethylene]-
##MOLFORM=C22H21N
##CAS REGISTRY NO=18864-77-2
##MP= -300
##BP= -300
##MW= 299
##$RETENTION INDEX=0
##$CONDENSED SPECTRUM=NO
##NPOINTS= 156
##XYDATA=(XY..XY) 1 
    49          3
    50         43
    51        361
    52         28
    53          9
    54          1
    55          2
    56          1
    57          2
    61          2
    62          9
    63         33
    64         10
    65         17
    66          4
    73          2
    74         14
    75         23
    76         48
    77        999
    78        110
    79         10
    86          4
    87          8
    88          8
    89         17
    90          8
    91         27
    92          4
    93          7
    94          2
    98          3
    99          4
   100          4
   101         10
   102         20
   103         68
   104         70
   105         13
   106          2
   112          2
   113          8
   114          6
   115         24
   116         12
   117          6
   118          2
   119          3
   120          2
   121          2
   122          1
   125          3
   126         11
   127         24
   128         16
   129          8
   130         26
   131          7
   133          2
   134          8
   135          7
   137          2
   138          2
   139         12
   140          7
   141          7
   142         44
   143          2
   144          2
   145          2
   146          4
   147          4
   150          8
   151         20
   152         47
   153         19
   154          8
   155          3
   162          2
   163         11
   164         10
   165         63
   166         30
   167         19
   168          3
   175          2
   176          8
   177         12
   178         47
   179         51
   180        662
   181        118
   182         11
   189         13
   190         12
   191         31
   192         72
   193         17
   194          3
   195          3
   201          2
   202          4
   203          6
   204          9
   205         16
   206        150
   207        357
   208         68
   209         10
   210          2
   215          3
   216          2
   217          2
   218          2
   219          2
   220         26
   221          7
   222        720
   223        137
   224         14
   225          2
   226          3
   227          2
   228          3
   229          2
   230          2
   239          2
   240          2
   241          4
   242          2
   251          2
   252          4
   253          7
   254         24
   255         21
   256        524
   257        111
   258         13
   265          2
   266          4
   267          2
   268          2
   269          2
   270          2
   280          7
   281          3
   282         41
   283         33
   284         24
   285          7
   296         11
   297         31
   298        250
   299        930
   300        184
   301         24