##TITLE=Library Entry 64810
##JCAMP-DX=Revision 4.10 
##DATA TYPE=MASS SPECTRUM
##SAMPLE DESCRIPTION=Dmitri Zagorevskii, Scientific Instruments @ Applicatio
ns
##NAMES=HP
##CAS NAME=1-(Methylsulfonyl)-3-[(phenylmethyl)thio]-1H-indole-4-carboxylic
 acid, methyl ester
##MOLFORM=C18H17NO4S2
##CAS REGISTRY NO=188656-66-8
##MP= -300
##BP= -300
##MW= 375
##$RETENTION INDEX=0
##$CONDENSED SPECTRUM=NO
##NPOINTS= 48
##XYDATA=(XY..XY) 1 
    27         33
    29          8
    39         30
    41         13
    43          4
    44          4
    45         44
    48          4
    51         16
    63         28
    64          4
    65         82
    75         16
    76          4
    77         15
    78          3
    79          4
    89         19
    90          7
    91        999
    92         80
    96          9
   102          5
   116          3
   119         12
   120         10
   121         18
   122         52
   123         21
   146         21
   147         11
   148         11
   174         17
   175         19
   176         33
   179          3
   190         40
   210          7
   254         15
   264         57
   265         13
   266         15
   296         29
   297         21
   342         20
   375         91
   376         18
   377         11