##TITLE=Library Entry 81234
##JCAMP-DX=Revision 4.10 
##DATA TYPE=MASS SPECTRUM
##SAMPLE DESCRIPTION=J.M. MILLER,BROCK UNIVERSITY,ONTARIO,CANADA
##NAMES=HP
##CAS NAME=Methanone, [4-(1-methylethyl)phenyl]phenyl-
##MOLFORM=C16H16O
##CAS REGISTRY NO=18864-76-1
##MP= -300
##BP= -300
##MW= 224
##$RETENTION INDEX=0
##$CONDENSED SPECTRUM=NO
##NPOINTS= 70
##XYDATA=(XY..XY) 1 
    50         33
    51        156
    63         44
    64         10
    65         51
    74         33
    75         31
    76         77
    77        582
    78         44
    87         12
    89         40
    91        187
    92         23
    93         10
   102         19
   103         77
   104        108
   105        999
   106        108
   115        118
   116         31
   117         48
   118         29
   119        125
   120         21
   121        108
   131         48
   132         40
   133         15
   139         15
   141         12
   145        229
   146         37
   147        790
   148        156
   149         17
   150         10
   151         19
   152         75
   153         50
   154         15
   163         15
   164         10
   165         91
   176         12
   177         10
   178         46
   179         37
   180         23
   181        198
   182         40
   183         21
   193          8
   194         27
   195         25
   196          6
   197         21
   198         31
   199         27
   207         27
   208         35
   209        499
   210        106
   211         15
   222        156
   223        121
   224        726
   225        118
   226         12