##TITLE=Library Entry 66590
##JCAMP-DX=Revision 4.10 
##DATA TYPE=MASS SPECTRUM
##SAMPLE DESCRIPTION=Japan AIST/NIMC Database- Spectrum MS-IW-6942
##NAMES=HP
##CAS NAME=Phenylguanidine mononitrate
##MOLFORM=C7H9N3
##CAS REGISTRY NO=18860-78-1
##MP= -300
##BP= -300
##MW= 135
##$RETENTION INDEX=0
##$CONDENSED SPECTRUM=NO
##NPOINTS= 83
##XYDATA=(XY..XY) 1 
    12          1
    13          2
    14          2
    15          1
    16         16
    17         44
    18        139
    25          3
    26         27
    27        107
    28        204
    29          3
    30        115
    31          1
    32          2
    37          9
    38         19
    39         56
    40         17
    41         18
    42         50
    43        116
    44         36
    45          6
    46         68
    47          4
    48          1
    49          3
    50         25
    51         78
    52         19
    53          9
    54         10
    55          2
    57          2
    59          9
    60          1
    61          5
    62         10
    63         33
    64         38
    65        126
    66        203
    67         23
    68          1
    69          1
    70          1
    71          1
    73          2
    74          8
    75          7
    76         16
    77        229
    78         29
    79          4
    80          5
    81          1
    83          1
    85          1
    87          1
    88          2
    89          1
    90          8
    91        111
    92         97
    93        999
    94         75
    95          3
    97          1
   103         19
   104          2
   105          4
   106          3
   107          4
   117          5
   118        151
   119        106
   120          9
   133         15
   134        100
   135        607
   136         55
   137          2