##TITLE=Library Entry 20324
##JCAMP-DX=Revision 4.10 
##DATA TYPE=MASS SPECTRUM
##SAMPLE DESCRIPTION=R. I. REED UNIVERSITY OF GLASGOW
##NAMES=HP
##CAS NAME=Ergost-22-en-3-one, (5.beta.,22E)-
##MOLFORM=C28H46O
##CAS REGISTRY NO=18865-44-6
##MP= -300
##BP= -300
##MW= 398
##$RETENTION INDEX=0
##$CONDENSED SPECTRUM=NO
##NPOINTS= 299
##XYDATA=(XY..XY) 1 
    50          9
    51         10
    52          6
    53        110
    54         33
    55        999
    56         59
    57        171
    58         10
    59          3
    60          2
    61          1
    62          1
    63          5
    64          3
    65         34
    66         19
    67        468
    68        141
    69        780
    70        110
    71         78
    72          6
    73          3
    74          3
    75          3
    76          1
    77        100
    78         23
    79        312
    80         68
    81        582
    82        261
    83        362
    84         45
    85         12
    86          3
    87          3
    88          3
    89          3
    90          2
    91        189
    92         39
    93        354
    94        166
    95        464
    96        171
    97        102
    98         13
    99          7
   100          3
   101          6
   102          3
   103          8
   104          7
   105        169
   106         44
   107        301
   108        110
   109        433
   110         75
   111         47
   112          5
   113          2
   114          2
   115          9
   116          6
   117         33
   118         19
   119        112
   120         45
   121        165
   122         95
   123        190
   124         77
   125         69
   126         13
   127          4
   128         20
   129         17
   130          7
   131         50
   132         17
   133         99
   134         81
   135        113
   136         25
   137         80
   138         13
   139          3
   140          2
   141          6
   142          6
   143         17
   144          9
   145         78
   146         22
   147        110
   148         33
   149        104
   150         21
   151         33
   152        262
   153         33
   154          3
   155          3
   156          3
   157         17
   158          9
   159         74
   160         23
   161        100
   162         30
   163         94
   164         18
   165         14
   166         38
   167          6
   168          1
   169          4
   170          3
   171         17
   172          9
   173         42
   174         17
   175         49
   176         25
   177         50
   178          9
   179          7
   180          1
   181          0
   182          0
   183          4
   184          2
   185         17
   186          8
   187         40
   188         14
   189         30
   190          9
   191         18
   192          3
   193          3
   194          0
   195          0
   196          0
   197          6
   198          3
   199         31
   200         13
   201         37
   202         22
   203        108
   204         19
   205         13
   206          2
   207          1
   208          0
   209          0
   210          0
   211          6
   212          3
   213         32
   214         12
   215         49
   216         14
   217         44
   218         10
   219         10
   220          6
   221          1
   222          0
   223          0
   224          1
   225          6
   226          3
   227         14
   228         14
   229         49
   230         59
   231         87
   232         26
   233         15
   234          3
   235          0
   236          3
   237          2
   238          8
   239         10
   240          4
   241         11
   242          7
   243         27
   244         22
   245         38
   246         18
   247         12
   248          3
   249          0
   250          0
   251          1
   252          1
   253         15
   254          8
   255        340
   256         74
   257         39
   258        147
   259         43
   260          7
   261          2
   265          3
   266          3
   267         18
   268          6
   269         12
   270        106
   271        417
   272        282
   273        196
   274         42
   275          6
   276          1
   277          1
   278          9
   279          9
   280          4
   281          0
   282         10
   283         48
   284         11
   285        134
   286         36
   287         11
   288          3
   289          1
   290          0
   295          1
   296          1
   297          6
   298          7
   299         77
   300        526
   301        161
   302         27
   303          4
   309          2
   310          0
   311          3
   312          4
   313          6
   314         69
   315         18
   316          7
   317          2
   325          4
   326          6
   327          7
   328          9
   329          6
   330          1
   337         65
   338         18
   339          5
   340          2
   341          3
   342          3
   343          2
   353          3
   354          4
   355         78
   356         22
   357          4
   358          0
   365         20
   366          7
   367          3
   368          1
   369          1
   370          3
   371          0
   379          1
   380          2
   381          3
   382          4
   383         41
   384         13
   385          3
   386          1
   394          2
   395          0
   396         18
   397          9
   398        628
   399        198
   400         45
   401          7
   402          2