##TITLE=Library Entry 15288
##JCAMP-DX=Revision 4.10 
##DATA TYPE=MASS SPECTRUM
##SAMPLE DESCRIPTION=Drug Lab
##NAMES=HP
##CAS NAME=Norfenfluramine
##MOLFORM=C10H12F3N
##CAS REGISTRY NO=1886-26-6
##MP= -300
##BP= -300
##MW= 203
##$RETENTION INDEX=1092
##$CONDENSED SPECTRUM=NO
##NPOINTS= 107
##XYDATA=(XY..XY) 1 
    29          2
    30          3
    31          1
    38          2
    39         11
    40          3
    41          8
    42         40
    43         13
    44        999
    45         23
    50          6
    51          8
    52          2
    54          1
    55          1
    56          2
    57          7
    58          2
    61          1
    62          5
    63         14
    64          6
    65          8
    66          2
    69         11
    70          3
    74          5
    75         12
    76          3
    77          6
    78          1
    81          3
    82          1
    83          8
    84          6
    86          1
    87          3
    88          5
    89         19
    90          6
    91         13
    92          2
    93          3
    94          3
    95          4
    96          2
    99          5
   100          1
   101          3
   102          2
   103          1
   104          2
   105          2
   106          1
   107          4
   108          2
   109         35
   110          3
   113          5
   114          5
   115          8
   116          4
   117          7
   118          4
   119         16
   120          4
   121          4
   122          1
   125          2
   126          1
   127          6
   128          2
   132          3
   133          4
   137          1
   138          3
   139          5
   140          8
   141         10
   142          1
   145          5
   148          4
   149         13
   150          1
   151          4
   152          1
   158          2
   159         38
   160          5
   162          1
   164          2
   165          3
   166          3
   167          1
   168         13
   169          2
   172          3
   176          1
   177          3
   182          2
   184         23
   185          3
   186          1
   187          1
   188         10
   202          3