##TITLE=Library Entry 29885
##JCAMP-DX=Revision 4.10 
##DATA TYPE=MASS SPECTRUM
##SAMPLE DESCRIPTION=A.Pleshkova, Nesmeyanov Inst.Org.Elem.Cpds, Moscow
##NAMES=HP
##CAS NAME=1,1,1,3,3,3-Hexafluoropropan-2-one, o-ethyloxime
##MOLFORM=C5H5F6NO
##CAS REGISTRY NO=18860-96-3
##MP= -300
##BP= -300
##MW= 209
##$RETENTION INDEX=0
##$CONDENSED SPECTRUM=NO
##NPOINTS= 39
##XYDATA=(XY..XY) 1 
    32         43
    33         31
    39         38
    40         12
    41        152
    42         41
    43        254
    44        182
    45        745
    46         41
    47         38
    50         33
    51         42
    52         37
    56         15
    57         17
    58         13
    59        999
    60         41
    67         54
    69        712
    70          8
    73         62
    74        483
    75         42
    76         38
    78        123
    79         21
    95         23
    96         43
    97         14
   112         43
   161         34
   162        135
   163         18
   190         42
   194         45
   209         58
   210         15