##TITLE=Library Entry 48387
##JCAMP-DX=Revision 4.10 
##DATA TYPE=MASS SPECTRUM
##SAMPLE DESCRIPTION=A.A.Kutin, Moscow, Russia
##NAMES=HP
##CAS NAME=1,2,3-Dithiazole, 4-chloro-5-(2-pyridylimino)-
##MOLFORM=C7H4ClN3S2
##CAS REGISTRY NO=188672-71-1
##MP= -300
##BP= -300
##MW= 229
##$RETENTION INDEX=0
##$CONDENSED SPECTRUM=NO
##NPOINTS= 109
##XYDATA=(XY..XY) 1 
    33          5
    34         10
    35         15
    36         17
    37         43
    38         71
    39         76
    40         29
    41         17
    42          6
    43         14
    44         33
    45         18
    46         46
    47          6
    48          5
    49         23
    50        108
    51        413
    52        121
    53         17
    54          2
    55         10
    56          8
    57         16
    58         37
    59          7
    60          5
    61          6
    62          7
    64        305
    65         14
    66         29
    67         22
    68          4
    69         21
    70         88
    71          9
    72          4
    73          2
    74          4
    75         21
    76         50
    78        999
    79         65
    81         12
    82          9
    83         23
    84         14
    85          6
    87          1
    90         15
    91          8
    92          4
    93         32
    94          4
    95         12
    96          2
    97          2
    99         13
   101          7
   102         25
   103          5
   104         20
   105          3
   108          3
   109          4
   110         12
   111          1
   112          2
   113          2
   115          6
   122          2
   125         30
   126          1
   127         11
   128          1
   129          2
   130         18
   131          1
   135          1
   136         16
   137          7
   142          4
   151          4
   152          1
   153          1
   162         58
   163          9
   164          3
   165          4
   166          1
   167          8
   168         69
   169          5
   170          6
   171          4
   191          2
   194        794
   195         81
   196         73
   197          6
   198          1
   228          4
   229        191
   230         22
   231         79
   232          7
   233          5