##TITLE=Library Entry 65749
##JCAMP-DX=Revision 4.10 
##DATA TYPE=MASS SPECTRUM
##SAMPLE DESCRIPTION=Chemical Concepts
##NAMES=HP
##CAS NAME=1,1'-Methylenebis(3-phenylurea)
##MOLFORM=C15H16N4O2
##CAS REGISTRY NO=18872-98-5
##MP= -300
##BP= -300
##MW= 284
##$RETENTION INDEX=0
##$CONDENSED SPECTRUM=NO
##NPOINTS= 72
##XYDATA=(XY..XY) 1 
    34         60
    36         87
    37        172
    38        387
    39        655
    40        528
    41        177
    42         90
    43        195
    44        418
    46         53
    47          9
    48         22
    49         47
    50        199
    51        293
    52        117
    53         32
    54         49
    55         56
    56        100
    57         35
    58          7
    59          4
    60         30
    61         53
    62        109
    63        216
    64        281
    65        552
    66        287
    67         43
    68         15
    70         28
    71         11
    72          6
    73         16
    74         35
    76        133
    77        460
    78         45
    79         10
    80          2
    83         11
    84         13
    85          2
    87          2
    89          9
    90         66
    91        332
    92        467
    93        999
    94         57
    95          9
   103          2
   104         14
   105         19
   106         49
   107          4
   112          2
   117         15
   119        507
   120        226
   121         12
   134          6
   135         58
   136        196
   137         17
   147         61
   148        160
   149         19
   284          7