##TITLE=Library Entry 56916
##JCAMP-DX=Revision 4.10 
##DATA TYPE=MASS SPECTRUM
##SAMPLE DESCRIPTION=Japan AIST/NIMC Database- Spectrum MS-IW-6355
##NAMES=HP
##CAS NAME=N-(3-Hydroxy-4-methylanthraniloyl)-4-hydroxy-l-proline lactam
##MOLFORM=C13H14N2O4
##CAS REGISTRY NO=18877-32-2
##MP= -300
##BP= -300
##MW= 262
##$RETENTION INDEX=0
##$CONDENSED SPECTRUM=NO
##NPOINTS= 181
##XYDATA=(XY..XY) 1 
    15          3
    17          8
    18          1
    26          4
    27         30
    28        161
    29          8
    30          9
    31          3
    37          2
    38          6
    39         42
    40         12
    41         49
    42         14
    43         11
    44          8
    45          1
    46          2
    50          6
    51         18
    52         34
    53         27
    54         16
    55         22
    56         16
    57          4
    58         10
    59          1
    61          1
    62          3
    63         12
    64         15
    65         75
    66         74
    67         44
    68        145
    69          9
    70         16
    71          1
    72          1
    74          1
    75          3
    76          9
    77         35
    78         17
    79          7
    80          3
    81          3
    82          1
    83          1
    84         10
    85          4
    86        999
    87         52
    88          4
    89          3
    90          4
    91         18
    92         56
    93         42
    94         25
    95          8
    96          5
    99          2
   101          1
   102          4
   103          7
   104         25
   105          9
   106          9
   107          8
   108          9
   109          1
   110          1
   113          1
   115          1
   116          2
   117          8
   118          3
   119          8
   120        118
   121        343
   122         34
   123          5
   128          1
   129          1
   130          3
   131          2
   132          3
   133          5
   134         11
   135          6
   136          1
   142          1
   143          1
   144          2
   145          2
   146          3
   147         15
   148         25
   149        439
   150         90
   151          8
   152          1
   155          1
   157          1
   158          2
   159          5
   160         10
   161         11
   162        101
   163         14
   164          2
   168          1
   169          2
   170          1
   171          1
   172          2
   173          2
   174         19
   175         32
   176        152
   177         60
   178         18
   179          2
   181          1
   182          1
   183          1
   184          1
   185          1
   186          2
   187          2
   188          3
   189          4
   190        316
   191         45
   192          5
   196          1
   197          3
   198          5
   199          3
   200          3
   201          2
   202          1
   203          5
   204         23
   205          6
   206          2
   210          2
   213          2
   214          5
   215         24
   216          8
   217         97
   218         36
   219          7
   220          1
   225          2
   226          9
   227          9
   228          3
   231          1
   232          3
   233         68
   234         29
   235          4
   240          1
   241          3
   242         36
   243         13
   244         82
   245         40
   246         12
   247          2
   260          5
   261          4
   262        596
   263        110
   264         13
   265          1