##TITLE=Library Entry 31302
##JCAMP-DX=Revision 4.10 
##DATA TYPE=MASS SPECTRUM
##SAMPLE DESCRIPTION=C.Pepe ET AL, Eur. Mass Spectrom. 2,376(1996)
##NAMES=HP
##CAS NAME=1,2,7,8-Tetrakis(methylthio)dodecane
##MOLFORM=C16H34S4
##CAS REGISTRY NO=188746-67-0
##MP= -300
##BP= -300
##MW= 354
##$RETENTION INDEX=0
##$CONDENSED SPECTRUM=NO
##NPOINTS= 95
##XYDATA=(XY..XY) 1 
    41        330
    42         64
    43        279
    44        284
    45         99
    46         64
    47         75
    48         25
    49         13
    50         25
    52         61
    54         69
    55        207
    56          5
    57         11
    58          2
    59         25
    60         93
    61        999
    62         23
    63         39
    64         25
    65        220
    67         39
    68        320
    69         50
    70         16
    72         46
    73         46
    74         72
    76         46
    77          5
    78        159
    79         25
    80        227
    81         32
    82         23
    85         58
    86          2
    87        189
    88         18
    89         18
    91         58
    92          2
    93        470
    94         65
    95        397
    96         43
    97         13
    99         13
   101         13
   104          5
   105         12
   108         51
   110         29
   114         15
   115          5
   116         18
   117        293
   118         25
   120         13
   122         26
   128         26
   130         15
   141        358
   142         44
   143         51
   150         20
   164         12
   176          2
   178          5
   189        213
   190         40
   191         18
   197         22
   199          5
   211         99
   212         39
   213         26
   214          4
   236          6
   237        133
   238         36
   239         18
   245         27
   258         25
   259        213
   260         85
   261         23
   306         41
   307         19
   308          5
   354         10
   355          7
   356          3