##TITLE=Library Entry 46026
##JCAMP-DX=Revision 4.10 
##DATA TYPE=MASS SPECTRUM
##SAMPLE DESCRIPTION=STER CHOL TMSI L 00 0000 E M.HORN
##NAMES=HP
##CAS NAME=Cholestan-3-ol, (3.beta.,5.alpha.)-, TMS derivative
##MOLFORM=C30H56OSi
##CAS REGISTRY NO=18880-51-8
##MP= -300
##BP= -300
##MW= 460
##$RETENTION INDEX=3172
##$CONDENSED SPECTRUM=NO
##NPOINTS= 228
##XYDATA=(XY..XY) 1 
    41        190
    42         25
    43        280
    44         15
    45         35
    47         15
    53         25
    54         15
    55        370
    56         60
    57        260
    58         20
    59         35
    60         10
    61         50
    65         15
    66         10
    67        250
    68         45
    69        225
    70         35
    71        135
    72         15
    73        380
    74         65
    75        999
    76        120
    77        120
    78         25
    79        230
    80         45
    81        400
    82         60
    83        180
    84         15
    85         30
    89         45
    91        150
    92         40
    93        250
    94         80
    95        360
    96         45
    97        130
    98         15
    99         15
   101         35
   103         25
   104         35
   105        220
   106        350
   107        530
   108        200
   109        270
   110         70
   111        120
   112         15
   113         15
   115         30
   116         20
   117         55
   118         35
   119        170
   120        120
   121        250
   122         75
   123        130
   124         25
   125         40
   127         25
   128         10
   129        140
   130         55
   131        130
   132         30
   133        160
   134         85
   135        240
   136         85
   137         70
   138         75
   139         20
   141         10
   142        190
   143         55
   144         20
   145        150
   146         50
   147        280
   148        150
   149        200
   150         30
   151         30
   152         30
   153         15
   155        120
   156         25
   157         15
   158         10
   159        110
   160         75
   161        170
   162         55
   163         45
   164         10
   165         35
   166         15
   167         10
   169         15
   173         60
   174         40
   175         80
   176         30
   177         30
   179         20
   180         15
   181         30
   182         20
   183         25
   185         10
   187         45
   188         35
   189         55
   190         65
   191         45
   193         20
   196         60
   197         45
   198         10
   199         15
   201        230
   202         45
   203         40
   204         15
   205         20
   206         10
   207         90
   208         20
   209         30
   210         10
   213         10
   214         15
   215        999
   216        470
   217        320
   218         75
   219         25
   220         10
   221         30
   222         15
   223         15
   229         55
   230        270
   231         70
   232         10
   233         10
   235         10
   237         80
   238         40
   239         10
   241         15
   243         15
   244         10
   245         15
   247         15
   249         10
   255         15
   257         55
   258         15
   259         10
   261         15
   262        120
   263         50
   264         15
   275         10
   276         15
   277         10
   281         30
   285         20
   287         15
   288         15
   289         15
   291         20
   292         10
   304         20
   305        270
   306        260
   307         55
   308         15
   313         20
   315         35
   316         20
   317         10
   319         25
   320         50
   321         15
   328         15
   329         20
   330         25
   331         60
   332         20
   341         15
   344         30
   345         15
   353         10
   354         25
   355        280
   356         95
   357         20
   368         10
   369         75
   370        210
   371         55
   372         15
   403        130
   404         40
   405         10
   444         35
   445        470
   446        170
   447         70
   448         20
   458         15
   459         30
   460        370
   461        140
   462         35
   463         15