##TITLE=Library Entry 34091
##JCAMP-DX=Revision 4.10 
##DATA TYPE=MASS SPECTRUM
##SAMPLE DESCRIPTION=NIST Mass Spectrometry Data Center
##NAMES=HP
##CAS NAME=2-Propenoic acid, 2-methyl-, 2-chloroethyl ester
##MOLFORM=C6H9ClO2
##CAS REGISTRY NO=1888-94-4
##MP= -300
##BP= -300
##MW= 148
##$RETENTION INDEX=0
##$CONDENSED SPECTRUM=NO
##NPOINTS= 80
##XYDATA=(XY..XY) 1 
    14          1
    15         11
    25          2
    26         29
    27        158
    29         23
    30          7
    31          7
    35          1
    36          2
    37         19
    38         49
    39        417
    40        100
    41        817
    42         55
    43         23
    44          8
    45         10
    47          2
    48          4
    49         40
    50          8
    51         14
    52          2
    53         16
    54          3
    55          8
    56         13
    57         10
    58         24
    59          5
    60          2
    61          7
    62         50
    63        132
    64         18
    65         41
    66          3
    67         14
    68         45
    69        999
    70         50
    71         10
    73          1
    75          5
    76          1
    77          2
    79          1
    81          1
    83          1
    84         79
    85         17
    86        354
    87         33
    88          2
    92          1
    94          4
    95         12
    97         12
    99         65
   100          3
   102          5
   103          4
   104          2
   105          1
   111         15
   112         35
   113        185
   114         12
   115          1
   118          1
   130          5
   132          1
   133          8
   135          2
   147          1
   148          8
   149          2
   150          2