##TITLE=Library Entry 67345
##JCAMP-DX=Revision 4.10 
##DATA TYPE=MASS SPECTRUM
##SAMPLE DESCRIPTION=Chuck Anderson, Aldrich Chemical Co.
##NAMES=HP
##CAS NAME=Bicyclo[3.1.1]hept-3-en-2-ol, 4,6,6-trimethyl-, [1S-(1.alpha.,2.b
eta.,5.alpha.)]-
##MOLFORM=C10H16O
##CAS REGISTRY NO=18881-04-4
##MP= -300
##BP= -300
##MW= 152
##$RETENTION INDEX=1142
##$CONDENSED SPECTRUM=NO
##NPOINTS= 88
##XYDATA=(XY..XY) 1 
    15         12
    18          4
    26         17
    27        342
    28         47
    29        233
    30          5
    31         63
    37          1
    38         21
    39        395
    40         66
    41        622
    42         45
    43        401
    44         17
    45         25
    50         28
    51         98
    52         38
    53        178
    54         37
    55        367
    56         57
    57         57
    58         10
    59        552
    60         31
    61         16
    62         10
    63         34
    64         12
    65        146
    66         52
    67        401
    68         71
    69        459
    70         59
    71         39
    72         51
    73          2
    74          6
    75          5
    76          7
    77        327
    78         82
    79        592
    80        231
    81        569
    82        233
    83        290
    84        258
    85         21
    89         11
    91        523
    92        149
    93        222
    94        999
    95        424
    96        129
    97         70
    98          4
   102          5
   103         36
   104         17
   105        140
   106         36
   107        233
   108         76
   109        877
   110         88
   111         16
   115         31
   116          6
   117         42
   118          4
   119        300
   120         34
   121        107
   122         27
   123         83
   124         10
   133          5
   134         71
   135         26
   137        148
   138         13
   150          6