##TITLE=Library Entry 42301
##JCAMP-DX=Revision 4.10 
##DATA TYPE=MASS SPECTRUM
##SAMPLE DESCRIPTION=NIST Mass Spectrometry Data Center
##NAMES=HP
##CAS NAME=Estriol, 3TMS derivative
##MOLFORM=C27H48O3Si3
##CAS REGISTRY NO=18888-17-0
##MP= -300
##BP= -300
##MW= 504
##$RETENTION INDEX=2870
##$CONDENSED SPECTRUM=NO
##NPOINTS= 323
##XYDATA=(XY..XY) 1 
    15          1
    27          1
    29          2
    31          1
    39          2
    41         11
    42          1
    43         12
    44          6
    45         54
    46          4
    47          6
    51          1
    53          5
    54          2
    55         17
    56          1
    57          4
    58          3
    59         29
    60          3
    61          9
    63          1
    65          3
    66          2
    67         13
    68          2
    69          6
    70          2
    71          4
    73        999
    74         86
    75        103
    76          7
    77         11
    78          2
    79         17
    80          3
    81         28
    82          3
    83          3
    84          1
    85          4
    86          1
    87          2
    88          1
    89          5
    90          1
    91         19
    92          4
    93         22
    94          5
    95         15
    96          2
    97          4
    98          1
    99          5
   101         11
   102          3
   103         57
   104          7
   105         19
   106          2
   107         17
   108          4
   109         10
   110          1
   111          3
   113          6
   114          2
   115         30
   116          8
   117         34
   118          4
   119         12
   120          2
   121          5
   122          1
   123          2
   125          2
   126          1
   127         10
   128         17
   129        217
   130         28
   131         37
   132          5
   133         51
   134          9
   135          9
   136          1
   137          2
   139          2
   140          1
   141         20
   142          8
   143         39
   144          7
   145         13
   147        206
   148         34
   149         29
   150          4
   151          7
   152          4
   153          6
   154          4
   155         29
   156          9
   157         11
   158          3
   159          9
   160          2
   161         15
   162          4
   163         30
   164          7
   165         15
   166          5
   167         17
   168          6
   169         16
   170          3
   171          9
   172          1
   173          5
   174          1
   175          8
   176          4
   177         41
   178         11
   179         29
   180         13
   181         12
   182         14
   183         23
   184          5
   185         12
   186          3
   187         11
   188          4
   189         33
   190          8
   191         15
   192          9
   193         13
   194          3
   195          6
   196          2
   197          3
   198          1
   199         10
   200          5
   201         28
   202          8
   203         57
   204         30
   205         89
   206         20
   207          8
   208          2
   209          4
   210          1
   211          3
   212          1
   213          6
   214          5
   215         27
   216         15
   217         53
   218         51
   219         24
   220          6
   221          3
   222          1
   223          3
   224          1
   225          4
   226          2
   227          9
   228          4
   229         71
   230         33
   231         96
   232         54
   233         13
   234          4
   235          4
   236          1
   237          4
   238          2
   239          9
   240          3
   241         11
   242         11
   243         28
   244         47
   245         29
   246          7
   247          2
   248          1
   249          1
   250          1
   251          6
   252          3
   253         13
   254          7
   255         36
   256         20
   257         44
   258         20
   259          7
   260          1
   261          1
   263          1
   265          4
   266          2
   267         13
   268         20
   269         38
   270         96
   271         42
   272         17
   273          5
   274          1
   275          1
   277          1
   279          2
   280          2
   281         18
   282         16
   283         61
   284         35
   285         54
   286         35
   287          9
   288          2
   289          1
   291          1
   292          1
   293          2
   294          2
   295         49
   296         83
   297        133
   298         51
   299         39
   300         10
   301          2
   304          1
   305          2
   306          2
   307          3
   308          2
   309         27
   310         21
   311        190
   312         51
   313         15
   314          4
   315          2
   317          1
   318          1
   319          3
   320          2
   321          2
   322          3
   323         17
   324         63
   325         39
   326         12
   327          4
   328          1
   329          1
   330          1
   331          1
   332          1
   333          1
   341          4
   342          9
   343          4
   345        165
   346         51
   347         21
   348          4
   349          1
   355          1
   357          3
   358          3
   359          5
   360         30
   361         10
   362          4
   363          1
   371          2
   372          1
   373          1
   385          9
   386        100
   387         48
   388         18
   389          5
   390          1
   397          1
   399         15
   400          5
   401          5
   402          1
   413          4
   414         34
   415         13
   416          5
   417          1
   489         17
   490          7
   491          3
   492          1
   502          3
   504        149
   505         66
   506         29
   507          8
   508          2