##TITLE=Library Entry 46150
##JCAMP-DX=Revision 4.10 
##DATA TYPE=MASS SPECTRUM
##SAMPLE DESCRIPTION=NIST Mass Spectrometry Data Center
##NAMES=HP
##CAS NAME=5.beta.-Pregnan-3.alpha.-ol-20-one, TMS derivative
##MOLFORM=C24H42O2Si
##CAS REGISTRY NO=18880-83-6
##MP= -300
##BP= -300
##MW= 390
##$RETENTION INDEX=2637
##$CONDENSED SPECTRUM=NO
##NPOINTS= 290
##XYDATA=(XY..XY) 1 
    15          3
    26          1
    27          7
    28          1
    29         21
    30          1
    31          1
    38          1
    39         15
    40          4
    41        110
    43        606
    44         21
    45         61
    46          4
    47         29
    48          1
    49          1
    50          1
    51          3
    52          2
    53         45
    54          9
    55        193
    56         10
    57         16
    58         15
    59         44
    60         11
    61         56
    62          3
    63          3
    65         29
    66         11
    67        229
    68         32
    69         94
    70          9
    71        132
    72         20
    73        539
    74         66
    75        999
    76         75
    77        147
    78         23
    79        287
    80         47
    81        322
    82         29
    83         57
    84        158
    85        133
    86         15
    87          8
    88          3
    89         31
    91        288
    92         53
    93        320
    94        121
    95        335
    96         31
    97         45
    98          8
    99         18
   100          3
   101         53
   102          7
   103         28
   104         16
   105        316
   106         95
   107        307
   108        208
   109        183
   110         26
   111         28
   112          4
   113         17
   114          3
   115         46
   116         20
   117         82
   118         38
   119        274
   120        107
   121        213
   122         66
   123         75
   124         15
   125         16
   126          3
   127         21
   128         18
   129        123
   130         57
   131        138
   132         70
   133        169
   134         80
   135        140
   136         28
   137         41
   138         19
   139          9
   140          2
   141         15
   142        104
   143         91
   144         33
   145        347
   146         82
   147        236
   148         60
   149        100
   150         23
   151         23
   152          5
   153          6
   154          2
   155        143
   156         40
   157         60
   158         27
   159        155
   160         59
   161        199
   162         75
   163         59
   164         12
   165         14
   166         10
   167          6
   168          3
   169         17
   170          6
   171         46
   172         32
   173        111
   174         46
   175         93
   176         32
   177         28
   178          9
   179          9
   180          4
   181          6
   182          7
   183         16
   184          5
   185         40
   186         32
   187         78
   188         35
   189         54
   190         72
   191         53
   192         19
   193          6
   194          2
   195          4
   196          3
   197         13
   198          4
   199         46
   200         18
   201         84
   202         26
   203         37
   204        145
   205         34
   206          6
   207          2
   208          1
   209          3
   210          1
   211         17
   212          8
   213         58
   214         30
   215        298
   216         79
   217         71
   218         20
   219          6
   220          1
   221          1
   222          1
   223          1
   224          1
   225         21
   226         11
   227         57
   228         29
   229         86
   230        140
   231         37
   232          7
   233          3
   234          1
   235          2
   236          1
   237          2
   239          9
   240         13
   241         36
   242        102
   243         79
   244         57
   245         49
   246         67
   247         12
   248          2
   249          1
   251          1
   252          1
   253         17
   254         10
   255         37
   256         17
   257        121
   258         49
   259         17
   260          7
   261         14
   262          3
   263          2
   265          1
   267         57
   268         12
   269          3
   271          9
   272         30
   273          8
   274          2
   275          1
   276          1
   277          1
   281         32
   282         53
   283         21
   284          3
   285        252
   286         57
   287          6
   288          1
   289          1
   290          1
   291          4
   292          1
   293          1
   297          1
   298          2
   299         33
   300        670
   301        154
   302         20
   303          2
   304          1
   305          2
   306          1
   317          3
   318          1
   319          1
   320          7
   321          3
   322          1
   331          1
   332          8
   333          6
   334          3
   335          1
   345          1
   346          1
   347          1
   357          1
   359          1
   361          1
   372          1
   373          1
   375        149
   376         46
   377         11
   378          2
   388          1
   389          3
   390          8
   391          3
   392          1