##TITLE=Library Entry 46083
##JCAMP-DX=Revision 4.10 
##DATA TYPE=MASS SPECTRUM
##SAMPLE DESCRIPTION=BAY 0380
##NAMES=HP
##CAS NAME=5.Xi.-Ergost-7-en-3.beta.-ol, TMS derivative
##MOLFORM=C31H56OSi
##CAS REGISTRY NO=18880-54-1
##MP= -300
##BP= -300
##MW= 472
##$RETENTION INDEX=0
##$CONDENSED SPECTRUM=NO
##NPOINTS= 141
##XYDATA=(XY..XY) 1 
    55        490
    57        320
    61         60
    65         20
    67        200
    68         30
    69        310
    70         40
    71        230
    72         20
    73        570
    74         60
    75        999
    76         70
    77         90
    78         20
    79        220
    80         30
    81        400
    82         50
    83        180
    84         30
    85         70
    89         30
    91        280
    92         70
    93        260
    94         80
    95        370
    96         50
    97        130
   101         30
   103         30
   104         20
   105        340
   106        120
   107        430
   108         80
   109        180
   110         30
   111         40
   115         30
   116         30
   117        110
   118         40
   119        260
   120        100
   121        190
   122         60
   123        100
   124         20
   125         20
   128         20
   129        130
   130         40
   131        200
   132         50
   133        250
   134        120
   135        160
   136         50
   137         30
   141         20
   142         20
   143         90
   144         80
   145        230
   146         60
   147        290
   148         70
   149         80
   151         20
   155         30
   157         80
   158         40
   159        200
   160         60
   161        170
   162         30
   163         20
   165         20
   169         50
   171         70
   172         20
   173        100
   174         30
   175         40
   182         20
   183         40
   184         20
   185         60
   186         20
   187         60
   189         30
   195         20
   196         50
   197         20
   199         70
   200         30
   201         80
   202         20
   209         20
   213        360
   214         80
   215         60
   227         50
   228         90
   229        250
   230         50
   241         30
   253         20
   255        750
   256        170
   257         30
   259         20
   261         40
   273         20
   274         30
   275         20
   288         20
   289         20
   290         20
   303         50
   304         30
   318         30
   343         30
   344         20
   345         60
   346         20
   367        160
   368         50
   381         20
   382         80
   383         30
   415         20
   457        160
   458         60
   459         20
   472        560
   473        230
   474         60