##TITLE=Library Entry 50924
##JCAMP-DX=Revision 4.10 
##DATA TYPE=MASS SPECTRUM
##SAMPLE DESCRIPTION=Japan AIST/NIMC Database- Spectrum MS-IW-2869
##NAMES=HP
##CAS NAME=N-Ethyl-N-furfurylaniline
##MOLFORM=C13H15NO
##CAS REGISTRY NO=188881-92-7
##MP= -300
##BP= -300
##MW= 201
##$RETENTION INDEX=0
##$CONDENSED SPECTRUM=NO
##NPOINTS= 105
##XYDATA=(XY..XY) 1 
    26          1
    27         23
    28          6
    29          9
    30          1
    37          1
    38          3
    39         15
    40          2
    41          5
    42          5
    43          3
    44          2
    50          9
    51         42
    52         10
    53         98
    54          6
    55          5
    56          4
    62          1
    63          6
    64          5
    65         11
    66          3
    67          1
    68          1
    69          1
    71          1
    74          2
    75          2
    76          3
    77        116
    78         16
    79         10
    80          2
    81        999
    82         68
    83          4
    86          1
    89          2
    90          2
    91         19
    92          5
    93          4
    94          2
    95          6
    96          1
   100          5
   101          1
   102          1
   103          5
   104         53
   105         17
   106         64
   107          5
   112          2
   115          9
   116          3
   117          7
   118         15
   119         14
   120         14
   121          5
   127          2
   128          3
   129          2
   130          6
   131          2
   132          4
   133          2
   134        160
   135         15
   136          1
   140          1
   141          1
   142          3
   143          8
   144         12
   145          6
   146          3
   147          1
   149          1
   154          2
   155          1
   156          4
   157          2
   158         35
   159          5
   160          2
   168          1
   170          6
   171          2
   172         18
   173         32
   174          4
   182          1
   184          1
   186        100
   187         12
   188          1
   200         23
   201        401
   202         58
   203          4