##TITLE=Library Entry 9843
##JCAMP-DX=Revision 4.10 
##DATA TYPE=MASS SPECTRUM
##SAMPLE DESCRIPTION=NIST Mass Spectrometry Data Center, 1994
##NAMES=HP
##CAS NAME=N-Acetylcaprolactam
##MOLFORM=C8H13NO2
##CAS REGISTRY NO=1888-91-1
##MP= -300
##BP= -300
##MW= 155
##$RETENTION INDEX=0
##$CONDENSED SPECTRUM=NO
##NPOINTS= 68
##XYDATA=(XY..XY) 1 
    12          2
    13          3
    14         33
    15        195
    16          5
    17          0
    18         13
    26         35
    27        193
    28        234
    29         93
    30        137
    31          9
    37          4
    38         17
    39        153
    40         43
    41        248
    42        205
    43        999
    44        137
    45         11
    46          1
    50          6
    51          9
    52          9
    53         27
    54         32
    55        259
    56        261
    57         98
    58         34
    59          1
    60        118
    61          3
    65          4
    67         80
    68         29
    69         48
    70         46
    71         14
    72         30
    73         22
    79          2
    80          1
    81          4
    82          6
    83         16
    84        121
    85        343
    86         45
    87          3
    94          2
    95         10
    96         27
    97          1
    98         47
    99         25
   110          2
   112        115
   113        112
   114         41
   115          3
   127        165
   128         12
   140          2
   155         50
   156          5