##TITLE=Library Entry 51650
##JCAMP-DX=Revision 4.10 
##DATA TYPE=MASS SPECTRUM
##SAMPLE DESCRIPTION=USAF ACADEMY, COLORADO SPRINGS, CO 80840; J LLOYD PFLUG
##NAMES=HP
##CAS NAME=3-Phenylpropenenitrile, 2-(diethoxyphosphinyl)-
##MOLFORM=C13H16NO3P
##CAS REGISTRY NO=18896-73-6
##MP= -300
##BP= -300
##MW= 265
##$RETENTION INDEX=0
##$CONDENSED SPECTRUM=NO
##NPOINTS= 135
##XYDATA=(XY..XY) 1 
    12          6
    14          0
    15         21
    19         19
    26         31
    27        228
    29        414
    30         13
    31         13
    38         12
    39         63
    41         10
    42          6
    43         48
    45         41
    47        103
    48         11
    50         94
    51        313
    52         83
    53         11
    61         11
    62         28
    63         77
    64         23
    65        195
    66          9
    74         60
    75        144
    76        157
    77        572
    78         77
    79          7
    81        357
    82        999
    83        402
    84         18
    87         16
    88         26
    89         88
    90         51
    91         97
    92         13
    93         49
    94         34
    98          9
    99         31
   100        105
   101        319
   102        403
   103         58
   104         14
   105         19
   107         14
   108          7
   109         73
   110        487
   111        880
   112         29
   113          8
   114          7
   115         47
   116         67
   117         20
   118         42
   119         23
   121          8
   123          7
   126         10
   127        321
   128        728
   129        603
   130         89
   131         20
   134         13
   136         23
   137         10
   138        416
   139         27
   140         30
   141         11
   142         10
   143         11
   144         48
   145         27
   146        103
   147         11
   149         11
   153         11
   154         54
   155        182
   156        742
   157        232
   158         28
   160         11
   162         18
   163         10
   165          6
   166         24
   167          7
   172          6
   173          6
   174        488
   175         53
   176          6
   178          8
   182         58
   183         15
   184         15
   190         56
   191         45
   192        335
   193         87
   194          9
   196         23
   200          6
   201         33
   204          7
   208        110
   209        148
   210         76
   211          8
   218        160
   219        575
   220        146
   221         26
   222         20
   236        861
   237        229
   238         37
   250         11
   264        500
   265        561
   266         93
   267         10