##TITLE=Library Entry 45460
##JCAMP-DX=Revision 4.10 
##DATA TYPE=MASS SPECTRUM
##SAMPLE DESCRIPTION=Philip J. Marriott, Australian Centre for Research on S
eparation Science, Melbourne, Australia
##NAMES=HP
##CAS NAME=Androstan-3-ol, (3.beta.,5.alpha.)-, TMS derivative
##MOLFORM=C22H40OSi
##CAS REGISTRY NO=18899-44-0
##MP= -300
##BP= -300
##MW= 348
##$RETENTION INDEX=2285
##$CONDENSED SPECTRUM=NO
##NPOINTS= 187
##XYDATA=(XY..XY) 1 
    45         49
    46          3
    47         28
    48          1
    51          3
    53         44
    54          9
    55        159
    56          9
    57         12
    58          4
    59         34
    60          9
    61         52
    62          3
    63          3
    64          1
    65         22
    66          7
    67        169
    68         18
    69         36
    70          4
    71          5
    72          6
    73        231
    74         36
    75        999
    76         73
    77        106
    78         15
    79        178
    80         28
    81        260
    82         21
    83         36
    84          3
    85          7
    86          1
    87          4
    88          2
    89         20
    90          2
    91        145
    92         25
    93        149
    94         35
    95        221
    96         20
    97         24
    98          2
    99          8
   100          1
   101         26
   102          3
   103         17
   104         10
   105         80
   106         25
   107        100
   108         71
   109        110
   110         17
   111         19
   112          2
   113          6
   114          1
   115         22
   116          8
   117         24
   118          8
   119         36
   120         10
   121         56
   122         13
   123         53
   124         20
   125          6
   126          1
   127          8
   128          5
   129         43
   130         53
   131         73
   132         12
   133         38
   134         11
   135         62
   136          9
   137         18
   138         27
   139          4
   141          5
   142        167
   143         33
   144         11
   145         50
   146         10
   147         51
   148         32
   149         60
   150          9
   151          3
   152          2
   153          2
   154          1
   155         95
   156         23
   157         10
   158          4
   159         30
   160          6
   161         76
   162         32
   163         36
   164          5
   165          3
   166          1
   167          3
   168          1
   169          3
   170          1
   171          2
   172          1
   173         10
   174          3
   175         41
   176         11
   177          5
   178          1
   179          1
   181          2
   182          3
   183          4
   184          1
   185          2
   186          1
   187         14
   188          9
   189         16
   190          5
   191          3
   193          1
   195          1
   196          1
   197          1
   199          1
   200          1
   201         28
   202         13
   203         28
   204          9
   205          1
   209          1
   213          1
   215          7
   216          4
   217          7
   218         20
   219         35
   220          6
   221          1
   229          9
   230          4
   231          2
   232          1
   237          1
   241          1
   243         34
   244         11
   245          2
   251          1
   257         56
   258        121
   259         29
   260          4
   291          3
   292          1
   332          1
   333        115
   334         54
   335         14
   336          2
   347          2
   348         19
   349          5
   350          1