##TITLE=Library Entry 42283
##JCAMP-DX=Revision 4.10 
##DATA TYPE=MASS SPECTRUM
##SAMPLE DESCRIPTION=Philip J. Marriott, Australian Centre for Research on S
eparation Science, Melbourne, Australia
##NAMES=HP
##CAS NAME=5.alpha.-Dihydrotestosterone, TMS derivative
##MOLFORM=C22H38O2Si
##CAS REGISTRY NO=18899-43-9
##MP= -300
##BP= -300
##MW= 362
##$RETENTION INDEX=2615
##$CONDENSED SPECTRUM=NO
##NPOINTS= 216
##XYDATA=(XY..XY) 1 
    45        194
    46         14
    47         56
    49          1
    50          5
    51         24
    52         14
    53        105
    54         32
    55        458
    56         38
    57         57
    58         28
    59        108
    60         20
    61         59
    62          7
    63         17
    64          1
    65         57
    66         18
    67        265
    68         65
    69         81
    70         11
    71         18
    72         26
    73        999
    74         95
    75        549
    76         37
    77        175
    78         35
    79        295
    80         49
    81        265
    82         37
    83         38
    84          5
    85         28
    86          6
    87         14
    88          1
    89         18
    90          4
    91        280
    92         35
    93        225
    94         67
    95        143
    96         25
    97         35
    98          4
    99         28
   100          2
   101        184
   102         25
   103         40
   104         13
   105        173
   106         47
   107        138
   108         41
   109         68
   110         25
   111         46
   112          5
   113         18
   114          6
   115        149
   116        206
   117        104
   118         28
   119         96
   120         28
   121         78
   122         31
   123         62
   124         46
   125          9
   126          3
   127         14
   128         24
   129        849
   130        177
   131        102
   132         16
   133         71
   134         21
   135         50
   136         17
   137         17
   138          9
   140          1
   141         10
   142         15
   143         26
   144         14
   145         58
   146         16
   147         66
   148         52
   149        135
   150         20
   151          6
   152          2
   153          6
   155          9
   156          5
   157         22
   158         10
   159         43
   160         14
   161         79
   162         46
   163         29
   164          3
   165          2
   167          1
   169          6
   170          1
   171         20
   172          8
   173         32
   174         12
   175         26
   176         11
   177          1
   178          1
   182          6
   183          9
   185         12
   187         20
   188          5
   189          9
   190          3
   195          6
   197          6
   199         20
   200         13
   201         19
   202          7
   203          1
   207          3
   208          1
   209          2
   211          8
   213         19
   214          8
   215         19
   216          9
   217         11
   218          4
   224          1
   225          1
   228          1
   229         26
   230         22
   231         26
   232          6
   239          8
   240          5
   241          2
   244         23
   245          3
   246          2
   255          8
   257        120
   258         40
   259          3
   266          3
   271         19
   272        124
   273         33
   274          5
   275          3
   277          1
   278          1
   290          1
   291         12
   292          7
   295          2
   298          1
   306         17
   308          2
   319         18
   320          7
   342          1
   346          1
   347         62
   348         29
   349          4
   350          1
   352          1
   362         17
   363          7
   364          1
   386          1
   392          1
   393          1
   396          1
   397          1
   400          1
   403          2
   428          1
   435          1
   446          1
   449          2
   453          1
   465          1
   470          1
   478          1
   488          1
   519          2
   540          2
   551          1