##TITLE=Library Entry 97723
##JCAMP-DX=Revision 4.10 
##DATA TYPE=MASS SPECTRUM
##SAMPLE DESCRIPTION=D.HENNEBERG, MAX-PLANCK INSTITUTE, MULHEIM, WEST GERMAN
Y
##NAMES=HP
##CAS NAME=Ethane, 1-(o-ethylphenyl)-1-phenyl-
##MOLFORM=C16H18
##CAS REGISTRY NO=18908-70-8
##MP= -300
##BP= -300
##MW= 210
##$RETENTION INDEX=0
##$CONDENSED SPECTRUM=NO
##NPOINTS= 155
##XYDATA=(XY..XY) 1 
    25          1
    26          2
    27         79
    28         27
    29         31
    31          1
    33          1
    34          2
    35          1
    36          2
    38          5
    39         92
    40          3
    41         33
    43          1
    44          3
    46          0
    47          2
    48          2
    49          0
    50         25
    51         99
    52         26
    53         26
    54          3
    55          3
    58          1
    59          1
    60          1
    61          3
    62         11
    63         56
    64         14
    65         80
    66          8
    67         14
    68          3
    69          8
    70         17
    71          8
    72          3
    74         11
    75         26
    76         81
    77        209
    78         55
    79         86
    80          6
    81          6
    82         25
    83         27
    84          3
    85          2
    86          4
    87         13
    88         36
    89        205
    90         76
    91        318
    92         22
    93          2
    95         10
    96         19
    97          4
    98          3
    99          5
   101         11
   102         26
   103        139
   104         42
   105        214
   106         18
   107          1
   108          1
   109          2
   110          2
   111          2
   113         26
   114         13
   115        186
   116         44
   117        999
   118        103
   119          7
   120          2
   121          1
   123          1
   124          1
   126          8
   127         17
   128         33
   129         25
   130          6
   131         18
   132        118
   133         32
   134          3
   135          1
   136          2
   137          4
   139         18
   140          8
   141         18
   142          8
   143         14
   144          6
   146          1
   147          2
   149          6
   150         11
   151         24
   152         54
   153         28
   154          9
   155          9
   156         17
   157          5
   158          4
   161         10
   163         21
   164         25
   165        165
   166         87
   167         86
   168         10
   169          4
   170          2
   174          6
   175          9
   176         19
   177         25
   178        126
   179         89
   180         66
   181        180
   182         37
   185          2
   189         16
   190          7
   191         12
   192         11
   193         20
   194         16
   195        601
   196        106
   197         12
   198          2
   199          1
   200          2
   203          1
   208          1
   209          6
   210        351
   211         74
   212          8