##TITLE=Library Entry 24705
##JCAMP-DX=Revision 4.10 
##DATA TYPE=MASS SPECTRUM
##SAMPLE DESCRIPTION=Chuck Anderson, Aldrich Chemical Co.
##NAMES=HP
##CAS NAME=Heptane, 3-(bromomethyl)-
##MOLFORM=C8H17Br
##CAS REGISTRY NO=18908-66-2
##MP= -300
##BP= -300
##MW= 192
##$RETENTION INDEX=1083
##$CONDENSED SPECTRUM=NO
##NPOINTS= 93
##XYDATA=(XY..XY) 1 
    14          0
    15          3
    25          0
    26         10
    27        184
    28         39
    29        277
    30          6
    36          0
    37          1
    38          7
    39        181
    40         27
    41        531
    42         78
    43        408
    45          0
    46          0
    49          0
    50          6
    51         17
    52          8
    53         65
    54         23
    55        571
    56        155
    57        999
    58         38
    59          0
    62          0
    63          1
    64          0
    65          6
    66          2
    67         16
    68          4
    69         62
    70         76
    71        519
    72          4
    74          0
    77          4
    78          0
    79          5
    80          1
    81          4
    82          3
    83        212
    84         22
    85          5
    86          0
    91          0
    92          0
    93          9
    94          0
    95          9
    96          0
    97          2
    98         30
    99         27
   100          2
   105          0
   106          1
   107         17
   108          1
   109         17
   110          0
   111          1
   112          2
   113         83
   114          6
   115          0
   117          0
   119          3
   120          0
   121         16
   122          1
   123         14
   124          0
   133          0
   134          1
   135         31
   136          2
   137         30
   138          1
   163         38
   164          2
   165         36
   166          2
   192          3
   193          0
   194          4
   195          0