##TITLE=Library Entry 43409
##JCAMP-DX=Revision 4.10 
##DATA TYPE=MASS SPECTRUM
##SAMPLE DESCRIPTION=S. MARKEY UNIV. OF COLO. MED. CTR., DENVER, COLORADO, U
SA
##NAMES=HP
##CAS NAME=Galactitol, 6TMS derivative
##MOLFORM=C24H62O6Si6
##CAS REGISTRY NO=18919-39-6
##MP= -300
##BP= -300
##MW= 614
##$RETENTION INDEX=1944
##$CONDENSED SPECTRUM=NO
##NPOINTS= 114
##XYDATA=(XY..XY) 1 
    40         44
    41         10
    43          1
    44          3
    45         30
    47          1
    49          1
    51          2
    52         10
    55          1
    59         19
    61          1
    69          8
    72         11
    73        999
    74         74
    75         70
    77          7
    79         15
    89         14
   101         18
   103        347
   104         35
   105         20
   113          2
   116          4
   117         95
   118          8
   119          7
   129         49
   130          2
   131         20
   133         53
   134          7
   135          2
   143         12
   145          1
   147        329
   148         47
   149         36
   150          2
   153         42
   154         18
   155          6
   157         22
   158          1
   159          2
   161          7
   163          5
   169          2
   175         14
   177          7
   183          6
   189         64
   190         13
   191         83
   192         13
   193          3
   203          9
   204         95
   205        444
   206         88
   207         45
   208          5
   215          3
   217        616
   218        126
   219         50
   220          7
   221         18
   222          3
   229         21
   230          8
   231         56
   232         12
   233          4
   243          3
   255         12
   259         17
   260          1
   265          1
   277         31
   278         13
   279          4
   291         23
   292          7
   293          1
   305         34
   306         33
   307        478
   308        147
   309         69
   310         11
   318          4
   319        462
   320        138
   321         62
   322         13
   331         45
   332         11
   333          9
   345         43
   346         13
   347          4
   409         10
   410          4
   419         30
   420         10
   421         64
   422         21
   423         12
   524         11
   525          4
   526          1