##TITLE=Library Entry 81480
##JCAMP-DX=Revision 4.10 
##DATA TYPE=MASS SPECTRUM
##SAMPLE DESCRIPTION=A.A.Kutin, Moscow, Russia
##NAMES=HP
##CAS NAME=Imidazolo[2,1-b]1,3,4-thiadiazole, 5-chloro-2-methyl-
##MOLFORM=C5H4ClN3S
##CAS REGISTRY NO=189116-10-7
##MP= -300
##BP= -300
##MW= 173
##$RETENTION INDEX=0
##$CONDENSED SPECTRUM=NO
##NPOINTS= 59
##XYDATA=(XY..XY) 1 
    33         23
    35          4
    36          9
    37         10
    38         35
    39         51
    40         77
    41         24
    42         27
    44         12
    45         17
    46         17
    47         24
    48          5
    49          9
    50          3
    51         17
    53         21
    54          2
    56          1
    57         22
    58         35
    59        101
    60         18
    61          8
    62          8
    67          3
    70        499
    71         71
    72         32
    73         20
    74         12
    75          3
    76          4
    79         22
    81          9
    82          1
    83         13
    85          3
    86          9
    87         11
    95          2
    96         15
    97         43
    98          2
    99          1
   105        999
   107        382
   109         19
   132        359
   133         39
   134         95
   136          1
   147          1
   170          1
   171          4
   173        680
   175        273
   177          5