##TITLE=Library Entry 50570
##JCAMP-DX=Revision 4.10 
##DATA TYPE=MASS SPECTRUM
##SAMPLE DESCRIPTION=Chemical Concepts
##NAMES=HP
##CAS NAME=Cyclohexanol, 2-[(2-hydroxyethyl)thio]-
##MOLFORM=C8H16O2S
##CAS REGISTRY NO=18915-89-4
##MP= -300
##BP= -300
##MW= 176
##$RETENTION INDEX=0
##$CONDENSED SPECTRUM=NO
##NPOINTS= 129
##XYDATA=(XY..XY) 1 
    24          0
    25          0
    26         20
    27        388
    28         64
    29        230
    30         48
    31        309
    32         13
    33          0
    34          4
    35         22
    37          0
    38          1
    39        202
    40         25
    41        638
    42         89
    43        241
    44         76
    45        235
    46         58
    47        167
    48         32
    49         20
    50          3
    51         19
    52          7
    53        126
    54         74
    55        289
    56         32
    57        302
    58         32
    59        105
    60        215
    61        391
    62         23
    63         23
    64          0
    65         33
    66         16
    67        208
    68         61
    69        289
    70        370
    71         50
    72          7
    73        104
    74         33
    75         26
    76         14
    77         53
    78         43
    79        307
    80        352
    81        999
    82         99
    83        117
    84         10
    85         95
    86         75
    87         88
    88         15
    89         29
    90          1
    91        105
    92         10
    93         26
    94          7
    95         10
    96          5
    97        151
    98        933
    99        127
   100         19
   101         66
   102         47
   103        258
   104         74
   105         80
   106          7
   107          4
   108          0
   109          0
   110          6
   111          0
   112          4
   113         73
   114        151
   115         55
   116         12
   117        167
   118         24
   119         14
   120          0
   121          0
   122          0
   123          0
   125          0
   127         59
   128         26
   129          7
   130          9
   131         23
   132          0
   133          0
   134          0
   136          0
   140          0
   142          0
   143          0
   145         20
   146         21
   147          3
   148         44
   149          0
   150          0
   151          0
   157          3
   158        363
   159         40
   160         17
   161          0
   162          0
   175          0
   176         95
   177          9
   178          0