##TITLE=Library Entry 51544
##JCAMP-DX=Revision 4.10 
##DATA TYPE=MASS SPECTRUM
##SAMPLE DESCRIPTION=NIST Mass Spectrometry Data Center, 2013
##NAMES=HP
##CAS NAME=Desmethyldeprenyl
##MOLFORM=C12H15N
##CAS REGISTRY NO=18913-84-3
##MP= -300
##BP= -300
##MW= 173
##$RETENTION INDEX=1363
##$CONDENSED SPECTRUM=NO
##NPOINTS= 85
##XYDATA=(XY..XY) 1 
    15          3
    18          1
    26          3
    27         11
    28         44
    29         13
    30         18
    37          3
    38         10
    39        124
    40         10
    41         45
    42        106
    43          5
    44         20
    45          1
    50          8
    51         24
    52         16
    53         21
    54         18
    55         35
    56         26
    57          3
    58          1
    61          1
    62          5
    63         18
    64          5
    65         68
    66          8
    67         26
    68          2
    74          2
    75          3
    76          3
    77         19
    78          9
    79          4
    80         26
    81          9
    82        999
    83         57
    84          2
    86          1
    87          1
    88          1
    89         17
    90          7
    91        149
    92         20
    93          1
    94          1
   101          1
   102          4
   103          8
   104          4
   105          2
   114          1
   115         22
   116          7
   117         18
   118          9
   119          6
   120          1
   126          1
   127          5
   128         11
   129          4
   130          4
   131          1
   132          3
   133          1
   134          1
   141          1
   143          3
   144          1
   146          1
   148          1
   154          1
   156          4
   157          1
   158          5
   159          1
   172          2