##TITLE=Library Entry 36893
##JCAMP-DX=Revision 4.10 
##DATA TYPE=MASS SPECTRUM
##SAMPLE DESCRIPTION=M. VANDEWALLE
##NAMES=HP
##CAS NAME=1,2,4-Cyclopentanetrione, 3,3-bis(3-methyl-2-butenyl)-5-(2-methyl
-1-oxopropyl)-
##MOLFORM=C19H26O4
##CAS REGISTRY NO=1891-34-5
##MP= -300
##BP= -300
##MW= 318
##$RETENTION INDEX=2079
##$CONDENSED SPECTRUM=NO
##NPOINTS= 44
##XYDATA=(XY..XY) 1 
    53        150
    55        150
    67        130
    69        999
    71        200
    79        110
   109        130
   123        210
   151        100
   179        110
   189        130
   195        120
   203         60
   205         50
   207        160
   217         50
   219        120
   221        200
   222         50
   231         90
   235        120
   245         10
   246         20
   247        100
   248         40
   249        610
   250        380
   251         80
   257         70
   258         20
   262         30
   273         30
   275        150
   276         30
   277         20
   285         20
   290        110
   291         20
   300         20
   301         10
   303         20
   318        650
   319        140
   320         30