##TITLE=Library Entry 5592
##JCAMP-DX=Revision 4.10 
##DATA TYPE=MASS SPECTRUM
##SAMPLE DESCRIPTION=Chemical Concepts
##NAMES=HP
##CAS NAME=3-Oxo-2-pentafluoroethyl butanoic acid,ethyl ester
##MOLFORM=C8H9F5O3
##CAS REGISTRY NO=189237-56-7
##MP= -300
##BP= -300
##MW= 248
##$RETENTION INDEX=0
##$CONDENSED SPECTRUM=NO
##NPOINTS= 97
##XYDATA=(XY..XY) 1 
    27        241
    28         47
    29        460
    31        147
    33          9
    37          3
    38          6
    39         15
    40          9
    41         46
    42        279
    43        999
    44         23
    45         98
    46          9
    47          9
    49          2
    50          2
    51         18
    52          1
    53          3
    54          1
    55         10
    56          3
    58         17
    60        127
    61         67
    62          2
    63          4
    64         14
    65          4
    66          2
    67          4
    69        230
    70         37
    73         17
    74          7
    76          1
    83          7
    84         24
    85         97
    86          1
    87         81
    88        154
    89          9
    90          1
    95          6
    97          3
    98          2
    99          2
   100          3
   102         38
   103          3
   109          1
   111         15
   113          4
   115         79
   116          4
   119          5
   120          1
   124          2
   125          1
   129         16
   130         38
   133         11
   134          1
   139          5
   144          2
   147          1
   151          2
   155          1
   157         54
   158          4
   161        297
   162         15
   165         11
   174          2
   176         32
   177          6
   179          5
   181          9
   194          3
   201          3
   202         24
   203         85
   204          8
   205          2
   217          5
   218          1
   219          2
   220         21
   221         31
   222          4
   226          2
   233          3
   248         35
   249          4