##TITLE=Library Entry 2302
##JCAMP-DX=Revision 4.10 
##DATA TYPE=MASS SPECTRUM
##SAMPLE DESCRIPTION=Chemical Concepts
##NAMES=HP
##CAS NAME=3-(1-Methoxy-1-methylethoxy)-2-methylpropionic acid, methyl ester
##MOLFORM=C9H18O4
##CAS REGISTRY NO=189217-49-0
##MP= -300
##BP= -300
##MW= 190
##$RETENTION INDEX=0
##$CONDENSED SPECTRUM=NO
##NPOINTS= 85
##XYDATA=(XY..XY) 1 
    25          7
    26         61
    27        301
    29        351
    30         32
    31        678
    33         50
    35          4
    36          3
    37         27
    38         53
    39        398
    40        169
    41        999
    42        967
    43        454
    44         20
    45         91
    46          3
    50          4
    51          5
    53         14
    54          7
    55        160
    56        307
    57        473
    58        250
    59        853
    60         38
    61         27
    67          5
    68         35
    69        335
    70         24
    71         49
    72        583
    73        161
    74         10
    75         41
    76          5
    77         21
    78          2
    79          3
    81          4
    82          9
    83         17
    84          7
    85        188
    86         20
    87        326
    88        751
    89         40
    90          9
    91          6
    92          2
    95          3
    96          2
    97          4
    98         10
    99         51
   100        413
   101        250
   102         18
   103         78
   104          7
   105         38
   106          4
   110          4
   113          3
   114          2
   115          5
   123          2
   126          6
   127         82
   128          9
   129          3
   130          2
   131          2
   140          3
   143         11
   144          2
   145          2
   157          3
   158         47
   159          6