##TITLE=Library Entry 40267
##JCAMP-DX=Revision 4.10 
##DATA TYPE=MASS SPECTRUM
##SAMPLE DESCRIPTION=Zaikin V.G., TIPS RAS, Moscow, Russia
##NAMES=HP
##CAS NAME=Benzeneacetamide, N,N-dimethyl-
##MOLFORM=C10H13NO
##CAS REGISTRY NO=18925-69-4
##MP= -300
##BP= -300
##MW= 163
##$RETENTION INDEX=1535
##$CONDENSED SPECTRUM=NO
##NPOINTS= 32
##XYDATA=(XY..XY) 1 
    39         15
    41          5
    42         15
    43          4
    44         24
    45          4
    50          3
    51          9
    52          2
    56          5
    58          2
    62          3
    63         13
    64          4
    65         44
    66          2
    72        999
    73         31
    74          2
    77          2
    80          2
    81         10
    89         21
    90         32
    91        133
    92         12
   106          3
   118         31
   119          3
   162          4
   163        199
   164         20