##TITLE=Library Entry 69757
##JCAMP-DX=Revision 4.10 
##DATA TYPE=MASS SPECTRUM
##SAMPLE DESCRIPTION=CARL DJERASSI DEPT OF CHEM STANFORD UNIV STANFORD CALIF
 94305
##NAMES=HP
##CAS NAME=3-Butene-1,2-diol, 1-(2-furanyl)-2-methyl-
##MOLFORM=C9H12O3
##CAS REGISTRY NO=18927-20-3
##MP= -300
##BP= -300
##MW= 168
##$RETENTION INDEX=0
##$CONDENSED SPECTRUM=NO
##NPOINTS= 44
##XYDATA=(XY..XY) 1 
    38         20
    39        180
    40         20
    41        230
    42         50
    43        420
    44         20
    50         10
    51         30
    52         10
    53         40
    55        130
    56         10
    57         60
    67         20
    68         10
    69         80
    70         60
    71        400
    72        320
    73         20
    77         40
    79         40
    81         30
    83         10
    84         10
    85         10
    91         20
    95        160
    96         90
    97        999
    98        240
    99         60
   105         10
   107         60
   108         10
   109         10
   111         10
   121         20
   123         30
   134         10
   135         10
   150         30
   168         10