##TITLE=Library Entry 20263
##JCAMP-DX=Revision 4.10 
##DATA TYPE=MASS SPECTRUM
##SAMPLE DESCRIPTION=Chuck Anderson, Aldrich Chemical Co.
##NAMES=HP
##CAS NAME=Cyclododecanemethanol
##MOLFORM=C13H26O
##CAS REGISTRY NO=1892-12-2
##MP= -300
##BP= -300
##MW= 198
##$RETENTION INDEX=0
##$CONDENSED SPECTRUM=NO
##NPOINTS= 74
##XYDATA=(XY..XY) 1 
    18          3
    26          7
    27        159
    28         52
    29        300
    30         11
    31        141
    32          1
    36          8
    38          4
    39        141
    40         26
    41        663
    42        113
    43        336
    44         22
    45          8
    51          7
    52          3
    53         73
    54        184
    55        999
    56        146
    57        358
    58         19
    65         22
    66         37
    67        376
    68        239
    69        780
    70         79
    71        117
    72          6
    77         17
    78          2
    79         47
    80         29
    81        354
    82        587
    83        672
    84         58
    85        108
    86          7
    91          7
    93         13
    94         19
    95        260
    96        578
    97        645
    98         64
    99          7
   107          3
   108         10
   109        182
   110        150
   111        331
   112         31
   121          4
   122          6
   123        102
   124         91
   125         52
   126          4
   136          3
   137         54
   138         41
   139          3
   151         13
   152         37
   153          3
   165          9
   166         26
   167          4
   180         16