##TITLE=Library Entry 82774
##JCAMP-DX=Revision 4.10 
##DATA TYPE=MASS SPECTRUM
##SAMPLE DESCRIPTION=A.A.Kutin, Moscow, Russia
##NAMES=HP
##CAS NAME=1,3,5-Triazine, 2-benzylamino-4-chloro-6-phenylamino-
##MOLFORM=C16H14ClN5
##CAS REGISTRY NO=189249-05-6
##MP= -300
##BP= -300
##MW= 311
##$RETENTION INDEX=0
##$CONDENSED SPECTRUM=NO
##NPOINTS= 146
##XYDATA=(XY..XY) 1 
    33         40
    34          2
    36         66
    39        159
    40         44
    41         27
    42          5
    43         14
    44         16
    49          0
    51        175
    52         25
    53         27
    55         28
    56          1
    57          1
    58          0
    62         53
    63         49
    65        301
    66         22
    68         44
    70          0
    72          0
    74         14
    75         13
    77        317
    79        149
    80          3
    83          0
    85          0
    87         21
    89         56
    91        691
    92         93
    93         43
    94          3
    99          2
   103         61
   104        105
   106        999
   107         56
   108          1
   111          0
   116         29
   117         28
   118         90
   119         88
   120          6
   124          2
   125         13
   126          1
   127          3
   129         31
   131        107
   132         19
   133          6
   134          0
   136          0
   138         19
   139          0
   140          2
   144        122
   145         12
   146          4
   147          0
   148          0
   151          2
   152          1
   153          1
   154         29
   156         46
   157         21
   158         22
   159         12
   160          0
   163          2
   165          1
   166          0
   167          6
   169         11
   170          6
   171         27
   172          3
   173          1
   177          0
   178          4
   180         34
   182         16
   183          4
   184          9
   185          1
   192          0
   193          0
   194          2
   195          0
   196          2
   198          3
   201          0
   203          2
   205        105
   206         39
   207         40
   208         12
   209          1
   210          1
   219          0
   220         11
   221          1
   222          0
   230          0
   232          8
   233         18
   234         15
   235          3
   236          3
   240          6
   247          2
   249          2
   250          6
   251          0
   252          0
   253          5
   254          9
   255          3
   256          6
   257          1
   258          3
   260          1
   262         10
   263          1
   274         16
   275          5
   276         18
   277          4
   283          0
   293          1
   294          0
   306          5
   307         12
   310        231
   311        620
   312        156
   313        199
   314         36
   315          1