##TITLE=Library Entry 17446
##JCAMP-DX=Revision 4.10 
##DATA TYPE=MASS SPECTRUM
##SAMPLE DESCRIPTION=Japan AIST/NIMC Database- Spectrum MS-NW-6413
##NAMES=HP
##CAS NAME=Ethanol, 2,2'-dithiobis-
##MOLFORM=C4H10O2S2
##CAS REGISTRY NO=1892-29-1
##MP= -300
##BP= -300
##MW= 154
##$RETENTION INDEX=1425
##$CONDENSED SPECTRUM=NO
##NPOINTS= 103
##XYDATA=(XY..XY) 1 
    12          3
    13          5
    14         24
    15        108
    16          5
    17          3
    18         10
    24          2
    25          7
    26         45
    27        252
    28         48
    29        178
    30         12
    31        385
    32         14
    33          9
    34         12
    35          9
    36          3
    38          2
    39          2
    40          1
    41          7
    42         38
    43        237
    44        103
    45        999
    46        183
    47        240
    48         78
    49        110
    50          7
    51          7
    55          3
    56          2
    57         10
    58         40
    59        140
    60        213
    61        201
    62         16
    63         11
    64        518
    65         25
    66         60
    67          4
    68          3
    69          1
    71          3
    73          3
    74         11
    75         32
    76        103
    77         40
    78         65
    79        436
    80         33
    81         45
    82         75
    83          3
    84          9
    85          2
    86          2
    87          2
    89         41
    90          4
    91         37
    92        903
    93         52
    94         82
    95          7
    96          3
   102          6
   103          2
   104          1
   105          6
   106          2
   107         60
   108         25
   109         13
   110        121
   111          7
   112         12
   117          1
   118          1
   120          2
   121          1
   123         11
   124          4
   125          1
   135          3
   136         16
   137          3
   138          2
   151          1
   152          2
   153          1
   154        491
   155         32
   156         48
   157          3
   158          1