##TITLE=Library Entry 88256
##JCAMP-DX=Revision 4.10 
##DATA TYPE=MASS SPECTRUM
##SAMPLE DESCRIPTION=B. Derendyaev, Novosibirsk Institute of Organic Chemist
ry
##NAMES=HP
##CAS NAME=Benzene, 1-nitro-2-(p-fluorophenoxy)-4-fluoro-
##MOLFORM=C12H7F2NO3
##CAS REGISTRY NO=189214-44-6
##MP= -300
##BP= -300
##MW= 251
##$RETENTION INDEX=0
##$CONDENSED SPECTRUM=NO
##NPOINTS= 140
##XYDATA=(XY..XY) 1 
    37          3
    38          8
    39         15
    41          7
    43          7
    44          4
    45          4
    46          5
    49          2
    50         43
    51         41
    52          3
    53          4
    55          9
    56         13
    57        142
    58          6
    61          7
    62         16
    63         50
    64         12
    65          3
    67          3
    68         30
    69         40
    70         25
    71         11
    72          3
    73          6
    74         37
    75        155
    76         80
    77          8
    78         10
    79          5
    80          4
    81         59
    82         91
    83        434
    84         48
    85          6
    86          5
    87          5
    88          4
    89          2
    91          2
    92         13
    93         17
    94         35
    95        103
    96        134
    97         13
    98          9
    99         16
   100          3
   101          7
   102          8
   104          4
   105          6
   106          5
   107         17
   108          3
   109         31
   110         47
   111        999
   112        123
   113          9
   119          3
   120         12
   121          4
   122          3
   123          6
   124         47
   125         15
   126          6
   127         13
   128          3
   131         14
   132          7
   133         18
   134          2
   137          3
   138          6
   139          4
   140        415
   141         30
   142          3
   143          2
   144         10
   145         12
   146         11
   147          2
   149         63
   150        165
   151        147
   152         13
   155          9
   156         28
   157         94
   158         16
   159          1
   162          3
   163          4
   164         18
   165          6
   166          2
   167          2
   173          5
   174          6
   175        150
   176         27
   177         45
   178          7
   184          2
   186         29
   187          4
   188          1
   190          4
   191          2
   193          3
   194          5
   203          2
   204        177
   205         34
   206         37
   207          5
   214          9
   216          2
   218         73
   219          9
   220          5
   221          4
   223          6
   233          9
   234        239
   235         32
   236          3
   251        319
   252         44
   253          5