##TITLE=Library Entry 41801
##JCAMP-DX=Revision 4.10 
##DATA TYPE=MASS SPECTRUM
##SAMPLE DESCRIPTION=CARL DJERASSI DEPT OF CHEM STANFORD UNIV STANFORD CALIF
 94305
##NAMES=HP
##CAS NAME=1,2-Butanediol, 1-(2-furyl)-2-methyl-
##MOLFORM=C9H14O3
##CAS REGISTRY NO=18927-21-4
##MP= -300
##BP= -300
##MW= 170
##$RETENTION INDEX=0
##$CONDENSED SPECTRUM=NO
##NPOINTS= 50
##XYDATA=(XY..XY) 1 
    38         10
    39        150
    40         10
    41        200
    42        120
    43        540
    44        100
    45         60
    51         20
    52         10
    53         30
    55        510
    56         30
    57         90
    58         10
    67         10
    68         10
    69         70
    70        130
    71        140
    72         40
    73        999
    74         40
    77         10
    79         10
    81         80
    82         20
    83         10
    84         30
    85         10
    86         10
    91         10
    93         10
    94         10
    95        130
    96         40
    97        230
    98        860
    99         40
   100         10
   102         10
   109         30
   111         10
   121         10
   123        130
   124         10
   136         10
   137         10
   152         10
   170         20