##TITLE=Library Entry 49311
##JCAMP-DX=Revision 4.10 
##DATA TYPE=MASS SPECTRUM
##SAMPLE DESCRIPTION=Chemical Concepts
##NAMES=HP
##CAS NAME=2-Cyclohexen-1-one, 2-(2-methyl-2-propenyl)-
##MOLFORM=C10H14O
##CAS REGISTRY NO=18926-98-2
##MP= -300
##BP= -300
##MW= 150
##$RETENTION INDEX=0
##$CONDENSED SPECTRUM=NO
##NPOINTS= 76
##XYDATA=(XY..XY) 1 
    26         52
    27        502
    28         84
    29        220
    31         71
    37         16
    38         47
    39        609
    40        103
    41        400
    42         50
    43        307
    44         11
    45         22
    50         76
    51        178
    52        127
    53        288
    54         55
    55        231
    56         10
    57         14
    59         24
    62         23
    63         66
    64         23
    65        141
    66         86
    67        136
    68         39
    69         33
    74         19
    75         14
    76          9
    77        329
    78        108
    79        999
    80        233
    81         90
    82         58
    83         11
    89         11
    90          9
    91        290
    92         50
    93        305
    94        236
    95         82
    96         16
    97         17
   103         26
   104         40
   105        102
   106         79
   107        447
   108         67
   109         52
   115         26
   116         10
   117        212
   118         22
   119         15
   120          8
   121        109
   122        256
   123         25
   131         60
   132         84
   133         84
   134         13
   135        329
   136         42
   148         47
   149         83
   150        888
   151        101