##TITLE=Library Entry 57324
##JCAMP-DX=Revision 4.10 
##DATA TYPE=MASS SPECTRUM
##SAMPLE DESCRIPTION=Chemical Concepts
##NAMES=HP
##CAS NAME=3-Oxo-2-(nonafluoro-n-butyl)butanoic acid ethyl ester
##MOLFORM=C10H9F9O3
##CAS REGISTRY NO=189237-58-9
##MP= -300
##BP= -300
##MW= 348
##$RETENTION INDEX=0
##$CONDENSED SPECTRUM=NO
##NPOINTS= 119
##XYDATA=(XY..XY) 1 
    27        341
    28        166
    29        550
    31         61
    32          5
    37         12
    38         42
    39        196
    40        195
    41        196
    42         79
    43        417
    44         30
    45        167
    47         16
    49          1
    50          9
    51          5
    52          1
    53          9
    55         59
    56         68
    57         25
    59        430
    60         14
    61          2
    62          1
    65          5
    66         18
    67         68
    69        658
    70         16
    71         12
    72          9
    73         57
    74          4
    75          4
    77          2
    78          2
    79          1
    81          6
    82          6
    84        517
    85        192
    87        999
    88         37
    89          5
    90          2
    91          4
    93          7
    95          3
    96          1
    97          8
    98          3
   100         53
   101          3
   103          3
   106          1
   107          2
   109          2
   111          8
   112         10
   113         30
   114          3
   115          1
   118          4
   119         71
   120          2
   125          1
   127          1
   129         19
   131         69
   132          2
   142          2
   143          2
   150          4
   151         16
   152          2
   157          1
   163          1
   169         16
   170          2
   171          9
   172          1
   181          1
   189          1
   191          2
   201          2
   203          1
   217          1
   219          7
   241          2
   273          3
   275          1
   276         11
   277          1
   280         12
   281         10
   282          1
   283          4
   289          1
   297          2
   298          3
   299          6
   300         71
   301         33
   303        357
   304         29
   305          3
   319          3
   320         14
   321          2
   328          1
   344          1
   345          2
   346          2
   347          3
   348         77
   349          8