##TITLE=Library Entry 19793
##JCAMP-DX=Revision 4.10 
##DATA TYPE=MASS SPECTRUM
##SAMPLE DESCRIPTION=Japan AIST/NIMC Database- Spectrum MS-NW-1030
##NAMES=HP
##CAS NAME=Butanenitrile, 2-methyl-
##MOLFORM=C5H9N
##CAS REGISTRY NO=18936-17-9
##MP= -300
##BP= -300
##MW= 83
##$RETENTION INDEX=723
##$CONDENSED SPECTRUM=NO
##NPOINTS= 42
##XYDATA=(XY..XY) 1 
    14          1
    15         13
    17          1
    18          9
    25          1
    26         30
    27        142
    28         59
    29        243
    30          4
    31          1
    37          9
    38         11
    39         56
    40         13
    41         85
    42         12
    43          8
    44          1
    45          3
    49          2
    50          6
    51         14
    52         25
    53         14
    54        377
    55        999
    56         46
    57          6
    59          1
    63          2
    64          6
    65          1
    66          6
    67          1
    68         12
    69          1
    77          1
    78          1
    79          1
    82          9
    83          1