##TITLE=Library Entry 4002
##JCAMP-DX=Revision 4.10 
##DATA TYPE=MASS SPECTRUM
##SAMPLE DESCRIPTION=Exported from NIST MS Search
##NAMES=HP
##CAS NAME=9(1H)-Phenanthrone, 2,3,4,4a,4b,5,6,7,8,8a-decahydro-
##MOLFORM=C14H20O
##CAS REGISTRY NO=18938-05-1
##MP= -300
##BP= -300
##MW= 204
##$RETENTION INDEX=0
##$CONDENSED SPECTRUM=NO
##NPOINTS= 99
##XYDATA=(XY..XY) 1 
    15         29
    26         37
    27        555
    28        357
    29        362
    38         37
    39        788
    40        148
    41        999
    42        111
    43        111
    44         14
    51         63
    52        237
    53        148
    54        462
    55        103
    56        407
    57         37
    58         44
    59         14
    62         25
    63        233
    64         48
    65        333
    66        307
    67        414
    68        148
    69         59
    76         25
    77        570
    78        200
    79        518
    80        233
    81        307
    82         29
    83         18
    89         29
    90         22
    91        555
    92        259
    93        155
    94        451
    95        118
    96         22
   102         14
   103         51
   104         37
   105        118
   106         44
   107        207
   108        296
   109        277
   110         11
   115         63
   116         18
   117         66
   118         22
   119         92
   120         66
   121        296
   122        911
   123         85
   127         22
   128         29
   129         29
   130         25
   131         55
   132         22
   133        137
   134        140
   135         59
   136         51
   137          7
   141         18
   143         18
   144          7
   145         51
   146         18
   147        196
   148         63
   149        133
   150         22
   157         11
   158         37
   159          7
   161        459
   162        222
   163         37
   173         37
   175        125
   176         85
   177         14
   187         25
   188         14
   190         29
   203         29
   204        629
   205        100