##TITLE=Library Entry 29103
##JCAMP-DX=Revision 4.10 
##DATA TYPE=MASS SPECTRUM
##SAMPLE DESCRIPTION=M. LOZYNSKI, POZNAN TECH. UNIV., POZNAN, POLAND
##NAMES=HP
##CAS NAME=Isopropylcarbamothioic acid, O-ethyl ester
##MOLFORM=C6H13NOS
##CAS REGISTRY NO=18939-70-3
##MP= -300
##BP= -300
##MW= 147
##$RETENTION INDEX=0
##$CONDENSED SPECTRUM=NO
##NPOINTS= 23
##XYDATA=(XY..XY) 1 
    27        230
    28        230
    29        310
    30         88
    39         72
    41        300
    42        160
    43        680
    44        210
    45         61
    57         88
    58        999
    60        230
    61         50
    62         55
    70         50
    72         50
    86         94
   102         50
   118        290
   147        770
   148         60
   149         36