##TITLE=Library Entry 85563
##JCAMP-DX=Revision 4.10 
##DATA TYPE=MASS SPECTRUM
##SAMPLE DESCRIPTION=NIST Mass Spectrometry Data Center, 1990.
##NAMES=HP
##CAS NAME=Methyl-2-heptynoate
##MOLFORM=C8H12O2
##CAS REGISTRY NO=18937-78-5
##MP= -300
##BP= -300
##MW= 140
##$RETENTION INDEX=0
##$CONDENSED SPECTRUM=NO
##NPOINTS= 67
##XYDATA=(XY..XY) 1 
    14         18
    15        183
    16         11
    18         16
    25          9
    26         71
    27        512
    28        166
    29        222
    30         22
    31         37
    32         12
    37         81
    38        210
    39        569
    40        114
    41        680
    42        216
    43        416
    44         47
    45         27
    49         22
    50        146
    51        211
    52        184
    53        578
    54        106
    55        201
    56         46
    57         16
    58         16
    59        279
    61         16
    62         22
    63         36
    64         13
    65        110
    66        413
    67        243
    68        231
    69        193
    70         30
    71         15
    73         11
    74         25
    77        142
    79        655
    80        272
    81        539
    82         67
    83         45
    84         13
    85         46
    93         65
    95         23
    97        155
    98        174
    99        177
   100         21
   107         44
   109        999
   110         89
   111        126
   112         95
   125        521
   126         33
   139         36