##TITLE=Library Entry 40866
##JCAMP-DX=Revision 4.10 
##DATA TYPE=MASS SPECTRUM
##SAMPLE DESCRIPTION=V.G. Zaikin, R.S.Borisov, TIPS RAS, Moscow, Russia
##NAMES=HP
##CAS NAME=Tris(trimethylsilyl)ethylene
##MOLFORM=C11H28Si3
##CAS REGISTRY NO=18938-24-4
##MP= -300
##BP= -300
##MW= 244
##$RETENTION INDEX=0
##$CONDENSED SPECTRUM=NO
##NPOINTS= 81
##XYDATA=(XY..XY) 1 
    27          1
    28          3
    29          8
    31          4
    41          1
    42          4
    43         80
    44         37
    45        192
    46         13
    47          6
    53          5
    55         24
    56          4
    57         17
    58         21
    59         29
    60          2
    61          1
    66          1
    67          9
    68          2
    69         17
    70          8
    71         10
    72         40
    73        999
    74         76
    75         37
    79          1
    81          7
    82          2
    83         59
    84          5
    85          9
    86          1
    87          1
    93          1
    95          4
    96          2
    97         26
    98          3
    99         10
   100          1
   101          3
   109          3
   111          7
   112          1
   113          3
   114          1
   115          6
   116          4
   117          1
   123          1
   125         12
   126          2
   127          2
   129          4
   131          3
   139          3
   140          5
   141        148
   142         25
   143         12
   144          1
   155         79
   156        131
   157         30
   158          8
   159          1
   170          2
   171         15
   172          3
   173          1
   229         13
   230          4
   231          2
   244         36
   245         10
   246          5
   247          1