##TITLE=Library Entry 86695
##JCAMP-DX=Revision 4.10 
##DATA TYPE=MASS SPECTRUM
##SAMPLE DESCRIPTION=Dmitri Zagorevskii, Scientific Instruments @ Applicatio
ns
##NAMES=HP
##CAS NAME=(Z)-Ethylidenebutanebis(thioic)acid, S,S-diphenyl ester
##MOLFORM=C18H16O2S2
##CAS REGISTRY NO=189440-95-7
##MP= -300
##BP= -300
##MW= 328
##$RETENTION INDEX=0
##$CONDENSED SPECTRUM=NO
##NPOINTS= 115
##XYDATA=(XY..XY) 1 
    36         23
    37         25
    38         21
    39        195
    40         20
    41         38
    42         11
    43        237
    44         11
    45        105
    47        209
    50         52
    51        105
    52         25
    53        256
    54        120
    55         49
    57         14
    58         27
    59         51
    60          6
    61          7
    62          9
    63         32
    65        253
    66        115
    67         33
    69         90
    70         10
    71         29
    73          3
    74         13
    75         12
    76         14
    77        186
    78         37
    79         16
    81        417
    82         66
    83         20
    89          4
    90          7
    91         91
    92          7
    95          5
    97         43
    99          8
   101         15
   102          6
   103         20
   104         11
   105         15
   107          6
   108         48
   109        999
   110        336
   111        105
   112         17
   113          7
   115         16
   116          6
   119         21
   121         17
   123         72
   124          9
   125          8
   127         17
   128         14
   129         25
   130         45
   131          7
   133          2
   134         65
   135        180
   136         27
   137        254
   138         25
   139         15
   140         10
   141         10
   147         18
   148         18
   149         26
   150          2
   152          3
   153          3
   154         27
   161         18
   162          7
   163        114
   164         16
   165          7
   177          6
   178         65
   179         35
   180         40
   181         38
   182          3
   183         14
   184         11
   185         32
   186          9
   191         91
   192         12
   206         56
   207         13
   208          2
   218        176
   219        928
   220        146
   221         54
   222          7
   247         14
   293          8
   294         12