##TITLE=Library Entry 51013
##JCAMP-DX=Revision 4.10 
##DATA TYPE=MASS SPECTRUM
##SAMPLE DESCRIPTION=Humboldt-Universitat zu Berlin, Department of Chemistry
, Analytical Group
##NAMES=HP
##CAS NAME=5-Dimethylamino-2-(4-methoxy-phenyl)-3H-imidazol-4-carboxylic aci
d, methyl ester
##MOLFORM=C14H17N3O3
##CAS REGISTRY NO=189453-41-6
##MP= -300
##BP= -300
##MW= 275
##$RETENTION INDEX=0
##$CONDENSED SPECTRUM=NO
##NPOINTS= 187
##XYDATA=(XY..XY) 1 
    12          5
    13          3
    15        966
    16         20
    17         47
    18        165
    26         12
    27         51
    28        335
    29        175
    30         56
    31         22
    32          7
    33          4
    37          5
    38         17
    39         60
    40         68
    41        126
    42        491
    43         51
    44         63
    45         32
    46          1
    49          2
    50         37
    51         46
    52         28
    53         91
    54         70
    55         78
    56        204
    57         21
    58          4
    59         63
    60          3
    61          5
    62         22
    63         68
    64         59
    65         29
    66         37
    67        625
    68         69
    69         27
    70          9
    71         12
    72         17
    73          4
    74         12
    75         47
    76         76
    77         60
    78         27
    79         17
    80          8
    81         35
    82        999
    83        226
    84         16
    86         12
    87         18
    88         18
    89         31
    90        129
    91         69
    92         33
    93         13
    94          6
    95          6
    96          3
    97          3
    98          3
   100         21
   101         18
   102         76
   103        111
   104         48
   105         32
   108         92
   109         27
   110          4
   111          3
   112          3
   113          8
   114         23
   115         17
   116         39
   117         21
   118         33
   119         68
   120         13
   122        136
   125          2
   126          2
   127         18
   128         16
   129         37
   130         55
   131         18
   132         29
   133        196
   134        231
   135         31
   136          3
   138         61
   139          1
   140          3
   141          9
   142         13
   143         11
   144         10
   145         16
   146         42
   147         28
   148         25
   149          3
   154          3
   155         19
   156         17
   157         41
   158         20
   159         20
   160         10
   161          3
   162          2
   167          1
   168          4
   169          5
   170         14
   171         63
   172         91
   173         34
   174         49
   175         98
   176         12
   177          1
   182          1
   184        191
   185         75
   186        133
   187         37
   188         22
   189          6
   190          2
   196          1
   197          3
   198          4
   199         36
   200        205
   201         56
   202         15
   203          3
   204          2
   211          2
   212          6
   213         15
   214        148
   215        456
   216        122
   217         18
   218          3
   226          1
   227          9
   228        126
   229         18
   230          3
   231          2
   232          2
   233          1
   241          1
   242         48
   243        238
   244         76
   245         12
   246         13
   247          2
   258          3
   259          1
   260         10
   261          2
   273          1
   274         24
   275        393
   276         65
   277          8
   278          0