##TITLE=Library Entry 55642
##JCAMP-DX=Revision 4.10 
##DATA TYPE=MASS SPECTRUM
##SAMPLE DESCRIPTION=Humboldt-Universitat zu Berlin, Department of Chemistry
, Analytical Group
##NAMES=HP
##CAS NAME=Benzamidine, 4-bromo-N-(2-methoxy-2-oxoethyl)-N'-morpholinocarbot
hioyl-
##MOLFORM=C15H18BrN3O3S
##CAS REGISTRY NO=189452-66-2
##MP= -300
##BP= -300
##MW= 399
##$RETENTION INDEX=0
##$CONDENSED SPECTRUM=NO
##NPOINTS= 292
##XYDATA=(XY..XY) 1 
    12          5
    13          5
    14         41
    15        303
    16         18
    17         37
    18        227
    19         10
    25         11
    26         37
    27        136
    28        424
    29        240
    30        140
    31         75
    32         40
    33         19
    34          3
    36          9
    37         27
    38         46
    39         41
    40         15
    41         68
    42        155
    43        264
    44         60
    45        300
    46         26
    47         12
    50         48
    51         36
    52         15
    53          7
    54         35
    55         60
    56         91
    57         57
    58         79
    59        101
    60        145
    61         14
    62         19
    63         21
    64          8
    65          9
    66          4
    67          6
    68         14
    69         37
    70         23
    71         15
    72        311
    73         68
    74        204
    75         75
    76         70
    77         18
    78          4
    79          4
    80          5
    81         10
    82          7
    83          6
    84         17
    85         42
    86        999
    87         75
    88         41
    89         46
    90         32
    91         10
    93          3
    94          4
    95          4
    96          4
    97          6
    98          7
    99         10
   100         13
   101         27
   102        133
   103         70
   104         21
   105          6
   108          9
   109          5
   111          5
   112          3
   113         21
   114         16
   115         42
   116         51
   117         27
   118          9
   119          5
   120          7
   121         10
   122          6
   123          3
   124          3
   125          3
   127          4
   128         21
   129         23
   130        202
   131         20
   132         24
   133          5
   134          6
   135          5
   136          3
   139          2
   141          6
   142         16
   143          7
   144         32
   145         51
   146         19
   147         12
   148         17
   149          6
   150          2
   153          2
   155         37
   156          9
   157         35
   158          6
   159          9
   161         10
   162          3
   163          2
   167          3
   169         86
   170          8
   171         87
   172          9
   173          4
   174          7
   175         17
   176          4
   177          2
   181         37
   182         73
   183         61
   184         73
   185         28
   186          6
   187          3
   188          2
   189          3
   194          6
   195         14
   196         52
   197         21
   198         44
   199         11
   200          3
   201         17
   202          8
   203          5
   204          1
   207          3
   208          1
   209          4
   210          2
   211          2
   212         16
   213          3
   214         14
   215          5
   216          2
   217          1
   221          9
   222          2
   223         10
   224          4
   225          5
   226         65
   227         13
   228         66
   229          9
   230          2
   235         12
   236          2
   237          2
   238          2
   239          2
   240         22
   241         69
   242         29
   243         69
   244          7
   245          3
   249          3
   250          2
   251          4
   252          2
   253         18
   254        113
   255         38
   256        136
   257         25
   258         32
   259          4
   260          6
   261          1
   262          1
   267          1
   268          1
   269          1
   270          2
   271          2
   272          1
   276          0
   277          1
   278          1
   280          2
   281         16
   282          6
   283         17
   284          4
   285          1
   286          2
   287          1
   288          2
   289          1
   290          1
   292          1
   294          2
   295          1
   296          5
   297          2
   298          5
   299          2
   300          2
   301          1
   306          2
   307          1
   308          3
   309          2
   310          2
   311          4
   312          3
   313         51
   314         20
   315         49
   316         19
   317          4
   318          1
   320         12
   321          2
   322          2
   323          1
   324          1
   325          1
   326          3
   327          1
   328          3
   329          1
   330          0
   334          4
   335          1
   336          4
   337          1
   338          9
   339          2
   340         20
   341          3
   342         12
   343          2
   344          1
   354          1
   356          2
   358          0
   366         92
   367         22
   368         96
   369         22
   370          8
   371          2
   372          1
   382          0
   384          1
   385          0
   386          1
   399        123
   400         28
   401        127
   402         23
   403          7
   404          1