##TITLE=Library Entry 86796
##JCAMP-DX=Revision 4.10 
##DATA TYPE=MASS SPECTRUM
##SAMPLE DESCRIPTION=Dmitri Zagorevskii, Scientific Instruments @ Applicatio
ns
##NAMES=HP
##CAS NAME=(Z)-Hexylidenebutanebis(thioic) acid, S,S-diphenyl ester
##MOLFORM=C22H24O2S2
##CAS REGISTRY NO=189440-93-5
##MP= -300
##BP= -300
##MW= 384
##$RETENTION INDEX=0
##$CONDENSED SPECTRUM=NO
##NPOINTS= 133
##XYDATA=(XY..XY) 1 
    26         19
    27        160
    29        176
    30          9
    35         17
    36          8
    38         15
    39        205
    40         42
    41        405
    42         31
    43        247
    44         44
    45         86
    47         51
    49         35
    50         35
    51        142
    52         42
    53        245
    54         97
    55        290
    56         33
    57         68
    58         22
    59         20
    60         19
    63         25
    65        298
    66        197
    67        368
    68         56
    69        130
    70         33
    71         38
    73         22
    74         16
    75         11
    76         12
    77        200
    78         62
    79        129
    80         23
    81        360
    82         54
    83         54
    84        216
    85         24
    86        141
    87         56
    88         24
    91        157
    92         31
    93         90
    94         35
    95        152
    96         35
    97        126
    98         23
    99         40
   100          6
   101         33
   103         19
   105         55
   107         56
   108         40
   109        999
   110        559
   111         90
   112         28
   113         12
   115         35
   116         31
   117         18
   119         76
   121         36
   122         30
   123        153
   124         22
   125         66
   126          6
   127         17
   128         17
   129         19
   133          5
   134         39
   135        118
   136         31
   137        347
   138         42
   139         19
   141         10
   145         16
   147         56
   148          6
   149         49
   151         14
   153         13
   154         24
   161         17
   163        278
   164         70
   165        415
   166         49
   167         37
   173          6
   177         21
   178         88
   179         25
   185         19
   186         15
   187          6
   189         21
   191         86
   192         13
   193         15
   204         25
   205         65
   206         12
   207          6
   217         13
   218         96
   219         19
   220          6
   234         90
   235         18
   236         22
   247         47
   274         91
   275        691
   276        136
   277         48
   278          5