##TITLE=Library Entry 77790
##JCAMP-DX=Revision 4.10 
##DATA TYPE=MASS SPECTRUM
##SAMPLE DESCRIPTION=Humboldt-Universitat zu Berlin, Department of Chemistry
, Analytical Group
##NAMES=HP
##CAS NAME=5-Ethoxy-2-phenyl-3H-imidazol-4-carboxylic acid, methyl ester
##MOLFORM=C13H14N2O3
##CAS REGISTRY NO=189453-63-2
##MP= -300
##BP= -300
##MW= 246
##$RETENTION INDEX=0
##$CONDENSED SPECTRUM=NO
##NPOINTS= 157
##XYDATA=(XY..XY) 1 
    12          1
    13          0
    14          5
    15        188
    16          5
    17         11
    18         37
    20          1
    26         19
    27        130
    28        111
    29        176
    30         11
    31         14
    32          4
    33          4
    34          1
    37          3
    38          6
    39         30
    40          5
    41         16
    42         68
    43         14
    44         15
    45         24
    46          1
    49          1
    50         40
    51         91
    52         24
    53          6
    54         25
    55         40
    56          9
    57         20
    58          3
    59         71
    60         17
    61          3
    62          9
    63         20
    64          9
    65          6
    66          2
    67          2
    68          2
    69          4
    70          3
    71          2
    72          2
    73          2
    74          8
    75         25
    76        111
    77        273
    78         22
    79          3
    80          1
    81          1
    82          1
    83          3
    84          4
    85          2
    86          6
    87         26
    88         12
    89         17
    90          5
    91         10
    92          2
    93          1
    94          0
    95          1
    96          1
    97          1
    98          1
    99          2
   100          2
   101          5
   102         27
   103        234
   104        999
   105         95
   106          8
   107          1
   109          1
   110          1
   111          1
   112          1
   113          2
   114          8
   115         20
   116         14
   117          4
   118         10
   119          1
   125          1
   127          1
   128         14
   129         34
   130         96
   131         17
   132         77
   133         13
   134          1
   140          1
   141          5
   142          3
   143          8
   144          7
   145          3
   146          1
   149          0
   155          1
   156          2
   157         58
   158        269
   159         31
   160         11
   161          2
   162          1
   169          3
   170          1
   171         10
   172          2
   173          1
   183          0
   184          5
   186        786
   187        142
   188         16
   189          2
   192          0
   196          1
   198          1
   199         20
   200          3
   201          2
   203          1
   207          0
   212          1
   213         10
   214        378
   215         84
   216         10
   217          8
   218         58
   219          8
   220          1
   226          0
   231          8
   232          1
   246        447
   247         66
   248          7
   249          0