##TITLE=Library Entry 56708
##JCAMP-DX=Revision 4.10 
##DATA TYPE=MASS SPECTRUM
##SAMPLE DESCRIPTION=Humboldt-Universitat zu Berlin, Department of Chemistry
, Analytical Group
##NAMES=HP
##CAS NAME=Morpholin-4-carbothioamide, N-[a-[(cyanomethyl)amino]-4-chloroben
zylidene]-
##MOLFORM=C14H15ClN4OS
##CAS REGISTRY NO=189452-36-6
##MP= -300
##BP= -300
##MW= 322
##$RETENTION INDEX=0
##$CONDENSED SPECTRUM=NO
##NPOINTS= 258
##XYDATA=(XY..XY) 1 
    12          3
    13          3
    14         11
    15         79
    16          3
    17          5
    18         20
    19          6
    24          0
    25          1
    26         25
    27        147
    28        363
    29        161
    30        100
    31         27
    32         13
    33          2
    34          2
    35          3
    36          5
    37          5
    38         10
    39         20
    40         53
    41         94
    42         81
    43         47
    44         32
    45         86
    46         16
    47          6
    48          1
    49          3
    50         45
    51         37
    52         15
    53         10
    54         33
    55         71
    56         82
    57         71
    58         60
    59         80
    60        150
    61         15
    62         20
    63         16
    64          7
    65          3
    66          4
    67          9
    68          9
    69         25
    70         21
    71         12
    72         65
    73         41
    74         27
    75        108
    76         45
    77         10
    78          2
    79          1
    80          1
    81          4
    82          3
    83          4
    84         18
    85         44
    86        999
    87         92
    88         53
    89         13
    90          5
    91          2
    92          8
    93          3
    94          2
    95          2
    96          2
    97          8
    98          4
    99         11
   100         24
   101         18
   102        136
   103         29
   104          4
   105          1
   106          1
   107          2
   108          4
   109          3
   110          8
   111         93
   112         12
   113         42
   114         23
   115          9
   116         15
   117          4
   118          3
   119          2
   120          2
   121          2
   122          2
   123         19
   124         36
   125         15
   126          6
   127         15
   128         18
   130        903
   131         65
   132         46
   133          5
   134          4
   135          3
   137        228
   138        315
   139        104
   140        104
   141         12
   142          8
   143         11
   144         14
   145         22
   146          6
   147          2
   148          3
   149          3
   150         31
   151         11
   152         13
   153          4
   154          3
   155          8
   156          2
   157          3
   158          1
   159          1
   160          0
   161          1
   162          2
   163          8
   164          2
   165          4
   166          1
   167          1
   168          2
   169          7
   170          3
   171          3
   172          1
   173          1
   174          2
   175          3
   176          7
   177        145
   178         21
   179         50
   180          9
   181          4
   182          4
   183          2
   184          2
   185          8
   186          1
   187          1
   188          0
   189          0
   190          0
   191          1
   192         13
   193          9
   194          7
   195          4
   196          2
   197         27
   198          3
   199          9
   200          1
   201          3
   202          5
   203          2
   204          8
   205          2
   206          4
   207          2
   208          2
   209         14
   210         24
   211          8
   212          9
   213          1
   214          1
   218          1
   219          6
   220          3
   221          2
   222          1
   223          0
   224          1
   225          0
   226          0
   229          0
   230          1
   231          2
   232          2
   233          1
   234          1
   235         16
   236         52
   237         16
   238         19
   239          4
   240          1
   245          2
   246          1
   247          1
   250          1
   251          0
   252          0
   254          1
   259          0
   261          0
   262          3
   263          1
   264          1
   265          0
   266          0
   267          1
   277          0
   278          0
   279          1
   281          0
   282          3
   283          0
   284          1
   287          1
   288          1
   289         18
   290          3
   291          6
   292          1
   293          0
   294          2
   295          0
   296          1
   297          0
   305          0
   320          0
   322         54
   323         10
   324         20
   325          3
   326          1