##TITLE=Library Entry 77814
##JCAMP-DX=Revision 4.10 
##DATA TYPE=MASS SPECTRUM
##SAMPLE DESCRIPTION=Humboldt-Universitat zu Berlin, Department of Chemistry
, Analytical Group
##NAMES=HP
##CAS NAME=5-Ethylthio-2-phenyl-3H-imidazol-4-carboxylic acid, methyl ester
##MOLFORM=C13H14N2O2S
##CAS REGISTRY NO=189453-64-3
##MP= -300
##BP= -300
##MW= 262
##$RETENTION INDEX=0
##$CONDENSED SPECTRUM=NO
##NPOINTS= 189
##XYDATA=(XY..XY) 1 
    12          4
    13          3
    15        574
    16         19
    17         59
    18        201
    19          2
    25          2
    26         44
    27        284
    28        138
    29        402
    30         19
    31         25
    32         13
    33         10
    34          5
    35         11
    36          2
    37          9
    38         23
    39        114
    40         18
    41         54
    42        453
    43         44
    44         57
    45        692
    46         39
    47         46
    48          4
    49         12
    50         89
    51        189
    52         46
    53         13
    54         30
    55         30
    56         16
    57         30
    58         71
    59        270
    60         50
    61         30
    62         56
    63         94
    64         33
    65         16
    66         26
    67         41
    68         19
    69         27
    70        164
    71        307
    72        222
    73         99
    74         41
    75        183
    76        191
    77        460
    78         47
    79          7
    80          5
    81          5
    82          8
    83         10
    84         41
    85         15
    86         72
    87         33
    88         70
    89        105
    90         20
    91         20
    92         20
    93         22
    94         18
    95          8
    96          8
    97          9
    98        125
    99         79
   100         39
   101         18
   102        175
   103        285
   104        999
   105        106
   106          7
   107          4
   108          3
   109          3
   110          2
   111          4
   112         21
   113          6
   114         61
   115        159
   116         93
   117         30
   118         14
   119          8
   120         15
   121         82
   122         12
   123          6
   124          3
   125         12
   126          8
   127          5
   128         20
   129         27
   130        191
   131         50
   132         16
   133          6
   134          4
   135          2
   140          5
   141         39
   142         75
   143         40
   144        159
   145         26
   146         85
   147         89
   148         30
   149          9
   150          2
   153          7
   154          2
   155          7
   156          2
   157          9
   158         15
   159          5
   160         11
   161          3
   162          2
   167          3
   169        585
   170        104
   171        100
   172         19
   173        109
   174        195
   175         37
   176         32
   177          6
   185          4
   186         10
   187         72
   188         20
   189          9
   190          2
   195          8
   197        810
   198        113
   199         12
   200          5
   201        184
   202        804
   203        200
   204         56
   205         11
   206          1
   213          4
   215        174
   216         24
   217         10
   218          3
   227          2
   229        241
   230        739
   231        144
   232         47
   233         45
   234         24
   235          6
   236          2
   246          4
   247         44
   248          6
   249          3
   262        552
   263         98
   264         38
   265          5
   266          1