##TITLE=Library Entry 55643
##JCAMP-DX=Revision 4.10 
##DATA TYPE=MASS SPECTRUM
##SAMPLE DESCRIPTION=Humboldt-Universitat zu Berlin, Department of Chemistry
, Analytical Group
##NAMES=HP
##CAS NAME=Benzamidine, 3-nitro-N-(2-methoxy-2-oxoethyl)-N'-morpholinocarbot
hioyl-
##MOLFORM=C15H18N4O5S
##CAS REGISTRY NO=189452-68-4
##MP= -300
##BP= -300
##MW= 366
##$RETENTION INDEX=0
##$CONDENSED SPECTRUM=NO
##NPOINTS= 273
##XYDATA=(XY..XY) 1 
    12          7
    13          4
    14         20
    15        279
    16         15
    17         29
    18        101
    19          8
    25          2
    26         18
    27        137
    28        441
    29        205
    30        236
    31         70
    32         29
    33         22
    34          2
    37          2
    38         10
    39         40
    40         23
    41         86
    42        157
    43        312
    44         73
    45        312
    46         34
    47         19
    48          3
    49          2
    50         46
    51         40
    52         15
    53          8
    54         37
    55         66
    56        158
    57         88
    58        101
    59        111
    60        146
    61         14
    62         20
    63         36
    64         16
    65         16
    66          6
    67          7
    68         14
    69         41
    70         29
    71         16
    72        367
    73         86
    74        290
    75         57
    76        100
    77         34
    78         14
    79          4
    80          2
    81          6
    82          7
    83          7
    84         19
    85         41
    86        999
    87         90
    88         43
    89         77
    90         45
    91         26
    92         10
    93          6
    94          4
    95          4
    96          7
    97          7
    98          7
    99         11
   100         13
   101         25
   102         96
   103        152
   104         54
   105         20
   106          8
   107          4
   108          7
   109          7
   110          3
   111          4
   112          3
   113         29
   114         17
   115         36
   116        100
   117         63
   118         26
   119         16
   120         16
   121         11
   122          5
   123          3
   124          3
   125          3
   126          2
   127          4
   128         31
   129         24
   130        211
   131         25
   132         64
   133         18
   134         16
   135          8
   136         19
   137          5
   138          4
   139          2
   140          1
   141          8
   142         23
   143         10
   144         74
   145         49
   146         38
   147         32
   148         20
   149         54
   150         71
   151          9
   152          2
   153          5
   154          2
   155          2
   156          4
   157          3
   158          7
   159          5
   160          6
   161          9
   162         22
   163        133
   164         14
   165          4
   166          7
   167          2
   168          4
   169          3
   170          2
   171          4
   172          2
   173          9
   174         20
   175         35
   176         14
   177         20
   178          8
   179         32
   180          4
   181          2
   183          2
   184          4
   185          2
   186          2
   187          2
   188         11
   189          5
   190          6
   191          7
   192          9
   193        154
   194         20
   195          3
   196          1
   201          3
   202          4
   203          7
   204          6
   205         50
   206         10
   207         18
   208         82
   209          9
   210          4
   215          1
   216          4
   217          3
   218          3
   220         25
   221        126
   222         26
   223         14
   224          2
   228          0
   229          1
   230          1
   231          1
   232          1
   233          2
   234         11
   235          2
   236          1
   237          1
   238          1
   242          1
   243          1
   244          1
   246          0
   247          3
   248          7
   249          4
   250          2
   251          0
   255          2
   257          0
   259          2
   260          4
   261          2
   262          1
   264         80
   265         14
   266          5
   267          0
   273          2
   274          2
   275          2
   276          0
   277          1
   278          3
   280         20
   281         13
   282          3
   283          1
   287          1
   288          0
   289          1
   290          2
   291          0
   293          3
   294          0
   295          0
   301          3
   302          0
   303          0
   305          6
   306          2
   307          9
   308          1
   309          0
   317          0
   319          1
   320          1
   321          0
   322          0
   323          0
   331          0
   333         74
   334         16
   335          5
   336          2
   337          0
   348          0
   349          4
   350          3
   351          1
   352          0
   366        118
   367         22
   368          8
   369          1