##TITLE=Library Entry 1872
##JCAMP-DX=Revision 4.10 
##DATA TYPE=MASS SPECTRUM
##SAMPLE DESCRIPTION=A.A.Kutin, Moscow, Russia
##NAMES=HP
##CAS NAME=Butanedioic acid, monopropargyl ester
##MOLFORM=C7H8O4
##CAS REGISTRY NO=189459-95-8
##MP= -300
##BP= -300
##MW= 156
##$RETENTION INDEX=0
##$CONDENSED SPECTRUM=NO
##NPOINTS= 47
##XYDATA=(XY..XY) 1 
    36         12
    37        150
    38        302
    39        999
    40         68
    41         30
    42         89
    43         87
    44         39
    45        600
    46          9
    47          2
    51          3
    52          9
    53         87
    54         28
    55        433
    56        320
    57         21
    60          9
    63          1
    65          7
    66          6
    67          3
    68          7
    69          4
    70          2
    71          4
    73        211
    74         39
    75          1
    79          0
    81          4
    82         54
    83         23
    84          9
    85          1
    96          8
    99          2
   100         21
   101        783
   102         38
   103          5
   110         12
   111          8
   138         22
   139          7