##TITLE=Library Entry 9889
##JCAMP-DX=Revision 4.10 
##DATA TYPE=MASS SPECTRUM
##SAMPLE DESCRIPTION=Chemical Concepts
##NAMES=HP
##CAS NAME=Piperazine, 1,4-diisobutyryl-
##MOLFORM=C12H22N2O2
##CAS REGISTRY NO=18940-58-4
##MP= -300
##BP= -300
##MW= 226
##$RETENTION INDEX=0
##$CONDENSED SPECTRUM=NO
##NPOINTS= 180
##XYDATA=(XY..XY) 1 
    25          0
    26          4
    27        111
    28         84
    29         38
    30         30
    31          2
    32          8
    36          1
    37          3
    38          1
    39         30
    40          8
    41        173
    42        109
    43        999
    44        223
    45          7
    46          0
    47          2
    48          0
    49          4
    50          1
    51          4
    52          4
    53          4
    54         15
    55         90
    56        277
    57         98
    58         38
    59          5
    60          0
    63          1
    64          1
    65          2
    66          1
    67          8
    68         18
    69        512
    70         92
    71        369
    72         22
    73          8
    74          0
    75          1
    76          0
    77          4
    78          3
    79          7
    80          2
    81          9
    82          5
    83         23
    84         25
    85        850
    86         61
    87         13
    88         49
    89          3
    90          0
    91          7
    92          3
    93          3
    94          2
    95          7
    96          4
    97         10
    98         18
    99         11
   100         29
   101         29
   102         17
   103          2
   104          1
   105          3
   106          2
   107          2
   108          1
   109          5
   110          4
   111          9
   112         43
   113        175
   114         85
   115          8
   116          1
   117          1
   118          1
   119          5
   120          2
   121          1
   122          1
   123          7
   124          3
   125          4
   126         23
   127         21
   128         13
   129          4
   130          1
   131          1
   132          1
   133          2
   134          4
   135          2
   136          1
   137          7
   138         13
   139         68
   140         11
   141         37
   142          3
   143          1
   144          0
   145          1
   147          1
   148          6
   149          8
   150          1
   151          2
   152          1
   153          1
   154          3
   155        105
   156         34
   157         30
   158         11
   159          1
   161          0
   162          1
   163          1
   165          1
   166          0
   167          2
   168          0
   169          1
   170          0
   171          2
   172          1
   173          0
   175          0
   176          1
   177          2
   178          0
   179          1
   180          0
   181          0
   182          1
   183        214
   184         24
   185          2
   186          0
   189          0
   190          0
   191          0
   193          0
   196          0
   197          1
   198          0
   203          0
   204          1
   205          0
   207          0
   208          0
   209          0
   210          0
   211         16
   212          1
   213          0
   217          0
   219          0
   221          0
   222          0
   223          0
   224          1
   225          1
   226        133
   227         18
   228          2