##TITLE=Library Entry 23878
##JCAMP-DX=Revision 4.10 
##DATA TYPE=MASS SPECTRUM
##SAMPLE DESCRIPTION=Japan AIST/NIMC Database- Spectrum MS-NW-4067
##NAMES=HP
##CAS NAME=t-Butylpentachlorophenyl carbonate
##MOLFORM=C11H9Cl5O3
##CAS REGISTRY NO=18942-25-1
##MP= -300
##BP= -300
##MW= 364
##$RETENTION INDEX=0
##$CONDENSED SPECTRUM=NO
##NPOINTS= 185
##XYDATA=(XY..XY) 1 
    12          9
    13          1
    14          2
    15         16
    16          9
    17          2
    18          7
    24          3
    25          2
    26          9
    27         48
    28         40
    29        123
    30          3
    35         17
    36         23
    37         12
    38         18
    39        130
    40         29
    41        318
    42         19
    43         32
    44         93
    45          2
    47         19
    48          9
    49          8
    50         12
    51          9
    52          3
    53          9
    54          5
    55         30
    56         71
    57        999
    58         39
    59          4
    60         48
    61         18
    62          1
    63          2
    65         13
    66          9
    67          2
    71         22
    72          8
    73          8
    74          2
    76          2
    78          2
    79          3
    80          1
    82          3
    83         14
    84          4
    85          6
    86          1
    87         20
    88          1
    89          7
    94          5
    95         73
    96         22
    97         26
    98          8
    99          1
   100          9
   101          9
   102          6
   103          1
   106         14
   107         17
   108          9
   109          8
   110          2
   111          5
   113          2
   114          3
   115          3
   116          2
   117         10
   118         11
   119          9
   120          8
   121          3
   122          1
   123          3
   124          6
   125          2
   126          2
   130         61
   131         23
   132         42
   133         17
   134          9
   135          3
   141         22
   142         10
   143         22
   144          9
   145          8
   146          1
   147          1
   155          1
   156          1
   158          4
   159          2
   160          3
   161          1
   165        101
   166          7
   167         98
   168          7
   169         33
   170          2
   171          3
   177          4
   179          5
   181          1
   193          2
   194          3
   195          2
   196          2
   197          1
   198          1
   200         33
   201         20
   202         40
   203         27
   204         22
   205         12
   206          4
   207          3
   212          6
   214          8
   215          1
   216          4
   218          1
   228         17
   229          3
   230         24
   231          3
   232         12
   233          2
   234          3
   235         17
   236          2
   237         24
   238          2
   239         17
   240          1
   241          7
   243          1
   247         12
   248          1
   249         21
   250          2
   251         13
   252          2
   253          5
   263          2
   264         92
   265          9
   266        142
   267         11
   268         91
   269          7
   270         28
   271          2
   272          5
   291          5
   293          7
   294          1
   295          5
   297          2
   305          1
   307          2
   309          2
   311          3
   313          1
   349          3
   351          5
   353          3
   355          1