##TITLE=Library Entry 26920
##JCAMP-DX=Revision 4.10 
##DATA TYPE=MASS SPECTRUM
##SAMPLE DESCRIPTION=Chemical Concepts
##NAMES=HP
##CAS NAME=d-Phenylalanine, N-[(1,1-dimethylethoxy)carbonyl]-
##MOLFORM=C14H19NO4
##CAS REGISTRY NO=18942-49-9
##MP= -300
##BP= -300
##MW= 265
##$RETENTION INDEX=0
##$CONDENSED SPECTRUM=NO
##NPOINTS= 117
##XYDATA=(XY..XY) 1 
    18          1
    26          1
    27         19
    28         13
    29         81
    30          3
    31         24
    37          0
    38          2
    39         36
    40         11
    41        150
    42         10
    43         18
    44         11
    45          5
    46          2
    49          0
    50          4
    51         17
    52          4
    53          4
    54          0
    55         15
    56         19
    57        999
    58         40
    59        158
    60          5
    61          0
    62          3
    63          8
    64          2
    65         49
    66          3
    67          0
    69          0
    71          0
    72          1
    73          7
    74         89
    75          3
    76          2
    77         26
    78          8
    79         10
    80          0
    82          0
    83          1
    84          0
    85          0
    86          0
    87         23
    88          3
    89          7
    90          5
    91        317
    92        116
    93         11
    94          0
   101          0
   102          3
   103         21
   104         21
   105          4
   106          0
   107          5
   108          0
   115          0
   116          1
   117          5
   118         14
   119         11
   120        112
   121         10
   122          0
   123          0
   128          7
   129          1
   130          9
   131          5
   132          0
   144          1
   145          0
   146         19
   147         60
   148        763
   149         64
   150          6
   151          0
   156          0
   163         13
   164         85
   165         18
   166          3
   174          0
   178          0
   179          0
   186          0
   187          0
   191          2
   192         25
   193          3
   194          0
   204          3
   205          0
   207          0
   209        235
   210         25
   211          3
   220          2
   221          1
   250          1
   251          0
   265         25
   266          3
   267          0