##TITLE=Library Entry 60398
##JCAMP-DX=Revision 4.10 
##DATA TYPE=MASS SPECTRUM
##SAMPLE DESCRIPTION=Humboldt-Universitat zu Berlin, Department of Chemistry
, Analytical Group
##NAMES=HP
##CAS NAME=Benzamidine, 4-methoxy-N-(2-benzyloxy-2-oxoethyl)-N'-morpholinoth
iocarbonyl-
##MOLFORM=C22H25N3O4S
##CAS REGISTRY NO=189452-48-0
##MP= -300
##BP= -300
##MW= 427
##$RETENTION INDEX=0
##$CONDENSED SPECTRUM=NO
##NPOINTS= 315
##XYDATA=(XY..XY) 1 
    12          4
    13          1
    14          5
    15         33
    16          8
    17         27
    18         95
    19          3
    25          1
    26         12
    27         56
    28        125
    29         80
    30         51
    31         14
    32         12
    33          3
    34          3
    36          1
    37          5
    38         10
    39         52
    40         11
    41         49
    42         49
    43         28
    44         39
    45         53
    46          5
    47          4
    49          2
    50         21
    51         44
    52         15
    53         11
    54         25
    55         33
    56         43
    57         43
    58         23
    59         38
    60         61
    61          7
    62         12
    63         35
    64         24
    65         97
    66         12
    67          8
    68         11
    69         20
    70         19
    71          8
    72         55
    73         17
    74         11
    75          9
    76         19
    77        104
    78         26
    79         48
    80          7
    81          5
    82          6
    83         10
    84          9
    85         20
    86        373
    87         35
    88         16
    89         25
    90         50
    91        999
    92         88
    93          6
    94          4
    95          6
    96          5
    97         11
    98          5
    99          4
   100          5
   101         11
   102         16
   103         33
   104         18
   105         16
   106          6
   107         31
   108         33
   109         12
   110          4
   111          3
   112          4
   113         17
   114         13
   115          6
   116         11
   117          7
   118         12
   119         24
   120          6
   121         72
   122          9
   123          7
   124         13
   125         15
   126          2
   127          4
   128          8
   129         16
   130        192
   131         17
   132         54
   133         81
   134        135
   135        327
   136         34
   137          5
   139         45
   140          5
   141          4
   142          3
   143          7
   144          3
   145         10
   146         13
   147         40
   148         29
   149          7
   150          8
   151         38
   152          7
   153          3
   154          1
   156         14
   157          3
   158          3
   159          5
   160          3
   161          3
   162          4
   163          3
   164         23
   165          8
   166          3
   167          5
   168          3
   169          1
   170          1
   171          4
   172          2
   173          4
   174          6
   175         15
   176          6
   177          6
   178          7
   179          4
   180          3
   181          1
   184          1
   185          4
   186         28
   187          6
   188          4
   189          4
   190         13
   191          7
   192        123
   193         48
   194          6
   195          2
   199          1
   200          3
   201          6
   202          7
   203          6
   204          3
   205         28
   206         17
   207         30
   208          9
   209          3
   210          1
   213          0
   214          2
   215          1
   216          2
   217          1
   218          1
   219          1
   220          1
   221          1
   222          1
   223          0
   224          3
   225          1
   226          1
   227          1
   228          3
   229          1
   230          4
   231          3
   232          3
   233          2
   234          1
   235          2
   236          2
   237          0
   238          0
   241          0
   242          2
   243          0
   244          1
   245          0
   246          0
   247          1
   248          0
   249          1
   251         27
   252          4
   253          2
   254          1
   255          1
   256          2
   257          1
   258         17
   259         20
   260          8
   261          1
   262          1
   263          4
   264          1
   265          2
   266          0
   272          0
   276          0
   277          1
   278          2
   279          4
   280          0
   281          1
   282          8
   283          2
   284         21
   285          6
   286          3
   287          0
   288          0
   290          2
   291          1
   292          2
   293          3
   294          0
   295          0
   297          0
   298          0
   299          0
   302          3
   303          0
   304          0
   308          1
   309          2
   310          1
   311          1
   314          0
   315          1
   316          0
   317          0
   318          0
   319          9
   320          2
   321          0
   322          0
   324          0
   325          2
   326          0
   336         19
   337          4
   338          2
   339          0
   340          0
   341         24
   342          7
   343          2
   344          0
   349          0
   350          0
   351          0
   352          0
   364          0
   365          0
   366          1
   367          0
   368          0
   369          0
   372          0
   382          0
   384          0
   393         15
   394         53
   395         13
   396          2
   397          0
   398          0
   410          0
   411          0
   412          0
   426          3
   427         58
   428         16
   429          5
   430          1
   431          0