##TITLE=Library Entry 5839
##JCAMP-DX=Revision 4.10 
##DATA TYPE=MASS SPECTRUM
##SAMPLE DESCRIPTION=Vladimir Zaikin, TIPS RAS, Moscow, Russia
##NAMES=HP
##CAS NAME=2-Trifluoroacetoxydodecane
##MOLFORM=C14H25F3O2
##CAS REGISTRY NO=1894-68-4
##MP= -300
##BP= -300
##MW= 282
##$RETENTION INDEX=0
##$CONDENSED SPECTRUM=NO
##NPOINTS= 79
##XYDATA=(XY..XY) 1 
    33         30
    34         65
    35         13
    36         65
    37         35
    38        178
    39        335
    40        792
    41        960
    42        350
    43        999
    44        400
    45        220
    46         20
    47        108
    49         22
    50        110
    51        175
    52         22
    53         90
    54        115
    55        735
    56        455
    57        480
    58         31
    59         22
    60          7
    61         11
    62         11
    63          5
    65         27
    66         30
    67        138
    68         83
    69        415
    70        310
    71        125
    72         18
    73         75
    75         50
    76          9
    77         35
    79         60
    81         68
    82        103
    83        245
    84        218
    85         70
    91         30
    93         12
    95         70
    96         45
    97        170
    98        100
    99         42
   103         10
   105         12
   106          8
   107         18
   109         25
   110         20
   111         60
   112         55
   113         58
   117          9
   118          6
   119          9
   121          8
   123          2
   124          6
   125         49
   126         28
   131         10
   133         20
   139         11
   140         20
   141         45
   168         45
   169         12