##TITLE=Library Entry 167
##JCAMP-DX=Revision 4.10 
##DATA TYPE=MASS SPECTRUM
##SAMPLE DESCRIPTION=Humboldt-Universitat zu Berlin, Department of Chemistry
, Analytical Group
##NAMES=HP
##CAS NAME=2-(4-Methoxyphenyl)-5-morpholin-4-yl-3H-imidazol-4-carboxamide
##MOLFORM=C15H18N4O3
##CAS REGISTRY NO=189453-74-5
##MP= -300
##BP= -300
##MW= 302
##$RETENTION INDEX=0
##$CONDENSED SPECTRUM=NO
##NPOINTS= 236
##XYDATA=(XY..XY) 1 
    12         25
    13          9
    14         31
    15        256
    16         59
    17        197
    18        694
    19         36
    20          6
    22          3
    25          3
    26         57
    27        264
    28        999
    29        225
    30        116
    31         58
    32         24
    35         10
    36         28
    37         13
    38         30
    39        108
    40        173
    41        779
    42        277
    43        233
    44        476
    45        185
    46          9
    47         18
    48          9
    49          8
    50         52
    51         70
    52         57
    53         67
    54        233
    55        127
    56         92
    57         46
    58         15
    59          4
    60          5
    61          6
    62         28
    63         93
    64         99
    65         57
    66        304
    67        130
    68        149
    69         77
    70         79
    71         46
    72         34
    73         10
    74         14
    75         67
    76        127
    77        143
    78         49
    79         53
    80         34
    81         54
    82         29
    83         61
    84         52
    85         46
    86         52
    87         29
    88         23
    89         43
    90        196
    91        173
    92         65
    93         86
    94        164
    95        100
    96        143
    97        302
    98         31
   100         63
   102        123
   103        149
   104         64
   105         21
   106         22
   107         54
   108         34
   109         28
   110         12
   111         11
   112          9
   113         36
   114         51
   115         36
   116         63
   117         37
   118         55
   119        192
   120         30
   121         49
   122         24
   123         63
   124        629
   125         69
   126          8
   127         29
   128         30
   129         73
   130         44
   131         28
   132         43
   133        357
   134        666
   135        108
   136         15
   137          3
   139          3
   140          9
   141         27
   142         26
   143         16
   144         24
   145         50
   146         70
   147        185
   148         23
   149          7
   150         10
   151         13
   152          7
   153          2
   154          5
   155         15
   156         32
   157         56
   158         31
   159         99
   160         54
   161         21
   162         35
   163          5
   167          3
   168          9
   169         14
   170         14
   171         87
   172        170
   173         42
   174        106
   175         28
   176          5
   181          2
   182          9
   183         18
   184        119
   185         81
   186         46
   187         82
   188         35
   189         20
   190          5
   195          3
   196         10
   197         17
   198         35
   199        143
   200        206
   201        129
   202        104
   203         30
   204          7
   209          2
   210          6
   211         20
   212         64
   213         65
   214        115
   215        100
   216         48
   217         30
   218          4
   224         10
   225         23
   226        153
   227        292
   228        330
   229         87
   230         35
   231         12
   232         45
   233          7
   238          5
   239         15
   240         59
   241        112
   242        213
   243         81
   244         29
   245         20
   246          3
   252          4
   253          8
   254         19
   255         61
   256        369
   257        196
   258         86
   259         77
   260         13
   261          1
   266         15
   267         32
   268         16
   269         15
   270         29
   271         14
   272         14
   273          7
   274          9
   275          1
   282          1
   283          6
   284         84
   285        440
   286         79
   287         45
   288          8
   289          1
   300          5
   302        725
   303        133
   304         16
   305          1