##TITLE=Library Entry 56648
##JCAMP-DX=Revision 4.10 
##DATA TYPE=MASS SPECTRUM
##SAMPLE DESCRIPTION=Humboldt-Universitat zu Berlin, Department of Chemistry
, Analytical Group
##NAMES=HP
##CAS NAME=4-Morpholinecarbothioamide, N-[1-(2-methoxy-2-oxoethylimino)ethyl
idene]-
##MOLFORM=C10H17N3O3S
##CAS REGISTRY NO=189452-70-8
##MP= -300
##BP= -300
##MW= 259
##$RETENTION INDEX=0
##$CONDENSED SPECTRUM=NO
##NPOINTS= 183
##XYDATA=(XY..XY) 1 
    12          2
    13          2
    14         14
    15        225
    16          7
    17         18
    18         60
    19          4
    26         23
    27        130
    28        291
    29        133
    30        138
    31         35
    32          7
    33          8
    34          1
    35          0
    36          0
    38          1
    39          8
    40         23
    41         63
    42        257
    43        160
    44         41
    45        148
    46         17
    47          9
    48          1
    49          0
    50          0
    51          1
    52          8
    53         12
    54         87
    55         94
    56        201
    57         59
    58         78
    59         85
    60         97
    61          8
    62          5
    63          0
    64          0
    65          0
    66          2
    67         13
    68          8
    69         25
    70         19
    72        239
    73         55
    74        134
    75          7
    76          1
    77          1
    78          0
    79          1
    81         36
    82          9
    83         12
    84         27
    85         58
    86        999
    87         74
    88         25
    89          3
    90          3
    91          1
    92          0
    93          1
    94          0
    95          3
    96          5
    97          8
    98          9
    99         13
   100        131
   101        154
   102         14
   103         10
   104          1
   105          1
   106          0
   107          1
   108          1
   109         16
   110          5
   111          7
   113        124
   114        479
   115         97
   116         50
   117          6
   118          6
   119          1
   120          0
   121          0
   122          1
   123          1
   124          1
   125          2
   126          2
   127          4
   128         19
   129         11
   130        156
   131         13
   132          9
   133          1
   135          0
   136          1
   137          1
   138          1
   139          3
   140         12
   141         56
   142         14
   143          3
   144         15
   145         22
   146          4
   147          3
   148          3
   149          1
   150          1
   151          0
   152          1
   153          1
   154          1
   155          3
   156         13
   157          2
   158          4
   159          1
   161          0
   164          0
   165          0
   166          3
   167          4
   168          4
   169          7
   170          3
   171          6
   173        147
   174         21
   175         10
   176          1
   182          2
   183          2
   184          2
   185          1
   186          9
   187          1
   188          1
   194          5
   195          2
   196          0
   197          0
   198         12
   199          2
   200         22
   201          4
   202          2
   203          0
   214          0
   215          0
   216          1
   226         87
   227         13
   228          8
   229          1
   230          1
   242          0
   244          2
   245          0
   257          0
   259        158
   260         22
   261          9
   262          1