##TITLE=Library Entry 55655
##JCAMP-DX=Revision 4.10 
##DATA TYPE=MASS SPECTRUM
##SAMPLE DESCRIPTION=Humboldt-Universitat zu Berlin, Department of Chemistry
, Analytical Group
##NAMES=HP
##CAS NAME=Benzamidine, 4-chloro-N-[bis(ethoxycarbonyl)methyl]-N'-morpholino
thiocarbonyl-
##MOLFORM=C19H24ClN3O5S
##CAS REGISTRY NO=189452-99-1
##MP= -300
##BP= -300
##MW= 441
##$RETENTION INDEX=0
##$CONDENSED SPECTRUM=NO
##NPOINTS= 324
##XYDATA=(XY..XY) 1 
    12          6
    13          2
    14         11
    15         62
    16         10
    17         21
    18         58
    19         26
    25          3
    26         30
    27        254
    28        314
    29        813
    30         80
    31         95
    32        144
    33        131
    34        276
    35         10
    36         16
    37          1
    38          4
    39         22
    40         34
    41        129
    42        100
    43        122
    44         55
    45        168
    46         19
    47         10
    49          1
    50         14
    51         13
    52          9
    53         12
    54         93
    55         70
    56         90
    57         61
    58         49
    59         74
    60        167
    61         19
    62         17
    63         13
    64          4
    65          4
    66         89
    67         51
    68         51
    69         77
    70         54
    71         30
    72         73
    73         53
    74         31
    75         69
    76         27
    77         18
    78          6
    79          8
    80         18
    81         28
    82         17
    83         22
    84         27
    85         44
    86        999
    87         77
    88         56
    89         17
    90          7
    91          7
    92          3
    93         11
    94         14
    95         36
    96         24
    97         42
    98         13
    99         12
   100         27
   101         13
   102         93
   103         25
   104         27
   105         16
   106          2
   107         12
   108          6
   109          9
   110         10
   111         93
   112         15
   113         58
   114         69
   115         22
   116         24
   117         13
   118          7
   119          6
   120          4
   121          6
   122          6
   123         75
   124         47
   125         36
   126          5
   127          9
   128         16
   129         20
   130        267
   131         21
   132         34
   133         35
   134          4
   135          4
   136          6
   137        121
   138        158
   139        348
   140         94
   141        112
   142         20
   143         12
   144         11
   145         36
   146          9
   147          4
   148          7
   149          9
   150         41
   151         25
   152         20
   153          8
   154          4
   155         14
   156          4
   157          8
   158          2
   160         24
   161          3
   162          3
   163         13
   164          4
   165          7
   166         10
   167          5
   168         12
   169          7
   170          5
   171          4
   172          2
   173          6
   174          5
   175         11
   176          8
   177         10
   178         16
   179          6
   180          8
   181         19
   182          7
   183         11
   184          3
   185          3
   188          1
   189          3
   190          3
   191          7
   192          4
   193          5
   194          7
   195         10
   196         13
   197        128
   198         18
   199         51
   200          6
   201          4
   202          2
   203          7
   204         12
   205         20
   206         12
   207         21
   208         15
   209          9
   210         10
   211          6
   212          4
   213          3
   216          2
   217          6
   218          5
   219          8
   220          7
   221         30
   222          8
   223         12
   224         23
   225          6
   226          9
   227          2
   228          2
   229          2
   230          9
   231         17
   232         28
   233         14
   234         13
   235          5
   236          7
   237          7
   238          5
   239          5
   240         14
   241          7
   242          7
   243          4
   244          5
   245         14
   246         12
   247          6
   248          9
   249          5
   250          5
   251          5
   252          2
   253          5
   254          3
   255          2
   256          2
   257          1
   258          5
   259         26
   260         42
   261         15
   262         20
   263          6
   264          6
   265          3
   266          7
   267         10
   268         29
   269          7
   270         11
   271          3
   272          2
   274          3
   275          1
   276          3
   277          3
   278          6
   279          5
   280          3
   281          8
   282         12
   283         16
   284          8
   285          6
   286          3
   288         75
   289         23
   290         35
   291         18
   292         10
   293          5
   294          8
   296         38
   297          8
   298         42
   299          8
   300         11
   301          2
   304          8
   305          8
   306          9
   307          4
   308          3
   313          1
   316          1
   317          2
   318          1
   320          1
   321          1
   323          2
   324          2
   334        140
   335        134
   336         73
   337         50
   338         10
   339          3
   340          6
   341          1
   342          2
   350          2
   352          1
   355         26
   356          7
   357         11
   358          3
   362          1
   366          2
   368         11
   369          3
   370          4
   380          2
   396          2
   398          1
   407         17
   408         42
   409         15
   410         15
   411          3
   412          4
   414          1
   441         93
   442         24
   443         38
   444         10
   445          3