##TITLE=Library Entry 416
##JCAMP-DX=Revision 4.10 
##DATA TYPE=MASS SPECTRUM
##SAMPLE DESCRIPTION=Humboldt-Universitat zu Berlin, Department of Chemistry
, Analytical Group
##NAMES=HP
##CAS NAME=2-(4-Chlorophenyl)-5-morpholin-4-yl-3H-imidazol-4-carboxylic acid
, ethyl ester
##MOLFORM=C16H18ClN3O3
##CAS REGISTRY NO=189453-22-3
##MP= -300
##BP= -300
##MW= 335
##$RETENTION INDEX=0
##$CONDENSED SPECTRUM=NO
##NPOINTS= 258
##XYDATA=(XY..XY) 1 
    12          4
    13          3
    14         17
    15        120
    16         10
    17         22
    18         79
    19         32
    26         62
    27        427
    28        694
    29        999
    30         66
    31         81
    32          1
    35          3
    36          5
    37          4
    38         10
    39         60
    40        241
    41        573
    42        169
    43        133
    44         55
    45        191
    46          6
    47          2
    49          3
    50         28
    51         31
    52         33
    53         46
    54        188
    55         58
    56         64
    57         19
    58          8
    59         50
    60          4
    61          6
    62         13
    63         17
    64          8
    66        238
    67        116
    68        138
    69         45
    70         45
    71         11
    72         12
    73         14
    74         11
    75         67
    76         33
    77         11
    78          8
    79          9
    80         22
    81         26
    82         16
    83         10
    84         20
    85         12
    86         21
    87         17
    88         21
    89         15
    90          4
    91          2
    92          3
    93         22
    94         42
    95         52
    96         38
    97         78
    98         12
    99          7
   100         14
   101         13
   102        106
   103         31
   104          8
   105          2
   106          2
   107         11
   108          7
   109         11
   110         10
   111         73
   112         17
   113         29
   114         76
   115         28
   116         20
   117          9
   118          2
   120          2
   121          6
   122         11
   123         96
   124        350
   125         68
   126          9
   127          9
   128          8
   130         12
   135          2
   137        133
   138        262
   139        109
   140         92
   141         42
   142         14
   143          7
   144         21
   145          9
   148          7
   149         17
   150         53
   151         63
   152         23
   153         23
   154          7
   155          4
   156          3
   157          3
   158          1
   162          3
   163         20
   164          8
   165         11
   166          9
   167          5
   168         50
   169         12
   170          5
   171          3
   175         20
   176         15
   177         16
   178         45
   179         13
   180         15
   181          4
   182          3
   183          3
   184          1
   185          1
   189          7
   190          9
   191         12
   192         12
   193         10
   194          5
   195          4
   196          9
   197          7
   198          2
   199          1
   201          1
   203         26
   204         41
   205         51
   206         39
   207         19
   208          9
   209          2
   210          2
   211          1
   213          1
   215          0
   216          3
   217          9
   218         26
   219         19
   220         17
   221          9
   222          6
   223          2
   224          2
   225          3
   226         10
   227          2
   228          1
   229          2
   230         23
   231        135
   232        110
   233         72
   234         47
   235         12
   236          6
   237          1
   239          0
   242          1
   243          3
   244         12
   245         30
   246         35
   247         15
   248         28
   249          7
   250          7
   251          2
   252          0
   253          2
   254          1
   256          1
   257          1
   258         11
   259         35
   260         55
   261         31
   262         43
   263         13
   264         16
   265          6
   266          3
   267          1
   269          1
   270          2
   271          3
   272          3
   273          1
   274          8
   275          1
   276          7
   277         12
   278         24
   279          9
   280          8
   281          2
   288         78
   289         53
   290         49
   291         44
   292         25
   293         11
   294          5
   295          0
   300          2
   301          0
   304         29
   305         18
   306         24
   307          8
   308          5
   309          0
   317          2
   318          0
   319          1
   320          1
   335        138
   336         29
   337         46
   338          9
   339          1