##TITLE=Library Entry 85513
##JCAMP-DX=Revision 4.10 
##DATA TYPE=MASS SPECTRUM
##SAMPLE DESCRIPTION=A. Musjce, AT&T Bell Labs., Murray Hill, N.J., USA
##NAMES=HP
##CAS NAME=1,3-Dithiole, 4-(2-thienyl)-2-(2-thienyl-1,3-dithiol-2-ylidene)-
##MOLFORM=C14H8S6
##CAS REGISTRY NO=189562-13-8
##MP= -300
##BP= -300
##MW= 368
##$RETENTION INDEX=0
##$CONDENSED SPECTRUM=NO
##NPOINTS= 266
##XYDATA=(XY..XY) 1 
    50         30
    51         26
    52         10
    53          2
    54          0
    55          2
    56          1
    57         37
    58        119
    59         11
    60         11
    61         17
    62         46
    63        109
    64         34
    65          7
    66          6
    67          1
    68          7
    69        268
    70         61
    71         45
    72          9
    73          8
    74         26
    75         20
    76         63
    77         11
    78         10
    79          3
    80          1
    81         46
    82        111
    83         22
    84         12
    85          5
    86          3
    88         82
    89         13
    90         13
    91          4
    92          7
    93         65
    94         13
    95        139
    96        204
    97         28
    98         15
    99          1
   100         19
   101         26
   102          7
   103          7
   104          3
   105         13
   106         21
   107          8
   108        999
   109         83
   110         49
   111          8
   112         10
   113          7
   114         12
   115          7
   116          4
   117          6
   118          4
   119          7
   120         27
   121         11
   122          7
   123          4
   124          6
   125          6
   126          1
   127         70
   128         10
   129         11
   130          3
   131          3
   132          4
   133          5
   134          3
   135          2
   136          4
   138          3
   139         47
   140        137
   141         21
   142         18
   143          5
   144          1
   145          3
   146          0
   147          2
   148          0
   149          3
   151         59
   152         59
   153         16
   154         10
   155          3
   158          5
   159          3
   160          3
   161          0
   162          3
   163          7
   164         26
   165          9
   166          7
   167          2
   168          7
   169          4
   170          6
   171          8
   172          7
   173          1
   174          2
   175          0
   176          2
   177          5
   178          0
   179          2
   182          2
   183         15
   184        154
   185         36
   186         22
   187          8
   188          3
   189          0
   190          3
   192          3
   194          2
   195         11
   196         15
   197          8
   198         11
   199          4
   200          2
   201          2
   202          3
   203          5
   204          3
   205          1
   206          2
   207          1
   208          4
   209          8
   210          4
   211          3
   214          4
   215          6
   216         18
   217          7
   218          7
   219          1
   220          1
   221          1
   222          0
   223          2
   224          1
   225          1
   226          1
   227         10
   228         49
   229         12
   230         14
   231          5
   232          3
   233          1
   234          1
   235          3
   236          1
   237          1
   238          1
   239          3
   241        180
   242         29
   243         36
   244          8
   245          6
   246          5
   247          3
   248          6
   249          0
   250          2
   251          1
   252          3
   253          2
   254          1
   256          1
   257          1
   258          2
   259          7
   260         10
   261          5
   262          5
   264          0
   265          1
   268          1
   269          1
   270          3
   271          2
   272          2
   274          0
   275          2
   276          1
   277          2
   278          3
   279          2
   280          4
   282          1
   283          1
   284          1
   286          2
   288          1
   289          3
   290          2
   291          9
   292          4
   293          4
   294          1
   296          1
   297          2
   298          0
   299          1
   300          1
   301          2
   302          6
   303          4
   304         14
   305          6
   306          5
   307          0
   308          2
   311          2
   317          1
   318          2
   319          1
   321          2
   322          1
   323         21
   324          8
   325          8
   326          3
   327          2
   331          1
   332          1
   334          2
   335          6
   336          5
   337          3
   338          2
   344          1
   366          2
   367         17
   368        323
   369         69
   370         92
   371         20
   372         15
   373          6
   374          3