##TITLE=Library Entry 114004
##JCAMP-DX=Revision 4.10 
##DATA TYPE=MASS SPECTRUM
##SAMPLE DESCRIPTION=Chemical Concepts
##NAMES=HP
##CAS NAME=6-Methyl-5-phenyl-hept-5-en-2-one
##MOLFORM=C14H18O
##CAS REGISTRY NO=18955-99-2
##MP= -300
##BP= -300
##MW= 202
##$RETENTION INDEX=0
##$CONDENSED SPECTRUM=NO
##NPOINTS= 144
##XYDATA=(XY..XY) 1 
    26          2
    27         43
    29         21
    30          1
    31          2
    36          1
    37          1
    38          5
    39         90
    40         10
    41        107
    42          9
    43        526
    44         14
    45         10
    50         17
    51         72
    52         18
    53         59
    54          5
    55         25
    56          3
    57         16
    58         18
    59          5
    60          2
    61          2
    62          8
    63         35
    64         12
    65         61
    66          9
    67         34
    68          4
    69          7
    70          3
    71         27
    72          3
    73          2
    74          7
    75         12
    76         14
    77        103
    78         26
    79         32
    80          4
    81         26
    82          4
    83          6
    84          1
    85          3
    86          5
    87          5
    88          4
    89         24
    90          5
    91        323
    92         25
    93          3
    94          2
    95          2
    96          1
    97          2
    98          3
    99          2
   100          1
   101          8
   102         19
   103         52
   104         11
   105         62
   106          6
   107          2
   108          1
   109         11
   110          2
   111          4
   112          1
   113          3
   114          5
   115        142
   116         71
   117        248
   118         27
   119          9
   120          2
   121          2
   122          1
   123          2
   124          2
   125          2
   126          5
   127         43
   128        137
   129        999
   130        157
   131        117
   132         28
   133          4
   134          2
   139          5
   140          3
   141         40
   142         40
   143        177
   144        439
   145        158
   146         17
   147          4
   148          1
   149          1
   150          1
   151          2
   152          4
   153          5
   154          8
   155          8
   156          5
   157         17
   158         13
   159        145
   160         25
   161          3
   165          2
   166          1
   167          3
   168         16
   169        108
   170         16
   171          4
   172          3
   173          3
   182          2
   183          6
   184        593
   185        104
   186          8
   187         26
   188          4
   200          1
   201          2
   202        215
   203         36
   204          4