##TITLE=Library Entry 34204
##JCAMP-DX=Revision 4.10 
##DATA TYPE=MASS SPECTRUM
##SAMPLE DESCRIPTION=NIST Mass Spectrometry Data Center
##NAMES=HP
##CAS NAME=(R)-(+)-Citronellic acid
##MOLFORM=C10H18O2
##CAS REGISTRY NO=18951-85-4
##MP= -300
##BP= -300
##MW= 170
##$RETENTION INDEX=0
##$CONDENSED SPECTRUM=NO
##NPOINTS= 106
##XYDATA=(XY..XY) 1 
    15          2
    26          3
    27         76
    28         14
    29         65
    30          2
    31          9
    37          2
    38          7
    39        195
    40         42
    41        772
    42         93
    43        126
    44          6
    45        105
    46          3
    47          2
    50         10
    51         33
    52         17
    53        149
    54         44
    55        607
    56        352
    57         78
    58         13
    59        108
    60         76
    61          6
    62          3
    63          8
    64          2
    65         36
    66         14
    67        201
    68        131
    69        999
    70        220
    71         54
    72         32
    73         74
    74          5
    75          1
    77         29
    78          6
    79         38
    80         11
    81         83
    82        148
    83        106
    84         18
    85         34
    86          7
    87         48
    88          6
    89          1
    91         17
    92          3
    93         23
    94         99
    95        550
    96         75
    97         38
    98          5
    99         10
   100         21
   101         25
   102          3
   103          1
   105          3
   106          1
   107          6
   108          9
   109        115
   110        488
   111         57
   112          4
   113         19
   114         41
   115         57
   116          4
   117          1
   119         13
   120          1
   121          5
   122          1
   123         13
   124          6
   125          1
   126          1
   127         28
   128          5
   129          1
   134          7
   135          2
   137         22
   138          2
   141          1
   152        131
   153         17
   154          1
   155          2
   170        140
   171         16
   172          1