##TITLE=Library Entry 76623
##JCAMP-DX=Revision 4.10 
##DATA TYPE=MASS SPECTRUM
##SAMPLE DESCRIPTION=Japan AIST/NIMC Database- Spectrum MS-NW-1696
##NAMES=HP
##CAS NAME=3-Buten-2-one, 4-phenyl-, (E)-
##MOLFORM=C10H10O
##CAS REGISTRY NO=1896-62-4
##MP= -300
##BP= -300
##MW= 146
##$RETENTION INDEX=1330
##$CONDENSED SPECTRUM=NO
##NPOINTS= 85
##XYDATA=(XY..XY) 1 
    14          6
    15         50
    16          1
    17          2
    18          7
    26          9
    27         46
    28         24
    29          4
    32          1
    37         11
    38         28
    39         93
    40          6
    41          6
    42          9
    43        380
    44         10
    45          1
    49          9
    50        146
    51        418
    52         61
    53         17
    54          1
    55          2
    56          1
    57         12
    58         23
    59          4
    60          1
    61         13
    62         40
    63         90
    64         11
    65         34
    66          5
    72          3
    73         15
    74         65
    75         63
    76         76
    77        567
    78         57
    79          3
    81          1
    82          3
    83          1
    85          3
    86          8
    87         10
    88          3
    89         13
    90          3
    91         26
    92          2
    97          2
    98          9
    99          4
   100          1
   101         18
   102        115
   103        999
   104         96
   105          6
   107          1
   113          2
   114          1
   115         39
   116          9
   117         30
   118          7
   126          2
   127          8
   128          7
   129          5
   130          2
   131        945
   132         92
   133          6
   144          6
   145        400
   146        588
   147         65
   148          4