##TITLE=Library Entry 68180
##JCAMP-DX=Revision 4.10 
##DATA TYPE=MASS SPECTRUM
##SAMPLE DESCRIPTION=G.VON BUNAU MAX-PLANCK-INST., MULHEIM-RHUR, GERMANY, FR
G
##NAMES=HP
##CAS NAME=Bicyclo[4.1.0]heptane, 3,7,7-trimethyl-, (1.alpha.,3.alpha.,6.alp
ha.)-
##MOLFORM=C10H18
##CAS REGISTRY NO=18968-23-5
##MP= -300
##BP= -300
##MW= 138
##$RETENTION INDEX=978
##$CONDENSED SPECTRUM=NO
##NPOINTS= 49
##XYDATA=(XY..XY) 1 
    15         14
    27        181
    28         24
    29        134
    39        235
    40         44
    41        473
    42         44
    43        105
    50         17
    51         46
    52         24
    53        154
    54         63
    55        355
    56         44
    57         53
    63         14
    65         53
    66         34
    67        512
    68        161
    69        205
    70         34
    77         93
    78         22
    79        144
    80         63
    81        732
    82        301
    83         73
    91         53
    92         22
    93         93
    94         93
    95        999
    96        188
    97         24
   105         12
   107         31
   108         12
   109         83
   110         22
   121         34
   123        281
   124         39
   136         27
   138        394
   139         49