##TITLE=Library Entry 40028
##JCAMP-DX=Revision 4.10 
##DATA TYPE=MASS SPECTRUM
##SAMPLE DESCRIPTION=NIST Mass Spectrometry Data Center, 1994
##NAMES=HP
##CAS NAME=Methyl 3-isothiocyanatopropionate
##MOLFORM=C5H7NO2S
##CAS REGISTRY NO=18967-35-6
##MP= -300
##BP= -300
##MW= 145
##$RETENTION INDEX=0
##$CONDENSED SPECTRUM=NO
##NPOINTS= 61
##XYDATA=(XY..XY) 1 
    12          4
    13          6
    15        127
    16          6
    25         10
    26        118
    27        385
    28         97
    29        142
    30         30
    31         44
    32         12
    33         11
    34          5
    38         12
    39         21
    40         36
    41         38
    42         87
    43         38
    44         55
    45        208
    46         23
    47         12
    51         14
    52         23
    53         14
    54         50
    55        163
    56         28
    57         42
    58        138
    59        478
    60        177
    61         14
    62          7
    68          2
    70         35
    72        999
    73         49
    74         60
    75          7
    76          4
    82         29
    83          9
    85        744
    86        201
    87         67
    88         40
    90          2
   102         10
   112         12
   114        258
   115         35
   116         16
   117         72
   118          4
   119          4
   145        605
   146         43
   147         31