##TITLE=Library Entry 109272
##JCAMP-DX=Revision 4.10 
##DATA TYPE=MASS SPECTRUM
##SAMPLE DESCRIPTION=NIST Mass Spectrometry Data Center, 1994
##NAMES=HP
##CAS NAME=Benzene, 1-chloro-2-(isothiocyanatomethyl)-
##MOLFORM=C8H6ClNS
##CAS REGISTRY NO=18967-44-7
##MP= -300
##BP= -300
##MW= 183
##$RETENTION INDEX=0
##$CONDENSED SPECTRUM=NO
##NPOINTS= 96
##XYDATA=(XY..XY) 1 
    25          1
    26         13
    27         19
    32         25
    33          2
    35          3
    36          6
    37         29
    38         52
    39        131
    40         14
    41          5
    43          8
    44         31
    45         40
    46          4
    47          5
    48          3
    49         23
    50         99
    51         79
    52         13
    58         44
    59          8
    60         17
    61         41
    62         86
    63        214
    64         39
    65         21
    69          7
    70         22
    71         15
    72         37
    73         74
    74         58
    75         77
    76         21
    77         27
    78          3
    79          2
    81          1
    82          2
    83          2
    84          9
    85         17
    86         21
    87         19
    88          1
    89        338
    90         72
    91          8
    92          3
    93          3
    94          4
    95          2
    96          4
    97          7
    98          1
    99         91
   100          7
   101         27
   102         12
   103          4
   104          2
   108          3
   111          6
   112          2
   114          5
   115          4
   116         26
   117          1
   119          7
   120         11
   121         15
   122          2
   123          8
   124          1
   125        999
   126         84
   127        325
   128         23
   137          2
   138          3
   146          4
   148          2
   151          3
   153          1
   155         10
   156          1
   157          3
   183        179
   184         20
   185         70
   186          6
   187          2