##TITLE=Library Entry 87611
##JCAMP-DX=Revision 4.10 
##DATA TYPE=MASS SPECTRUM
##SAMPLE DESCRIPTION=Japan AIST/NIMC Database- Spectrum MS-NW-4099
##NAMES=HP
##CAS NAME=Phenol, 4-(hexyloxy)-
##MOLFORM=C12H18O2
##CAS REGISTRY NO=18979-55-0
##MP= -300
##BP= -300
##MW= 194
##$RETENTION INDEX=0
##$CONDENSED SPECTRUM=NO
##NPOINTS= 53
##XYDATA=(XY..XY) 1 
    15          2
    18          1
    26          8
    27         63
    28          9
    29         50
    30          1
    37          1
    38          4
    39         46
    40          4
    41         73
    42          9
    43        135
    44          4
    50          3
    51          7
    52          7
    53         27
    54         10
    55         38
    56          6
    57         11
    62          2
    63          7
    64          6
    65         26
    66          3
    67          3
    69          4
    77          2
    79          1
    80          1
    81         49
    82         18
    83          4
    84          1
    85          4
    92          1
    93         14
    94          2
    95          6
   107          2
   109         27
   110        999
   111         68
   112          6
   123         13
   124          2
   136          1
   194        157
   195         20
   196          1