##TITLE=Library Entry 46818
##JCAMP-DX=Revision 4.10 
##DATA TYPE=MASS SPECTRUM
##SAMPLE DESCRIPTION=CARL DJERASSI DEPT OF CHEM STANFORD UNIV STANFORD CALIF
 94305
##NAMES=HP
##CAS NAME=Akuammilan-16-carboxylic acid, 17-(acetyloxy)-, methyl ester, (16
R)-
##MOLFORM=C23H26N2O4
##CAS REGISTRY NO=1897-26-3
##MP= -300
##BP= -300
##MW= 394
##$RETENTION INDEX=0
##$CONDENSED SPECTRUM=NO
##NPOINTS= 214
##XYDATA=(XY..XY) 1 
    61         66
    62         66
    63        250
    64         83
    65        466
    66        200
    67        416
    68        316
    69        216
    70        116
    71         83
    73         50
    74         66
    75        150
    76        200
    77        999
    78        450
    79        666
    80        250
    81        350
    82        200
    83        133
    84         83
    85         50
    86         16
    87         50
    88         66
    89        150
    91        483
    92        116
    93        333
    94        200
    95         66
    96        133
    97         83
   101        116
   102        183
   103        133
   104        116
   105        150
   106        266
   107        216
   108        200
   109         66
   113         66
   114        116
   115        450
   116        250
   117        116
   118         66
   119        116
   120        316
   121        666
   122        266
   123         66
   126         44
   127        155
   128        250
   129        177
   131        155
   132         66
   139        111
   140        155
   141         66
   142        133
   143        111
   144        155
   151         27
   152         55
   153         55
   154        150
   155         83
   156        100
   157         44
   158         27
   159         11
   160          5
   163         11
   164         22
   165         55
   166        138
   167        183
   168        211
   169        138
   170         94
   171         38
   172         16
   176         16
   177         22
   178         61
   179         66
   180        194
   181         94
   182         72
   183         44
   184         33
   185         11
   186         16
   189         11
   190         27
   191         55
   192         83
   193         77
   194        116
   195         66
   196         44
   197         38
   198         11
   199          5
   200          5
   202         11
   203         16
   204         88
   205         55
   206         94
   207         55
   208         44
   209         27
   210         33
   211         22
   212         11
   213          5
   214         22
   215         11
   216         22
   217         66
   218         83
   219         55
   220         61
   221         38
   222         27
   223         50
   224         27
   225         16
   226         16
   227         11
   228         27
   229         11
   230         33
   231         44
   232        116
   233         94
   234         61
   235         27
   236         16
   237         11
   238         50
   239         16
   240         11
   241         16
   242          5
   243         11
   244         33
   245         38
   246         77
   247         77
   248         72
   249        111
   250         38
   251         22
   252         22
   253         50
   254         16
   255         11
   258         11
   259         22
   260         44
   261         72
   262         66
   263         33
   264         33
   265         22
   266         22
   267         11
   273         11
   274         22
   275         77
   276         38
   277         16
   278         27
   279         16
   280         27
   289         38
   290         27
   291         16
   292         55
   293         38
   294         22
   304          5
   305         16
   306         44
   307         22
   319         27
   320         16
   321        561
   322        138
   323         27
   333         22
   334         11
   335        233
   336         61
   337         16
   351         27
   352         22
   353         11
   363         33
   364         11
   365         11
   366         38
   367         16
   393        105
   394        505
   395        138
   396         27