##TITLE=Library Entry 87545
##JCAMP-DX=Revision 4.10 
##DATA TYPE=MASS SPECTRUM
##SAMPLE DESCRIPTION=Japan AIST/NIMC Database- Spectrum MS-NW-3622
##NAMES=HP
##CAS NAME=Phenol, 3-butoxy-
##MOLFORM=C10H14O2
##CAS REGISTRY NO=18979-72-1
##MP= -300
##BP= -300
##MW= 166
##$RETENTION INDEX=0
##$CONDENSED SPECTRUM=NO
##NPOINTS= 68
##XYDATA=(XY..XY) 1 
    15          3
    18          1
    26          6
    27         52
    28          8
    29        117
    30          3
    31          1
    37          2
    38          8
    39         59
    40          7
    41         82
    42          5
    43          8
    50          6
    51          9
    52          9
    53         27
    54          9
    55         17
    56          6
    57         39
    58          2
    61          1
    62          4
    63         15
    64         14
    65         38
    66          5
    67          5
    68          8
    69         18
    70          1
    71          3
    74          1
    75          1
    77          4
    78          1
    79          3
    80          1
    81         45
    82         55
    83          3
    91          2
    92          6
    93         25
    94          7
    95          7
    97          1
   107          3
   108          1
   109          5
   110        999
   111         77
   112          7
   121          1
   122          1
   123         51
   124          8
   135          1
   136          1
   137          4
   149          1
   165          1
   166        218
   167         25
   168          2