##TITLE=Library Entry 71251
##JCAMP-DX=Revision 4.10 
##DATA TYPE=MASS SPECTRUM
##SAMPLE DESCRIPTION=James Little,Eastman Chem.Co.,Kingsport,TN
##NAMES=HP
##CAS NAME=3-Piperidinecarboxamide, 6-oxo-
##MOLFORM=C6H10N2O2
##CAS REGISTRY NO=189763-34-6
##MP= -300
##BP= -300
##MW= 142
##$RETENTION INDEX=0
##$CONDENSED SPECTRUM=NO
##NPOINTS= 35
##XYDATA=(XY..XY) 1 
    39        167
    40         51
    41        129
    42        158
    43        151
    44        297
    53         55
    54         89
    55        415
    56        142
    57         19
    59         21
    68         98
    69        173
    70        393
    71         67
    72        222
    81         22
    82         26
    84         38
    85        102
    86        799
    87         45
    96         58
    97         67
    98        999
    99         85
   112         12
   113         22
   114         40
   124         27
   125         20
   141          9
   142        108
   143         35