##TITLE=Library Entry 10757
##JCAMP-DX=Revision 4.10 
##DATA TYPE=MASS SPECTRUM
##SAMPLE DESCRIPTION=B.GIOIA FARMITALIA, VIALE E. BEZZI, MILAN, ITALY
##NAMES=HP
##CAS NAME=.alpha.-l-Lyxo-hexopyranoside, methyl 3-(acetylamino)-2,3,6-tride
oxy-, 4-acetate
##MOLFORM=C11H19NO5
##CAS REGISTRY NO=18981-63-0
##MP= -300
##BP= -300
##MW= 245
##$RETENTION INDEX=0
##$CONDENSED SPECTRUM=NO
##NPOINTS= 76
##XYDATA=(XY..XY) 1 
    27         40
    28        340
    29         60
    30         30
    31         20
    32         20
    33         20
    39         30
    40         20
    41         80
    42         60
    43        999
    44         20
    45         50
    55         20
    56         40
    57         50
    58        160
    59        220
    60        100
    61         50
    67         30
    68         30
    69         30
    70         30
    71         70
    72        130
    75         10
    82         10
    83         80
    84        100
    85         60
    86        360
    87         80
    88         10
    95        290
    96         40
    98         20
    99         50
   100        240
   101        690
   102         70
   103         10
   110         30
   111         10
   112         40
   113         30
   114         60
   115         20
   116         10
   117         20
   125         20
   126         90
   127         20
   128        230
   129         30
   130         10
   138         50
   141         10
   142        230
   143        270
   144         30
   153        140
   154         30
   155         40
   156         10
   158         20
   171         20
   172         10
   185        150
   186         30
   187          6
   201         40
   214        120
   215         20
   245          5