##TITLE=Library Entry 65793
##JCAMP-DX=Revision 4.10 
##DATA TYPE=MASS SPECTRUM
##SAMPLE DESCRIPTION=R RYHAGE MS-LAB KAROLINSKA INSTITUTET STOCKHOLM SWEDEN
##NAMES=HP
##CAS NAME=1,3,6,10-Cyclotetradecatetraene, 3,7,11-trimethyl-14-(1-methyleth
yl)-, [S-(E,Z,E,E)]-
##MOLFORM=C20H32
##CAS REGISTRY NO=1898-13-1
##MP= -300
##BP= -300
##MW= 272
##$RETENTION INDEX=1939
##$CONDENSED SPECTRUM=NO
##NPOINTS= 162
##XYDATA=(XY..XY) 1 
    15         23
    26         28
    27        280
    29        243
    37         13
    38         23
    39        300
    40         84
    41        990
    42         99
    43        819
    44         46
    50         28
    51         72
    52         45
    53        362
    54         61
    55        666
    56         77
    57        111
    58         10
    63         31
    64         13
    65        177
    66         76
    67        590
    68        223
    69        419
    70         45
    71         46
    75         11
    76         10
    77        476
    78        143
    79        676
    80        223
    81        885
    82        111
    83        110
    84         16
    85         30
    89         21
    90         12
    91        933
    92        226
    93        999
    94        171
    95        371
    96         51
    97         62
    98         11
    99         10
   102         16
   103         99
   104         59
   105        876
   106        223
   107        752
   108        200
   109        280
   110         43
   111         38
   112         12
   113         11
   114         16
   115        129
   116         70
   117        217
   118         70
   119        828
   120        291
   121         55
   122        137
   123        200
   124         31
   125         15
   127         29
   128         86
   129        106
   130         59
   131        286
   132         97
   133        590
   134        294
   135        308
   136        203
   137         75
   138         13
   139         10
   141         38
   142         31
   143         56
   144         37
   145        306
   146         90
   147        314
   148        191
   149        229
   150         66
   151         22
   152         12
   153         14
   154         10
   155         21
   156         14
   157         36
   158         24
   159        257
   160         83
   161        346
   162        114
   163         65
   164         37
   165         26
   167         11
   169         23
   170         12
   171         24
   172         12
   173        209
   174         59
   175        111
   176         45
   177         48
   178         25
   179         11
   183         11
   185         15
   186         11
   187        191
   188         74
   189        214
   190         64
   191         46
   192         22
   193         10
   199         10
   201         99
   202         58
   203         47
   204         43
   205         11
   207         12
   215         51
   216         33
   217         35
   227         11
   229        524
   230        111
   231         17
   243         45
   244         23
   253         16
   255         11
   257        174
   258         41
   268         11
   270         14
   271         10
   272        505
   273        120
   274         15