##TITLE=Library Entry 49154
##JCAMP-DX=Revision 4.10 
##DATA TYPE=MASS SPECTRUM
##SAMPLE DESCRIPTION=Japan AIST/NIMC Database- Spectrum MS-NW-6229
##NAMES=HP
##CAS NAME=Benzenemethanol, 2-bromo-
##MOLFORM=C7H7BrO
##CAS REGISTRY NO=18982-54-2
##MP= -300
##BP= -300
##MW= 186
##$RETENTION INDEX=0
##$CONDENSED SPECTRUM=NO
##NPOINTS= 114
##XYDATA=(XY..XY) 1 
    12          1
    14          2
    15          2
    16          1
    18          1
    25          3
    26         12
    27         46
    28         10
    29         55
    30          5
    31         44
    32          2
    36          4
    37         25
    38         47
    39         99
    40          9
    41          5
    42          4
    43         12
    44          9
    45          5
    48          2
    49         17
    50        162
    51        243
    52         62
    53         96
    54          5
    55          8
    56          1
    57          3
    58          2
    59          1
    60          4
    61         21
    62         38
    63         71
    64         16
    65          6
    66          4
    67          2
    68          1
    69          3
    70          1
    71          2
    72          2
    73         14
    74         54
    75         84
    76         88
    77        881
    78        272
    79        999
    80         68
    81          8
    82          9
    83          2
    84          2
    85          6
    86          9
    87          8
    88          5
    89        104
    90         81
    91         13
    92          9
    93          9
    94          1
    95          1
    96          1
    97          2
   101          1
   102          1
   103          1
   104          4
   105        127
   106         20
   107        910
   108         75
   109          5
   111          1
   116          1
   117          5
   118          2
   119          5
   128          3
   129          4
   130          2
   131          4
   141          1
   143          3
   145          3
   155         29
   156          8
   157         98
   158         11
   159         68
   160          5
   167          2
   168          4
   169         52
   170         10
   171         50
   172          8
   183         19
   184          5
   185         85
   186        509
   187        107
   188        493
   189         39
   190          3