##TITLE=Library Entry 58563
##JCAMP-DX=Revision 4.10 
##DATA TYPE=MASS SPECTRUM
##SAMPLE DESCRIPTION=A.A.Kutin, Moscow, Russia
##NAMES=HP
##CAS NAME=4H-1,2,4-Triazol-4-amine, N-(4-chlorophenyl)methylene-
##MOLFORM=C9H7ClN4
##CAS REGISTRY NO=18998-49-7
##MP= -300
##BP= -300
##MW= 206
##$RETENTION INDEX=0
##$CONDENSED SPECTRUM=NO
##NPOINTS= 119
##XYDATA=(XY..XY) 1 
    33          5
    34          5
    35          7
    36         17
    37         47
    38         96
    39        166
    40        170
    41         54
    42         27
    43         61
    44        115
    47          7
    48          4
    49         33
    50        207
    51        116
    52         21
    53         14
    54          6
    55          5
    56          3
    57          8
    58          0
    60         13
    61         56
    62        186
    63        307
    64         23
    65         10
    66          2
    67          0
    69         14
    70          5
    71          6
    72         11
    73         66
    74         90
    75        260
    76         76
    77         18
    78          3
    79          3
    80          1
    83          0
    84         20
    85         40
    86         33
    87         53
    89        999
    90         78
    91         12
    92          3
    93          1
    95          0
    96          4
    97         33
    98          5
    99         19
   100          8
   101          6
   102         60
   103         12
   104          5
   105          4
   106          3
   107          3
   108          2
   109          3
   110          8
   111        159
   112         15
   113         52
   114          4
   115          7
   116         29
   117          6
   118          4
   119          2
   120          3
   121          2
   123         46
   124        435
   125         45
   126        140
   127         11
   129          0
   132          0
   133          1
   134          1
   135          2
   137         42
   138         48
   139         17
   140         16
   141          1
   142          1
   143          3
   149          4
   151        298
   152         31
   153         92
   154         10
   163          0
   165          0
   171          2
   172          0
   177          1
   178          0
   180          0
   187          1
   203          8
   204         10
   205         48
   206        423
   207         64
   208        136
   209         14
   210          0