##TITLE=Library Entry 62557
##JCAMP-DX=Revision 4.10 
##DATA TYPE=MASS SPECTRUM
##SAMPLE DESCRIPTION=NIST Mass Spectrometry Data Center
##NAMES=HP
##CAS NAME=m-Toluenesulfonyl chloride
##MOLFORM=C7H7ClO2S
##CAS REGISTRY NO=1899-93-0
##MP= -300
##BP= -300
##MW= 190
##$RETENTION INDEX=0
##$CONDENSED SPECTRUM=NO
##NPOINTS= 75
##XYDATA=(XY..XY) 1 
    15          2
    26          4
    27         14
    35          4
    36          2
    37          8
    38         23
    39        127
    40          8
    41         24
    42          1
    43          3
    44          1
    45         15
    48         18
    49          4
    50         44
    51         56
    52         15
    53          8
    57          2
    58          2
    59          1
    60          1
    61         11
    62         38
    63        105
    64         34
    65        264
    66         17
    67          4
    68          1
    69          8
    70          2
    71          2
    73          3
    74         13
    75          7
    76          7
    77         27
    79          8
    80          1
    81          2
    82          2
    83          2
    85          5
    86          8
    87          6
    89         88
    91        999
    92         82
    93          4
    94          1
    95          2
    99          4
   101          1
   107          1
   108          1
   111          3
   121          1
   125         11
   126          4
   127          4
   128          1
   139          4
   155        436
   156         33
   157         27
   158          1
   188          1
   190        236
   191         22
   192         83
   193          6
   194          4