##TITLE=Library Entry 3567
##JCAMP-DX=Revision 4.10 
##DATA TYPE=MASS SPECTRUM
##SAMPLE DESCRIPTION=Japan AIST/NIMC Database- Spectrum MS-NW-4622
##NAMES=HP
##CAS NAME=2-Heptenoic acid
##MOLFORM=C7H12O2
##CAS REGISTRY NO=18999-28-5
##MP= -300
##BP= -300
##MW= 128
##$RETENTION INDEX=1108
##$CONDENSED SPECTRUM=NO
##NPOINTS= 98
##XYDATA=(XY..XY) 1 
    14          3
    15         18
    16          2
    17          8
    18         33
    19          1
    25          2
    26         42
    27        488
    28         13
    29        227
    30          8
    31         28
    33          1
    34          1
    36          3
    37         14
    38         43
    39        385
    40         95
    41        999
    42        209
    43        506
    44         25
    45        109
    46          4
    47          4
    49          6
    50         31
    51         51
    52         27
    53        191
    54         62
    55        283
    56        905
    57        129
    58         31
    59          9
    60         99
    61         12
    62          6
    63          9
    64          2
    65         19
    66         11
    67        118
    68        500
    69        277
    70         18
    71         81
    72         20
    73        996
    74         56
    75          7
    76          1
    77         15
    78          6
    79         24
    80          6
    81        151
    82        115
    83         39
    84         10
    85         28
    86        321
    87        192
    88          9
    89          2
    90          1
    91         17
    92          9
    93          3
    94          2
    95         26
    96          2
    97         18
    98          4
    99        467
   100         48
   101          5
   102          1
   105          2
   106          1
   107          5
   108          6
   109          7
   110        165
   111         42
   112          4
   113         32
   114          3
   115          2
   124          1
   125          4
   126          2
   127          4
   128         46
   129          6