##TITLE=Library Entry 86525
##JCAMP-DX=Revision 4.10 
##DATA TYPE=MASS SPECTRUM
##SAMPLE DESCRIPTION=Japan AIST/NIMC Database- Spectrum MS-IW-6408
##NAMES=HP
##CAS NAME=5-Nitro-2-furaldehyde 4-methyl-2-methylthio-6-pyrimidinylhydrazon
e
##MOLFORM=C11H11N5O3S
##CAS REGISTRY NO=1899-61-2
##MP= -300
##BP= -300
##MW= 293
##$RETENTION INDEX=0
##$CONDENSED SPECTRUM=NO
##NPOINTS= 235
##XYDATA=(XY..XY) 1 
    14          2
    15         13
    25          1
    26         23
    27         91
    28         95
    29         10
    30         23
    32          2
    34          1
    37          9
    38         66
    39        137
    40         46
    41         61
    42         92
    43         99
    44         23
    45         30
    46         20
    47         37
    48         10
    49          3
    50         18
    51         86
    52         58
    53         40
    54         67
    55         27
    56         11
    57         13
    58         17
    59         16
    60         17
    61          3
    62          4
    63          6
    64         30
    65         46
    66        237
    67        212
    68         41
    69         49
    70         11
    71          9
    72         11
    73         16
    74        177
    75          9
    76         20
    77         13
    78         19
    79         79
    80         54
    81         45
    82        144
    83         47
    84         13
    85         13
    86          9
    87          4
    88          1
    89          5
    90          5
    91         12
    92         28
    93         64
    94         28
    95         39
    96         21
    97         13
    98         30
    99          6
   100          3
   101          3
   102          7
   103          8
   104         11
   105         14
   106         16
   107         45
   108        263
   109        999
   110         86
   111         12
   112          7
   113          8
   114          4
   115          5
   116          5
   117          9
   118          9
   119         15
   120         13
   121          9
   122          8
   123         19
   124         19
   125        131
   126         25
   127         22
   128          7
   129          8
   130          5
   131         17
   132         18
   133         24
   134         16
   135         29
   136          7
   137         15
   138         38
   139        134
   140         60
   141         51
   142          8
   143          7
   144         11
   145         17
   146         15
   147          9
   148          7
   149          6
   150          5
   151          7
   152         20
   153        408
   154        281
   155        922
   156         97
   157         51
   158         12
   159          9
   160         17
   161          8
   162          5
   163          6
   164          5
   165          7
   166         14
   167          8
   168          2
   169          2
   170          2
   171         12
   172        162
   173         50
   174         37
   175         11
   176          6
   177          9
   178         14
   179         76
   180         23
   181        136
   182         14
   183          8
   184          4
   185          8
   186          8
   187         10
   188         12
   189         12
   190          8
   191         19
   192         23
   193          9
   194          3
   195          1
   196          1
   197          1
   198          4
   199          7
   200         81
   201         46
   202          7
   203         12
   204         42
   205         13
   206         29
   207         10
   208          4
   210          1
   211          1
   212          5
   213          5
   214          4
   215          5
   216          4
   217         10
   218          6
   219         12
   220          6
   221          2
   222          6
   223         35
   224          6
   225          1
   226          5
   227          2
   228          7
   229          3
   230          8
   231         20
   232         47
   233          9
   234         69
   235         10
   236          5
   242          1
   243          1
   244         13
   245         14
   246         33
   247        455
   248         67
   249         25
   250          4
   256          3
   258          1
   259         51
   260         11
   261         73
   262         10
   263          5
   264          1
   276          6
   277          8
   278          4
   291          8
   292         17
   293        846
   294        146
   295         55
   296          8