##TITLE=Library Entry 22044
##JCAMP-DX=Revision 4.10 
##DATA TYPE=MASS SPECTRUM
##SAMPLE DESCRIPTION=V.Zaikin,Topchiev Inst.Petrochem.Synth.,Moscow
##NAMES=HP
##CAS NAME=Acetic acid, bromo-, butyl ester
##MOLFORM=C6H11BrO2
##CAS REGISTRY NO=18991-98-5
##MP= -300
##BP= -300
##MW= 194
##$RETENTION INDEX=1072
##$CONDENSED SPECTRUM=NO
##NPOINTS= 55
##XYDATA=(XY..XY) 1 
    27         81
    28         21
    29        225
    30         10
    31         16
    36          5
    37          4
    38          8
    39         77
    40         19
    41        378
    42        182
    43         92
    44         24
    45          6
    50          4
    51          5
    52          4
    53         10
    54          8
    55        104
    56        999
    57        378
    58         15
    59          4
    60          7
    69         12
    70          4
    71         21
    72          6
    73         18
    77          3
    79          5
    81          7
    83          2
    91          5
    92          8
    93         85
    94          9
    95         79
    96          2
    97          3
   101          3
   115          7
   120          9
   121        208
   122         14
   123        200
   124          4
   138          2
   139         45
   140          3
   141         44
   151         13
   153         15