##TITLE=Library Entry 69374
##JCAMP-DX=Revision 4.10 
##DATA TYPE=MASS SPECTRUM
##SAMPLE DESCRIPTION=James Little,Eastman Chem.Co.,Kingsport,TN
##NAMES=HP
##CAS NAME=1-Methyl-2-(2-hydroxyethyl)imidazole
##MOLFORM=C6H10N2O
##CAS REGISTRY NO=18994-70-2
##MP= -300
##BP= -300
##MW= 126
##$RETENTION INDEX=0
##$CONDENSED SPECTRUM=NO
##NPOINTS= 34
##XYDATA=(XY..XY) 1 
    27        164
    28        615
    29         53
    31         54
    39         48
    40         75
    41        107
    42        340
    43         42
    52         60
    53         39
    54        353
    55        150
    56         49
    58         27
    66         17
    67         18
    68         41
    69         28
    81        175
    82         39
    83         17
    94         15
    95        961
    96        999
    97         75
   107         54
   108         38
   109        187
   110         24
   111         12
   125        131
   126        204
   127         20