##TITLE=Library Entry 7225
##JCAMP-DX=Revision 4.10 
##DATA TYPE=MASS SPECTRUM
##SAMPLE DESCRIPTION=V.Zaikin,Topchiev Inst.Petrochem.Synth.,Moscow
##NAMES=HP
##CAS NAME=Bromoacetic acid, octadecyl ester
##MOLFORM=C20H39BrO2
##CAS REGISTRY NO=18992-03-5
##MP= -300
##BP= -300
##MW= 390
##$RETENTION INDEX=0
##$CONDENSED SPECTRUM=NO
##NPOINTS= 116
##XYDATA=(XY..XY) 1 
    27        125
    28         60
    29        207
    30          3
    31         11
    33          8
    36         23
    37          8
    38         10
    39        157
    40         60
    41        752
    42        361
    43        999
    44         89
    45         17
    47         14
    48          4
    49          9
    51         16
    52          9
    53         70
    54        148
    55        969
    56        322
    57        773
    58         32
    60         14
    61         80
    63          5
    64          6
    65         16
    66         20
    67        176
    68        222
    69        767
    70        348
    71        407
    72         35
    73         16
    75          5
    76         24
    77         33
    78         21
    79         60
    80         15
    81        123
    82        280
    83        646
    84        202
    85        204
    86          4
    90          3
    92          4
    93         83
    94         13
    95         91
    96        253
    97        581
    98        137
    99         48
   101         10
   103          8
   104          7
   105         14
   109         54
   110         66
   111        299
   112        100
   113         10
   114          3
   118          5
   119          5
   121        253
   122         17
   123        226
   124         68
   125        122
   126         53
   127         28
   131          8
   137         41
   138         52
   139        109
   140         47
   141         53
   148          5
   150         10
   151         23
   152         46
   153         57
   154         25
   155          8
   156          3
   167         19
   168          3
   169          7
   179         10
   180         17
   181         25
   182         18
   183          3
   185          4
   186          5
   192          4
   193         10
   194          5
   208         16
   222         19
   223          3
   224         32
   225         10
   250         60
   251         14
   252         33
   297          7