##TITLE=Library Entry 7122
##JCAMP-DX=Revision 4.10 
##DATA TYPE=MASS SPECTRUM
##SAMPLE DESCRIPTION=V.Zaikin,Topchiev Inst.Petrochem.Synth.,Moscow
##NAMES=HP
##CAS NAME=Bromoacetic acid, tetradecyl ester
##MOLFORM=C16H31BrO2
##CAS REGISTRY NO=18992-01-3
##MP= -300
##BP= -300
##MW= 334
##$RETENTION INDEX=2086
##$CONDENSED SPECTRUM=NO
##NPOINTS= 107
##XYDATA=(XY..XY) 1 
    27        148
    28         52
    29        314
    30         16
    31         13
    36         11
    37          3
    38         25
    39        197
    40         24
    41        865
    42        430
    43        999
    44         82
    45         29
    50          8
    51         27
    52         13
    53         98
    54        168
    55        917
    56        445
    57        685
    58         28
    59          5
    60         16
    61         48
    62          3
    63          3
    65         16
    66         14
    67        192
    68        274
    69        696
    70        403
    71        299
    72         18
    73         20
    75          6
    76          3
    77         12
    78          5
    79         13
    80          6
    81         84
    82        302
    83        699
    84        292
    85        146
    86         13
    87          7
    88          2
    90          2
    91         12
    93         70
    94          4
    95        129
    96        140
    97        513
    98        162
    99         13
   101          3
   104          2
   105          2
   109         30
   110         59
   111        258
   112        108
   113         21
   114          4
   115          7
   117          2
   120          5
   121        243
   122         23
   123        223
   124         50
   125        104
   126         42
   127         10
   133          2
   137         10
   138         34
   139         73
   140         31
   141         64
   143          5
   148          6
   149          2
   150          8
   151         14
   152         12
   153         28
   154         10
   162          2
   164          4
   166         15
   167          7
   168         68
   169         11
   179          3
   186          4
   194         15
   195         15
   196         35
   197         11
   241         13