##TITLE=Library Entry 11804
##JCAMP-DX=Revision 4.10 
##DATA TYPE=MASS SPECTRUM
##SAMPLE DESCRIPTION=Exported from NIST MS Search
##NAMES=HP
##CAS NAME=Undecanoic acid, 10-oxo-, methyl ester
##MOLFORM=C12H22O3
##CAS REGISTRY NO=18993-09-4
##MP= -300
##BP= -300
##MW= 214
##$RETENTION INDEX=1572
##$CONDENSED SPECTRUM=NO
##NPOINTS= 65
##XYDATA=(XY..XY) 1 
    41        328
    42         71
    43        999
    44         80
    45         40
    53         48
    54         35
    55        395
    56         71
    57         48
    58        373
    59        133
    67         71
    68         35
    69        160
    70         26
    71        133
    72         22
    73         40
    74        164
    75         22
    79         48
    80         22
    81         88
    82         40
    83        177
    84         84
    85         35
    87        208
    88         22
    93         26
    94         26
    95         44
    96         44
    97        288
    98         97
    99         22
   101         35
   107         35
   111         48
   112         31
   115         31
   121         48
   123         31
   124        160
   125        506
   126         62
   129         22
   139         44
   140         31
   141         31
   144         31
   154         31
   156        120
   157        435
   158         57
   164         17
   171         22
   172         22
   182         31
   183        208
   184         31
   199         31
   214        168
   215         31