##TITLE=Library Entry 37387
##JCAMP-DX=Revision 4.10 
##DATA TYPE=MASS SPECTRUM
##SAMPLE DESCRIPTION=V.Zaikin,Topchiev Inst.Petrochem.Synth.,Moscow
##NAMES=HP
##CAS NAME=Bromoacetic acid, heptyl ester
##MOLFORM=C9H17BrO2
##CAS REGISTRY NO=18991-99-6
##MP= -300
##BP= -300
##MW= 236
##$RETENTION INDEX=1379
##$CONDENSED SPECTRUM=NO
##NPOINTS= 82
##XYDATA=(XY..XY) 1 
    27        229
    28         72
    29        326
    30         19
    31         22
    36          6
    37          3
    38         16
    39        240
    40         58
    41        755
    42        721
    43        628
    44         64
    45         14
    48          4
    49          4
    50         26
    51         23
    52          7
    53         65
    54         90
    55        721
    56        943
    57        613
    58         20
    59          3
    60          9
    61          2
    63          4
    65         10
    66          2
    67         27
    68        131
    69        544
    70        999
    71         80
    72          7
    73         13
    77          6
    79          8
    81         21
    82         13
    83        110
    84         17
    85         16
    86          5
    87          7
    88         13
    91          5
    92          8
    93        156
    94         11
    95        165
    96          8
    97         90
    98        466
    99         31
   101          6
   109          3
   111          5
   113          9
   115         13
   120         10
   121        270
   122         21
   123        260
   124          7
   131          3
   138          5
   139         98
   140          7
   141         84
   143         20
   144          4
   151         15
   153         15
   157          6
   165          4
   167          4
   179          9
   181          9