##TITLE=Library Entry 88115
##JCAMP-DX=Revision 4.10 
##DATA TYPE=MASS SPECTRUM
##SAMPLE DESCRIPTION=E. S. WAIGHT IMPERIAL COLLEGE, LONDON
##NAMES=HP
##CAS NAME=2(1H)-Pyridinethione, 1-propyl-
##MOLFORM=C8H11NS
##CAS REGISTRY NO=19006-74-7
##MP= -300
##BP= -300
##MW= 153
##$RETENTION INDEX=0
##$CONDENSED SPECTRUM=NO
##NPOINTS= 34
##XYDATA=(XY..XY) 1 
    28         92
    39        200
    41        150
    42         50
    44         50
    45         75
    47        425
    49        275
    51        117
    52         75
    53         50
    67        816
    68         50
    69         50
    78        416
    79         92
    80         92
    81         50
    82         50
    88        175
    95         58
   110         50
   111        999
   112        175
   113         58
   119         67
   120         58
   121         58
   125         75
   138        108
   152        250
   153        791
   154         92
   155         50