##TITLE=Library Entry 6885
##JCAMP-DX=Revision 4.10 
##DATA TYPE=MASS SPECTRUM
##SAMPLE DESCRIPTION=LAC, NIDDK, NIH, Bethesda, MD 20892
##NAMES=HP
##CAS NAME=3.alpha.-Acetoxypregnan-20.beta.-ol
##MOLFORM=C23H38O3
##CAS REGISTRY NO=1900-68-1
##MP= -300
##BP= -300
##MW= 362
##$RETENTION INDEX=0
##$CONDENSED SPECTRUM=NO
##NPOINTS= 170
##XYDATA=(XY..XY) 1 
    41        174
    43        999
    45        670
    47         12
    49         33
    51         16
    53         61
    54         10
    55        251
    57         37
    58          2
    59          4
    61         41
    65         17
    67        204
    68         60
    69         80
    71         61
    73          1
    77         63
    79        266
    81        396
    83         31
    84         12
    85         23
    86         12
    87          1
    88          1
    91        161
    93        205
    95        275
    97         30
    99          6
   100          1
   103          5
   104          4
   105        144
   106         93
   107        256
   108        166
   109        105
   111         10
   113          2
   114          1
   115          7
   117         35
   118         14
   119         73
   120         35
   121         94
   122         99
   123         48
   124          4
   125          8
   126          2
   127          1
   128          4
   129          6
   130          1
   131         36
   132          7
   133        105
   134         38
   135        103
   136         11
   137          8
   139          3
   141          2
   142          1
   143         11
   145         71
   146          8
   147        102
   149         90
   151          7
   157          7
   159         47
   160         24
   161         67
   162         31
   163         31
   165          1
   166          1
   171          6
   172          2
   173         24
   174         13
   175         29
   176         37
   177         26
   178          5
   179          4
   185          9
   187         33
   188         17
   189         24
   190          2
   191          2
   192          3
   193          1
   194          1
   195          1
   199          9
   201        126
   202         25
   203         19
   204          8
   206         10
   213         20
   215        197
   216        304
   217         56
   218         12
   219          1
   220          3
   227          6
   228          6
   229         24
   230         28
   231          8
   232          3
   233          6
   234          4
   241          6
   242          5
   243         20
   244          4
   245          2
   246          1
   247          3
   248         29
   249          2
   255         11
   256          1
   257         24
   258          9
   259          3
   260         19
   261         42
   262          8
   269         57
   270         11
   271          1
   273          5
   274          9
   275         68
   276        310
   277         65
   278          3
   283          3
   284         40
   285         46
   286          5
   287         57
   288         26
   289          3
   290          1
   293          1
   301          5
   302        228
   303         70
   304         10
   305          1
   315          8
   316          1
   329         15
   330          4
   344         27
   345         10
   347          1