##TITLE=Library Entry 47012
##JCAMP-DX=Revision 4.10 
##DATA TYPE=MASS SPECTRUM
##SAMPLE DESCRIPTION=C. DE RANTER,LAB. ANAL. CHEM., PHARM. INST.,LEUVEN UNIV
.,BEL
##NAMES=HP
##CAS NAME=Diphenylcarbadiazone
##MOLFORM=C13H10N4O
##CAS REGISTRY NO=1900-38-5
##MP= -300
##BP= -300
##MW= 238
##$RETENTION INDEX=0
##$CONDENSED SPECTRUM=NO
##NPOINTS= 28
##XYDATA=(XY..XY) 1 
    39         32
    50         50
    51        198
    52         29
    63         17
    64         17
    65         17
    74         13
    76         29
    77        999
    78        168
    90         29
    91         17
   105        546
   106         46
   134         25
   152         21
   153         36
   154         36
   167         36
   168         44
   169         21
   181         15
   210         88
   211         13
   212          8
   238        101
   239         17