##TITLE=Library Entry 20001
##JCAMP-DX=Revision 4.10 
##DATA TYPE=MASS SPECTRUM
##SAMPLE DESCRIPTION=R.C. DOUGHERTY
##NAMES=HP
##CAS NAME=Tricyclo[4.2.0.0(2,4)]octan-5-one, (1.alpha.,2.beta.,4.beta.,6a)-
##MOLFORM=C8H10O
##CAS REGISTRY NO=19004-82-1
##MP= -300
##BP= -300
##MW= 122
##$RETENTION INDEX=0
##$CONDENSED SPECTRUM=NO
##NPOINTS= 32
##XYDATA=(XY..XY) 1 
    26         30
    27        290
    28        150
    38         40
    39        335
    40        120
    41        160
    50         40
    51         70
    52         40
    53        110
    54         20
    55        999
    56         30
    63         40
    65        120
    66        700
    67        600
    68        170
    77        155
    78         65
    79        400
    80        150
    81         90
    91         60
    93         80
    94        500
    95         60
   106         60
   121         75
   122        450
   123         50