##TITLE=Library Entry 5296
##JCAMP-DX=Revision 4.10 
##DATA TYPE=MASS SPECTRUM
##SAMPLE DESCRIPTION=V.A.Korolev, Moscow, Russia
##NAMES=HP
##CAS NAME=5-(3,4-Dimethoxyphenyl)cyclohexane-1,3-dione
##MOLFORM=C14H16O4
##CAS REGISTRY NO=190064-28-9
##MP= -300
##BP= -300
##MW= 248
##$RETENTION INDEX=0
##$CONDENSED SPECTRUM=NO
##NPOINTS= 97
##XYDATA=(XY..XY) 1 
    37         15
    38         59
    39        298
    40         67
    41        169
    42        999
    43        121
    44          9
    45         10
    50        119
    51        244
    52        118
    53         92
    54          9
    55         78
    56        107
    57         25
    61         16
    62         63
    63        153
    64         47
    65        167
    66         25
    67         10
    69         85
    74         40
    75         39
    76         51
    77        340
    78        210
    79         97
    80          4
    84         25
    85          8
    86          9
    87         12
    88         10
    89        113
    90         44
    91        358
    92         47
    93         38
    94          4
    95         19
    98          4
   100          3
   101          7
   102         43
   103        201
   104         26
   105         48
   106         22
   107         33
   111          6
   115         50
   116          7
   117         14
   118         37
   119         36
   120         15
   121        102
   122          9
   123          8
   131         37
   132         10
   133         20
   134          5
   135         40
   136          8
   137          5
   138         15
   145         13
   146         15
   147         37
   148         28
   149        227
   150         41
   151         35
   159          5
   160         15
   161         12
   162          9
   163         69
   164        572
   165         71
   174          6
   175         43
   176          8
   177         16
   178         23
   189         15
   190          3
   191        559
   192         70
   248        331
   249         54
   250          5