##TITLE=Library Entry 33164
##JCAMP-DX=Revision 4.10 
##DATA TYPE=MASS SPECTRUM
##SAMPLE DESCRIPTION=E. S. WAIGHT IMPERIAL COLLEGE, LONDON
##NAMES=HP
##CAS NAME=2(1H)-Pyridinethione, 1-ethyl-
##MOLFORM=C7H9NS
##CAS REGISTRY NO=19006-71-4
##MP= -300
##BP= -300
##MW= 139
##$RETENTION INDEX=0
##$CONDENSED SPECTRUM=NO
##NPOINTS= 17
##XYDATA=(XY..XY) 1 
    39        162
    45         72
    51        130
    52         86
    67        999
    68         56
    69         80
    78        320
    79        112
    80        106
    83         50
   110         56
   111        530
   112         80
   138        440
   139        780
   140         94