##TITLE=Library Entry 86740
##JCAMP-DX=Revision 4.10 
##DATA TYPE=MASS SPECTRUM
##SAMPLE DESCRIPTION=Asinex Ltd, Moscow, Russia
##NAMES=HP
##CAS NAME=Benzoxazol-2(3H)-one, N-(4-fluorobenzyl)-
##MOLFORM=C14H10FNO2
##CAS REGISTRY NO=190074-23-8
##MP= -300
##BP= -300
##MW= 243
##$RETENTION INDEX=0
##$CONDENSED SPECTRUM=NO
##NPOINTS= 97
##XYDATA=(XY..XY) 1 
    33          3
    34          1
    36          0
    37          3
    38          9
    39         33
    40         15
    41          1
    42          0
    43          1
    44          4
    45          1
    50         19
    51         44
    52         13
    53          2
    54          0
    55          1
    57         31
    58          1
    59         12
    60          0
    61          2
    62          9
    63         30
    64          8
    65          6
    66          0
    67          0
    68          1
    69          2
    70          2
    71          0
    73          0
    74          3
    75          7
    76          5
    77          9
    78         17
    79          2
    80          2
    81          8
    83        105
    84          5
    85          2
    86          1
    87          1
    88          1
    89         12
    90          3
    91          2
    92          1
    93          1
    94          1
    95          3
    96          1
    98          0
    99          0
   105          0
   106         11
   107         24
   109        999
   110         69
   111          2
   119          0
   120          2
   122          4
   123          0
   125          0
   133          1
   134          4
   135          2
   136          0
   139          0
   145          0
   146          0
   150          0
   151          0
   157          0
   158          0
   169          0
   170          3
   171          1
   184          0
   185          1
   186          0
   196          0
   198          0
   199          0
   213          0
   214          0
   216          0
   217          0
   240          0
   243        132
   244         20
   245          2