##TITLE=Library Entry 33022
##JCAMP-DX=Revision 4.10 
##DATA TYPE=MASS SPECTRUM
##SAMPLE DESCRIPTION=NIST Mass Spectrometry Data Center, 1994
##NAMES=HP
##CAS NAME=2(1H)-Pyridinone, 1-propyl-
##MOLFORM=C8H11NO
##CAS REGISTRY NO=19006-63-4
##MP= -300
##BP= -300
##MW= 137
##$RETENTION INDEX=0
##$CONDENSED SPECTRUM=NO
##NPOINTS= 62
##XYDATA=(XY..XY) 1 
    14         14
    15         59
    16          2
    17          4
    18          6
    25          5
    26         89
    27        381
    28        162
    29         53
    30          7
    37         36
    38        112
    39        428
    40         96
    41        280
    42         60
    43         36
    44          5
    47          3
    49         11
    50         89
    51        185
    52        117
    53        285
    54         37
    55         13
    56          6
    61          3
    63         11
    64         18
    65         25
    66          3
    67        999
    68         78
    76          4
    78        305
    79         61
    80        315
    81        197
    82         13
    91          5
    92          8
    93         18
    94          5
    95        573
    96        206
    97         10
   104         41
   105          4
   106          5
   107          4
   108         32
   109        150
   110         10
   118          4
   120        100
   122        207
   123         17
   136        260
   137        304
   138         29