##TITLE=Library Entry 3969
##JCAMP-DX=Revision 4.10 
##DATA TYPE=MASS SPECTRUM
##SAMPLE DESCRIPTION=NIST Mass Spectrometry Data Center, 1994
##NAMES=HP
##CAS NAME=Undecyl isothiocyanate
##MOLFORM=C12H23NS
##CAS REGISTRY NO=19010-96-9
##MP= -300
##BP= -300
##MW= 213
##$RETENTION INDEX=0
##$CONDENSED SPECTRUM=NO
##NPOINTS= 93
##XYDATA=(XY..XY) 1 
    15         10
    27        285
    28        103
    29        468
    30         46
    32         20
    39        214
    41        999
    42        187
    43        730
    44         47
    45         31
    46          5
    47          3
    51          9
    52          8
    53         65
    54         75
    55        662
    56        177
    57        311
    58         34
    59         36
    60         40
    62          8
    65         11
    66          6
    67         75
    68         55
    69        245
    70        110
    71         79
    72        315
    73         26
    74         39
    75         23
    76          6
    77          8
    79         18
    80          7
    81         36
    82         77
    83         76
    84         44
    85         33
    86         32
    87         11
    88          7
    89          4
    91          4
    93         16
    94          8
    95         22
    96        154
    97         49
    98         25
    99          4
   100         79
   101        120
   102         12
   103          8
   107         11
   108          8
   109          9
   110         58
   111         12
   112         16
   113          8
   114        130
   115        746
   116         58
   117         34
   121          8
   122          6
   123          8
   124         26
   126          4
   128         93
   129         88
   130         14
   136          3
   138         13
   142         21
   152         13
   156         10
   170          7
   178          3
   180        548
   181         77
   182          4
   184          3
   212         12
   213          3