##TITLE=Library Entry 82306
##JCAMP-DX=Revision 4.10 
##DATA TYPE=MASS SPECTRUM
##SAMPLE DESCRIPTION=Exported from NIST MS Search
##NAMES=HP
##CAS NAME=Ethanone, 2,2'-(1,3-dithietane-2,4-diylidene)bis[1,2-diphenyl-
##MOLFORM=C30H20O2S2
##CAS REGISTRY NO=19018-13-4
##MP= -300
##BP= -300
##MW= 476
##$RETENTION INDEX=0
##$CONDENSED SPECTRUM=NO
##NPOINTS= 32
##XYDATA=(XY..XY) 1 
    29         95
    32        319
    41        238
    43        113
    44        179
    50         59
    51        119
    55        119
    56         89
    57        268
    69         77
    71         59
    77        441
    78         35
   105        999
   106         80
   123         59
   133          9
   149         14
   165         26
   178         38
   210         17
   227        119
   237          9
   238         77
   239         17
   308         11
   371         20
   412         23
   476        561
   477        194
   478         74