##TITLE=Library Entry 86849
##JCAMP-DX=Revision 4.10 
##DATA TYPE=MASS SPECTRUM
##SAMPLE DESCRIPTION=O S. CHIZHOV
##NAMES=HP
##CAS NAME=Kaur-16-en-18-oic acid, 6,7,13-trihydroxy-, .gamma.-lactone, (4.a
lpha.,6.alpha.,7.beta.)-
##MOLFORM=C20H28O4
##CAS REGISTRY NO=19018-46-3
##MP= -300
##BP= -300
##MW= 332
##$RETENTION INDEX=0
##$CONDENSED SPECTRUM=NO
##NPOINTS= 20
##XYDATA=(XY..XY) 1 
   107        130
   108        130
   109        999
   110        100
   137        250
   250        200
   253        250
   255        140
   268        330
   271        150
   286        250
   296        340
   299        270
   300         40
   304         40
   314        700
   315        150
   316         20
   332        100
   333         20