##TITLE=Library Entry 85146
##JCAMP-DX=Revision 4.10 
##DATA TYPE=MASS SPECTRUM
##SAMPLE DESCRIPTION=A.A.Kutin, Moscow, Russia
##NAMES=HP
##CAS NAME=1,2,4-Triazole, 4-(4-fluorobenzylidenamino)-
##MOLFORM=C9H7FN4
##CAS REGISTRY NO=19015-63-5
##MP= -300
##BP= -300
##MW= 190
##$RETENTION INDEX=0
##$CONDENSED SPECTRUM=NO
##NPOINTS= 111
##XYDATA=(XY..XY) 1 
    33         24
    34         14
    36          6
    37         37
    38         75
    39        105
    40         36
    41         58
    42         29
    43         36
    44        102
    45         29
    46          4
    48          1
    49         21
    50        144
    51        101
    52         25
    53         21
    54         69
    55         13
    56         30
    57        138
    58         12
    59          1
    60          1
    61         41
    62         94
    63        102
    64         29
    65         18
    66          1
    68         59
    69         73
    70         30
    71          5
    72          1
    73         14
    74         74
    75        248
    76         40
    77         29
    78          7
    80         24
    81         97
    82         59
    83         14
    84          6
    85         12
    86         13
    87         20
    88         26
    89         35
    90         13
    91         14
    92         19
    93         21
    94         75
    95        283
    96         24
    97          3
    99          5
   100          6
   101          1
   102          9
   103          3
   104          6
   105         15
   107        545
   108        999
   109         79
   110          3
   112          5
   115          2
   116          1
   119          7
   120          9
   121         57
   122         68
   123         92
   124          5
   127          6
   128          3
   131          1
   133          4
   135        237
   136         23
   137          1
   138          3
   140         56
   141          7
   143         11
   144          3
   145          1
   152          2
   153          1
   162          2
   164          2
   165          1
   167          5
   171          3
   172          1
   180          6
   181          1
   184          1
   186          6
   187         11
   189         37
   190        457
   191         53
   192          1