##TITLE=Library Entry 97639
##JCAMP-DX=Revision 4.10 
##DATA TYPE=MASS SPECTRUM
##SAMPLE DESCRIPTION=Exported from NIST MS Search
##NAMES=HP
##CAS NAME=3-Buten-2-one, 3-methyl-4-phenyl-
##MOLFORM=C11H12O
##CAS REGISTRY NO=1901-26-4
##MP= -300
##BP= -300
##MW= 160
##$RETENTION INDEX=0
##$CONDENSED SPECTRUM=NO
##NPOINTS= 91
##XYDATA=(XY..XY) 1 
    14          8
    15         23
    18         10
    26          3
    27         27
    29          8
    36          2
    37          3
    38         13
    39        122
    40          6
    41         17
    42          4
    43        359
    44          9
    45         11
    50         45
    51        119
    52         27
    53         20
    54          6
    55          6
    57         11
    58         16
    59          2
    61          8
    62         29
    63         86
    64         21
    65         89
    66          9
    67          3
    69          4
    70          3
    71          2
    73          3
    74         22
    75         25
    76         24
    77         62
    78         28
    79         10
    80         30
    81          9
    82          4
    83          2
    85          3
    86          9
    87         12
    88          8
    89         65
    90         10
    91        272
    92         24
    93          3
    97          4
    98          3
   101          5
   102         34
   103         26
   104          4
   105          5
   113          7
   114          9
   115        674
   116        209
   117        999
   118        104
   119          5
   126          2
   127         15
   128         21
   129         10
   131         45
   132          7
   137         61
   138         17
   139          4
   141         15
   142          8
   143         19
   144         10
   145        466
   146         51
   147          4
   157          3
   158          4
   159        937
   160        964
   161        115
   162          9