##TITLE=Library Entry 73486
##JCAMP-DX=Revision 4.10 
##DATA TYPE=MASS SPECTRUM
##SAMPLE DESCRIPTION=ASES Database, Dalian Institute, P.R. China
##NAMES=HP
##CAS NAME=N,N'-Dibutyl 4-thiaheptanedioic acid amide
##MOLFORM=C14H28N2O2S
##CAS REGISTRY NO=19014-37-0
##MP= -300
##BP= -300
##MW= 288
##$RETENTION INDEX=0
##$CONDENSED SPECTRUM=NO
##NPOINTS= 17
##XYDATA=(XY..XY) 1 
    74        237
    86        220
    87        540
   100        999
   101        120
   104         60
   114         50
   115         20
   128        668
   129        608
   130        120
   160        290
   161        278
   162         70
   188         49
   216         79
   288        159