##TITLE=Library Entry 45607
##JCAMP-DX=Revision 4.10 
##DATA TYPE=MASS SPECTRUM
##SAMPLE DESCRIPTION=R. RYHAGE KAROLINSKA INSTITUTET, STOCKHOLM
##NAMES=HP
##CAS NAME=Octadecanoic acid, 3-methoxy-, methyl ester
##MOLFORM=C20H40O3
##CAS REGISTRY NO=19013-36-6
##MP= -300
##BP= -300
##MW= 328
##$RETENTION INDEX=0
##$CONDENSED SPECTRUM=NO
##NPOINTS= 160
##XYDATA=(XY..XY) 1 
    12          5
    13          6
    14         15
    15         48
    16          5
    17         24
    18         48
    25          2
    26         14
    27         72
    28         57
    29        220
    30          8
    31         22
    32          7
    33          6
    37          2
    38          3
    39         45
    40         13
    41        340
    42         85
    43        470
    44         20
    45        100
    46          3
    47         25
    51          4
    53         25
    54         33
    55        240
    56         63
    57        200
    58         67
    59         97
    60          3
    61          3
    63          9
    65          5
    66          4
    67         74
    68         30
    69        150
    70         35
    71        120
    72         29
    73         14
    74         60
    75        999
    76         29
    77         10
    78          4
    79         13
    80          6
    81         64
    82         32
    83        120
    84         24
    85         82
    86          6
    87         74
    88          9
    89          6
    91          4
    93          7
    94          5
    95         49
    96         34
    97        110
    98         25
    99         15
   100          9
   101         44
   102          4
   103          4
   107          4
   108          3
   109         24
   110         15
   111         55
   112         11
   113         20
   114         10
   115          8
   116         18
   117        610
   118         38
   119          5
   121          5
   122          2
   123         15
   124          7
   125         25
   126          5
   127          8
   128          6
   129          7
   133          2
   135          4
   137          8
   138          6
   139         12
   140          3
   141         11
   142          3
   143         13
   144          2
   151          5
   152          7
   153          8
   154          7
   155          4
   157          6
   165          4
   166          6
   167          8
   169          4
   171          3
   179          3
   180          9
   181          4
   183          3
   185          6
   186          3
   194          3
   199         20
   200          4
   213          8
   214          2
   220          6
   221          5
   222         20
   223         10
   227          3
   236          3
   239        110
   240         19
   241          6
   246          4
   247          5
   253          3
   255        130
   256         24
   257          3
   264         44
   265         19
   266          3
   268          7
   269          5
   281          2
   296         46
   297         31
   298         70
   299         15
   313        210
   314         41
   315          6
   327          2
   328          5
   329          2