##TITLE=Library Entry 81377
##JCAMP-DX=Revision 4.10 
##DATA TYPE=MASS SPECTRUM
##SAMPLE DESCRIPTION=Japan AIST/NIMC Database- Spectrum MS-IW- 415
##NAMES=HP
##CAS NAME=2-Phenyl-5,6-dihydro-4H-1,3-oxazine
##MOLFORM=C10H11NO
##CAS REGISTRY NO=19029-45-9
##MP= -300
##BP= -300
##MW= 161
##$RETENTION INDEX=0
##$CONDENSED SPECTRUM=NO
##NPOINTS= 83
##XYDATA=(XY..XY) 1 
    26          4
    27         17
    28         19
    29          9
    30        131
    31          2
    37          9
    38          9
    39         18
    40          2
    41          4
    42         11
    43          1
    44          7
    45          5
    46          8
    49          4
    50         56
    51        101
    52         14
    53         38
    54          4
    55          3
    56          9
    57          6
    58          1
    60          1
    61         22
    62         74
    63         31
    64         11
    65          3
    66          9
    67          6
    68          3
    69         10
    70          3
    73          2
    74          9
    75         18
    76         58
    77        362
    78         37
    79          7
    80         22
    81          2
    83          1
    84          1
    88          1
    89          6
    90         13
    91         71
    92         17
    93          2
    94          3
    95          1
   102          4
   103        209
   104         79
   105        999
   106         81
   107          6
   108          4
   116          1
   117          4
   118         10
   119          5
   120          7
   121          1
   122          2
   123          1
   130          7
   131         28
   132         14
   133          5
   134          1
   136          9
   137          7
   159          2
   160        458
   161        726
   162         84
   163          6