##TITLE=Library Entry 82046
##JCAMP-DX=Revision 4.10 
##DATA TYPE=MASS SPECTRUM
##SAMPLE DESCRIPTION=Chemical Concepts
##NAMES=HP
##CAS NAME=2-Oxoglycine, N-(2'-benzoyl-4'-chlorophenyl)-N-methyl-, ethyl est
er
##MOLFORM=C18H16ClNO4
##CAS REGISTRY NO=19020-20-3
##MP= -300
##BP= -300
##MW= 345
##$RETENTION INDEX=0
##$CONDENSED SPECTRUM=NO
##NPOINTS= 186
##XYDATA=(XY..XY) 1 
    26          2
    27         32
    28          3
    29        194
    30          6
    38          0
    39          3
    41          0
    42          6
    43          3
    44          2
    45          0
    49          1
    50          6
    51         45
    52          3
    53          0
    58          0
    62          2
    63         11
    64          2
    65          3
    66          2
    69          0
    71          0
    73          3
    74          2
    75         22
    76         14
    77        291
    78         22
    79          0
    85          0
    86          0
    87          1
    88          2
    89          4
    90          4
    91         60
    92          5
    97          2
    98          3
    99          3
   100          2
   101          1
   102         11
   103          3
   104         10
   105        999
   106         76
   107          5
   108          0
   110          2
   111         24
   112          8
   113         10
   114          4
   115          2
   116          1
   117          1
   118         19
   119          5
   121          1
   122          0
   123          0
   124         12
   125          7
   126          9
   127          4
   128          1
   132          1
   133          5
   136          2
   137          1
   138         16
   139         14
   140         11
   141          3
   142          1
   149          2
   150          9
   151         15
   152         38
   153          8
   154          2
   155          0
   163          0
   164          4
   165         12
   166         44
   167          7
   168         23
   169          3
   170          4
   177          2
   178          3
   179          5
   180         27
   181         12
   182          7
   183          0
   186          2
   188          0
   190          1
   191          2
   192          3
   193         21
   194         15
   195          4
   196          3
   198          0
   199          1
   200          5
   201          4
   202          2
   203          1
   205          0
   208          9
   209         29
   210          8
   211          0
   212         49
   213          6
   214         36
   215         24
   216         13
   217          7
   218          2
   219          5
   220          1
   221          4
   222          2
   223          0
   226          2
   227          6
   228         53
   229         24
   230         21
   231          9
   232          1
   236         37
   237          7
   238          3
   240        186
   241         25
   242         66
   243         20
   244        153
   245         32
   246         53
   247          9
   248          0
   253          0
   254          8
   255          1
   256          7
   257          3
   258          3
   259          1
   268          0
   270          4
   271          2
   272        590
   273         99
   274        197
   275         34
   276          3
   282          0
   301          8
   302          1
   303          3
   310         43
   311          9
   312          0
   313          0
   316          2
   317          0
   318          0
   327          3
   328          0
   329          0
   344          8
   345         83
   346         21
   347         30
   348          6