##TITLE=Library Entry 60240
##JCAMP-DX=Revision 4.10 
##DATA TYPE=MASS SPECTRUM
##SAMPLE DESCRIPTION=Exported from NIST MS Search
##NAMES=HP
##CAS NAME=Tetracyclo[3.3.1.0(2,8).0(4,6)]nonan-3-one
##MOLFORM=C9H10O
##CAS REGISTRY NO=1903-34-0
##MP= -300
##BP= -300
##MW= 134
##$RETENTION INDEX=0
##$CONDENSED SPECTRUM=NO
##NPOINTS= 56
##XYDATA=(XY..XY) 1 
    26         50
    27        350
    28         26
    29         20
    37         24
    38         80
    39        541
    40         92
    41        158
    42         10
    43         10
    49         10
    50        120
    51        280
    52        148
    53        146
    54         32
    55         66
    56         14
    61         16
    62         22
    63         78
    64          6
    65        150
    66        120
    67         22
    68        100
    69         10
    74          6
    75          6
    76          6
    77        320
    78        647
    79        420
    80         48
    81         12
    82         10
    89         10
    90          8
    91        999
    92        102
    93          6
    94          8
   102         12
   103         94
   104         20
   105        308
   106        446
   107         56
   115         22
   116         20
   117         10
   119         56
   133         40
   134        220
   135         30