##TITLE=Library Entry 99329
##JCAMP-DX=Revision 4.10 
##DATA TYPE=MASS SPECTRUM
##SAMPLE DESCRIPTION=NIST Mass Spectrometry Data Center
##NAMES=HP
##CAS NAME=(1S,7S,8aR)-1,8a-Dimethyl-7-(prop-1-en-2-yl)-1,2,3,7,8,8a-hexahyd
ronaphthalene
##MOLFORM=C15H22
##CAS REGISTRY NO=190327-38-9
##MP= -300
##BP= -300
##MW= 202
##$RETENTION INDEX=1508
##$CONDENSED SPECTRUM=NO
##NPOINTS= 105
##XYDATA=(XY..XY) 1 
    27         14
    29         21
    38          2
    39         79
    40         14
    41        123
    42          5
    43         19
    50          9
    51         45
    52         21
    53         79
    54          7
    55         59
    57          5
    58          1
    62          3
    63         25
    64         10
    65         69
    66         16
    67         55
    68         15
    69         12
    71         14
    72          3
    74          2
    75          5
    76         14
    77        206
    78         63
    79        163
    80         34
    81         68
    82          4
    83         12
    84          4
    85          3
    86          3
    87          3
    89         13
    90          6
    91        492
    92        152
    93        285
    94         55
    95        117
    96         22
    97          5
   101          4
   102         16
   103         70
   104         39
   105        343
   106        154
   107        144
   108         46
   109         17
   110         19
   114          1
   115        119
   116         48
   117        163
   118         72
   119        999
   120        126
   121         90
   122         22
   126          4
   127         30
   128         98
   129         87
   130         30
   131        146
   134        248
   135         19
   139          5
   141         34
   142         23
   143         52
   144         28
   145        186
   146         39
   147         31
   151          2
   152          8
   153         10
   154          4
   155         10
   156          6
   157         18
   158         12
   159        160
   160        138
   161        222
   162         29
   165          3
   171          4
   172          5
   173         34
   174         15
   187        106
   188         18
   202        186
   203         20