##TITLE=Library Entry 38150
##JCAMP-DX=Revision 4.10 
##DATA TYPE=MASS SPECTRUM
##SAMPLE DESCRIPTION=ATLAS OF MASS SPECTRA OF ORGANIC COMPOUNDS, V. A. KOPTY
UG, ED.
##NAMES=HP
##CAS NAME=Propanal, 2-propenylhydrazone
##MOLFORM=C6H12N2
##CAS REGISTRY NO=19031-78-8
##MP= -300
##BP= -300
##MW= 112
##$RETENTION INDEX=913
##$CONDENSED SPECTRUM=NO
##NPOINTS= 28
##XYDATA=(XY..XY) 1 
    26         23
    27        151
    28        208
    29        142
    30        170
    31         17
    39        102
    40         25
    41        265
    42         78
    43         43
    44         46
    54         51
    55        145
    56        153
    57         25
    58         12
    69        160
    70        208
    71        999
    72         94
    83        208
    84         25
    85         76
    97         15
   111         19
   112        151
   113         25