##TITLE=Library Entry 81458
##JCAMP-DX=Revision 4.10 
##DATA TYPE=MASS SPECTRUM
##SAMPLE DESCRIPTION=Japan AIST/NIMC Database- Spectrum MS-IW-6321
##NAMES=HP
##CAS NAME=2,5-Dimethylbenzenesulfonyl chloride
##MOLFORM=C8H9ClO2S
##CAS REGISTRY NO=19040-62-1
##MP= -300
##BP= -300
##MW= 204
##$RETENTION INDEX=0
##$CONDENSED SPECTRUM=NO
##NPOINTS= 121
##XYDATA=(XY..XY) 1 
    15          1
    26          3
    27         59
    28         13
    29          3
    32          2
    35          2
    36         15
    37          3
    38         13
    39         92
    40          8
    41         13
    42          1
    43          4
    44          6
    45         67
    46          1
    47          3
    48         10
    49          2
    50         43
    51        144
    52         43
    53         44
    54          3
    55          3
    56          1
    57          4
    58          2
    59          2
    60          2
    61          6
    62         20
    63         67
    64         24
    65         54
    66          8
    67          3
    68          1
    69          8
    70          2
    71          3
    73          3
    74         15
    75         15
    76         18
    77        314
    78        157
    79        315
    80         19
    81          1
    82          2
    83          2
    84         17
    85          4
    86          5
    87          6
    88          1
    89         29
    90          9
    91         88
    92         21
    93          6
    94          1
    95          1
    97          4
    98          3
    99          2
   101          5
   102         29
   103        264
   104        469
   105        999
   106        106
   107          6
   108          2
   109          2
   110          2
   111          1
   112          1
   113          1
   119          1
   120         13
   121         18
   122          5
   123        122
   124         10
   125         22
   126          2
   127          4
   134          2
   135          8
   136          4
   137          7
   138          9
   139         24
   140          9
   141          7
   142          2
   150          1
   151        313
   152         32
   153         25
   154          4
   155          1
   167          1
   168         16
   169        527
   170         56
   171         27
   172          2
   185          1
   187          4
   189          1
   203          3
   204        432
   205         44
   206        160
   207         15
   208          8