##TITLE=Library Entry 80989
##JCAMP-DX=Revision 4.10 
##DATA TYPE=MASS SPECTRUM
##SAMPLE DESCRIPTION=Patti Price, Georgia Bureau of Investigation, Decatur,
 Georgia
##NAMES=HP
##CAS NAME=Androsta-1,4-dien-3-one, 17-(benzoyloxy)-, (17.beta.)-
##MOLFORM=C26H30O3
##CAS REGISTRY NO=19041-66-8
##MP= -300
##BP= -300
##MW= 390
##$RETENTION INDEX=0
##$CONDENSED SPECTRUM=NO
##NPOINTS= 87
##XYDATA=(XY..XY) 1 
    41         26
    43          5
    44         17
    50          2
    51         17
    52          3
    53         11
    55         45
    56          1
    57          2
    62          1
    65          7
    66          1
    67         15
    68          1
    69          4
    76         13
    77        259
    78         25
    79         36
    80          3
    81         23
    82          4
    90          1
    91         99
    92         13
    93         45
    94         12
    95          8
   101          1
   103          2
   105        999
   106         79
   107         32
   108         43
   109         44
   110          2
   115         12
   116          1
   117         16
   118          2
   119         27
   120          7
   121         93
   122        791
   123         78
   124          3
   127          1
   128         10
   129          4
   131         23
   132          3
   133         67
   134         58
   135         23
   136         18
   137          1
   143          1
   145         35
   146         17
   147        169
   148         29
   153          1
   157          1
   158          9
   159         27
   160         32
   161         31
   165          1
   170          1
   171          3
   172          1
   173         14
   174          6
   181          1
   186          1
   188          1
   197          2
   199          1
   225          2
   227          4
   251          2
   253          5
   268         18
   269          9
   390         17
   391          6