##TITLE=Library Entry 69723
##JCAMP-DX=Revision 4.10 
##DATA TYPE=MASS SPECTRUM
##SAMPLE DESCRIPTION=V.A.Korolev, Moscow, Russia
##NAMES=HP
##CAS NAME=1-Methylpyrazol-3-amine
##MOLFORM=C4H7N3
##CAS REGISTRY NO=1904-31-0
##MP= -300
##BP= -300
##MW= 97
##$RETENTION INDEX=0
##$CONDENSED SPECTRUM=NO
##NPOINTS= 37
##XYDATA=(XY..XY) 1 
    33          7
    35          1
    36          6
    37         12
    38         37
    39        171
    40        123
    41        174
    42        403
    43        364
    44        176
    45         37
    46          7
    49         16
    50         39
    51        115
    52        367
    53        187
    54        260
    55         44
    56         10
    57          9
    64          5
    66         13
    67         49
    68        101
    69        178
    70          8
    79         44
    80         11
    81         15
    82         90
    83          4
    96        399
    97        999
    98         51
    99          5