##TITLE=Library Entry 54688
##JCAMP-DX=Revision 4.10 
##DATA TYPE=MASS SPECTRUM
##SAMPLE DESCRIPTION=F.CHASTRETTE,LAB. CHIM. ORG. PHYS.,UNIV. LYON,VILLEURBA
NNE,FR.
##NAMES=HP
##CAS NAME=2-Iodomethyl-5-methyltetrahydrofuran
##MOLFORM=C6H11IO
##CAS REGISTRY NO=19056-49-6
##MP= -300
##BP= -300
##MW= 226
##$RETENTION INDEX=0
##$CONDENSED SPECTRUM=NO
##NPOINTS= 18
##XYDATA=(XY..XY) 1 
    41        260
    43        430
    45        270
    55        430
    56        110
    57        170
    67        150
    81         30
    83         60
    85        999
    86         70
    99        400
   108         45
   127         30
   141         40
   169         30
   211         20
   226        185