##TITLE=Library Entry 28051
##JCAMP-DX=Revision 4.10 
##DATA TYPE=MASS SPECTRUM
##SAMPLE DESCRIPTION=Japan AIST/NIMC Database- Spectrum MS-NW-7120
##NAMES=HP
##CAS NAME=3-Dimethylamino-2,2-dimethyl-1-propanol
##MOLFORM=C7H17NO
##CAS REGISTRY NO=19059-68-8
##MP= -300
##BP= -300
##MW= 131
##$RETENTION INDEX=0
##$CONDENSED SPECTRUM=NO
##NPOINTS= 48
##XYDATA=(XY..XY) 1 
    15         15
    17          2
    18          7
    26          1
    27         14
    28         11
    29         20
    30         35
    31         10
    38          1
    39         14
    40          3
    41         26
    42         56
    43         18
    44         65
    45         39
    46          5
    51          1
    53          3
    54          1
    55          9
    56         11
    57         15
    58        999
    59         40
    60          1
    68          2
    69          2
    70          9
    71          3
    72          2
    73          2
    74          1
    82          1
    84          9
    85         16
    86          4
    98          4
    99          2
   100         26
   101          2
   114          1
   116          2
   128          1
   129          1
   131         23
   132          2