##TITLE=Library Entry 62533
##JCAMP-DX=Revision 4.10 
##DATA TYPE=MASS SPECTRUM
##SAMPLE DESCRIPTION=A.A.Kutin, Moscow, Russia
##NAMES=HP
##CAS NAME=4-Methylcoumarine-7-tosyloxy
##MOLFORM=C17H14O5S
##CAS REGISTRY NO=19055-87-9
##MP= -300
##BP= -300
##MW= 330
##$RETENTION INDEX=0
##$CONDENSED SPECTRUM=NO
##NPOINTS= 156
##XYDATA=(XY..XY) 1 
    33          0
    34          2
    36          0
    37          2
    38         11
    39        109
    40         34
    41         34
    42          4
    43         10
    44         10
    45          7
    46          1
    48          4
    50         29
    51         63
    52         23
    53         12
    54          1
    55          6
    56          1
    57          3
    58          0
    59          1
    60          0
    61          2
    62         17
    63         64
    64         25
    65        253
    66         17
    67          7
    68          2
    69         17
    70          2
    71          2
    72          0
    73          1
    74          8
    75          8
    76         12
    77         46
    78         14
    79         18
    80          2
    81          0
    82          1
    83          1
    84          1
    85          1
    86          2
    87          3
    88          2
    89         60
    90         36
    91        999
    92         82
    93          7
    94          1
    95          1
    96          0
    97          1
    98          0
    99          0
   101          1
   102          4
   103         12
   104          5
   105         22
   106          3
   107          3
   108          1
   109          0
   110          0
   111          2
   112          0
   113          0
   115          2
   116          0
   117          1
   118          4
   119         28
   120          5
   121          3
   122          1
   123          1
   124          1
   125          0
   127          0
   128          1
   129          2
   130          2
   131          4
   132          2
   133          0
   134          0
   135          0
   137          0
   139         14
   140          2
   141          2
   142          0
   144          0
   145          2
   146          3
   147         56
   148         25
   149          3
   150          0
   151          0
   152          4
   153          2
   155        602
   156         54
   157         33
   158          2
   159          1
   160          0
   161          0
   163          0
   165          5
   166          2
   167          2
   168          0
   169          0
   171          0
   173          0
   174          0
   175          7
   176         13
   177          1
   178          2
   179          0
   181          1
   182          0
   189          0
   190          1
   191          0
   192          0
   194          0
   195          2
   196          0
   197          0
   209          1
   223          0
   237          1
   238          5
   239          0
   265          1
   266          4
   267          0
   301          0
   330        142
   331         29
   332         11
   333          1