##TITLE=Library Entry 12356
##JCAMP-DX=Revision 4.10 
##DATA TYPE=MASS SPECTRUM
##SAMPLE DESCRIPTION=Exported from NIST MS Search
##NAMES=HP
##CAS NAME=3,1-Benzoxazepine-2-carbonitrile, 4-methyl-
##MOLFORM=C11H8N2O
##CAS REGISTRY NO=19062-85-2
##MP= -300
##BP= -300
##MW= 184
##$RETENTION INDEX=0
##$CONDENSED SPECTRUM=NO
##NPOINTS= 33
##XYDATA=(XY..XY) 1 
    42          8
    43        999
    44         32
    61         23
    62         65
    63        124
    64         35
    65         17
    66         17
    74         20
    75         35
    76         29
    77         74
    78         32
    86          5
    87         23
    88         20
    89         74
    90         32
    92          5
   101         11
   102         20
   103         38
   104         14
   114         44
   115         71
   116          8
   141         29
   142        522
   143         59
   168         20
   184        320
   185         50