##TITLE=Library Entry 76714
##JCAMP-DX=Revision 4.10 
##DATA TYPE=MASS SPECTRUM
##SAMPLE DESCRIPTION=A.S.Moskovkin,I.M.Karnaukh, Russian Center on Disaster
 Medicine
##NAMES=HP
##CAS NAME=3,7-Diazaadamantan-9-one, 1,5-diphenyl-
##MOLFORM=C20H20N2O
##CAS REGISTRY NO=19066-35-4
##MP= -300
##BP= -300
##MW= 304
##$RETENTION INDEX=0
##$CONDENSED SPECTRUM=NO
##NPOINTS= 201
##XYDATA=(XY..XY) 1 
    38         15
    39        133
    40         16
    41        174
    42        550
    43         84
    44         33
    45         32
    46         10
    49          4
    50         44
    51        162
    52         35
    53         27
    54         22
    55        122
    56         69
    57        190
    58         98
    59          4
    60         26
    61          8
    62         11
    63         59
    64         77
    65         89
    66         21
    67         59
    68         40
    69        107
    70         42
    71         75
    72          8
    73         19
    74         12
    75         20
    76         42
    77        383
    78         93
    79         35
    80          1
    81         69
    82         25
    83         65
    84         21
    85         38
    86          3
    87          7
    88          2
    89         31
    90         12
    91        560
    92        119
    93         33
    94         13
    95         56
    96         25
    97         47
    98         12
    99         10
   100          3
   101         15
   102         80
   103        999
   104        137
   105         99
   106         16
   107         30
   108         99
   109         39
   110         14
   111         28
   112          6
   113          8
   114          4
   115        176
   116         55
   117        174
   118        180
   119         33
   120         14
   121         18
   122         37
   123         25
   124          9
   125         16
   126          5
   127        129
   128        176
   129         36
   130        134
   131        470
   132         74
   133         17
   134          4
   135         12
   136          9
   137         13
   138          6
   139          5
   140          3
   141         11
   142          7
   143         38
   144        219
   145         55
   146        131
   147         18
   149         15
   150          3
   151          3
   152         37
   153         13
   154         15
   155          5
   156         25
   157         16
   158         60
   159        178
   160         43
   161          8
   163          9
   165         16
   166          5
   167         43
   168          8
   169          4
   170         10
   171         12
   172         32
   173         55
   174         12
   175          4
   176          3
   177          7
   178         12
   179          6
   180          7
   181          4
   182         27
   183        178
   184         50
   185         42
   186         12
   187         13
   188          3
   189          7
   190          6
   191         17
   192          4
   195          4
   199         21
   200          3
   201         69
   202         25
   203         13
   204         13
   205         37
   206         15
   211          2
   212          3
   213          9
   214          1
   215          9
   216          2
   217          6
   218         12
   219         19
   220         12
   221          4
   227         17
   228          7
   230          3
   231          8
   232         85
   233        188
   234        123
   235         26
   236          3
   245          4
   246         16
   247        133
   248         48
   249          5
   259          4
   260        163
   261        900
   262        633
   263        121
   274         22
   275         90
   276         46
   277        100
   278         32
   279          4
   287          8
   303         54
   304        396
   305         89
   306         10
   307          1