##TITLE=Library Entry 114872
##JCAMP-DX=Revision 4.10 
##DATA TYPE=MASS SPECTRUM
##SAMPLE DESCRIPTION=Japan AIST/NIMC Database- Spectrum MS-IW-7716
##NAMES=HP
##CAS NAME=3(2H)-Pyridazinone, 6-chloro-
##MOLFORM=C4H3ClN2O
##CAS REGISTRY NO=19064-67-6
##MP= -300
##BP= -300
##MW= 130
##$RETENTION INDEX=0
##$CONDENSED SPECTRUM=NO
##NPOINTS= 65
##XYDATA=(XY..XY) 1 
    12          1
    13          1
    24          2
    25          8
    26         22
    27          5
    28         11
    29         19
    35          4
    36         15
    37         46
    38        142
    39         70
    40         19
    41         15
    42         26
    43          8
    44          3
    47         24
    48          7
    49          9
    50          9
    51         43
    52         43
    53         12
    54          2
    60          3
    61          3
    62          4
    63          2
    64          1
    65          1
    66         11
    67        216
    68          9
    69          2
    71          4
    72         16
    73        214
    74         67
    75         85
    76         30
    77          9
    78         15
    79          2
    80          8
    86          1
    87          2
    89          6
    91          1
    94          1
    95         27
    96          1
   100          1
   101          4
   102        351
   103         15
   104        114
   105          5
   129          1
   130        999
   131         67
   132        343
   133         20
   134          1