##TITLE=Library Entry 58727
##JCAMP-DX=Revision 4.10 
##DATA TYPE=MASS SPECTRUM
##SAMPLE DESCRIPTION=Exported from NIST MS Search
##NAMES=HP
##CAS NAME=3,1-Benzoxazepine, 7-bromo-2-(p-bromophenyl)-
##MOLFORM=C15H9Br2NO
##CAS REGISTRY NO=19062-92-1
##MP= -300
##BP= -300
##MW= 377
##$RETENTION INDEX=0
##$CONDENSED SPECTRUM=NO
##NPOINTS= 55
##XYDATA=(XY..XY) 1 
    41         49
    43         62
    45         41
    62        235
    63        665
    64         78
    81        117
    82         75
    83         73
    85         47
    86         83
    87        193
    88        208
    89        999
    90        185
    95         83
    96        101
   101         31
   102        268
   103         26
   115         54
   117         41
   119         26
   121         26
   122         26
   135         36
   136         41
   137         23
   140         26
   164        161
   165        261
   166        219
   167         28
   168         60
   183         26
   188         26
   189         57
   190        443
   191        757
   192        167
   349        464
   350         80
   351        966
   352         94
   353        443
   354         73
   361         20
   363         44
   365         20
   377        347
   378         78
   379        710
   380        127
   381        355
   382         52