##TITLE=Library Entry 1149
##JCAMP-DX=Revision 4.10 
##DATA TYPE=MASS SPECTRUM
##SAMPLE DESCRIPTION=Japan AIST/NIMC Database- Spectrum MS-IW-3079
##NAMES=HP
##CAS NAME=Glycine, N-acetyl-, ethyl ester
##MOLFORM=C6H11NO3
##CAS REGISTRY NO=1906-82-7
##MP= -300
##BP= -300
##MW= 145
##$RETENTION INDEX=0
##$CONDENSED SPECTRUM=NO
##NPOINTS= 50
##XYDATA=(XY..XY) 1 
    13          1
    14         10
    15         74
    16          1
    17          2
    18          7
    26         10
    27         66
    28        101
    29        188
    30        999
    31         58
    32          2
    39          1
    40          3
    41          8
    42         68
    43        623
    44         21
    45         21
    46          5
    47          1
    52          1
    54          3
    55          3
    56         33
    57         35
    58          9
    59          5
    60          6
    61          2
    70          1
    71          8
    72        915
    73        270
    74         57
    75          3
    84          2
    86          2
    88          1
    99        139
   100        171
   101          9
   102         23
   103         59
   104          7
   127          2
   145        245
   146         44
   147          4