##TITLE=Library Entry 82313
##JCAMP-DX=Revision 4.10 
##DATA TYPE=MASS SPECTRUM
##SAMPLE DESCRIPTION=Chemical Concepts
##NAMES=HP
##CAS NAME=4,4'-Methylenebis[2-tert-butyl-6-(.alpha.-methylbenzyl)phenol]
##MOLFORM=C37H44O2
##CAS REGISTRY NO=19078-82-1
##MP= -300
##BP= -300
##MW= 520
##$RETENTION INDEX=0
##$CONDENSED SPECTRUM=NO
##NPOINTS= 236
##XYDATA=(XY..XY) 1 
    34          6
    37          9
    38         10
    39         73
    40         79
    41        573
    43        220
    44         24
    45          6
    50         19
    51         58
    53         69
    55        158
    57        868
    59          5
    63         11
    65         36
    67         38
    69         30
    71         13
    73          9
    74          5
    75          9
    77        160
    78        139
    79        163
    81         17
    82          5
    83         21
    84          6
    85          5
    87          3
    89         16
    91        285
    93         39
    94          5
    95          9
    96          6
    97          9
    98          4
   101          6
   103        124
   105        999
   106         73
   107         27
   108          8
   109          7
   110          4
   111          7
   112          6
   113          9
   115        109
   116         40
   117         75
   118         30
   119         70
   121         92
   122          9
   123          7
   124          4
   125         11
   127         37
   128         63
   129         64
   130         34
   131         92
   132         39
   133         96
   134         14
   135          9
   139        175
   141         61
   142         30
   143         24
   144         22
   145        111
   146         48
   147         71
   148         10
   149          9
   150          3
   151          9
   152         41
   153        120
   154         39
   155         22
   156         15
   157         16
   158         20
   159         73
   160         57
   161         53
   162          9
   163         18
   165         66
   167        473
   169          9
   170          8
   171         32
   173        264
   174         91
   175         40
   176         10
   177         17
   178         53
   179         40
   180         12
   181         21
   182         17
   183          9
   184         16
   185          6
   186          4
   187         15
   189        209
   190         40
   191         50
   192         76
   193         34
   194         17
   195         24
   196          7
   197          8
   198          8
   199          9
   200          3
   201          5
   202         24
   203         27
   204         14
   205         36
   206        201
   207         40
   208         10
   209         23
   210          7
   211          9
   213         35
   214         27
   215         13
   216          9
   217          9
   218          9
   219         11
   220          9
   221         32
   222         11
   223         11
   224          3
   225          4
   226          4
   227          4
   228          6
   229          8
   231          7
   232          4
   233          8
   234          7
   235         14
   236          8
   237         16
   238          5
   239          9
   240          5
   241          5
   242          3
   244          7
   245         32
   246          6
   247          5
   248          3
   249          9
   250          7
   251         33
   252         17
   253         30
   254          7
   255          3
   259          3
   260          7
   261          5
   263          6
   264          4
   265         23
   267        145
   268         27
   269          6
   276          3
   277          7
   278          3
   279          4
   281          6
   283          3
   291          6
   292          3
   293          8
   307          7
   309          3
   321          4
   323          3
   333          7
   337          7
   347          4
   349        108
   350         24
   351          4
   363          4
   385          8
   399          3
   411          3
   413          4
   415         70
   416         16
   417          3
   427         58
   428         15
   429          3
   441          9
   442          7
   461          3
   463         48
   464         47
   465          5
   503          6
   505         95
   506         37
   507          6
   514          4
   515          4
   516         14
   517         10
   518         20
   520        915
   521        258
   522         86
   523          9