##TITLE=Library Entry 56110
##JCAMP-DX=Revision 4.10 
##DATA TYPE=MASS SPECTRUM
##SAMPLE DESCRIPTION=Div. of Experiment Therapeutics WRAIR, WRAMC, Washingto
n DC 20307
##NAMES=HP
##CAS NAME=4-Chloro-5-[[2-diethylaminoethyl]amino]pyridazin-3[2H]-one
##MOLFORM=C10H17ClN4O
##CAS REGISTRY NO=1907-55-7
##MP= -300
##BP= -300
##MW= 244
##$RETENTION INDEX=0
##$CONDENSED SPECTRUM=NO
##NPOINTS= 74
##XYDATA=(XY..XY) 1 
    41         15
    42         41
    43         17
    44         20
    45          3
    47         11
    48          6
    49          8
    50          2
    51          2
    52          5
    53          4
    54          7
    55          4
    56         29
    57         10
    58        108
    59          4
    61          0
    62          1
    63          0
    64          1
    65          3
    66          2
    67          4
    68          3
    69          2
    70          7
    71          4
    72         13
    73          4
    74          2
    75          2
    76          1
    77          0
    78          1
    79          2
    80          2
    81          2
    82          1
    83          2
    84         47
    86        999
    87         63
    88          8
    89          0
    91          7
    92          2
    93          2
    94          0
    97          1
    98          0
    99          2
   100          3
   101          1
   102          2
   103          0
   106          1
   108          2
   114          0
   115          2
   116          1
   117          5
   125          1
   136          0
   142          0
   152          2
   158          4
   159          2
   160          2
   172          3
   174          0
   244          1
   246          0