##TITLE=Library Entry 15327
##JCAMP-DX=Revision 4.10 
##DATA TYPE=MASS SPECTRUM
##SAMPLE DESCRIPTION=Japan AIST/NIMC Database- Spectrum MS-NW-1961
##NAMES=HP
##CAS NAME=dl-Alanyl-dl-norleucine
##MOLFORM=C9H18N2O3
##CAS REGISTRY NO=19079-66-4
##MP= -300
##BP= -300
##MW= 202
##$RETENTION INDEX=0
##$CONDENSED SPECTRUM=NO
##NPOINTS= 59
##XYDATA=(XY..XY) 1 
    15         19
    17         19
    18         89
    26         11
    27         65
    28         95
    29         47
    30         43
    36          6
    38          2
    39         35
    40         19
    41         98
    42         77
    43        105
    44        999
    45         28
    51          1
    52          6
    53         10
    54         35
    55         33
    56         44
    57         21
    60          4
    67          8
    68         10
    69         20
    70         19
    71         19
    73          9
    74          6
    80          3
    81          4
    82          9
    83          9
    84         22
    85          8
    86         75
    87          5
    95          4
    96         11
    97          4
    98          9
    99         32
   109          1
   110          6
   111          2
   112         11
   113         17
   123          2
   125          1
   128         63
   129          4
   139          1
   141         25
   162          1
   169          2
   184          3