##TITLE=Library Entry 67947
##JCAMP-DX=Revision 4.10 
##DATA TYPE=MASS SPECTRUM
##SAMPLE DESCRIPTION=Chemical Concepts
##NAMES=HP
##CAS NAME=Piperidine, 1-(1-oxo-2,4-hexadienyl)-
##MOLFORM=C11H17NO
##CAS REGISTRY NO=19074-11-4
##MP= -300
##BP= -300
##MW= 179
##$RETENTION INDEX=0
##$CONDENSED SPECTRUM=NO
##NPOINTS= 115
##XYDATA=(XY..XY) 1 
    25          2
    26         22
    27        168
    28        163
    29        105
    30         48
    31          4
    33          1
    34          1
    36          1
    37          9
    38         31
    39        348
    40         80
    41        642
    42        185
    43         45
    44         36
    45          2
    49          1
    50         15
    51         45
    52         28
    53         52
    54         52
    55        142
    56        121
    57         40
    58          3
    59          1
    60          1
    61          2
    62          8
    63         28
    64         13
    65        142
    66        111
    67        660
    68         95
    69         65
    70         28
    71          4
    72          1
    73          1
    74          1
    75          1
    76          2
    77          9
    78          8
    79         18
    80         22
    81         81
    82         37
    83         61
    84        619
    85         60
    86         12
    87          1
    91          5
    92          5
    93         14
    94         27
    95        999
    97         29
    98         10
    99          2
   100          3
   104          2
   105          3
   106          4
   107          5
   108         33
   109         19
   110         23
   111          5
   112         21
   113          3
   117          1
   118          1
   119          1
   120          6
   121          4
   122         49
   123         41
   124         19
   125          6
   126          2
   132          1
   133          1
   134          9
   135          6
   136         70
   137         71
   138        181
   139         27
   140          2
   147          1
   148          2
   149          3
   150         86
   151         28
   152         10
   153          1
   160          1
   161          0
   162         47
   163          7
   164        214
   165         25
   166          1
   177          3
   178        136
   179        455
   180         61
   181          4