##TITLE=Library Entry 4917
##JCAMP-DX=Revision 4.10 
##DATA TYPE=MASS SPECTRUM
##SAMPLE DESCRIPTION=V.A. KOPTYUG, VOL.4, ATLAS OF MASS SPECTRA OF ORGANIC C
OMPOUNDS
##NAMES=HP
##CAS NAME=Pyrazole, 3,4,4,5-tetramethyl-
##MOLFORM=C7H12N2
##CAS REGISTRY NO=19078-32-1
##MP= -300
##BP= -300
##MW= 124
##$RETENTION INDEX=0
##$CONDENSED SPECTRUM=NO
##NPOINTS= 39
##XYDATA=(XY..XY) 1 
    27         17
    28        101
    29         35
    30         19
    38         19
    39        202
    40         89
    41        343
    42        999
    43         56
    50         12
    51         29
    52         29
    53         64
    54         35
    55         37
    56         17
    57         15
    65         19
    66         22
    67         24
    68        211
    69         26
    70         12
    77         16
    79         35
    80          8
    81        121
    82        330
    83        383
    84         25
    95         68
    96         26
    97          7
   109        159
   110         13
   123         11
   124        287
   125         25