##TITLE=Library Entry 25849
##JCAMP-DX=Revision 4.10 
##DATA TYPE=MASS SPECTRUM
##SAMPLE DESCRIPTION=NIST Mass Spectrometry Data Center, 1990.
##NAMES=HP
##CAS NAME=2,2-Dimethyl-3-heptanone
##MOLFORM=C9H18O
##CAS REGISTRY NO=19078-97-8
##MP= -300
##BP= -300
##MW= 142
##$RETENTION INDEX=963
##$CONDENSED SPECTRUM=NO
##NPOINTS= 21
##XYDATA=(XY..XY) 1 
    15         11
    26         12
    27        106
    28         75
    29        200
    39        112
    41        364
    42         45
    43         45
    53         12
    55         44
    57        999
    58         47
    67          8
    69          7
    71         17
    84         91
    85        470
    86         27
   100          8
   142         14