##TITLE=Library Entry 26009
##JCAMP-DX=Revision 4.10 
##DATA TYPE=MASS SPECTRUM
##SAMPLE DESCRIPTION=NIST Mass Spectrometry Data Center, 1990.
##NAMES=HP
##CAS NAME=3-Ethyl-5-hexen-3-ol
##MOLFORM=C8H16O
##CAS REGISTRY NO=1907-46-6
##MP= -300
##BP= -300
##MW= 128
##$RETENTION INDEX=0
##$CONDENSED SPECTRUM=NO
##NPOINTS= 33
##XYDATA=(XY..XY) 1 
    15         19
    26         23
    27        192
    28        107
    29        353
    30         13
    31         68
    32         13
    39        168
    40         35
    41        299
    42         49
    43        159
    45        584
    46         14
    51         20
    53         50
    55         75
    57        999
    58         40
    59         13
    65         15
    67         36
    69        215
    70         17
    77         15
    79         23
    81         38
    87        591
    88         37
    95         13
    99         87
   110         14