##TITLE=Library Entry 97421
##JCAMP-DX=Revision 4.10 
##DATA TYPE=MASS SPECTRUM
##SAMPLE DESCRIPTION=Exported from NIST MS Search
##NAMES=HP
##CAS NAME=1,3,5-Ethanylylidene-2-thiacyclobuta[cd]pentalen-7-one, octahydro
-, 2,2-dioxide
##MOLFORM=C10H10O3S
##CAS REGISTRY NO=19086-80-7
##MP= -300
##BP= -300
##MW= 210
##$RETENTION INDEX=0
##$CONDENSED SPECTRUM=NO
##NPOINTS= 50
##XYDATA=(XY..XY) 1 
    38         64
    39        439
    40         87
    41         70
    43         47
    44         77
    45        175
    46         16
    50        118
    51        273
    52        216
    53        114
    57         57
    58        121
    59         27
    62         30
    63        131
    64         64
    65        199
    66        334
    67         30
    76         33
    77        162
    78        270
    79         70
    89         67
    90         43
    91        412
    92         67
    93         20
   102         23
   103        189
   104        341
   105         67
   106         20
   115        185
   116        118
   117        999
   118        648
   119         74
   130         23
   131        135
   132         27
   144         33
   145        135
   146         77
   147         30
   210        368
   211         40
   212         27