##TITLE=Library Entry 60178
##JCAMP-DX=Revision 4.10 
##DATA TYPE=MASS SPECTRUM
##SAMPLE DESCRIPTION=Institute of Organic Chemistry, Novosibirsk, USSR 1988
##NAMES=HP
##CAS NAME=1-Benzyl-3-phenyl-1H-1,2,4-triazol-4-oxide
##MOLFORM=C15H13N3O
##CAS REGISTRY NO=19081-69-7
##MP= -300
##BP= -300
##MW= 251
##$RETENTION INDEX=0
##$CONDENSED SPECTRUM=NO
##NPOINTS= 57
##XYDATA=(XY..XY) 1 
    26         13
    27         29
    28         34
    29          5
    30         69
    37          3
    38          7
    39         63
    40          2
    41          8
    42          5
    43          0
    44          3
    49          2
    50         36
    51         68
    52         16
    53          2
    61          2
    62         15
    63         65
    64         15
    65         73
    66          2
    74          6
    75          7
    76         30
    77         97
    78         19
    79          9
    89         53
    90         10
    91        999
    92         65
   103         43
   104         27
   105         27
   106         20
   107          4
   108          3
   115          0
   116          1
   117         62
   118          8
   119          0
   131         14
   132          1
   145         31
   146          2
   147          0
   165          0
   180          1
   234         30
   235          5
   250         12
   251         71
   252         11