##TITLE=Library Entry 16719
##JCAMP-DX=Revision 4.10 
##DATA TYPE=MASS SPECTRUM
##SAMPLE DESCRIPTION=Exported from NIST MS Search
##NAMES=HP
##CAS NAME=1-Propanol, 2-ethoxy-
##MOLFORM=C5H12O2
##CAS REGISTRY NO=19089-47-5
##MP= -300
##BP= -300
##MW= 104
##$RETENTION INDEX=725
##$CONDENSED SPECTRUM=NO
##NPOINTS= 51
##XYDATA=(XY..XY) 1 
    14          4
    15         29
    16          1
    17          8
    18         31
    19         25
    26         12
    27         93
    28         26
    29        181
    30         10
    31        436
    32          8
    33         18
    37          3
    38          2
    39         19
    40          4
    41         59
    42         34
    43        112
    44         25
    45        999
    46         26
    47          5
    53          1
    55          4
    56          1
    57         36
    58         45
    59         56
    60         35
    61        126
    62          4
    63          1
    71          2
    72          8
    73        189
    74         10
    75         29
    76          1
    77          1
    86          2
    87         19
    88          1
    89         21
    90          1
   101          2
   103          5
   104          6
   105          2