##TITLE=Library Entry 60254
##JCAMP-DX=Revision 4.10 
##DATA TYPE=MASS SPECTRUM
##SAMPLE DESCRIPTION=Exported from NIST MS Search
##NAMES=HP
##CAS NAME=6,2,5-Ethanylylidene-2H-cyclobuta[cd][2]benzothiophen-7-one, octa
hydro-, 1,1-dioxide
##MOLFORM=C11H12O3S
##CAS REGISTRY NO=19086-81-8
##MP= -300
##BP= -300
##MW= 224
##$RETENTION INDEX=0
##$CONDENSED SPECTRUM=NO
##NPOINTS= 83
##XYDATA=(XY..XY) 1 
    37         26
    38         50
    39        478
    40         50
    41        178
    42         26
    49         26
    50        151
    51        407
    52        326
    53        218
    54        279
    55         94
    56         26
    61         10
    62         33
    63        127
    64        191
    65        266
    66        353
    67        542
    68         60
    69         33
    75         33
    76         40
    77        414
    78        942
    79        771
    80        764
    81        245
    82        757
    83         57
    84         47
    90         13
    91        999
    92        141
    93         33
    94         77
    95        138
    96         20
   101         23
   102         37
   103        161
   104        649
   105        154
   106         33
   107         33
   112         10
   113        104
   114         30
   115        171
   116        286
   117        878
   118        165
   119         64
   120         26
   130         57
   131        434
   132        336
   133         50
   134         23
   143         23
   144         23
   145        101
   146         23
   147         30
   157         10
   158         33
   159        168
   160        266
   161         43
   162         10
   175         43
   176        138
   177         30
   178         10
   191         16
   192        457
   193         64
   194         33
   224        713
   225         87
   226         40