##TITLE=Library Entry 35579
##JCAMP-DX=Revision 4.10 
##DATA TYPE=MASS SPECTRUM
##SAMPLE DESCRIPTION=Exported from NIST MS Search
##NAMES=HP
##CAS NAME=2-Butenoic acid, hexyl ester
##MOLFORM=C10H18O2
##CAS REGISTRY NO=19089-92-0
##MP= -300
##BP= -300
##MW= 170
##$RETENTION INDEX=1202
##$CONDENSED SPECTRUM=NO
##NPOINTS= 104
##XYDATA=(XY..XY) 1 
    14          1
    15          7
    16          1
    17          3
    18         16
    26          4
    27         59
    28         26
    29         75
    30          3
    31         17
    32          1
    37          2
    38          6
    39        112
    40         24
    41        296
    42        125
    43        265
    44         35
    45         20
    46          1
    47          1
    50          1
    51          3
    52          1
    53         10
    54         13
    55        165
    56        283
    57         47
    58          6
    59          4
    60          4
    61          9
    65          2
    66          1
    67         10
    68         26
    69        999
    70         54
    71         15
    72          3
    73          9
    74          4
    75          3
    76          4
    77          2
    79          2
    81          4
    82          7
    83         32
    84        154
    85         47
    86         30
    87        788
    88         38
    89          5
    91          1
    92          1
    93          1
    94          1
    95          3
    96          2
    97          8
    98          4
    99         19
   100          4
   101         12
   102          7
   103          4
   105          1
   107          1
   108          1
   109          4
   110          9
   111          3
   112          2
   113          7
   114          2
   115          2
   117          3
   119          1
   121          1
   123          1
   124          2
   125          2
   126          1
   127         10
   128          2
   129          5
   131          3
   132          1
   137          3
   139          3
   140          1
   141          2
   151          2
   155          2
   160          1
   167          1
   168         10
   169          2
   170         17