##TITLE=Library Entry 46580
##JCAMP-DX=Revision 4.10 
##DATA TYPE=MASS SPECTRUM
##SAMPLE DESCRIPTION=V.A.KOPTYUG, ATLAS OF MASS SPECTRA OF ORGANIC COMPOUNDS
##NAMES=HP
##CAS NAME=2,4-Dinitrodiphenylsulfoxide
##MOLFORM=C12H8N2O5S
##CAS REGISTRY NO=19093-39-1
##MP= -300
##BP= -300
##MW= 292
##$RETENTION INDEX=0
##$CONDENSED SPECTRUM=NO
##NPOINTS= 119
##XYDATA=(XY..XY) 1 
    28        140
    29         10
    30        200
    38         16
    39        116
    41         16
    43         16
    44         33
    45         76
    50         76
    51        466
    52         36
    53         63
    54         10
    55         16
    62         30
    63        113
    64         30
    65        433
    66         30
    67         16
    69         60
    70         13
    71         13
    73         10
    74         70
    75        126
    76         53
    77        999
    78        123
    79        120
    80         20
    81         43
    82         16
    83         16
    89         20
    90         10
    91         16
    93        266
    94         26
    95         70
    96         16
    97        236
    98         20
    99         16
   102         26
   103         10
   104         23
   105         36
   106         13
   107         13
   108         16
   109        123
   110         30
   111         16
   113         13
   114         16
   115         40
   116         13
   121         16
   122         10
   123         18
   124         13
   125        433
   126         73
   127         70
   128         30
   129         13
   134         10
   136         10
   137         13
   138         16
   139        116
   140         40
   141         40
   142         20
   149         13
   150         43
   151        156
   152        240
   153         90
   154        106
   155         33
   156         10
   158         10
   165         40
   166         36
   167         23
   168         36
   169         13
   170         40
   171         40
   172         10
   173         10
   180         10
   181        216
   182        383
   183        110
   184         20
   185         10
   197         10
   198         13
   199         50
   200         13
   201         13
   210         13
   211        301
   212         43
   213         10
   215         20
   216         10
   227         63
   228         30
   229         10
   245         10
   246         13
   262         13
   292         30
   293         10