##TITLE=Library Entry 48897
##JCAMP-DX=Revision 4.10 
##DATA TYPE=MASS SPECTRUM
##SAMPLE DESCRIPTION=Chemical Concepts
##NAMES=HP
##CAS NAME=Bicyclo[3.2.0]hept-3-en-2-one
##MOLFORM=C7H8O
##CAS REGISTRY NO=19093-11-9
##MP= -300
##BP= -300
##MW= 108
##$RETENTION INDEX=0
##$CONDENSED SPECTRUM=NO
##NPOINTS= 59
##XYDATA=(XY..XY) 1 
    25         11
    26        170
    27        456
    28          5
    29          7
    31          3
    34          0
    36          2
    37         36
    38         76
    39        343
    40         44
    41         73
    42          7
    43          5
    44          0
    46          1
    48          2
    49         24
    50        170
    51        264
    52        578
    53        233
    54         67
    55        110
    56          3
    59          2
    60          2
    61         11
    62         15
    63         32
    64          8
    65         98
    66        114
    67         41
    68         25
    69          1
    73          3
    74         11
    75         12
    76          5
    77        249
    78         69
    79        999
    80        761
    81         78
    82          7
    85          0
    86          0
    89          1
    90          5
    91          4
    92          0
    93          6
   106          3
   107        166
   108        635
   109         51
   110          3