##TITLE=Library Entry 43295
##JCAMP-DX=Revision 4.10 
##DATA TYPE=MASS SPECTRUM
##SAMPLE DESCRIPTION=Chemical Concepts
##NAMES=HP
##CAS NAME=Heptasiloxane, 1,1,3,3,5,5,7,7,9,9,11,11,13,13-tetradecamethyl-
##MOLFORM=C14H44O6Si7
##CAS REGISTRY NO=19095-23-9
##MP= -300
##BP= -300
##MW= 504
##$RETENTION INDEX=0
##$CONDENSED SPECTRUM=NO
##NPOINTS= 215
##XYDATA=(XY..XY) 1 
    27          0
    28          9
    29          0
    31          4
    39          0
    40          1
    41          0
    43          2
    44          1
    45         44
    46          3
    47          1
    51          0
    53          0
    54          0
    55          0
    56          0
    57          0
    58          2
    59         79
    60          6
    61          3
    62          0
    68          0
    69          0
    70          0
    71          1
    72          2
    73        999
    74         74
    75         35
    76          1
    77          0
    81          0
    82          0
    83          0
    85          4
    86          0
    87          4
    88          1
    89          0
    91          0
    95          0
    96          0
    97          1
   101          0
   103         10
   104          1
   105          1
   113          0
   115          0
   116          0
   117         22
   118          3
   119         11
   120          1
   121          1
   129          0
   131         14
   132          3
   133        117
   134         18
   135          9
   136          1
   139          0
   140          0
   145          1
   147        113
   148         20
   149         10
   150          1
   151          0
   152          1
   153          1
   154          0
   159          0
   161          1
   163          1
   165          0
   173          0
   174          0
   175          3
   176          1
   177         11
   178          3
   179          4
   180          1
   181          0
   182          0
   183          0
   185          0
   186          0
   187          0
   188          0
   189          4
   190          1
   191         21
   192          6
   193         74
   194         16
   195          9
   196          1
   197          0
   198          0
   199          1
   200          1
   201          1
   202          1
   203          1
   204          0
   205          7
   207        459
   208         92
   209         54
   210          9
   211          2
   219          0
   221         50
   222         12
   223          7
   224          1
   233          1
   234          1
   235          1
   236          1
   237          2
   238          1
   239          1
   240          0
   245          0
   246          1
   247          2
   249          6
   250          2
   251          9
   252          3
   253          9
   254          2
   255          1
   258          2
   259          1
   260          0
   263          1
   265         12
   267         95
   268         26
   269         15
   270          3
   271          2
   272          1
   273          0
   277          0
   279          3
   281        116
   282         35
   283         21
   284          3
   285          1
   294          0
   295          2
   296          1
   297          1
   298          0
   307          1
   309          2
   311         10
   312          3
   313          5
   314          1
   315          1
   319          1
   320          0
   322          1
   323          4
   325         22
   326          8
   327         39
   328         11
   329          8
   330          2
   331          1
   332          0
   333          0
   339          4
   341        109
   342         39
   343         24
   344          5
   345          2
   355        128
   356         45
   357         29
   358          7
   359          2
   377          1
   381          0
   383          1
   397          0
   399          1
   401          0
   413          0
   414          0
   415          5
   416          2
   417          1
   418          0
   429         30
   430         11
   431          8
   432          2
   433          1
   489          6
   490          3
   491          2
   492          1