##TITLE=Library Entry 70995
##JCAMP-DX=Revision 4.10 
##DATA TYPE=MASS SPECTRUM
##SAMPLE DESCRIPTION=NIST Mass Spectrometry Data Center
##NAMES=HP
##CAS NAME=Hexadecanedioic acid, dimethyl ester
##MOLFORM=C18H34O4
##CAS REGISTRY NO=19102-90-0
##MP= -300
##BP= -300
##MW= 314
##$RETENTION INDEX=2266
##$CONDENSED SPECTRUM=NO
##NPOINTS= 214
##XYDATA=(XY..XY) 1 
    15         12
    26          1
    27         24
    28         10
    29         68
    30          3
    31          9
    33          2
    38          1
    39         40
    40         10
    41        316
    42         74
    43        376
    44         13
    45         37
    46          1
    47          1
    48          1
    50          1
    51          2
    52          2
    53         35
    54         48
    55        769
    56         87
    57        187
    58         23
    59        318
    60         11
    61          4
    64          1
    65          8
    66          5
    67        117
    68         52
    69        355
    70         48
    71         65
    72          7
    73         59
    74        652
    75         55
    76          4
    77          7
    78          4
    79         39
    80         29
    81        127
    82         52
    83        281
    84        420
    85         69
    87        339
    88         37
    89          3
    90          1
    91         12
    92          4
    93         42
    94         47
    95        118
    96         90
    97        266
    98        999
    99         93
   100         11
   101         58
   102          6
   103          1
   104          1
   105          8
   106          3
   107         43
   108         49
   109         90
   110         47
   111        154
   112        327
   113         46
   114         13
   115         42
   116         16
   117          3
   118          1
   119         12
   120          6
   121         74
   122         27
   123         55
   124         33
   125         83
   126         89
   127         21
   128         11
   129         34
   130         30
   131          5
   132          2
   133         14
   134         10
   135         67
   136         18
   137         30
   138         23
   139         41
   140         50
   141         19
   142          5
   143         34
   144         43
   145          5
   146          1
   147          9
   148         13
   149         43
   150         15
   151         20
   152         26
   153         28
   154         78
   155         13
   156          5
   157         19
   158         37
   159          5
   160          1
   161          4
   162          2
   163          8
   164          9
   165         11
   166         28
   167         33
   168         60
   169          9
   170          3
   171         14
   172         13
   173          2
   174          1
   175          3
   176          2
   177          3
   178          4
   179          8
   180         11
   181          8
   182          8
   183          3
   184          6
   185         12
   186          6
   187          1
   188          1
   189          4
   190          8
   191         59
   192          9
   193          4
   194          5
   195          3
   196          2
   197          3
   198          8
   199         13
   200          4
   201          1
   203          1
   204          2
   205          9
   206          3
   207          5
   208         36
   209         79
   210         13
   211          3
   212          1
   213          2
   214          2
   215          1
   221          2
   222         17
   223          8
   224          1
   225          1
   226         17
   227          5
   228         11
   229          1
   231          1
   232          2
   233          1
   238          1
   239          4
   240          6
   241        119
   242         19
   243          2
   249          5
   250         29
   251          8
   252          1
   254          3
   255          1
   256          2
   264          1
   267          1
   271          1
   281          1
   282         10
   283        159
   284         32
   285          4