##TITLE=Library Entry 46675
##JCAMP-DX=Revision 4.10 
##DATA TYPE=MASS SPECTRUM
##SAMPLE DESCRIPTION=J.M. MILLER,BROCK UNIVERSITY,ONTARIO,CANADA
##NAMES=HP
##CAS NAME=Benzenamine, N-[[2-(1-methylethyl)phenyl]phenylmethylene]-
##MOLFORM=C22H21N
##CAS REGISTRY NO=19103-10-7
##MP= -300
##BP= -300
##MW= 299
##$RETENTION INDEX=0
##$CONDENSED SPECTRUM=NO
##NPOINTS= 105
##XYDATA=(XY..XY) 1 
    50        146
    51        757
    52         95
    53         30
    61         11
    62         35
    63        130
    64         49
    65        116
    66         46
    74         43
    75         65
    76         95
    77        999
    78        189
    79         30
    86         13
    87         27
    88         22
    89         57
    90         19
    91        324
    92         57
    93        114
    94         49
   101         11
   102         11
   103         32
   104         54
   105        119
   106         89
   107         43
   108         24
   113         19
   114         16
   115        122
   116         43
   117         19
   118         13
   126         24
   127        111
   128        178
   129        514
   130         97
   131         16
   133         11
   134         32
   135         16
   139         30
   140         19
   141         13
   142         30
   150         16
   151         32
   152         65
   153         22
   163         27
   164         24
   165        181
   166         27
   167         13
   176         24
   177         27
   178        151
   179         97
   180        122
   181         24
   182         19
   189         49
   190         57
   191        195
   192        190
   193         47
   194         13
   201          8
   202         22
   203         32
   204         54
   205        100
   206        270
   207        676
   208        149
   209         19
   220         16
   221         13
   222        514
   223        111
   224         13
   254         24
   255         11
   256         24
   266         11
   267         24
   268         19
   269         32
   270         13
   281          8
   282         35
   283         70
   284        127
   285         27
   298         87
   299        173
   300         54
   301          8