##TITLE=Library Entry 46677
##JCAMP-DX=Revision 4.10 
##DATA TYPE=MASS SPECTRUM
##SAMPLE DESCRIPTION=J.M. MILLER,BROCK UNIVERSITY,ONTARIO,CANADA
##NAMES=HP
##CAS NAME=Methanone, [2-(1-methylethyl)phenyl]phenyl-
##MOLFORM=C16H16O
##CAS REGISTRY NO=19103-09-4
##MP= -300
##BP= -300
##MW= 224
##$RETENTION INDEX=0
##$CONDENSED SPECTRUM=NO
##NPOINTS= 111
##XYDATA=(XY..XY) 1 
    49         10
    50        267
    51        667
    52        117
    53         42
    54          7
    55         10
    61         32
    62         63
    63        133
    64         30
    65         98
    66         10
    73         12
    74        105
    75        120
    76        125
    77        999
    78        250
    79         73
    82         33
    83         25
    84          8
    85          7
    86         22
    87         32
    88         16
    89         93
    90         22
    91        217
    92         25
    93          5
    94          5
    95          7
    96          7
    97         57
    98         15
    99         10
   100          5
   101         27
   102         88
   103        183
   104         82
   105        267
   106         23
   107          6
   108         10
   113         12
   114          8
   115        125
   116         30
   117         87
   118         23
   119         13
   126         18
   127         35
   128         65
   129        125
   130         18
   131         90
   132         20
   133         40
   138          3
   139         28
   140          5
   141         10
   145         30
   146         28
   147        112
   148         15
   149          5
   150         10
   151         25
   152         75
   153         27
   154          5
   163         20
   164         20
   165        183
   166         58
   167         20
   176         15
   177         18
   178         79
   179         37
   180         22
   181         32
   182          7
   189         21
   190         12
   191        103
   192         32
   193         37
   194        384
   195        125
   196         20
   202          7
   203          9
   204          9
   205         27
   206         25
   207         50
   208        125
   209        483
   210         87
   211          8
   222          5
   223        183
   224        275
   225         73
   226          8