##TITLE=Library Entry 58062
##JCAMP-DX=Revision 4.10 
##DATA TYPE=MASS SPECTRUM
##SAMPLE DESCRIPTION=Institute of Organic Chemistry, Novosibirsk, USSR 1988
##NAMES=HP
##CAS NAME=Dimethyl 2-methylhexadecane-1,16-dioate
##MOLFORM=C19H36O4
##CAS REGISTRY NO=19102-97-7
##MP= -300
##BP= -300
##MW= 328
##$RETENTION INDEX=0
##$CONDENSED SPECTRUM=NO
##NPOINTS= 167
##XYDATA=(XY..XY) 1 
    29         91
    30          9
    31         10
    39         23
    41        300
    42         65
    43        249
    44         22
    45         39
    53         12
    54         14
    55        474
    56         60
    57        217
    58         27
    59        154
    60          8
    61          8
    65          4
    67         83
    68         26
    69        334
    70         29
    71         92
    72         29
    73         45
    74        214
    75         23
    77          2
    78          2
    79         16
    80         11
    81        120
    82         44
    83        229
    84        167
    85         46
    86          1
    87        129
    88        999
    89         41
    90         11
    92          1
    93         17
    94         25
    95        101
    96         54
    97        189
    98        511
    99         45
   101        124
   102          4
   104          1
   105          9
   106          2
   107         28
   108         53
   109         57
   110         34
   111        127
   112        520
   113         56
   114         14
   115         14
   116          2
   117          2
   118          2
   119          2
   121         42
   122         24
   123         36
   124         17
   125         74
   126        136
   127         16
   128          6
   129         34
   133          3
   134          3
   135         37
   136          1
   137         17
   138         14
   139         31
   140         25
   141         12
   142          9
   143         14
   144         54
   149         19
   150          9
   151          2
   152         25
   153         29
   154         33
   155          9
   156         11
   157         15
   158         15
   160          9
   162          1
   163         10
   164          1
   165         11
   166         11
   167         19
   168         24
   169          2
   171          9
   172         16
   173          1
   176         10
   177          1
   179          4
   180         11
   181          9
   182         23
   183          3
   185          4
   186          9
   188          9
   190          8
   191         39
   192         11
   193          9
   194         12
   195          9
   196          4
   204          9
   205         18
   206          8
   208         12
   209         54
   210          9
   212         11
   213          9
   219         19
   220          4
   221          4
   222          9
   223         45
   224         14
   226          9
   233          8
   235          1
   236         29
   237         33
   238         10
   239          1
   240         12
   241        107
   242         29
   243         11
   253         11
   254         10
   255         59
   256         14
   263          9
   264         32
   265          1
   266         11
   268         11
   269         80
   270         22
   283          9
   296         19
   297         34