##TITLE=Library Entry 52833
##JCAMP-DX=Revision 4.10 
##DATA TYPE=MASS SPECTRUM
##SAMPLE DESCRIPTION=Chemical Concepts
##NAMES=HP
##CAS NAME=1H-Pyrazole, 4,5-dihydro-3-methyl-
##MOLFORM=C4H8N2
##CAS REGISTRY NO=1911-30-4
##MP= -300
##BP= -300
##MW= 84
##$RETENTION INDEX=0
##$CONDENSED SPECTRUM=NO
##NPOINTS= 51
##XYDATA=(XY..XY) 1 
    26        174
    27        493
    28        524
    29        244
    30         65
    31          3
    35          9
    36          9
    37         21
    38         41
    39        196
    40         93
    41        186
    42        752
    43         86
    44         10
    45          0
    47         28
    48          1
    49         21
    50         42
    51         50
    52         33
    53         67
    54        247
    55        215
    56        596
    57         27
    58          2
    59          0
    63          0
    65          2
    66         12
    67          4
    68         14
    69        152
    70          7
    72          1
    73          1
    75          3
    76          0
    77          2
    78          1
    79          1
    80          1
    81         27
    82         31
    83        999
    84        865
    85         47
    86         55