##TITLE=Library Entry 367
##JCAMP-DX=Revision 4.10 
##DATA TYPE=MASS SPECTRUM
##SAMPLE DESCRIPTION=Exported from NIST MS Search
##NAMES=HP
##CAS NAME=Ethanesulfonic acid, methyl ester
##MOLFORM=C3H8O3S
##CAS REGISTRY NO=1912-28-3
##MP= -300
##BP= -300
##MW= 124
##$RETENTION INDEX=0
##$CONDENSED SPECTRUM=NO
##NPOINTS= 35
##XYDATA=(XY..XY) 1 
    14         12
    15        393
    26        209
    27        832
    28        288
    29        999
    30        121
    31        598
    32        110
    33         33
    45        555
    46         24
    47         21
    48        140
    49         37
    50         86
    57         19
    58         24
    59         71
    60         37
    64         62
    65         93
    66        138
    79        209
    80         99
    81         26
    93         47
    94         19
    95         28
    96        288
    97         37
   109         41
   110         13
   124         22
   125         13