##TITLE=Library Entry 43238
##JCAMP-DX=Revision 4.10 
##DATA TYPE=MASS SPECTRUM
##SAMPLE DESCRIPTION=O A MAMER, MCGILL UNIVERSITY, MONTRE
##NAMES=HP
##CAS NAME=L-Rhamnose, 4TMS derivative
##MOLFORM=C18H44O5Si4
##CAS REGISTRY NO=19127-15-2
##MP= -300
##BP= -300
##MW= 452
##$RETENTION INDEX=1657
##$CONDENSED SPECTRUM=NO
##NPOINTS= 87
##XYDATA=(XY..XY) 1 
    29          7
    41          3
    43         20
    44         11
    45         72
    46          5
    47         10
    53          4
    55         13
    57          9
    58          5
    59         37
    60          4
    61          8
    69          3
    71          3
    72         19
    73        999
    74         84
    75         81
    76          6
    77          4
    83         11
    85          8
    87          4
    89          3
    99          6
   101         10
   102          3
   103         21
   113          4
   115         29
   116          9
   117         29
   118          3
   119          6
   127          3
   129         30
   130         65
   131         38
   132          7
   133         52
   134          8
   135          5
   143         16
   144          3
   145          4
   147        178
   148         29
   149         26
   150          3
   155          7
   157          6
   159          3
   161          3
   175          6
   177          5
   189         58
   190         14
   191        159
   192         30
   193         14
   203          9
   204        968
   205        192
   206         91
   207          7
   215          4
   217         77
   218         16
   219          8
   221          8
   229          7
   230          3
   231          8
   233          3
   245          5
   273          4
   274          4
   291         10
   303          4
   305         11
   306          3
   319          8
   320          3
   393         10
   394          4