##TITLE=Library Entry 68399
##JCAMP-DX=Revision 4.10 
##DATA TYPE=MASS SPECTRUM
##SAMPLE DESCRIPTION=DR GLENN PATTERSON
##NAMES=HP
##CAS NAME=9,19-Cyclocholestan-3-ol, 14-methyl-, (3.beta.,5.alpha.)-
##MOLFORM=C28H48O
##CAS REGISTRY NO=1912-66-9
##MP= -300
##BP= -300
##MW= 400
##$RETENTION INDEX=0
##$CONDENSED SPECTRUM=NO
##NPOINTS= 131
##XYDATA=(XY..XY) 1 
    39         60
    41        509
    42         60
    43        679
    55        699
    56         80
    57        480
    67        400
    68         80
    69        539
    70         50
    71        240
    77        160
    78         50
    79        440
    80         80
    81        659
    82        150
    83        320
    91        529
    92        140
    93        589
    94        260
    95        999
    96        130
    97        220
   105        509
   106        300
   107        749
   108        210
   109        579
   110         80
   111        150
   115         90
   117        180
   118         80
   119        460
   120        200
   121        569
   122        200
   123        320
   124         60
   125         60
   129         80
   130         50
   131        280
   132         90
   133        420
   134        210
   135        340
   136        140
   137        210
   143        100
   144         60
   145        340
   146        110
   147        420
   148        170
   149        410
   150        110
   151        110
   159        320
   160        150
   161        310
   162        110
   163        549
   164         90
   165         80
   173        210
   174        130
   175        529
   176        130
   177        130
   185         80
   187        130
   188         50
   189         90
   191         90
   193         80
   199         90
   201        110
   203         80
   205         90
   206        150
   207        200
   213         80
   215        120
   217         90
   219         90
   220        110
   221         50
   227        100
   229         90
   231        100
   233        130
   234         50
   242         40
   243         60
   245         70
   246         60
   247         80
   259         50
   260         50
   261        160
   262         70
   263         40
   267         40
   269        350
   270         80
   271         50
   273        130
   274         60
   275         40
   276        100
   285        360
   286        110
   287        330
   288        320
   289        120
   341         40
   367        519
   368        150
   369         60
   382        430
   383        290
   384         90
   385        589
   386        150
   399         80
   400        250
   401         80