##TITLE=Library Entry 24470
##JCAMP-DX=Revision 4.10 
##DATA TYPE=MASS SPECTRUM
##SAMPLE DESCRIPTION=M.MEOT-NER THE ROCKEFELLER UNIV., NEW YORK, N.Y., USA
##NAMES=HP
##CAS NAME=Cholest-5-en-3-ol, 6-nitro-, acetate (ester), (3.beta.)-
##MOLFORM=C29H47NO4
##CAS REGISTRY NO=1912-54-5
##MP= -300
##BP= -300
##MW= 473
##$RETENTION INDEX=0
##$CONDENSED SPECTRUM=NO
##NPOINTS= 308
##XYDATA=(XY..XY) 1 
    36          7
    39         50
    40         12
    41        529
    42         58
    43        995
    44         44
    45        119
    50         11
    51          8
    52          6
    53         74
    54         18
    55        877
    56         96
    57        999
    58         47
    60        104
    61         11
    65         35
    66         18
    67        384
    68         75
    69        712
    70         80
    71        552
    72         30
    77        110
    78         32
    79        321
    80         58
    81        829
    82        120
    83        425
    84         47
    85         81
    86          7
    91        354
    92         73
    93        461
    94        112
    95        892
    96         90
    97        255
    98         27
    99         11
   103         42
   104         37
   105        319
   106         87
   107        577
   108        119
   109        397
   110         60
   111        129
   112         17
   113         16
   115         45
   116         32
   117        142
   118         72
   119        307
   120        109
   121        309
   122         73
   123        187
   124         38
   125         55
   126         24
   127         16
   128         51
   129         99
   130         60
   131        175
   132         72
   133        230
   134         77
   135        339
   136         76
   137        105
   138         25
   139         16
   140          6
   141         43
   142         44
   143        129
   144         91
   145        207
   146         88
   147        204
   148         93
   149        157
   150         54
   151         53
   152         16
   153         20
   154         17
   155         47
   156         39
   157        147
   158         85
   159        261
   160         84
   161        142
   162         56
   163         83
   164         25
   165         40
   166        109
   167         46
   168         16
   169         45
   170         35
   171         84
   172         53
   173        142
   174         65
   175        128
   176         53
   177         61
   178         36
   179         27
   180         14
   181         16
   182         16
   183         44
   184         30
   185         65
   186         43
   187         68
   188         48
   189         87
   190         55
   191         49
   192         22
   193         54
   194          8
   195         15
   196         18
   197         54
   198         38
   199         58
   200         37
   201         60
   202         44
   203         48
   204         31
   205         70
   206         26
   207         37
   208          9
   209         10
   210         14
   211         50
   212         38
   213         56
   214         46
   215         57
   216         44
   217         34
   218         19
   219         34
   220         11
   221          6
   223          9
   224         15
   225         31
   226         29
   227         30
   228         31
   229         57
   230         46
   231         35
   232         31
   233         21
   234         11
   237          7
   238          9
   239         30
   240         26
   241         31
   242         45
   243         44
   244         54
   245         59
   246         27
   247         85
   248         25
   249          7
   251          6
   252         13
   253         50
   254         34
   255         26
   256         35
   257         30
   258         58
   259         32
   260         41
   261         36
   262         11
   264          7
   266          6
   267          7
   268         11
   269         17
   270         19
   271         40
   272         44
   273         25
   274         21
   275         10
   276          6
   281          7
   282         33
   283         21
   284         29
   285         16
   286         30
   287         13
   288         17
   289         10
   296          8
   297          7
   298         12
   299         13
   300         72
   301         23
   302         15
   303          7
   310         13
   311         10
   312         11
   313         13
   314         32
   315         16
   316         11
   317          5
   324          8
   325         16
   326         20
   327         21
   328        122
   329        321
   330         91
   331         17
   337          5
   338         37
   339         20
   340         16
   341         20
   342         78
   343         28
   344         18
   345          6
   348          7
   351         16
   352         53
   353         53
   354         38
   355         72
   356        240
   357         70
   358         19
   359          7
   364          7
   365         82
   366        100
   367        112
   368        256
   369         92
   370        277
   371         81
   372         40
   373         11
   374         13
   378         30
   379         16
   380         45
   381         66
   382        146
   383        623
   384        391
   385        292
   386         89
   387         15
   394          8
   395         33
   396        310
   397        102
   398        204
   399         60
   400         18
   401          7
   412         32
   413        498
   414        282
   415         69
   416         12
   427         15
   428          8
   430         26
   431         16
   440          6
   456         25
   457          9
   458         10
   473         10