##TITLE=Library Entry 22586
##JCAMP-DX=Revision 4.10 
##DATA TYPE=MASS SPECTRUM
##SAMPLE DESCRIPTION=Exported from NIST MS Search
##NAMES=HP
##CAS NAME=Methanesulfonic acid, butyl ester
##MOLFORM=C5H12O3S
##CAS REGISTRY NO=1912-32-9
##MP= -300
##BP= -300
##MW= 152
##$RETENTION INDEX=0
##$CONDENSED SPECTRUM=NO
##NPOINTS= 24
##XYDATA=(XY..XY) 1 
    15        174
    18         19
    27        221
    28         49
    29        251
    31         45
    32         11
    39        138
    41        497
    42         43
    43        205
    45         74
    55        133
    56        999
    57        208
    79        567
    80         95
    81         67
    97        128
   109        398
   110         24
   111         47
   123         24
   152          4