##TITLE=Library Entry 41792
##JCAMP-DX=Revision 4.10 
##DATA TYPE=MASS SPECTRUM
##SAMPLE DESCRIPTION=D.HENNEBERG, MAX-PLANCK INSTITUTE, MULHEIM, WEST GERMAN
Y
##NAMES=HP
##CAS NAME=N-Acetyl-D-galactosaminitol, 5TMS derivative
##MOLFORM=C23H57NO6Si5
##CAS REGISTRY NO=19127-02-7
##MP= -300
##BP= -300
##MW= 583
##$RETENTION INDEX=0
##$CONDENSED SPECTRUM=NO
##NPOINTS= 250
##XYDATA=(XY..XY) 1 
    24          1
    27          4
    28         19
    29          2
    30          6
    31          1
    35          0
    36          1
    37          1
    38          1
    39          1
    40          1
    41         11
    42          9
    43         47
    44         11
    45         48
    46          4
    47          9
    49          0
    50          0
    51          1
    52          1
    53          3
    54          7
    55          9
    56          6
    57          2
    58          5
    59         20
    60          4
    61          7
    62          0
    63          0
    65          0
    66          1
    67          3
    68         15
    69         12
    70          3
    71          3
    72         16
    73        999
    74         85
    75        121
    76          9
    77          6
    78          1
    79          0
    80          5
    81          2
    82          2
    83          3
    84         20
    85          7
    86          3
    87          4
    88          4
    89         12
    90          1
    91          1
    96        263
    97          4
    98          1
    99          3
   100          9
   101         13
   102          8
   103        160
   104         16
   105          7
   106          1
   107          0
   108          0
   109          0
   110          1
   111          2
   112          1
   113          5
   114          5
   115          5
   116        103
   117         50
   118         10
   119          3
   120          1
   121          0
   122         10
   123          1
   124          1
   125          2
   126          2
   127          2
   128          8
   129         40
   130         13
   131         27
   132        189
   133         49
   134         13
   135          3
   136          0
   138          0
   139          0
   140          1
   141          2
   142          8
   143          7
   144         16
   145          5
   146          2
   147        144
   148         24
   149         20
   150          2
   151          0
   152          1
   153          1
   154          1
   155          3
   156          9
   157         68
   158         16
   159          8
   160          2
   161          2
   162          0
   163          2
   164          1
   166          2
   167          1
   168          5
   169          1
   170          6
   171          2
   172          1
   173          8
   174        132
   175         19
   176          5
   177          2
   181          1
   182          5
   183          3
   184          4
   185          3
   186        145
   187         25
   188          8
   189         12
   190          3
   191         15
   192          2
   193          1
   196          0
   198          8
   199          7
   200          3
   201          1
   202          0
   203          3
   204         21
   205         52
   206         11
   207          5
   208          1
   210          7
   211          0
   212          1
   213          0
   214          0
   215          2
   216          4
   217         92
   218         44
   219         14
   220          3
   221          4
   222          1
   223          2
   224          5
   225          1
   228          0
   229         16
   230         10
   231          7
   232          4
   233          1
   234          0
   239          0
   241          1
   243          1
   244          1
   246         49
   247         31
   248         10
   249          2
   255          3
   256          1
   258         24
   259          8
   260          5
   261          1
   265          0
   269          2
   270          9
   271          2
   272          4
   273          0
   274          2
   275          1
   276         31
   277         10
   278          4
   286          0
   287          1
   288         22
   289          6
   290          2
   291          2
   298          1
   299          1
   300         25
   301          7
   302          2
   305          1
   306          1
   307          6
   308          1
   309          1
   313          5
   314          4
   315          1
   316          0
   317          0
   319         56
   320         16
   321          8
   322          1
   331          0
   346          0
   349          3
   378         65
   379         22
   380         10
   388          0
   390          9
   391          2
   392          1
   404          0