##TITLE=Library Entry 43395
##JCAMP-DX=Revision 4.10 
##DATA TYPE=MASS SPECTRUM
##SAMPLE DESCRIPTION=NIST Mass Spectrometry Data Center
##NAMES=HP
##CAS NAME=D-Fructose, 5TMS derivative
##MOLFORM=C21H52O6Si5
##CAS REGISTRY NO=19126-98-8
##MP= -300
##BP= -300
##MW= 540
##$RETENTION INDEX=1855
##$CONDENSED SPECTRUM=NO
##NPOINTS= 265
##XYDATA=(XY..XY) 1 
    15          1
    27          1
    29          2
    31          1
    39          1
    41          5
    42          1
    43         11
    44         11
    45         64
    46          4
    47          7
    53          4
    54          2
    55          9
    56          1
    57          5
    58          9
    59         36
    60          4
    61          7
    65          1
    66          2
    67          2
    68          2
    69         20
    70          4
    71          5
    73        999
    74        111
    75        124
    76          7
    77          5
    79          1
    81          5
    82          1
    83          3
    84          1
    85          6
    86          1
    87          5
    88          6
    89         18
    90          2
    91          2
    95          1
    97          2
    98          1
    99          8
   101         57
   102         14
   103        204
   104         21
   105         14
   106          1
   107          1
   109          3
   111          4
   112          1
   113          9
   114          2
   115         12
   116         31
   117         98
   118         11
   119         14
   120          1
   121          1
   125          3
   126          1
   127          8
   129        144
   130         21
   131         52
   132         10
   133        124
   134         18
   135         13
   136          1
   137          1
   139          1
   140          2
   141         14
   142         10
   143         61
   144          8
   145         18
   147        508
   148         85
   149         70
   150          8
   151          6
   152          1
   153          1
   154          1
   155         11
   156          4
   157         52
   158          9
   159         10
   160          2
   161          8
   162          1
   163         10
   164          2
   165          1
   166          1
   167          1
   169         16
   170          3
   171          7
   172          1
   173          5
   174          1
   175         12
   176          2
   177         11
   178          2
   179          1
   181          1
   183          6
   184          1
   185          5
   186          1
   187          5
   189         83
   190         25
   191         93
   192         17
   193         11
   194          2
   195          1
   199          5
   200          1
   201          6
   202          2
   203         15
   204        654
   205        322
   206        101
   207         37
   208          6
   209          2
   213          1
   215         74
   217        983
   218        287
   219        145
   220         23
   221         35
   222          7
   223          4
   224          1
   227          1
   229         26
   230         49
   231         63
   232         17
   233         13
   234         12
   235          4
   236          1
   237          1
   239          1
   241          1
   243         22
   244          5
   245         14
   246          4
   247         29
   248          7
   249          3
   250          1
   255          4
   256          1
   257         37
   258          9
   259          8
   260          2
   261          1
   263          2
   264          1
   265         18
   266          5
   267          2
   271         14
   272          4
   273         23
   274          5
   275          7
   276          2
   277         19
   278          6
   279          4
   280          4
   281          1
   288          1
   289          3
   291         41
   292         47
   293         47
   294         15
   295          5
   296          1
   303         20
   304          8
   305         65
   306        218
   307         94
   308         38
   309         10
   310          2
   317          9
   318          6
   319        133
   320         41
   321         35
   322          9
   323          3
   324          1
   331          4
   332          2
   333          5
   334          2
   335          3
   336          1
   337          1
   345         24
   346          8
   347         27
   348          8
   349          9
   350          2
   351          1
   359          1
   361         17
   362          6
   363         11
   364          4
   365         38
   366         12
   367         11
   368          3
   369          1
   378          1
   379          1
   380          1
   381          1
   393          4
   394          1
   395          1
   405          2
   406          1
   407          1
   408          1
   435         21
   436          2
   437        378
   438        151
   439         83
   440         22
   441          6
   442          1
   450          1
   525          1