##TITLE=Library Entry 6034
##JCAMP-DX=Revision 4.10 
##DATA TYPE=MASS SPECTRUM
##SAMPLE DESCRIPTION=NIST Mass Spectrometry Data Center, 1994
##NAMES=HP
##CAS NAME=Dihexyl fumarate
##MOLFORM=C16H28O4
##CAS REGISTRY NO=19139-31-2
##MP= -300
##BP= -300
##MW= 284
##$RETENTION INDEX=0
##$CONDENSED SPECTRUM=NO
##NPOINTS= 96
##XYDATA=(XY..XY) 1 
    14          4
    15         15
    16          2
    26         76
    27        362
    28        116
    29        414
    30         12
    31         21
    32          3
    39        155
    41        648
    42        307
    43        999
    44         43
    45         23
    50          2
    51          5
    53         97
    54        225
    55        637
    56        564
    57        150
    58          6
    59          3
    65          4
    67         41
    68         26
    69        223
    70         21
    71         54
    72         18
    73         12
    79          4
    81         78
    82        166
    83         92
    84        260
    85        457
    86         32
    87          3
    93          1
    94          4
    95          7
    96          5
    97         10
    98          1
    99        297
   100        190
   101         36
   102          4
   108          3
   109         23
   110          4
   111          5
   112         18
   113          8
   114          4
   115          3
   116          3
   117        423
   118         27
   119         14
   122          1
   123          3
   124          2
   125          6
   126          7
   127          4
   128          2
   129          2
   136          5
   137         11
   139         24
   140          9
   141         10
   142          2
   143          4
   152          2
   153          9
   154         11
   155         19
   157         16
   158          2
   164          4
   165          3
   171          1
   181          2
   183        176
   184         34
   185          4
   201        102
   202         12
   203          1
   227          2
   241          7