##TITLE=Library Entry 17874
##JCAMP-DX=Revision 4.10 
##DATA TYPE=MASS SPECTRUM
##SAMPLE DESCRIPTION=Exported from NIST MS Search
##NAMES=HP
##CAS NAME=1,3-Oxathiane, 2-methyl-
##MOLFORM=C5H10OS
##CAS REGISTRY NO=19134-37-3
##MP= -300
##BP= -300
##MW= 118
##$RETENTION INDEX=0
##$CONDENSED SPECTRUM=NO
##NPOINTS= 34
##XYDATA=(XY..XY) 1 
    26         80
    27        250
    28         90
    29        130
    31         40
    39        200
    40         40
    41        970
    42         80
    43        350
    44         50
    45        430
    46        999
    47        190
    48         50
    57         30
    58         80
    59        210
    60        170
    61         60
    62         40
    71         40
    73        120
    74        900
    75        150
    76         50
    85         40
   103        670
   104         40
   105         40
   117         30
   118        782
   119         40
   120         40