##TITLE=Library Entry 16803
##JCAMP-DX=Revision 4.10 
##DATA TYPE=MASS SPECTRUM
##SAMPLE DESCRIPTION=Chuck Anderson, Aldrich Chemical Co.
##NAMES=HP
##CAS NAME=2,3-Butanediol, [S-(R*,R*)]-
##MOLFORM=C4H10O2
##CAS REGISTRY NO=19132-06-0
##MP= -300
##BP= -300
##MW= 90
##$RETENTION INDEX=1565
##$CONDENSED SPECTRUM=NO
##NPOINTS= 25
##XYDATA=(XY..XY) 1 
    15         13
    19         27
    26          6
    27         63
    28         39
    29        102
    30          4
    31         20
    38          1
    39          8
    41         12
    42         15
    43        129
    44         44
    45        999
    46         27
    47         56
    55         16
    56          2
    57         75
    71          3
    72          5
    73          3
    75         19
    90          2