##TITLE=Library Entry 92565
##JCAMP-DX=Revision 4.10 
##DATA TYPE=MASS SPECTRUM
##SAMPLE DESCRIPTION=K. PIHLAJA
##NAMES=HP
##CAS NAME=1,3-Dioxane, 2,4,6-trimethyl-, (2.alpha.,4.alpha.,6.alpha.)-
##MOLFORM=C7H14O2
##CAS REGISTRY NO=19145-91-6
##MP= -300
##BP= -300
##MW= 130
##$RETENTION INDEX=0
##$CONDENSED SPECTRUM=NO
##NPOINTS= 15
##XYDATA=(XY..XY) 1 
    41         50
    42        160
    43        190
    44         60
    45        560
    68         60
    69        620
    71        130
    73         60
    86         60
    87        110
   101         50
   115        999
   116         90
   129        120