##TITLE=Library Entry 97379
##JCAMP-DX=Revision 4.10 
##DATA TYPE=MASS SPECTRUM
##SAMPLE DESCRIPTION=Japan AIST/NIMC Database- Spectrum MS-NW-9530
##NAMES=HP
##CAS NAME=trans-4-Phenyl-3-butenoic acid
##MOLFORM=C10H10O2
##CAS REGISTRY NO=1914-58-5
##MP= -300
##BP= -300
##MW= 162
##$RETENTION INDEX=0
##$CONDENSED SPECTRUM=NO
##NPOINTS= 80
##XYDATA=(XY..XY) 1 
     2          0
    14          1
    16          1
    26          1
    27          9
    29          2
    37          2
    38          6
    39         60
    40          3
    41          7
    42          2
    43          4
    44          7
    45          7
    50         19
    51         49
    52         10
    53          3
    55          8
    56          4
    57         45
    58         12
    59          1
    60          4
    61          3
    62         12
    63         40
    64          7
    65         51
    66          4
    72          1
    73          1
    74          9
    75          9
    76         12
    77         39
    78         14
    79          9
    81          1
    84          1
    85          2
    86          4
    87          5
    88          4
    89         39
    90          6
    91        174
    92         14
    94          1
   101          2
   102         17
   103         14
   104          2
   105         12
   106          2
   107         22
   108          2
   113          3
   114          5
   115        508
   116        123
   117        999
   118        104
   119          6
   120         82
   121          7
   122          4
   123          1
   127          7
   128          1
   131          2
   133          2
   144         45
   145          6
   160          1
   161          1
   162        426
   163         47
   164          4