##TITLE=Library Entry 7132
##JCAMP-DX=Revision 4.10 
##DATA TYPE=MASS SPECTRUM
##SAMPLE DESCRIPTION=H. Luftmann, Org. Chem. Inst., Westfalisch Wilhelms Uni
v., Munster, Germany
##NAMES=HP
##CAS NAME=Cyclooctaneacetic acid, 2-oxo-
##MOLFORM=C10H16O3
##CAS REGISTRY NO=19144-09-3
##MP= -300
##BP= -300
##MW= 184
##$RETENTION INDEX=0
##$CONDENSED SPECTRUM=NO
##NPOINTS= 40
##XYDATA=(XY..XY) 1 
    39        330
    40        210
    41        750
    42        390
    43        999
    44        240
    45        130
    53        120
    54        170
    55        930
    56        190
    57        330
    58        270
    60        160
    67        280
    68        260
    69        350
    70        160
    71        160
    73        100
    79        140
    80        120
    81        210
    82        140
    83        290
    84        270
    85        200
    94        100
    95        160
    96        160
    97        230
    98        520
    99        110
   111        130
   138        130
   139         13
   166         60
   167         20
   184         40
   185          4