##TITLE=Library Entry 80244
##JCAMP-DX=Revision 4.10 
##DATA TYPE=MASS SPECTRUM
##SAMPLE DESCRIPTION=CARL DJERASSI DEPT OF CHEM STANFORD UNIV STANFORD CALIF
 94305
##NAMES=HP
##CAS NAME=1,4-Cyclohexanediol, dibenzoate
##MOLFORM=C20H20O4
##CAS REGISTRY NO=19150-32-4
##MP= -300
##BP= -300
##MW= 324
##$RETENTION INDEX=0
##$CONDENSED SPECTRUM=NO
##NPOINTS= 39
##XYDATA=(XY..XY) 1 
    41        140
    42         50
    43         60
    44        150
    45         10
    50         40
    51        120
    52         10
    53         40
    54        120
    55        100
    56        150
    57        240
    58         70
    59         30
    64         10
    65         10
    67         20
    68         20
    69         60
    70         30
    71         20
    76         10
    77        350
    78         70
    79        120
    80        870
    81        120
    82         10
    83         50
    84         50
    86         30
    91         10
    96         30
    97         20
    98         60
   105        999
   106         90
   113         40