##TITLE=Library Entry 63189
##JCAMP-DX=Revision 4.10 
##DATA TYPE=MASS SPECTRUM
##SAMPLE DESCRIPTION=Japan AIST/NIMC Database- Spectrum MS-NW-9886
##NAMES=HP
##CAS NAME=Benzenesulfonyl cyanide, 4-methyl-
##MOLFORM=C8H7NO2S
##CAS REGISTRY NO=19158-51-1
##MP= -300
##BP= -300
##MW= 181
##$RETENTION INDEX=0
##$CONDENSED SPECTRUM=NO
##NPOINTS= 93
##XYDATA=(XY..XY) 1 
    15          1
    26          4
    27         20
    28         17
    29          1
    32          2
    34          1
    36          1
    37          6
    38         18
    39        142
    40         11
    41         37
    42          3
    43         12
    44          9
    45         12
    46          1
    48          7
    49          3
    50         44
    51         62
    52         18
    53         10
    54          1
    55          1
    57          1
    58          2
    59          1
    60          2
    61         10
    62         34
    63        105
    64         32
    65        323
    66         19
    67          5
    69          9
    70          2
    71          2
    73          2
    74         11
    75         10
    76          7
    77         60
    78         20
    79         72
    80          5
    81          1
    82          2
    84          1
    85          4
    86          9
    87          7
    88          3
    89        107
    90        118
    91        999
    92         89
    93          4
    95          2
    97          1
   104          2
   105          2
   106          7
   107        111
   108          9
   109          2
   111          3
   115          1
   116         75
   117         56
   118          5
   121          4
   122          2
   123          5
   124          8
   125          1
   132          2
   133          1
   139         17
   140          5
   141          1
   149          1
   155        299
   156         26
   157         15
   158          1
   180          2
   181        507
   182         51
   183         26
   184          3