##TITLE=Library Entry 80360
##JCAMP-DX=Revision 4.10 
##DATA TYPE=MASS SPECTRUM
##SAMPLE DESCRIPTION=G. Lange, Inst. Org. Chem., Univ. Wurzburg, Wurzburg, G
ermany
##NAMES=HP
##CAS NAME=3,4,5-Metheno[7]oxabicyclo[4.2.0]octane-8-exo-carboxylic acid, 8-
endo-phenyl-, methyl ester
##MOLFORM=C16H16O3
##CAS REGISTRY NO=191598-07-9
##MP= -300
##BP= -300
##MW= 256
##$RETENTION INDEX=0
##$CONDENSED SPECTRUM=NO
##NPOINTS= 105
##XYDATA=(XY..XY) 1 
    38          5
    39         76
    40         16
    41         34
    43         26
    44         12
    45        146
    47          6
    49          6
    50         20
    51         95
    52         26
    53         19
    55         43
    57         11
    59         21
    63         26
    64          8
    65        108
    66         71
    67         17
    69          6
    70         11
    71          8
    73        236
    74         14
    75          8
    76         19
    77        355
    78         38
    79         59
    80          7
    81         13
    83          8
    84         26
    85          6
    86         17
    89         30
    90         42
    91        660
    92        220
    93         20
    94         23
    95          6
    96          6
    97          9
   102         11
   103         21
   104          7
   105        999
   106         80
   107         18
   115         39
   116          7
   118         79
   119         19
   120          6
   121         27
   122          2
   127         11
   128         23
   129         15
   130          2
   131         13
   132          2
   133         12
   134          2
   141         28
   142          6
   149         43
   150         10
   151          5
   152         32
   153         22
   154         14
   155         15
   159          8
   163          7
   164          3
   165         38
   166         13
   167         36
   168         10
   169         18
   170          3
   177         40
   178         61
   179        112
   180         16
   181          5
   195         10
   196          8
   197        212
   198         32
   199         39
   200          5
   201         18
   202          3
   224          4
   225          8
   226          1
   227          1
   237          0
   238          0
   256          0