##TITLE=Library Entry 2826
##JCAMP-DX=Revision 4.10 
##DATA TYPE=MASS SPECTRUM
##SAMPLE DESCRIPTION=NIST Mass Spectrometry Data Center, 1990.
##NAMES=HP
##CAS NAME=trans-3-Decene
##MOLFORM=C10H20
##CAS REGISTRY NO=19150-21-1
##MP= -300
##BP= -300
##MW= 140
##$RETENTION INDEX=986
##$CONDENSED SPECTRUM=NO
##NPOINTS= 42
##XYDATA=(XY..XY) 1 
    15          9
    27        263
    28        114
    29        273
    30          6
    39        320
    40         88
    41        999
    42        311
    43        483
    44         24
    50         10
    51         29
    52         21
    53        116
    54        133
    55        868
    56        630
    57        162
    58          7
    65         30
    66         18
    67        160
    68         90
    69        691
    70        482
    71         78
    77         16
    79         18
    81         22
    82         40
    83        135
    84        126
    85         31
    96         16
    97        119
    98         42
   110          5
   111         47
   112         24
   140        162
   141         18