##TITLE=Library Entry 31936
##JCAMP-DX=Revision 4.10 
##DATA TYPE=MASS SPECTRUM
##SAMPLE DESCRIPTION=NIST Mass Spectrometry Data Center, 1994
##NAMES=HP
##CAS NAME=Benzofurazan, 5-methyl-, 1-oxide
##MOLFORM=C7H6N2O2
##CAS REGISTRY NO=19164-41-1
##MP= -300
##BP= -300
##MW= 150
##$RETENTION INDEX=0
##$CONDENSED SPECTRUM=NO
##NPOINTS= 79
##XYDATA=(XY..XY) 1 
    12          4
    13          2
    14         11
    15         14
    16          8
    17          6
    18         19
    25          4
    26         43
    27         91
    28        116
    29          2
    30        307
    31          4
    32         20
    36          4
    37         73
    38        118
    39        487
    40         65
    41         59
    42          9
    43          4
    44          6
    48          3
    49         30
    50        183
    51        219
    52         76
    53         16
    54          6
    55          2
    60          6
    61         58
    62        138
    63        343
    64        170
    65        999
    66        184
    67          9
    68          3
    73         12
    74         51
    75         57
    76         54
    77         88
    78         31
    79         16
    80          5
    84          3
    85         14
    86         35
    87         31
    88          3
    89        684
    90        193
    91         32
    92         19
    93          2
    94          3
    99          3
   102         10
   103         10
   104         11
   105         30
   106          7
   116          2
   117          4
   118          5
   119          3
   120          7
   122          1
   134         41
   135          4
   136          3
   148          3
   150        750
   151         60
   152          8