##TITLE=Library Entry 53094
##JCAMP-DX=Revision 4.10 
##DATA TYPE=MASS SPECTRUM
##SAMPLE DESCRIPTION=NIST Mass Spectrometry Data Center
##NAMES=HP
##CAS NAME=Pyrrolo[1,2-a]pyrazine-1,4-dione, hexahydro-
##MOLFORM=C7H10N2O2
##CAS REGISTRY NO=19179-12-5
##MP= -300
##BP= -300
##MW= 154
##$RETENTION INDEX=1795
##$CONDENSED SPECTRUM=NO
##NPOINTS= 86
##XYDATA=(XY..XY) 1 
    14          3
    15          8
    25          1
    26         15
    27         90
    28        214
    29         73
    30        115
    31          3
    33          1
    34          1
    35          1
    37          9
    38         26
    39        190
    40         94
    41        570
    42        335
    43        105
    44         26
    45          1
    49          3
    50          5
    51         11
    52         17
    53         29
    54         70
    55        425
    56        170
    57         58
    58          6
    59          1
    62          1
    63          2
    64          6
    65          4
    66         13
    67         35
    68        346
    69        420
    70        579
    71         38
    72          3
    73          2
    74          1
    75          4
    76          1
    78          2
    79          1
    80         10
    81         16
    82         63
    83        999
    84         89
    85         13
    86         30
    87          2
    92          1
    93          1
    94          2
    95          3
    96         29
    97         62
    98        289
    99         17
   100          1
   101          1
   107          1
   108          1
   109          2
   111        854
   112         80
   113          6
   123          1
   124          1
   125         44
   126         86
   127          7
   128          1
   137          1
   143          1
   151          1
   152          1
   154        580
   155         48
   156          4