##TITLE=Library Entry 96090
##JCAMP-DX=Revision 4.10 
##DATA TYPE=MASS SPECTRUM
##SAMPLE DESCRIPTION=A.A.Kutin, Moscow, Russia
##NAMES=HP
##CAS NAME=Cyclohexanone, 4-methyl-2,6-bis(phenylmethylene)-
##MOLFORM=C21H20O
##CAS REGISTRY NO=19186-11-9
##MP= -300
##BP= -300
##MW= 288
##$RETENTION INDEX=0
##$CONDENSED SPECTRUM=NO
##NPOINTS= 150
##XYDATA=(XY..XY) 1 
    33         59
    34          6
    39        398
    40        193
    41        193
    43         77
    44         60
    45          3
    47          3
    50         88
    51        237
    52         63
    53         55
    55         91
    56         11
    57         30
    58         15
    62         55
    63        173
    65        280
    66         35
    67         14
    69         16
    70         14
    71          9
    74         34
    75         78
    76        110
    77        243
    78        133
    79         33
    81          5
    84          8
    86          4
    87         24
    88         32
    89        168
    91        602
    92         46
    93          7
    95         18
    98         11
   100          4
   101         53
   102        218
   103         98
   104         39
   105         45
   107         36
   108         35
   109         43
   110         17
   113         52
   115        999
   116        237
   117         83
   118         17
   120          9
   121          7
   122         33
   123         20
   126         36
   127        136
   128        397
   129        251
   130         40
   131         27
   132          6
   134          2
   135         12
   136         12
   139         32
   141        256
   142         55
   143         55
   144         14
   145          8
   147          2
   150          4
   152         68
   153         53
   154         29
   155         37
   156          6
   157          7
   161          3
   163          4
   165         78
   166         39
   167         70
   168         12
   169         39
   171         26
   175          8
   177          3
   178         28
   179         22
   180          4
   181         51
   182         40
   183         75
   184         13
   189         22
   191         11
   192          4
   194          3
   195         10
   197         49
   198         10
   199         10
   200          8
   202         74
   203         84
   204         38
   205         36
   206          4
   209          3
   211          3
   215         66
   216         43
   217        215
   218        140
   219         26
   220          2
   221         51
   222          6
   226          4
   228         15
   229          9
   230          7
   231         17
   232          9
   240          2
   244          4
   245         34
   246         18
   257          3
   258          2
   259         40
   260         54
   261          2
   268          2
   273          3
   274          3
   284          7
   285         19
   287        682
   288        500
   289         95
   290         11