##TITLE=Library Entry 70524
##JCAMP-DX=Revision 4.10 
##DATA TYPE=MASS SPECTRUM
##SAMPLE DESCRIPTION=Japan AIST/NIMC Database- Spectrum MS-NW-1408
##NAMES=HP
##CAS NAME=2-Thiopheneacetic acid
##MOLFORM=C6H6O2S
##CAS REGISTRY NO=1918-77-0
##MP= -300
##BP= -300
##MW= 142
##$RETENTION INDEX=0
##$CONDENSED SPECTRUM=NO
##NPOINTS= 69
##XYDATA=(XY..XY) 1 
    25          1
    26          7
    27         29
    28          7
    29          4
    31          2
    32          2
    33          1
    36          1
    37         11
    38         20
    39         60
    40          3
    41          3
    42          2
    43          2
    44          9
    45        196
    46          6
    47         14
    48          9
    49          5
    50         15
    51         23
    52         11
    53        115
    54          6
    55          5
    56          1
    57         15
    58         25
    59          9
    60          3
    61          7
    62          9
    63         17
    64          2
    65          3
    67          4
    68          3
    69         37
    70         16
    71         17
    72          2
    73          1
    75          1
    76          1
    78          2
    79          2
    81          3
    82          6
    83          2
    84          1
    85          6
    92          1
    93          5
    95         10
    96         10
    97        999
    98         67
    99         46
   100          4
   111          5
   113          3
   124          4
   142        400
   143         30
   144         20
   145          1