##TITLE=Library Entry 28033
##JCAMP-DX=Revision 4.10 
##DATA TYPE=MASS SPECTRUM
##SAMPLE DESCRIPTION=Chemical Concepts
##NAMES=HP
##CAS NAME=2,4,5(3H)-Pyrimidinetrione, dihydro-6-hydroxy-
##MOLFORM=C4H4N2O4
##CAS REGISTRY NO=19186-12-0
##MP= -300
##BP= -300
##MW= 144
##$RETENTION INDEX=0
##$CONDENSED SPECTRUM=NO
##NPOINTS= 76
##XYDATA=(XY..XY) 1 
    26         25
    28        316
    29        303
    30        475
    31          8
    32          1
    35          6
    36         34
    37          1
    38         14
    39         14
    40          8
    41         39
    42         43
    43        163
    44        479
    45         70
    46          7
    47          2
    50          5
    51         14
    52          3
    53          2
    54         14
    55         19
    56         15
    57         98
    58        999
    59         20
    60         21
    61          2
    63          3
    64          1
    68          3
    69         13
    70         57
    71          7
    72          4
    73          5
    74          2
    75          5
    76          7
    77         14
    78         17
    79         11
    80         21
    81         10
    82         21
    83          1
    85          7
    86         10
    87         77
    88         30
    89          9
    91         11
    92          1
    99          2
   100          2
   101        207
   102         10
   103          4
   105          7
   114          3
   115         47
   116         11
   117          1
   122          3
   126          2
   128        172
   129         12
   135          1
   137          3
   139          3
   142          5
   144         41
   145          2