##TITLE=Library Entry 1643
##JCAMP-DX=Revision 4.10 
##DATA TYPE=MASS SPECTRUM
##SAMPLE DESCRIPTION=Chemical Concepts
##NAMES=HP
##CAS NAME=2H-Benzocyclohepten-2-one, 3,4,4a,5,6,7,8,9-octahydro-
##MOLFORM=C11H16O
##CAS REGISTRY NO=19198-29-9
##MP= -300
##BP= -300
##MW= 164
##$RETENTION INDEX=0
##$CONDENSED SPECTRUM=NO
##NPOINTS= 111
##XYDATA=(XY..XY) 1 
    25          7
    26        143
    27        795
    28        288
    29        553
    30         18
    31          9
    37         35
    38        129
    39        999
    40        235
    41        712
    42        297
    43         90
    44          7
    45          5
    46          5
    49         10
    50        152
    51        340
    52        252
    53        397
    54        122
    55        309
    56         42
    57         17
    58          8
    60          5
    61         13
    62         50
    63        147
    64         45
    65        321
    66        301
    67        292
    68         99
    69         33
    70          6
    71         10
    72          6
    73          7
    74         24
    75         29
    76         20
    77        451
    78        221
    79        699
    80        335
    81        156
    82        216
    83         28
    84          9
    85          8
    86         10
    87         10
    88          4
    89         24
    90         15
    91        348
    92         92
    93        408
    94        285
    95        185
    96         37
    97         13
    98          6
    99          4
   101          3
   102          9
   103         32
   104         15
   105         68
   106         37
   107        300
   108        478
   109         85
   110         20
   111          6
   112          3
   115         10
   116          3
   117         14
   118         11
   119         13
   120         19
   121        153
   122        321
   123         51
   124          7
   125          4
   126          2
   128          2
   129          2
   131          7
   132          3
   133          8
   134          8
   135         55
   136        442
   137         53
   138          9
   139          2
   146          6
   147          3
   148          2
   149         15
   162          6
   163          7
   164        286
   165         63
   166          8