##TITLE=Library Entry 83872
##JCAMP-DX=Revision 4.10 
##DATA TYPE=MASS SPECTRUM
##SAMPLE DESCRIPTION=Exported from NIST MS Search
##NAMES=HP
##CAS NAME=2-Oxazolidinone, 4,5-diphenyl-, trans-
##MOLFORM=C15H13NO2
##CAS REGISTRY NO=19190-95-5
##MP= -300
##BP= -300
##MW= 239
##$RETENTION INDEX=0
##$CONDENSED SPECTRUM=NO
##NPOINTS= 38
##XYDATA=(XY..XY) 1 
    43         20
    44         50
    50         30
    51         80
    52         30
    63         30
    64         10
    65         20
    76         20
    77        180
    78         80
    79        190
    80         10
    89         50
    90         30
    91         30
   103         10
   104        260
   105        150
   106         30
   107        999
   108        260
   109         20
   116         20
   117         10
   118         20
   119         10
   132         30
   133         30
   134         20
   152         20
   165         30
   166         10
   167         10
   168         10
   195         10
   239         30
   240         10