##TITLE=Library Entry 87962
##JCAMP-DX=Revision 4.10 
##DATA TYPE=MASS SPECTRUM
##SAMPLE DESCRIPTION=T.A.BLAZER DU PONT, GIBBSTOWN, N.J., USA
##NAMES=HP
##CAS NAME=2H-Pyran-2-carboxaldehyde, 3,4-dihydro-2,5-dimethyl-
##MOLFORM=C8H12O2
##CAS REGISTRY NO=1920-21-4
##MP= -300
##BP= -300
##MW= 140
##$RETENTION INDEX=0
##$CONDENSED SPECTRUM=NO
##NPOINTS= 84
##XYDATA=(XY..XY) 1 
    12          2
    13          1
    15         31
    16         11
    24          0
    25          1
    26         18
    27        103
    28         20
    29         96
    30          2
    31          8
    36          2
    37          6
    38         16
    39        152
    40         22
    41        199
    42         43
    43        405
    44         13
    45          7
    46          0
    47          0
    49          1
    50          7
    51         19
    52          7
    53         43
    54          9
    55        129
    56         10
    57         17
    58          5
    59          1
    61          0
    62          1
    63          3
    64          1
    65          9
    66          5
    67         26
    68          6
    69         51
    70         19
    71         66
    72          3
    73          0
    74          1
    75          0
    76          0
    77         22
    78          4
    79         14
    80          2
    81         13
    82          8
    83         24
    84          2
    85          3
    87          0
    91         12
    92          1
    93         55
    94         17
    95         33
    96         12
    97         41
    98          4
    99          7
   107          4
   108          4
   109         21
   110         19
   111        999
   112         89
   113          5
   123          2
   124          0
   125          2
   139          0
   140        228
   141         21
   142          2