##TITLE=Library Entry 31459
##JCAMP-DX=Revision 4.10 
##DATA TYPE=MASS SPECTRUM
##SAMPLE DESCRIPTION=Chemical Concepts
##NAMES=HP
##CAS NAME=3-Methyl-2-benzothiazolinone 4-nitrobenzamide azine
##MOLFORM=C15H12N4O2S
##CAS REGISTRY NO=19205-05-1
##MP= -300
##BP= -300
##MW= 312
##$RETENTION INDEX=0
##$CONDENSED SPECTRUM=NO
##NPOINTS= 47
##XYDATA=(XY..XY) 1 
    37         61
    39        417
    40         29
    41         29
    42         12
    45        238
    50        695
    51        287
    57         24
    58         34
    62        999
    64        131
    65         83
    69        217
    72         17
    74        324
    76        659
    77        221
    79         20
    82        113
    85         29
    86         34
    87         31
    89        357
    90        144
    92         20
    94         19
    96         47
   102        162
   103        134
   104         47
   105         33
   108        263
   109        143
   115         42
   116         48
   117         78
   121        137
   122         36
   129         24
   134         75
   136        177
   148        136
   149         55
   150         53
   163         21
   312         18