##TITLE=Library Entry 10559
##JCAMP-DX=Revision 4.10 
##DATA TYPE=MASS SPECTRUM
##SAMPLE DESCRIPTION=Chemical Concepts
##NAMES=HP
##CAS NAME=Xylitol, 1,5-anhydro-, triacetate
##MOLFORM=C11H16O7
##CAS REGISTRY NO=19200-32-9
##MP= -300
##BP= -300
##MW= 260
##$RETENTION INDEX=0
##$CONDENSED SPECTRUM=NO
##NPOINTS= 81
##XYDATA=(XY..XY) 1 
    25          0
    26          3
    27         12
    28         14
    29         17
    30          1
    31          8
    32          0
    37          0
    38          0
    39          8
    40          1
    41         10
    42         14
    43        999
    44         23
    45          9
    47          0
    50          0
    51          1
    52          0
    53          2
    54          1
    55          8
    56          2
    57         15
    58          4
    59          1
    60          5
    61          7
    66          0
    67          0
    68         14
    69         13
    70          8
    71          4
    72          0
    73         33
    74          2
    80          2
    81          8
    82          1
    85         27
    86         20
    87          6
    89          0
    96          0
    97         15
    98        210
    99         26
   100          4
   101          0
   102          4
   103         15
   104          1
   105          0
   112          0
   114          0
   115         55
   116         17
   117          1
   127          7
   128          3
   129          6
   133          1
   139          0
   140         63
   141          5
   142          0
   144          1
   145          3
   157          3
   158         24
   159          1
   160          0
   170          0
   171          0
   174          0
   175          3
   176          0
   217          0