##TITLE=Library Entry 24067
##JCAMP-DX=Revision 4.10 
##DATA TYPE=MASS SPECTRUM
##SAMPLE DESCRIPTION=RADIAN CORP
##NAMES=HP
##CAS NAME=Tetradecane, 1-iodo-
##MOLFORM=C14H29I
##CAS REGISTRY NO=19218-94-1
##MP= -300
##BP= -300
##MW= 324
##$RETENTION INDEX=0
##$CONDENSED SPECTRUM=NO
##NPOINTS= 39
##XYDATA=(XY..XY) 1 
    15          5
    26         11
    27        190
    28         17
    29        368
    39        134
    40         39
    41        637
    42        124
    43        955
    44         19
    51          3
    53         37
    54         27
    55        272
    56         71
    57        999
    58         49
    65          5
    67         21
    68         11
    69         66
    70         22
    71        523
    72         34
    79          4
    81          4
    83         10
    85        288
    86         22
    99         62
   100          4
   113         36
   127         32
   128          5
   141         22
   155         59
   169          5
   197          7