##TITLE=Library Entry 25384
##JCAMP-DX=Revision 4.10 
##DATA TYPE=MASS SPECTRUM
##SAMPLE DESCRIPTION=Japan AIST/NIMC Database- Spectrum MS-NW-1461
##NAMES=HP
##CAS NAME=Pentadecane, 2,6,10,14-tetramethyl-
##MOLFORM=C19H40
##CAS REGISTRY NO=1921-70-6
##MP= -300
##BP= -300
##MW= 268
##$RETENTION INDEX=1687
##$CONDENSED SPECTRUM=NO
##NPOINTS= 75
##XYDATA=(XY..XY) 1 
    26          1
    27         37
    28          6
    29        103
    30          2
    39         22
    40          5
    41        211
    42         46
    43        506
    44         16
    53         10
    54          6
    55        150
    56        177
    57        999
    58         44
    65          1
    67          9
    68          9
    69         92
    70         75
    71        733
    72         39
    73          1
    77          1
    79          2
    81          4
    82          3
    83         28
    84         47
    85        269
    86         17
    95          3
    96         10
    97         39
    98         14
    99        112
   100          9
   110          2
   111         13
   112        121
   113        181
   114         15
   125          3
   126         29
   127         68
   128          7
   139          1
   140          3
   141         29
   142          3
   154         14
   155         29
   156          3
   168          1
   169          7
   170          1
   182         39
   183        102
   184         14
   185          1
   196          2
   197          6
   198          1
   211          2
   224          1
   225          4
   238          2
   239          3
   252          1
   253          8
   254          2
   268          5
   269          1