##TITLE=Library Entry 1289
##JCAMP-DX=Revision 4.10 
##DATA TYPE=MASS SPECTRUM
##SAMPLE DESCRIPTION=Humboldt-Universitat zu Berlin, Department of Chemistry
, Analytical Group
##NAMES=HP
##CAS NAME=3-Cyclohexylaminopropyl-dimethylsilanol
##MOLFORM=C11H25NOSi
##CAS REGISTRY NO=192193-18-3
##MP= -300
##BP= -300
##MW= 215
##$RETENTION INDEX=0
##$CONDENSED SPECTRUM=NO
##NPOINTS= 144
##XYDATA=(XY..XY) 1 
    12          0
    13          1
    14          2
    15         25
    16          1
    17          4
    18         18
    19          0
    25          0
    26          6
    27         60
    28        145
    29         84
    30        999
    31         17
    32          2
    37          0
    39         68
    41        212
    42         43
    43         52
    44         27
    45        131
    46         10
    47        122
    48          6
    49          4
    50          1
    51          4
    52          3
    53         25
    54         30
    55        197
    56        137
    57         21
    58         17
    59         28
    60         44
    61         65
    62          7
    63          2
    65          5
    66          3
    67         18
    68         62
    69         25
    70         61
    71          6
    72          4
    73          5
    74         27
    75        393
    76         43
    77         22
    79         18
    80          7
    81         16
    82         26
    83         81
    84         13
    85          4
    86          4
    87          8
    88          6
    89          4
    90          1
    91          1
    92          0
    93          1
    94          2
    95          1
    96         18
    97          4
    98         71
    99          9
   100         33
   101          6
   102          7
   103          1
   104          5
   105          1
   106          0
   108          0
   109          0
   110          6
   112        748
   113         64
   114         17
   115          4
   116          9
   117          2
   118         36
   119          4
   120          1
   124          1
   126          2
   127          0
   128          2
   129          1
   130          9
   131          2
   132          4
   133          3
   134          1
   135          0
   138          2
   139          1
   140          5
   141          1
   142          1
   143          1
   144          5
   145          1
   146          0
   147          0
   148          0
   149          0
   154         48
   155          7
   156         12
   157          2
   158          1
   159          0
   161          0
   168          1
   170          0
   172         76
   173         11
   174          6
   175          1
   182          2
   186          1
   190          0
   196          2
   197          0
   198          3
   200         20
   201          3
   202          1
   214          3
   215         30
   216         16
   217          3
   218          1