##TITLE=Library Entry 1508
##JCAMP-DX=Revision 4.10 
##DATA TYPE=MASS SPECTRUM
##SAMPLE DESCRIPTION=Chuck Anderson, Aldrich Chemical Co.
##NAMES=HP
##CAS NAME=(S)-(+)-2-Chloro-1-propanol
##MOLFORM=C3H7ClO
##CAS REGISTRY NO=19210-21-0
##MP= -300
##BP= -300
##MW= 94
##$RETENTION INDEX=697
##$CONDENSED SPECTRUM=NO
##NPOINTS= 36
##XYDATA=(XY..XY) 1 
    15          1
    26         22
    27         89
    28         41
    29         94
    30         13
    31        999
    32         15
    33          4
    36          5
    37          8
    38         15
    39         55
    40          8
    41         77
    42         12
    43         37
    44          3
    48          3
    49         10
    51          4
    53          1
    55          7
    57         47
    58        139
    59         15
    60          1
    61          9
    62         90
    63         83
    64         29
    65         71
    67         14
    76          3
    78          0
    94          6