##TITLE=Library Entry 80686
##JCAMP-DX=Revision 4.10 
##DATA TYPE=MASS SPECTRUM
##SAMPLE DESCRIPTION=Exported from NIST MS Search
##NAMES=HP
##CAS NAME=Benzene, (1,3-dimethylbutyl)-
##MOLFORM=C12H18
##CAS REGISTRY NO=19219-84-2
##MP= -300
##BP= -300
##MW= 162
##$RETENTION INDEX=1220
##$CONDENSED SPECTRUM=NO
##NPOINTS= 61
##XYDATA=(XY..XY) 1 
    26          1
    27         30
    29         15
    37          1
    38          2
    39         27
    40          3
    41         53
    42          4
    43         25
    44         10
    50          6
    51         26
    52          7
    53          7
    54          1
    55          4
    56          2
    57         18
    58          2
    62          1
    63          8
    64          4
    65         15
    66          2
    67          2
    69          6
    70          1
    71          1
    74          2
    75          3
    76          4
    77         70
    78         27
    79         68
    80          5
    89          4
    90          2
    91        195
    92         17
   101          2
   102          6
   103         46
   104         33
   105        999
   106        359
   107         27
   115         10
   116          3
   117          6
   118          3
   119         12
   120          2
   127          1
   128          3
   129          2
   131          3
   145          1
   147          4
   162         73
   163         10