##TITLE=Library Entry 19054
##JCAMP-DX=Revision 4.10 
##DATA TYPE=MASS SPECTRUM
##SAMPLE DESCRIPTION=Vladimir Zaikin,TIPS RAS, Moscow, Russia
##NAMES=HP
##CAS NAME=2-(Prop-2-enoyloxy)tetradecane
##MOLFORM=C17H32O2
##CAS REGISTRY NO=192181-77-4
##MP= -300
##BP= -300
##MW= 268
##$RETENTION INDEX=0
##$CONDENSED SPECTRUM=NO
##NPOINTS= 74
##XYDATA=(XY..XY) 1 
    36         50
    37         25
    38         60
    39        238
    40         81
    41        440
    42        189
    43        355
    44        170
    45         47
    49          7
    50         40
    51         42
    52         27
    53         60
    54         75
    55        999
    56        233
    57        212
    58         32
    63         13
    65         12
    66         10
    67         80
    68         60
    69        190
    70        181
    71        108
    72         60
    73         78
    74         11
    75         11
    76         11
    77         20
    78         13
    79         17
    80         10
    81         48
    82         73
    83        162
    84         90
    85         60
    86          6
    91          6
    93          6
    95         25
    96         43
    97        148
    98        202
    99        180
   100         15
   109          5
   110         30
   111         81
   112         47
   113         20
   114         38
   124         13
   125         45
   126         40
   127         25
   128          5
   138          6
   139         22
   140         17
   141          6
   153         12
   154         15
   167          7
   168         15
   169          4
   195          6
   196         67
   197         12