##TITLE=Library Entry 64971
##JCAMP-DX=Revision 4.10 
##DATA TYPE=MASS SPECTRUM
##SAMPLE DESCRIPTION=Exported from NIST MS Search
##NAMES=HP
##CAS NAME=Benzene, (2-ethylbutyl)-
##MOLFORM=C12H18
##CAS REGISTRY NO=19219-85-3
##MP= -300
##BP= -300
##MW= 162
##$RETENTION INDEX=0
##$CONDENSED SPECTRUM=NO
##NPOINTS= 68
##XYDATA=(XY..XY) 1 
     2          6
    12          1
    13          3
    14          6
    15         25
    16          2
    26         16
    27        201
    28         43
    29        251
    30          8
    37          4
    38          9
    39        143
    40         12
    41        147
    42         40
    43        769
    44         39
    50         17
    51         63
    52         17
    53         24
    54          4
    55         92
    56          6
    57          6
    58          3
    60          2
    61          2
    62          6
    63         31
    64          9
    65        118
    66          6
    67          4
    69          7
    70         72
    71        205
    72         13
    74          4
    75          5
    76          4
    77         39
    78         24
    79          9
    89         16
    90         16
    91        643
    92        999
    93         80
    98          2
    99          2
   102          6
   103         10
   104         10
   105         11
   106          3
   115         22
   116          7
   117         22
   118          4
   119          6
   131          7
   132          3
   133          8
   162        179
   163         19