##TITLE=Library Entry 12046
##JCAMP-DX=Revision 4.10 
##DATA TYPE=MASS SPECTRUM
##SAMPLE DESCRIPTION=NIST Mass Spectrometry Data Center, 1994
##NAMES=HP
##CAS NAME=2,6-Bis(chloromethyl)-p-tolyl acetate
##MOLFORM=C11H12Cl2O2
##CAS REGISTRY NO=19228-70-7
##MP= -300
##BP= -300
##MW= 246
##$RETENTION INDEX=0
##$CONDENSED SPECTRUM=NO
##NPOINTS= 94
##XYDATA=(XY..XY) 1 
    13          7
    14         42
    15        206
    26         13
    27         78
    29         11
    35         12
    36          7
    37         12
    38         38
    39        192
    40         28
    41         30
    42          7
    43        999
    44         22
    45          4
    49         16
    50         45
    51        116
    52         34
    53         46
    54          3
    55          3
    60          2
    61         11
    62         35
    63        110
    64         27
    65         87
    66         16
    67          2
    73         22
    74         17
    75         33
    76          2
    77        263
    78         83
    79        103
    80          8
    85          3
    86          7
    87          9
    88          3
    89         35
    90         11
    91         66
    92          4
    97          2
    98          3
    99         11
   101         12
   102         32
   103        139
   104         80
   105        387
   106         43
   107          2
   111          2
   113          3
   114          4
   115         18
   116          5
   117          5
   119          5
   125         28
   126          3
   127          9
   131          4
   133        540
   134         66
   135          6
   139         59
   140         43
   141         22
   142         12
   168        348
   169        138
   170        131
   171         41
   172          4
   175          4
   187          3
   189          2
   204        361
   206        237
   207         28
   208         38
   209          4
   211         23
   212          3
   213          8
   246         12
   248         10