##TITLE=Library Entry 78106
##JCAMP-DX=Revision 4.10 
##DATA TYPE=MASS SPECTRUM
##SAMPLE DESCRIPTION=D.HENNEBERG, MAX-PLANCK INSTITUTE, MULHEIM, WEST GERMAN
Y
##NAMES=HP
##CAS NAME=1,4-Butanediol, dibenzoate
##MOLFORM=C18H18O4
##CAS REGISTRY NO=19224-27-2
##MP= -300
##BP= -300
##MW= 298
##$RETENTION INDEX=2372
##$CONDENSED SPECTRUM=NO
##NPOINTS= 48
##XYDATA=(XY..XY) 1 
    29          0
    39          2
    41          5
    42          5
    43          5
    51         28
    52          2
    53          2
    54        392
    55         34
    56          1
    70          2
    71        212
    72         10
    75          1
    76          8
    77        236
    78         13
    79          5
   104          5
   105        999
   106         75
   107          5
   120          3
   121          1
   122         26
   123         12
   124          1
   131          1
   135          8
   146          1
   147          0
   148          1
   149          1
   152          0
   153          1
   154          0
   163          2
   176         98
   177         13
   178          0
   181          2
   193         87
   194         10
   195          0
   227          0
   298          8
   299          1