##TITLE=Library Entry 109344
##JCAMP-DX=Revision 4.10 
##DATA TYPE=MASS SPECTRUM
##SAMPLE DESCRIPTION=CARL DJERASSI DEPT OF CHEM STANFORD UNIV STANFORD CALIF
 94305
##NAMES=HP
##CAS NAME=Cholestan-3-one, 2-bromo-, cyclic 1,2-ethanediyl acetal, (2.alpha
.,5.alpha.)-
##MOLFORM=C29H49BrO2
##CAS REGISTRY NO=1923-43-9
##MP= -300
##BP= -300
##MW= 508
##$RETENTION INDEX=0
##$CONDENSED SPECTRUM=NO
##NPOINTS= 250
##XYDATA=(XY..XY) 1 
    40         18
    41        252
    42         72
    43        477
    44        234
    45         81
    46          9
    50          9
    51         18
    52          9
    53         36
    54         27
    55        360
    56        108
    57        396
    58         27
    59          9
    60         45
    61         27
    65         18
    66          9
    67         99
    68         63
    69        252
    70         72
    71        180
    72         18
    73         72
    74          9
    77         36
    78         27
    79        117
    80         36
    83        135
    84         36
    85         63
    86        144
    87         72
    88         18
    91        108
    92         27
    93        144
    94         54
    95        225
    96         54
    97         63
    98         18
    99        837
   100         81
   101         27
   105         72
   106         27
   107         99
   108         27
   109         63
   110         18
   111         27
   112        198
   113         36
   117         27
   118         18
   119         54
   120         27
   121         63
   122         27
   123         45
   124         18
   125        999
   126        108
   127         36
   128         18
   129         27
   130         18
   131         36
   132         18
   133         54
   134         27
   135         54
   136         27
   137         36
   138         27
   139         27
   141         18
   143         27
   144         18
   145         45
   146         18
   147         63
   148         27
   149         72
   150         27
   151         36
   152         27
   153         27
   154         27
   155         27
   157         36
   158         27
   159         54
   160         27
   161         63
   162         36
   163         54
   164         36
   165         45
   166         27
   167         45
   168         27
   169         27
   171         36
   172         27
   173         54
   174         36
   175         63
   176         45
   177         63
   178         36
   179         45
   180         27
   181         27
   182         27
   183         36
   185         36
   187         45
   188         36
   189         54
   190         45
   191         45
   192         27
   193         45
   194         27
   195         36
   197         27
   199         36
   200         27
   201         45
   202         36
   203         81
   204         45
   205         45
   206         36
   207         36
   208         36
   209         27
   211         27
   213         45
   214         36
   215         54
   216         36
   217         54
   218         45
   219         45
   221         36
   223         36
   224         36
   225         36
   227         45
   228         45
   229         54
   230         45
   231         72
   232         54
   233         45
   235         36
   239         36
   241         36
   243         45
   245         54
   246         45
   247         45
   248         36
   249         36
   253         36
   255         45
   256         36
   257         36
   259         45
   260         36
   261         45
   262         45
   263         63
   264         45
   269         45
   271         45
   273         54
   274         45
   275         72
   276         63
   277         54
   278         45
   279         54
   283         45
   285         45
   287         63
   288         54
   289         63
   290         54
   291         45
   297         45
   299         45
   300         45
   301         72
   302         54
   303         54
   309         45
   311         63
   312         45
   313         54
   314         54
   315         90
   316         63
   317         72
   318         45
   329         54
   330         63
   331         63
   342         54
   343         54
   345         54
   353         54
   361         63
   362         63
   363         63
   366         72
   367         63
   368         63
   370         54
   371         54
   372         81
   373         63
   384         54
   385         81
   386         63
   399         90
   400         72
   412         63
   414         81
   415         63
   426         63
   429        396
   430        261
   431         99
   432         72
   433         81
   463          9
   508        261
   509         99
   510        279
   511         90
   512         18