##TITLE=Library Entry 70520
##JCAMP-DX=Revision 4.10 
##DATA TYPE=MASS SPECTRUM
##SAMPLE DESCRIPTION=TNO Volatile Compounds in Food - Chemical Concepts
##NAMES=HP
##CAS NAME=2-Butynoic acid, TMS derivative
##MOLFORM=C7H12O2Si
##CAS REGISTRY NO=19232-23-6
##MP= -300
##BP= -300
##MW= 156
##$RETENTION INDEX=0
##$CONDENSED SPECTRUM=NO
##NPOINTS= 90
##XYDATA=(XY..XY) 1 
    21          3
    22          2
    23          3
    24          2
    25          0
    26          8
    28          4
    29          6
    30          5
    31         16
    32          8
    34          9
    36          5
    37         37
    38         66
    39        177
    42         24
    43        215
    44         63
    45        252
    46         21
    47        132
    48          6
    49         15
    50          6
    52         12
    53         47
    54         20
    55         84
    56         14
    57         23
    58         34
    59         47
    60         18
    61         48
    62          1
    63          1
    64          3
    65         21
    66         73
    67        352
    68         20
    69        157
    70         25
    71         34
    72         30
    73         62
    74         27
    75        280
    76         24
    77         22
    79          5
    80          4
    81         45
    82         31
    83         43
    84         14
    85         15
    86          0
    87          5
    88          0
    90          2
    91          1
    93          1
    95          7
    96         33
    97        999
    98        204
    99         69
   100          2
   101          0
   103          1
   110          1
   111          5
   112         67
   113         15
   114          7
   116          2
   119          1
   122          4
   128         10
   129          3
   130          2
   132          5
   140          1
   141        429
   142         57
   143         17
   155          4
   156          9