##TITLE=Library Entry 80183
##JCAMP-DX=Revision 4.10 
##DATA TYPE=MASS SPECTRUM
##SAMPLE DESCRIPTION=Japan AIST/NIMC Database- Spectrum MS-IW-7812
##NAMES=HP
##CAS NAME=Alpha,alpha'-bis(benzoyloxy)-cis-stilbene
##MOLFORM=C28H20O4
##CAS REGISTRY NO=1924-28-3
##MP= -300
##BP= -300
##MW= 420
##$RETENTION INDEX=0
##$CONDENSED SPECTRUM=NO
##NPOINTS= 32
##XYDATA=(XY..XY) 1 
    28          3
    43          1
    50          2
    51         13
    55          1
    57          2
    69          1
    71          1
    76          4
    77        157
    78         10
    83          1
    85          1
    97          1
   104          1
   105        999
   106         81
   107          5
   111          1
   139          1
   149          1
   152          1
   165          1
   178          1
   210          1
   299         17
   300          4
   315          5
   316          1
   420        124
   421         38
   422          7