##TITLE=Library Entry 49257
##JCAMP-DX=Revision 4.10 
##DATA TYPE=MASS SPECTRUM
##SAMPLE DESCRIPTION=NIST Mass Spectrometry Data Center
##NAMES=HP
##CAS NAME=Bicyclo[3.1.1]hept-2-ene-2-carboxylic acid, 6,6-dimethyl-
##MOLFORM=C10H14O2
##CAS REGISTRY NO=19250-17-0
##MP= -300
##BP= -300
##MW= 166
##$RETENTION INDEX=1359
##$CONDENSED SPECTRUM=NO
##NPOINTS= 98
##XYDATA=(XY..XY) 1 
    26          3
    27         47
    28          6
    29         35
    30          1
    31          9
    38          9
    39        199
    40         39
    41        279
    42          9
    43        131
    44         16
    45         42
    46          2
    49          1
    50         34
    51        123
    52         44
    53        184
    54         26
    55        106
    56         56
    57         38
    59         54
    60          5
    61          1
    62         14
    63         36
    64         11
    65        146
    66         90
    67        431
    68        358
    69        182
    72         38
    73          3
    74         24
    76         13
    77        492
    78        112
    79        999
    80        100
    81        114
    82        150
    83         76
    88          3
    89         12
    90          7
    91        483
    92        134
    93        358
    94         69
    95         74
    96         18
    97         64
    98          5
   101         26
   102          7
   103         59
   104         20
   105        536
   106        142
   107        167
   108        226
   109        156
   110         79
   111        107
   115         19
   116          4
   117         27
   118          7
   119        147
   120         52
   121        219
   122        761
   123        831
   124        409
   125         14
   126         49
   127         14
   130          3
   131          6
   132          3
   133         78
   134         20
   135         16
   136         11
   137         42
   147         12
   148         18
   149          9
   150          1
   151         79
   152          9
   165          3
   166         28
   167          3