##TITLE=Library Entry 54129
##JCAMP-DX=Revision 4.10 
##DATA TYPE=MASS SPECTRUM
##SAMPLE DESCRIPTION=Exported from NIST MS Search
##NAMES=HP
##CAS NAME=Bicyclo[2.2.1]heptan-2-ol, 3-amino-1,7,7-trimethyl-, (endo,endo)-
##MOLFORM=C10H19NO
##CAS REGISTRY NO=1925-44-6
##MP= -300
##BP= -300
##MW= 169
##$RETENTION INDEX=0
##$CONDENSED SPECTRUM=NO
##NPOINTS= 84
##XYDATA=(XY..XY) 1 
    30        150
    31         10
    38         10
    39        100
    40         20
    41        160
    42         40
    43         70
    44         20
    45         10
    46         10
    50         10
    51         30
    52         20
    53        180
    54         30
    55        120
    56        300
    57         70
    58         40
    59        130
    60         40
    63         20
    65         40
    66         30
    67         80
    68         50
    69         80
    70         80
    71         80
    72         30
    77         60
    78         10
    79         50
    80         40
    81        100
    82         80
    83         80
    84        999
    85         80
    86         80
    87         20
    91         50
    92         10
    93         30
    94         30
    95        270
    96         70
    97         30
    98        460
    99         50
   100         30
   105         20
   106         20
   107         20
   108         50
   109        100
   110         30
   111         20
   112         20
   119         30
   120         10
   121         20
   122         20
   123         40
   124         50
   125         10
   126         20
   127         10
   134         20
   135         20
   136        100
   137         80
   138         20
   139         20
   140        170
   141         60
   151         20
   152         40
   153         10
   154         80
   155         10
   169        130
   170         20