##TITLE=Library Entry 48778
##JCAMP-DX=Revision 4.10 
##DATA TYPE=MASS SPECTRUM
##SAMPLE DESCRIPTION=D.HENNEBERG, MAX-PLANCK INSTITUTE, MULHEIM, WEST GERMAN
Y
##NAMES=HP
##CAS NAME=1,3,5-Hexatriene, 2-methyl-
##MOLFORM=C7H10
##CAS REGISTRY NO=19264-50-7
##MP= -300
##BP= -300
##MW= 94
##$RETENTION INDEX=0
##$CONDENSED SPECTRUM=NO
##NPOINTS= 71
##XYDATA=(XY..XY) 1 
    24          0
    25          0
    26         21
    27        186
    29         31
    30          0
    31          3
    33          0
    34          0
    36         18
    37         13
    38         35
    39        280
    40         54
    41         93
    42         12
    43          9
    44          8
    45         23
    46         26
    47          3
    48          0
    49          6
    50         60
    51        124
    52         62
    53        128
    54         41
    55         22
    56          1
    57          0
    58          0
    59          1
    60          1
    61          7
    62         15
    63         35
    64          7
    65         80
    66         43
    67         22
    68          2
    69          0
    70          0
    71          0
    72          0
    73          2
    74          9
    75         22
    76          5
    77        672
    78        104
    79        999
    80         68
    81          2
    82          0
    83          0
    84          0
    85          1
    86          3
    87          1
    88          0
    89          8
    90          2
    91        236
    92         29
    93        178
    94        515
    95         40
    96          1
    97          0