##TITLE=Library Entry 78176
##JCAMP-DX=Revision 4.10 
##DATA TYPE=MASS SPECTRUM
##SAMPLE DESCRIPTION=AMERICAN OIL CO., WHITING, IND, USA
##NAMES=HP
##CAS NAME=Benzene, (1,2,2-trimethylpropyl)-
##MOLFORM=C12H18
##CAS REGISTRY NO=19262-20-5
##MP= -300
##BP= -300
##MW= 162
##$RETENTION INDEX=1186
##$CONDENSED SPECTRUM=NO
##NPOINTS= 90
##XYDATA=(XY..XY) 1 
    37          1
    38         10
    39        156
    40         17
    41        332
    42         22
    43         29
    44          1
    45          1
    49          0
    50         29
    51        105
    52         28
    53         36
    54          4
    55         24
    56         15
    57        965
    58         46
    59          1
    61          0
    62          7
    63         32
    64         19
    65         48
    66          5
    67          4
    68          0
    69         29
    70          4
    71          4
    72          0
    73          1
    74          7
    75          8
    76         11
    77        168
    78         76
    79        107
    80          7
    81          0
    83          0
    85          1
    86          1
    87          2
    88          1
    89         14
    90          4
    91         52
    92         43
    93          2
    99          0
   100          0
   101          3
   102         22
   103        106
   104        181
   105        999
   106        932
   107         78
   108          2
   113          0
   114          1
   115         50
   116         23
   117         36
   118         13
   119          5
   120          0
   126          0
   127          6
   128         14
   129         11
   130          3
   131         16
   132          6
   133          1
   139          0
   141          1
   142          0
   143          0
   144          0
   145          2
   146          1
   147         74
   148          8
   149          0
   162         59
   163          7
   164          0