##TITLE=Library Entry 69745
##JCAMP-DX=Revision 4.10 
##DATA TYPE=MASS SPECTRUM
##SAMPLE DESCRIPTION=Exported from NIST MS Search
##NAMES=HP
##CAS NAME=3-Butene-1,2-diol, 1-(2-furanyl)-
##MOLFORM=C8H10O3
##CAS REGISTRY NO=19261-13-3
##MP= -300
##BP= -300
##MW= 154
##$RETENTION INDEX=0
##$CONDENSED SPECTRUM=NO
##NPOINTS= 18
##XYDATA=(XY..XY) 1 
    41         60
    42         10
    43        110
    44         30
    55         30
    57         40
    58         60
    59         10
    69         20
    81         20
    91         10
    95         30
    96         20
    97        999
    98         30
   120          6
   136          6
   154          6