##TITLE=Library Entry 19080
##JCAMP-DX=Revision 4.10 
##DATA TYPE=MASS SPECTRUM
##SAMPLE DESCRIPTION=CARL DJERASSI DEPT OF CHEM STANFORD UNIV STANFORD CALIF
 94305
##NAMES=HP
##CAS NAME=2H-Pyran, tetrahydro-2-[(1-methylethyl)thio]-
##MOLFORM=C8H16OS
##CAS REGISTRY NO=1927-57-7
##MP= -300
##BP= -300
##MW= 160
##$RETENTION INDEX=0
##$CONDENSED SPECTRUM=NO
##NPOINTS= 32
##XYDATA=(XY..XY) 1 
    41        830
    42        170
    43        740
    44         30
    45         70
    47         50
    49         10
    50         30
    51         40
    52         10
    53        110
    54        230
    55        999
    56        240
    57        140
    58         40
    59         50
    60         10
    61        270
    62         40
    63         10
    67         30
    69         80
    75         10
    76        480
    77         10
    78         20
    83        240
    84        530
    85        200
    86         10
   160         10