##TITLE=Library Entry 23417
##JCAMP-DX=Revision 4.10 
##DATA TYPE=MASS SPECTRUM
##SAMPLE DESCRIPTION=CARL DJERASSI DEPT OF CHEM STANFORD UNIV STANFORD CALIF
 94305
##NAMES=HP
##CAS NAME=2H-Pyran, 2-(1,1-dimethylethoxy)tetrahydro-
##MOLFORM=C9H18O2
##CAS REGISTRY NO=1927-69-1
##MP= -300
##BP= -300
##MW= 158
##$RETENTION INDEX=0
##$CONDENSED SPECTRUM=NO
##NPOINTS= 23
##XYDATA=(XY..XY) 1 
    41        949
    42        111
    43        393
    44         30
    45         10
    50         20
    51         20
    52         10
    53         50
    54         20
    55        252
    56        303
    57        999
    58         20
    59        313
    67         50
    68         10
    69         10
    83         10
    84         20
    85        383
   101         20
   103         40