##TITLE=Library Entry 56994
##JCAMP-DX=Revision 4.10 
##DATA TYPE=MASS SPECTRUM
##SAMPLE DESCRIPTION=Div. of Experiment Therapeutics WRAIR, WRAMC, Washingto
n DC 20307
##NAMES=HP
##CAS NAME=6-Amino-8-[4-diethylamino-1-methylbutylamino]-2,3-diphenylpyrido[
2,3-b]pyrazine
##MOLFORM=C28H34N6
##CAS REGISTRY NO=19270-45-2
##MP= -300
##BP= -300
##MW= 454
##$RETENTION INDEX=0
##$CONDENSED SPECTRUM=NO
##NPOINTS= 206
##XYDATA=(XY..XY) 1 
    41         43
    42         33
    43         19
    44         25
    45          2
    47          2
    48          1
    49          2
    50          1
    51          1
    52          3
    53          5
    54          5
    55          8
    56         36
    57         15
    58        108
    59          4
    60          4
    63          2
    64         10
    65          7
    66          5
    67         16
    68          5
    69         16
    70         15
    71         23
    72         19
    73         13
    74          2
    76          1
    77         15
    78          5
    79          9
    80          6
    81          2
    82          5
    83          4
    84         49
    85          6
    86        999
    87         56
    88          3
    89          4
    90          4
    91         13
    92          6
    93          6
    94          2
    95          2
    96          3
    97          2
    98          9
    99         34
   100          4
   102          0
   103          4
   104         20
   105          9
   106          7
   107          6
   108          2
   110          4
   111          3
   112         44
   113         14
   114         16
   115          4
   116          4
   117          3
   118          6
   119          3
   120          2
   121          0
   124          1
   125          1
   126         17
   127          3
   128          2
   129          1
   130          0
   131          2
   132          4
   133          5
   134          2
   135          0
   138          1
   139          9
   140         19
   141          3
   142          7
   143          2
   145          3
   146          2
   147          2
   148          2
   149          3
   151          2
   152          4
   153          2
   155          3
   156          3
   159          0
   160          1
   161          0
   163          9
   164          0
   165          8
   166          2
   167          6
   168          2
   170          7
   175          1
   176          5
   177          6
   178         12
   179          4
   182          2
   183          2
   184          2
   190          5
   191          2
   192          2
   193          3
   194          5
   195          2
   196          2
   201          1
   202          3
   203          9
   204          8
   205          1
   209          1
   212          4
   218          0
   219          4
   220         11
   221          4
   227          9
   229          1
   235          1
   246          1
   253          1
   255          2
   256          1
   268          2
   269          1
   270          2
   280          2
   284          1
   285          1
   291          3
   295          4
   296          5
   297          7
   298          9
   299         14
   300          3
   310          1
   311          3
   312         19
   313         14
   314         44
   315         10
   323          1
   324          8
   325          6
   326         17
   327          4
   328          2
   337          0
   338         16
   339         27
   340         68
   341         31
   342          9
   343          2
   350          0
   352         14
   353         12
   354         22
   355          9
   356          1
   364          0
   366         12
   367          3
   368         20
   369          5
   380         40
   381        134
   382         55
   383         50
   384         13
   385          0
   386          0
   425         32
   426          9
   439          7
   440          1
   441          1
   453          1
   454        202
   455         62
   456          6
   457          3