##TITLE=Library Entry 2366
##JCAMP-DX=Revision 4.10 
##DATA TYPE=MASS SPECTRUM
##SAMPLE DESCRIPTION=CARL DJERASSI DEPT OF CHEM STANFORD UNIV STANFORD CALIF
 94305
##NAMES=HP
##CAS NAME=2H-Pyran, tetrahydro-2-(1-methylethoxy)-
##MOLFORM=C8H16O2
##CAS REGISTRY NO=1927-70-4
##MP= -300
##BP= -300
##MW= 144
##$RETENTION INDEX=950
##$CONDENSED SPECTRUM=NO
##NPOINTS= 29
##XYDATA=(XY..XY) 1 
    41        999
    42        220
    43        850
    44        240
    45        630
    50         40
    51         40
    52         10
    53         90
    54         70
    55        490
    56        590
    57        270
    58         40
    59         20
    67         80
    68         10
    69         30
    74         10
    75         20
    83         40
    84         80
    85        440
    86         30
   101        110
   102         40
   129         10
   143         20
   144         30