##TITLE=Library Entry 13790
##JCAMP-DX=Revision 4.10 
##DATA TYPE=MASS SPECTRUM
##SAMPLE DESCRIPTION=Div. of Experiment Therapeutics WRAIR, WRAMC, Washingto
n DC 20307
##NAMES=HP
##CAS NAME=8-Acetamido-6-methoxy-5-nitroquinoline
##MOLFORM=C12H11N3O4
##CAS REGISTRY NO=19279-89-1
##MP= -300
##BP= -300
##MW= 261
##$RETENTION INDEX=0
##$CONDENSED SPECTRUM=NO
##NPOINTS= 130
##XYDATA=(XY..XY) 1 
    41         15
    42         60
    43        999
    44         19
    45          1
    46          5
    47          3
    49         28
    50         37
    51         69
    52         42
    53         19
    54          6
    55          2
    57          1
    58          2
    61         13
    62         41
    63         77
    64         29
    65         17
    66          6
    67          4
    68         33
    69          1
    71          1
    74         17
    75         55
    76         79
    77         35
    78         37
    79         67
    80          7
    82          1
    84          8
    86         16
    87         33
    88         51
    89        112
    90         43
    91         25
    92          8
    93          4
    99          7
   100         13
   101         21
   102         94
   103        122
   104         37
   105         24
   106          7
   112          2
   113          3
   114         45
   115         66
   116        152
   117         61
   118         50
   119         11
   126          1
   127         16
   128         27
   129         77
   130        117
   131         67
   132         13
   133          7
   134          3
   140          1
   141          9
   142         89
   143        368
   144         82
   145         82
   146         69
   147          8
   154          1
   155          7
   156         11
   157         21
   158         41
   159         38
   161        555
   162         48
   163          1
   169          6
   170         72
   171         58
   172        119
   173         40
   174          9
   175         10
   176          1
   184          5
   185         13
   186          4
   187         16
   189        763
   190         74
   191          6
   197          1
   199         70
   200         10
   201          1
   202          3
   203         46
   204         12
   205          1
   213          5
   215          5
   216          4
   217          1
   218          2
   219        780
   220        101
   221         11
   231          6
   232          4
   244         17
   245         45
   246         79
   247         10
   248          1
   258          2
   259          1
   260          1
   261        746
   262         94
   263         24
   264          3