##TITLE=Library Entry 9255
##JCAMP-DX=Revision 4.10 
##DATA TYPE=MASS SPECTRUM
##SAMPLE DESCRIPTION=Japan AIST/NIMC Database- Spectrum MS-NW-2992
##NAMES=HP
##CAS NAME=dl-Homoserine
##MOLFORM=C4H9NO3
##CAS REGISTRY NO=1927-25-9
##MP= -300
##BP= -300
##MW= 119
##$RETENTION INDEX=0
##$CONDENSED SPECTRUM=NO
##NPOINTS= 82
##XYDATA=(XY..XY) 1 
    12          9
    13          9
    14         31
    15        114
    16         11
    17         16
    18         67
    19          2
    24          6
    25         25
    26        186
    27        323
    28        915
    29        235
    30        338
    31        146
    32          4
    33          1
    34          5
    36          4
    37         15
    38         34
    39         61
    40         75
    41        152
    42        432
    43        999
    44        819
    45         36
    46         57
    47          3
    49          1
    50          8
    51         29
    52         65
    53         58
    54        146
    55        163
    56        582
    57        634
    58         22
    59          1
    60          1
    63          1
    64          4
    65          5
    66          3
    67         11
    68          5
    69          5
    70         12
    71         28
    72         32
    73         59
    74        945
    75         50
    76          4
    77          2
    78          1
    79          2
    80          1
    81          2
    82          2
    83         21
    84          4
    85          4
    86          1
    88          6
    89         19
    90          1
    91          2
    93          1
    95          1
    97          2
    99          3
   100          3
   101         59
   102          4
   103          1
   104          1
   118          1
   119          1