##TITLE=Library Entry 100380
##JCAMP-DX=Revision 4.10 
##DATA TYPE=MASS SPECTRUM
##SAMPLE DESCRIPTION=Chemical Concepts
##NAMES=HP
##CAS NAME=p-Toluic acid, butyl ester
##MOLFORM=C12H16O2
##CAS REGISTRY NO=19277-56-6
##MP= -300
##BP= -300
##MW= 192
##$RETENTION INDEX=0
##$CONDENSED SPECTRUM=NO
##NPOINTS= 72
##XYDATA=(XY..XY) 1 
    26          4
    27         42
    28          9
    29         72
    30          0
    31          0
    37          1
    38          6
    39         67
    40          8
    41         70
    42          3
    43          4
    44          2
    45          1
    50         12
    51         21
    52          8
    53          6
    55         24
    56         73
    57          7
    59          0
    61          1
    62          9
    63         33
    64         13
    65        145
    66          8
    67          0
    73          2
    74          2
    75          1
    76          2
    77         10
    78          3
    79          1
    81          0
    86          2
    87          1
    89         40
    90         28
    91        404
    92         46
    93         38
    94          1
   105          6
   107          6
   108          2
   117          0
   118         10
   119        999
   120        106
   121          9
   133          0
   134          2
   135          9
   136        846
   137        433
   138         41
   139          2
   147          0
   148          0
   149         12
   150          4
   163          3
   175         12
   177          0
   190          1
   191          4
   192         76
   193         10