##TITLE=Library Entry 27648
##JCAMP-DX=Revision 4.10 
##DATA TYPE=MASS SPECTRUM
##SAMPLE DESCRIPTION=Japan AIST/NIMC Database- Spectrum MS-NW-1907
##NAMES=HP
##CAS NAME=(2-Hydroxyethyl)trimethylammonium bromide
##MOLFORM=C5H14BrNO
##CAS REGISTRY NO=1927-06-6
##MP= -300
##BP= -300
##MW= 183
##$RETENTION INDEX=0
##$CONDENSED SPECTRUM=NO
##NPOINTS= 75
##XYDATA=(XY..XY) 1 
    12          2
    13          5
    14         17
    15        266
    16          2
    17          1
    18          3
    25          1
    26         10
    27         40
    28         15
    29         41
    30        141
    31         61
    32          2
    36          4
    38          2
    39          5
    40         11
    41         24
    42        186
    43         74
    44        185
    45         74
    46          2
    47          3
    48          1
    50          1
    51          1
    52          2
    53          1
    54          5
    55          6
    56         32
    57         40
    58        999
    59         99
    60          3
    68          1
    69          1
    70          9
    71         11
    72          9
    73          3
    74          3
    77          1
    78          1
    79         28
    80         45
    81         26
    82         40
    84          1
    86          4
    87          1
    88         72
    89         40
    90          3
    91         12
    92          8
    93         39
    94        219
    95         34
    96        202
    97          7
    98          1
   100          3
   101          2
   102          2
   103          1
   105          2
   113          1
   118          2
   119          1
   124          2
   126          2