##TITLE=Library Entry 56928
##JCAMP-DX=Revision 4.10 
##DATA TYPE=MASS SPECTRUM
##SAMPLE DESCRIPTION=Div. of Experiment Therapeutics WRAIR, WRAMC, Washingto
n DC 20307
##NAMES=HP
##CAS NAME=9-[4-Diethylamino-1-methylbutyl]-9H-purine-6-thiol
##MOLFORM=C14H23N5S
##CAS REGISTRY NO=19270-97-4
##MP= -300
##BP= -300
##MW= 293
##$RETENTION INDEX=0
##$CONDENSED SPECTRUM=NO
##NPOINTS= 111
##XYDATA=(XY..XY) 1 
    41         64
    42         36
    43         12
    44         21
    45          7
    47          2
    48          1
    49          1
    51          0
    52          0
    53          5
    54          6
    55         13
    56         32
    57         11
    58         65
    59          3
    64          1
    65          3
    66          2
    67          7
    68          4
    69         25
    70         13
    71         10
    72         41
    73          9
    74          1
    77          2
    79          0
    80          2
    81          1
    82          7
    83          7
    84         28
    86        999
    87         56
    88          2
    91          0
    92          2
    93          3
    94          2
    96          3
    97          5
    98         11
    99         10
   100          2
   108          0
   109          4
   110          6
   111          4
   112         83
   113          6
   114          1
   118          2
   119          4
   120          0
   123          0
   124          4
   125         13
   126         26
   127          2
   131          2
   135          2
   136          2
   137          2
   138          4
   139         24
   140         13
   141          1
   142          4
   145          1
   149          0
   151          2
   152         20
   153         31
   154          3
   155          2
   165          5
   166          3
   177          1
   178          3
   179          6
   180          3
   181          2
   191          0
   192          1
   193          2
   194          1
   205          1
   207          2
   208          1
   219         14
   220          5
   221         96
   222         18
   223          5
   224          0
   260          1
   264         25
   265          6
   266          1
   269          0
   278         56
   279          9
   280          3
   292          8
   293        122
   294         28
   295          8
   296          1