##TITLE=Library Entry 12079
##JCAMP-DX=Revision 4.10 
##DATA TYPE=MASS SPECTRUM
##SAMPLE DESCRIPTION=Div. of Experiment Therapeutics WRAIR, WRAMC, Washingto
n DC 20307
##NAMES=HP
##CAS NAME=2'-Acetamido-4-bromo-2-nitrodiphenylsulfide
##MOLFORM=C14H11BrN2O3S
##CAS REGISTRY NO=192799-89-6
##MP= -300
##BP= -300
##MW= 366
##$RETENTION INDEX=0
##$CONDENSED SPECTRUM=NO
##NPOINTS= 132
##XYDATA=(XY..XY) 1 
    41          6
    42         43
    43        999
    44         16
    45         55
    49          8
    50         25
    51         36
    52         34
    53         17
    58          6
    62         19
    63        100
    64         31
    65         68
    66          6
    69         70
    70         28
    71         10
    74         39
    75         48
    76         18
    77         28
    78         28
    79          8
    80        122
    81         12
    82         16
    84          9
    86          6
    89          8
    90         10
    91         20
    92         15
    93         21
    94          6
    95         46
    96         44
    97         17
   101          5
   102          7
   106         12
   107         19
   108        404
   109         43
   112          6
   113          7
   115          7
   121          7
   122         19
   124         30
   125          6
   126         16
   127         44
   128         23
   133          6
   134        672
   135         57
   136          7
   138         10
   139         44
   140         50
   141          6
   145          7
   146          6
   147          6
   148          8
   150          8
   152          9
   153         28
   154        347
   155         43
   156          5
   158          6
   164         16
   165         12
   166         38
   167         36
   168          8
   169         16
   170         20
   171        102
   172         30
   173          9
   179         19
   180         36
   181        533
   182         89
   183         17
   184          8
   186         20
   196         52
   197         71
   198        118
   199         84
   200         15
   202          7
   208         43
   209          7
   210          9
   211          8
   212          6
   216         48
   218         49
   227          7
   229          6
   232          8
   234          8
   244         13
   245          7
   247          5
   259         80
   260        116
   261         99
   262        116
   263         13
   266          6
   276         26
   277         34
   278         36
   279         31
   280          7
   284          5
   285         12
   286          7
   287         11
   324         31
   326         33
   366        125
   367         20
   368        127
   369         21