##TITLE=Library Entry 31806
##JCAMP-DX=Revision 4.10 
##DATA TYPE=MASS SPECTRUM
##SAMPLE DESCRIPTION=Div. of Experiment Therapeutics WRAIR, WRAMC, Washingto
n DC 20307
##NAMES=HP
##CAS NAME=.alpha.-[9H-Purine-6-thiol-9-yl]-p-toluenesulfonamide
##MOLFORM=C12H11N5O2S2
##CAS REGISTRY NO=19271-00-2
##MP= -300
##BP= -300
##MW= 321
##$RETENTION INDEX=0
##$CONDENSED SPECTRUM=NO
##NPOINTS= 123
##XYDATA=(XY..XY) 1 
    41         19
    42          8
    43         26
    44         41
    45        120
    46         16
    47          9
    48        278
    49          9
    50         76
    51         86
    52         23
    53         49
    54         35
    55         14
    56         10
    57         17
    58         15
    59         38
    60         26
    61         10
    62         17
    63         46
    64        999
    65        103
    66        111
    67         19
    68         10
    69         30
    70         67
    71         74
    72         11
    73         11
    74         20
    75         58
    76         86
    77         73
    78         21
    79         16
    80         21
    81         23
    82         20
    83         23
    84         17
    85          6
    89         37
    90         28
    91        211
    92         40
    93         23
    94          7
    95          5
    96         38
    97         28
    98         63
    99          8
   100          7
   102        154
   103         30
   104         11
   105         25
   106         36
   107         44
   108         56
   109         27
   110          8
   111          3
   116          1
   118         56
   119        116
   120         26
   121         37
   122         23
   123         42
   124         31
   125         79
   126          7
   128         21
   130          2
   133          6
   134         17
   135        116
   136         20
   137         32
   138         19
   139          5
   148          1
   151         11
   152        362
   153         45
   154         27
   155         11
   156          1
   160         29
   162          5
   165          5
   166         26
   167          6
   169          4
   170         15
   171          8
   182         33
   183          6
   184         19
   185         19
   186          1
   192         19
   194          5
   200          5
   201          7
   203          4
   209          7
   224         11
   226          4
   235          1
   241          6
   242         24
   243          1
   256          9
   257          6
   274          7
   303          6
   321         18