##TITLE=Library Entry 7861
##JCAMP-DX=Revision 4.10 
##DATA TYPE=MASS SPECTRUM
##SAMPLE DESCRIPTION=Exported from NIST MS Search
##NAMES=HP
##CAS NAME=Tricosane, 2-methyl-
##MOLFORM=C24H50
##CAS REGISTRY NO=1928-30-9
##MP= -300
##BP= -300
##MW= 338
##$RETENTION INDEX=2363
##$CONDENSED SPECTRUM=NO
##NPOINTS= 207
##XYDATA=(XY..XY) 1 
    12          1
    13          1
    14          2
    15          6
    16          1
    17          1
    18          2
    19          1
    20          1
    24          1
    25          1
    26          6
    27         86
    28         24
    29        215
    30          5
    31          1
    32          1
    33          1
    34          1
    35          1
    36          1
    37          1
    38          2
    39         35
    40          9
    41        343
    42        126
    43        999
    44         33
    45          1
    46          1
    47          1
    49          1
    50          1
    51          1
    52          1
    53         27
    54         36
    55        341
    56        210
    57        943
    58         42
    59          1
    60          1
    61          1
    62          1
    63          1
    64          1
    65          3
    66          3
    67         32
    68         31
    69        172
    70         93
    71        487
    72         27
    73          1
    74          1
    75          1
    76          1
    77          2
    78          1
    79          4
    80          2
    81         12
    82         22
    83        107
    84         46
    85        334
    86         22
    87          1
    88          1
    89          1
    90          1
    91          1
    92          1
    93          1
    94          1
    95          5
    96         10
    97         66
    98         26
    99         85
   100          7
   101          1
   102          1
   103          1
   104          1
   105          1
   106          1
   107          1
   108          1
   109          2
   110          4
   111         28
   112         17
   113         50
   114          5
   115          1
   116          1
   117          1
   118          1
   119          1
   120          1
   121          1
   122          1
   123          1
   124          2
   125         11
   126         12
   127         36
   128          4
   129          1
   130          1
   131          1
   132          1
   133          1
   134          1
   135          1
   136          1
   137          1
   138          2
   139          5
   140          9
   141         28
   142          3
   143          1
   144          1
   145          1
   146          1
   147          1
   151          1
   152          1
   153          3
   154          8
   155         23
   156          3
   157          1
   165          1
   166          1
   167          2
   168          6
   169         19
   170          3
   171          1
   180          1
   181          1
   182          5
   183         17
   184          2
   185          1
   194          1
   195          1
   196          4
   197         15
   198          2
   199          1
   208          1
   209          1
   210          4
   211         13
   212          2
   213          1
   222          1
   223          1
   224          3
   225         12
   226          2
   227          1
   236          1
   237          1
   238          3
   239         10
   240          2
   241          1
   250          1
   251          1
   252          2
   253          8
   254          2
   255          1
   265          1
   266          3
   267          7
   268          1
   269          1
   280          2
   281          5
   282          1
   294         20
   295         74
   296         17
   297          2
   308          1
   309          2
   310          1
   322          3
   323         33
   324          8
   325          1
   336          1
   337          1
   338          6
   340          1
   341          1
   342          1