##TITLE=Library Entry 24390
##JCAMP-DX=Revision 4.10 
##DATA TYPE=MASS SPECTRUM
##SAMPLE DESCRIPTION=CHEM. RES. LAB., WRIGHT-PATTERSON AIR FORCE BASE, OHIO,
 USA
##NAMES=HP
##CAS NAME=Acetic acid, (2,4-dichlorophenoxy)-, 2-ethylhexyl ester
##MOLFORM=C16H22Cl2O3
##CAS REGISTRY NO=1928-43-4
##MP= -300
##BP= -300
##MW= 332
##$RETENTION INDEX=0
##$CONDENSED SPECTRUM=NO
##NPOINTS= 48
##XYDATA=(XY..XY) 1 
    27         80
    29        228
    39         38
    41        325
    42         81
    43        730
    44         17
    53         13
    55        222
    56         98
    57        999
    58         37
    63         23
    69         74
    70        298
    71        512
    72         35
    73         11
    74         14
    75         29
    83         85
    84         38
    85         13
    97         10
   109         33
   110         10
   111         46
   112         27
   113         23
   133         15
   145         54
   149         13
   161         19
   162         88
   163         17
   164         46
   175         90
   176         16
   177         59
   185         20
   220        213
   221         18
   222        121
   223         12
   224         21
   332         60
   333         14
   334         44