##TITLE=Library Entry 51
##JCAMP-DX=Revision 4.10 
##DATA TYPE=MASS SPECTRUM
##SAMPLE DESCRIPTION=API 0333
##NAMES=HP
##CAS NAME=Diborane
##MOLFORM=B2H6
##CAS REGISTRY NO=19287-45-7
##MP= -300
##BP= -300
##MW= 28
##$RETENTION INDEX=0
##$CONDENSED SPECTRUM=NO
##NPOINTS= 14
##XYDATA=(XY..XY) 1 
    10         63
    11        284
    12        181
    13        244
    14          7
    15          1
    21         19
    22        112
    23        457
    24        896
    25        567
    26        999
    27        974
    28          3