##TITLE=Library Entry 24312
##JCAMP-DX=Revision 4.10 
##DATA TYPE=MASS SPECTRUM
##SAMPLE DESCRIPTION=Chemical Concepts
##NAMES=HP
##CAS NAME=Decane, 2,3,5,8-tetramethyl-
##MOLFORM=C14H30
##CAS REGISTRY NO=192823-15-7
##MP= -300
##BP= -300
##MW= 198
##$RETENTION INDEX=1318
##$CONDENSED SPECTRUM=NO
##NPOINTS= 77
##XYDATA=(XY..XY) 1 
    26         20
    27        224
    28         32
    29        246
    30          7
    31          1
    33          1
    35          1
    36          1
    37          6
    38          7
    39        169
    40         24
    41        613
    42        127
    43        809
    44         15
    49          1
    50          6
    51         10
    52          5
    53         49
    54         23
    55        335
    56        164
    57        999
    58         44
    62          0
    63          4
    65          9
    66          5
    67         38
    68         14
    69        153
    70        254
    71        741
    72         37
    77          6
    79          9
    80          2
    81         16
    82         15
    83         37
    84         86
    85        311
    86         21
    89          1
    91          6
    92          1
    93          2
    94          1
    95          9
    96          6
    97         23
    98          7
    99        105
   100          5
   105          1
   107          0
   108          0
   109          3
   110          3
   111         18
   112         32
   113         71
   114          5
   124          1
   125         12
   126          6
   127          7
   128          1
   141          5
   154         14
   155         68
   156          3
   169          3
   198          0