##TITLE=Library Entry 11918
##JCAMP-DX=Revision 4.10 
##DATA TYPE=MASS SPECTRUM
##SAMPLE DESCRIPTION=ACCUSTANDARD Chemicals / NIST MS Data Center.
##NAMES=HP
##CAS NAME=Carbamothioic acid, dipropyl-, S-propyl ester
##MOLFORM=C10H21NOS
##CAS REGISTRY NO=1929-77-7
##MP= -300
##BP= -300
##MW= 203
##$RETENTION INDEX=1435
##$CONDENSED SPECTRUM=NO
##NPOINTS= 89
##XYDATA=(XY..XY) 1 
    14          1
    15         13
    17          0
    18          2
    27        169
    28         45
    29         38
    30         56
    31          3
    33          0
    34          0
    35          0
    37          0
    39         60
    41        289
    42        145
    43        999
    44         54
    45         15
    46         11
    47         26
    48          1
    49          1
    51          0
    52          0
    53          1
    54          6
    55          5
    56         27
    57          4
    58         32
    59          6
    60          4
    61          8
    62          3
    63          0
    68          3
    69          4
    70         34
    71          7
    72         37
    73          4
    74          2
    75          6
    76          7
    77          1
    78          0
    80          0
    82          1
    84          7
    86        420
    87         19
    88          4
    89         20
    90          2
    91          1
    98          4
   100         14
   101          1
   103         14
   104         15
   105          1
   106          0
   112          0
   114          5
   115          0
   116          1
   117          2
   118          2
   119          2
   128        491
   129         35
   130          3
   132          3
   144          0
   146         89
   147          8
   148          4
   160         17
   161         63
   162         10
   163          4
   170          1
   174         22
   175          2
   176          1
   203         50
   204          6
   205          3