##TITLE=Library Entry 46575
##JCAMP-DX=Revision 4.10 
##DATA TYPE=MASS SPECTRUM
##SAMPLE DESCRIPTION=Div. of Experiment Therapeutics WRAIR, WRAMC, Washingto
n DC 20307
##NAMES=HP
##CAS NAME=Thiazolo[3,2-a][1,3,5]-triazine-5-thione, 6-phenyl-7-phenylimino-
2,3,6,7(5H)tetrahydro-
##MOLFORM=C17H14N4S2
##CAS REGISTRY NO=19299-61-7
##MP= -300
##BP= -300
##MW= 338
##$RETENTION INDEX=0
##$CONDENSED SPECTRUM=NO
##NPOINTS= 122
##XYDATA=(XY..XY) 1 
    41         37
    42         18
    43         11
    44         11
    45         94
    46         15
    47         18
    48          6
    49         61
    50         68
    51        448
    52         37
    53          7
    54          3
    55          5
    57          6
    58         44
    59        184
    60        395
    61         30
    62         25
    63         49
    64         60
    65         91
    66         16
    68          3
    69         17
    70         13
    71          2
    72         43
    74         15
    75         22
    76         93
    77        999
    78         67
    80          2
    82          5
    83          5
    84         38
    85         17
    86         75
    87          1
    88          8
    89          1
    90         22
    91         64
    92         14
    93         25
    94          1
    96          3
   102         41
   103        208
   104         39
   105          4
   108         15
   109         27
   110          6
   115          2
   116          3
   117         25
   118         57
   119         20
   121          5
   122          3
   129         27
   130         62
   131         52
   132          3
   133          2
   134         12
   135        110
   136         16
   137          6
   139          4
   143        225
   144        317
   145        107
   146          9
   148          2
   149         59
   150         10
   151          5
   157         61
   158          6
   161         59
   162         13
   163          5
   166         11
   167          9
   168          3
   169         26
   170         16
   174         46
   175         44
   176         12
   177         10
   180          5
   192         11
   193         12
   194         14
   195          6
   201         11
   202         47
   203         69
   204         13
   205          1
   220          1
   234          1
   237          4
   246          8
   251          1
   252         13
   253          1
   261         15
   280         23
   281          1
   305         10
   311          1
   337         92
   338        160
   339         52
   340         17