##TITLE=Library Entry 24827
##JCAMP-DX=Revision 4.10 
##DATA TYPE=MASS SPECTRUM
##SAMPLE DESCRIPTION=NIST Mass Spectrometry Data Center, 1998.
##NAMES=HP
##CAS NAME=Acetic acid, (2,4-dichlorophenoxy)-, 2-butoxyethyl ester
##MOLFORM=C14H18Cl2O4
##CAS REGISTRY NO=1929-73-3
##MP= -300
##BP= -300
##MW= 320
##$RETENTION INDEX=0
##$CONDENSED SPECTRUM=NO
##NPOINTS= 197
##XYDATA=(XY..XY) 1 
    14          2
    15          6
    16          1
    26          6
    27         65
    28         38
    29        224
    30         10
    31         20
    35          1
    36          1
    37          4
    38          6
    39         43
    40          1
    41        353
    42        129
    43         88
    44         65
    45        180
    46          4
    47          2
    49          4
    50         20
    51         13
    52          2
    53         10
    54          3
    55         59
    56        413
    57        999
    58         48
    59          7
    60          3
    61         10
    62         22
    63         65
    64          4
    65          3
    66          1
    67          2
    69          4
    70          2
    71         26
    72         19
    73         64
    74         51
    75         87
    76         10
    77         22
    78          2
    79          2
    82          1
    83         11
    84         13
    85        246
    86        147
    87         78
    88          6
    89         14
    90          1
    91          3
    92          1
    93          1
    94          1
    95          1
    96          2
    97         16
    98         18
    99         15
   100         61
   101         35
   102          4
   103         70
   104          3
   105          3
   106          1
   107         10
   108          2
   109        118
   110         37
   111        159
   112         41
   113         45
   114         10
   115          3
   117          4
   118          1
   119          2
   120          1
   121          1
   123          9
   124          6
   126         11
   127          4
   128          7
   129          2
   130          2
   131          1
   133         66
   134          5
   135         41
   136          3
   137          7
   138          2
   139         13
   140          6
   141         21
   142          3
   143          6
   144          5
   145        217
   146         24
   147        141
   148         14
   149         39
   150          4
   151          3
   153          1
   154          1
   155          3
   156          2
   157          2
   158          2
   159          8
   160          3
   161         46
   162        148
   163         38
   164         94
   165         12
   166         16
   167         14
   168          3
   169          5
   170          1
   171          1
   173         15
   175        253
   176         31
   177        161
   178         20
   179         27
   180          3
   183          1
   184          1
   185         14
   186          2
   187          5
   188          1
   189          2
   190          1
   191          1
   193          1
   195          1
   199          4
   200          1
   201          2
   202          4
   203          1
   204          3
   205          1
   206          1
   211          4
   212         30
   213         20
   214         11
   215          6
   216          1
   220        315
   221         30
   222        202
   223         19
   224         34
   225          3
   229          1
   234          2
   236          1
   246          4
   247         51
   248         12
   249         33
   250          7
   251          6
   252          1
   264          7
   265          1
   266          4
   267          1
   268          1
   285          1
   320        129
   321         21
   322         83
   323         13
   324         15
   325          2