##TITLE=Library Entry 53875
##JCAMP-DX=Revision 4.10 
##DATA TYPE=MASS SPECTRUM
##SAMPLE DESCRIPTION=Chemical Concepts
##NAMES=HP
##CAS NAME=Decalin, 1-dimethylamino-, cis-
##MOLFORM=C12H23N
##CAS REGISTRY NO=19294-58-7
##MP= -300
##BP= -300
##MW= 181
##$RETENTION INDEX=0
##$CONDENSED SPECTRUM=NO
##NPOINTS= 80
##XYDATA=(XY..XY) 1 
    26          5
    27         36
    29          2
    30          9
    39         35
    40          6
    41         84
    42        101
    43         15
    44         48
    45         21
    46         20
    51         11
    52          4
    53         22
    54         11
    55         41
    56         32
    57         11
    58        349
    59         12
    63          4
    65         13
    66         10
    67         43
    68         21
    69          9
    70         43
    71        142
    72         12
    77         23
    78          6
    79         34
    80          9
    81         24
    82         18
    83         10
    84        999
    85        103
    91         25
    92          5
    93         20
    94         20
    95         18
    96         14
    97         10
    98         21
   105          6
   107         13
   108         17
   109          8
   110         30
   111         20
   115          3
   117          5
   120          6
   121          7
   122         15
   124         31
   129          2
   130          3
   131          0
   134         11
   135         12
   136         26
   137         13
   138        108
   139          9
   144          3
   146          0
   150         21
   151          7
   160          5
   164          9
   177          5
   178         14
   179         29
   180         13
   181         92
   182         11