##TITLE=Library Entry 68881
##JCAMP-DX=Revision 4.10 
##DATA TYPE=MASS SPECTRUM
##SAMPLE DESCRIPTION=J. Little, Eastman chemical company.
##NAMES=HP
##CAS NAME=2-Furanilide
##MOLFORM=C11H9NO2
##CAS REGISTRY NO=1929-89-1
##MP= -300
##BP= -300
##MW= 187
##$RETENTION INDEX=0
##$CONDENSED SPECTRUM=NO
##NPOINTS= 31
##XYDATA=(XY..XY) 1 
    27          8
    29          5
    38         23
    39        178
    40         11
    41          8
    50          8
    51         40
    52         10
    53          8
    55          7
    63         14
    64         15
    65         59
    66         13
    67         19
    69          5
    77         49
    78          7
    91         10
    92         12
    93         18
    94         23
    95        999
    96         56
   130         21
   144          5
   159          9
   187        414
   188         52
   189          5