##TITLE=Library Entry 33812
##JCAMP-DX=Revision 4.10 
##DATA TYPE=MASS SPECTRUM
##SAMPLE DESCRIPTION=Chemical Concepts
##NAMES=HP
##CAS NAME=(2-Oxocyclohex-3-enyl)acetic acid, methyl ester
##MOLFORM=C9H12O3
##CAS REGISTRY NO=193023-20-0
##MP= -300
##BP= -300
##MW= 168
##$RETENTION INDEX=0
##$CONDENSED SPECTRUM=NO
##NPOINTS= 102
##XYDATA=(XY..XY) 1 
    26          8
    27         56
    28          5
    29         15
    30          2
    31          5
    37          2
    38         10
    39        110
    40         76
    41         77
    42         31
    43         23
    44          2
    45          4
    49          0
    50         10
    51         24
    52         16
    53         54
    54         14
    55         64
    56          3
    57          2
    58          1
    59         29
    60          1
    61          1
    62          2
    63          6
    64          1
    65         15
    66         20
    67         27
    68        999
    69         57
    70          4
    71          4
    72          0
    73          1
    74        160
    75         13
    76          2
    77         41
    78         21
    79         54
    80         24
    81         72
    82         13
    83          5
    84          2
    85          2
    86          1
    87          1
    89          1
    90          1
    91         19
    92          2
    93          6
    94         71
    95        109
    96         12
    97          5
    98          1
    99          3
   100          6
   101          0
   105          1
   106         13
   107         27
   108         47
   109         44
   110          6
   111          2
   112         20
   113          2
   114          2
   116          0
   118          1
   119         22
   120          2
   121          1
   122          0
   123          1
   125          1
   126          0
   127          1
   129          1
   134         16
   135          5
   136        211
   137        188
   138         21
   139          3
   140         10
   141          1
   153          6
   154          0
   167          1
   168         38
   169          4
   170          1