##TITLE=Library Entry 2775
##JCAMP-DX=Revision 4.10 
##DATA TYPE=MASS SPECTRUM
##SAMPLE DESCRIPTION=Chemical Concepts
##NAMES=HP
##CAS NAME=Cyclohexanone, 2-(1-methyl-2-nitroethyl)-
##MOLFORM=C9H15NO3
##CAS REGISTRY NO=19307-62-1
##MP= -300
##BP= -300
##MW= 185
##$RETENTION INDEX=0
##$CONDENSED SPECTRUM=NO
##NPOINTS= 138
##XYDATA=(XY..XY) 1 
    26         16
    27        254
    28         63
    29        252
    30         40
    31         15
    37          4
    38         14
    39        335
    40         86
    41        999
    42        166
    43        504
    44         22
    45         26
    46         18
    47         14
    48         10
    49          5
    50         13
    51         40
    52         25
    53        190
    54         95
    55        966
    56         92
    57        183
    58         14
    59         33
    60          8
    61          4
    62         15
    63         11
    64          4
    65         48
    66         32
    67        673
    68        207
    69        650
    70        146
    71        239
    72         21
    73         37
    74          5
    75          5
    76          3
    77         56
    78         14
    79        250
    80         58
    81        353
    82        102
    83        170
    84         77
    85        113
    86         11
    87          6
    88          3
    89          4
    90          2
    91         44
    92         10
    93        146
    94        156
    95        546
    96         76
    97        192
    98        513
    99         54
   100         12
   101          9
   102          3
   103          3
   104          3
   105         17
   106          9
   107         26
   108         15
   109        290
   110         57
   111         69
   112         34
   113         41
   114         18
   115          7
   116          4
   117          5
   118          3
   119         23
   120         10
   121         88
   122         19
   123         93
   124         40
   125         79
   126         45
   127          9
   128          3
   129          3
   130          3
   131          4
   132          4
   133          4
   134          7
   135         10
   136         10
   137        197
   138         99
   139        179
   140         24
   141          6
   142         26
   143          4
   147          4
   148          4
   149          6
   150         16
   151          7
   152         11
   153          5
   154          3
   155         33
   156          5
   157          2
   164          3
   165          4
   166          4
   167          4
   168          8
   169          4
   170          6
   178          2
   180          4
   181          3
   182          2
   183          3
   185          4
   186          4