##TITLE=Library Entry 82166
##JCAMP-DX=Revision 4.10 
##DATA TYPE=MASS SPECTRUM
##SAMPLE DESCRIPTION=Exported from NIST MS Search
##NAMES=HP
##CAS NAME=14.beta.,17.alpha.-Pregn-5-en-20-one, 3.beta.,8,12.beta.,14,17-pe
ntahydroxy-, 12-benzoate
##MOLFORM=C28H36O7
##CAS REGISTRY NO=19308-44-2
##MP= -300
##BP= -300
##MW= 484
##$RETENTION INDEX=0
##$CONDENSED SPECTRUM=NO
##NPOINTS= 291
##XYDATA=(XY..XY) 1 
    26         95
    27        275
    28        215
    29        425
    30         17
    31        337
    32         20
    37         47
    38         75
    39        170
    40         25
    41        300
    42        130
    43        574
    44        225
    45        255
    49         17
    50        175
    51        300
    52         57
    53        115
    54         25
    55        375
    56         62
    57        242
    58        295
    59        245
    60         25
    61         27
    62         15
    63         25
    64         17
    65        112
    66         52
    67        275
    68         45
    69        225
    70         50
    71        125
    72         25
    73         70
    74        255
    75         62
    76        120
    77        829
    78        225
    79        425
    80         52
    81        317
    82         80
    83        175
    84         45
    85        120
    86         17
    87         45
    91        450
    92        117
    93        320
    94        102
    95        305
    96        125
    97        245
    98         55
    99        105
   100         52
   101         30
   103         45
   104         62
   105        999
   106        380
   107        275
   108         80
   109        255
   110        107
   111        167
   112         45
   113        524
   114         55
   115         70
   116         30
   117        125
   118         45
   119        250
   120        375
   121        512
   122        962
   123        350
   124        137
   125        175
   126        145
   127        105
   128        220
   129        150
   130         62
   131        175
   132         45
   133        145
   134         62
   135        175
   136        112
   137        170
   138        125
   139        237
   140         50
   141        100
   142         50
   143        170
   144         57
   145        400
   146         92
   147        307
   148         62
   149        142
   150         37
   151         75
   152         80
   153         87
   154         27
   155        125
   156         45
   157        245
   158         92
   159        250
   160         62
   161        245
   162         95
   163        275
   164         75
   165        137
   166         40
   167         52
   168         25
   169         75
   170         45
   171        105
   172         22
   173         75
   174         50
   175        170
   176         45
   177         65
   178         40
   179         50
   180         82
   181        152
   182         82
   183         95
   184         25
   185         50
   186         17
   187         45
   188         17
   189         52
   190         17
   191         30
   192         25
   193         75
   194         25
   195         50
   196         25
   197         65
   198         20
   199         50
   200         17
   201         40
   202         15
   203         20
   204         12
   205         37
   206         25
   207         50
   208         20
   209         50
   210         20
   211         45
   212         20
   213         25
   214          7
   215         30
   216         17
   217         30
   218         15
   219         12
   221         30
   222         30
   223        100
   224         45
   225         50
   226         20
   227         42
   228         17
   229         20
   230         10
   231         25
   232         15
   233         20
   235         20
   237         50
   238         15
   239         30
   240         25
   241        100
   242         20
   243         25
   244         17
   245         20
   247         40
   248         20
   249         17
   250          7
   251         25
   252         15
   253         20
   254         10
   255         55
   256         20
   257         20
   258         20
   259         22
   265        230
   266         75
   267         45
   268         20
   269         25
   270          7
   271         15
   272         10
   273         25
   274          7
   275         15
   276         15
   280         30
   281         20
   282         20
   283        629
   284        180
   285         50
   286         20
   287         22
   288         17
   290         12
   291         12
   292         10
   293         45
   294         10
   298         47
   299         22
   300         17
   301        744
   302        192
   303         37
   308         75
   309         20
   310         37
   311         57
   312         10
   316         50
   317         25
   318         27
   319        999
   320        237
   321         27
   326         75
   327         25
   328         12
   329         45
   330          5
   344        155
   345         37
   346         15
   347          5
   362        105
   363         25
   364          5
   423         10
   424          2
   430          7
   431          2
   432          2
   441        275
   442         75
   443          7
   448         20
   449          2
   450          1
   466         13
   467          4
   468          1
   484          6
   485          1
   486          0