##TITLE=Library Entry 87939
##JCAMP-DX=Revision 4.10 
##DATA TYPE=MASS SPECTRUM
##SAMPLE DESCRIPTION=A. TRKA, INST ORG CHEM BIOCHEM, CZECH ACAD SCI, PRAGUE,
 CZECH.
##NAMES=HP
##CAS NAME=5,7.beta.-Cyclo-5.beta.-cholestan-4-one
##MOLFORM=C27H44O
##CAS REGISTRY NO=19318-00-4
##MP= -300
##BP= -300
##MW= 384
##$RETENTION INDEX=0
##$CONDENSED SPECTRUM=NO
##NPOINTS= 38
##XYDATA=(XY..XY) 1 
    41        750
    43        900
    55        900
    57        450
    67        400
    69        450
    71        250
    79        400
    81        550
    91        400
    93        450
    95        550
   105        420
   107        400
   109        300
   111        999
   119        350
   121        320
   135        650
   137        800
   147        350
   149        250
   159        220
   161        250
   173        200
   174        250
   175        200
   229        250
   231        300
   247        650
   260        300
   261        150
   271        550
   328        450
   329        140
   369        350
   384        650
   385        200