##TITLE=Library Entry 6024
##JCAMP-DX=Revision 4.10 
##DATA TYPE=MASS SPECTRUM
##SAMPLE DESCRIPTION=CARL DJERASSI DEPT OF CHEM STANFORD UNIV STANFORD CALIF
 94305
##NAMES=HP
##CAS NAME=Spiro[benzofuran-3(2H),1'-[2,5]cyclohexadiene]-5-carboxylic acid,
 6-hydroxy-2'-methoxy-2,4'-dioxo-4-pentyl-, methyl ester
##MOLFORM=C26H32O7
##CAS REGISTRY NO=19314-88-6
##MP= -300
##BP= -300
##MW= 456
##$RETENTION INDEX=0
##$CONDENSED SPECTRUM=NO
##NPOINTS= 305
##XYDATA=(XY..XY) 1 
    40         50
    41        950
    42        120
    43        999
    44         40
    45        130
    50         10
    51        100
    52         30
    53        220
    54         30
    55        700
    56        120
    57        310
    58         10
    59        300
    60         10
    62         10
    63         80
    64         30
    65        150
    66         40
    67        170
    68         20
    69        590
    70         20
    71         20
    73         10
    74         10
    75         60
    76         40
    77        260
    78         70
    79        120
    80         20
    81        100
    82         10
    83         40
    85        190
    86         10
    87         20
    88         30
    89        110
    90         30
    91        230
    92         30
    93         60
    94         10
    95        120
    96         10
    97         20
    99         50
   100         10
   101         70
   102        100
   103        110
   104         30
   105         90
   106         10
   107         50
   108         10
   109         30
   111         10
   113         50
   114         60
   115        370
   116        100
   117         70
   118         30
   119         40
   120         20
   121         90
   122         20
   123         50
   124         10
   125         70
   126         80
   127        200
   128        280
   129        170
   130         50
   131         90
   132         40
   133         60
   134         20
   135         50
   136         20
   137         40
   138         30
   139        240
   140        100
   141        220
   142        110
   143        100
   144         70
   145         80
   146         20
   147         60
   148         20
   149         50
   150         30
   151        110
   152        270
   153        200
   154         80
   155        170
   156         60
   157        120
   158         60
   159         50
   160         20
   161         50
   162         20
   163         70
   164         50
   165        250
   166         70
   167        100
   168        130
   169        150
   170         70
   171        120
   172         30
   173         50
   174         30
   175         40
   176         30
   177         60
   178         70
   179         90
   180         60
   181        190
   182         80
   183         40
   184         80
   185        110
   186         40
   187         80
   188         30
   189         50
   190         20
   191         60
   192         20
   193         50
   194         70
   195        130
   196         70
   197        190
   198        100
   199        130
   200         40
   201         60
   202         30
   203         40
   204         10
   205         40
   206         20
   207         70
   208         40
   209         90
   210         80
   211        170
   212         80
   213        160
   214         40
   215         60
   216         10
   217         20
   218         10
   219         70
   220         20
   221         80
   222         40
   223        140
   224        110
   225        230
   226        110
   227        150
   228         50
   229         50
   230         20
   231         20
   233         10
   234         20
   235         50
   236         40
   237        110
   238         90
   239        190
   240        100
   241        140
   242         50
   243         60
   244         20
   245         30
   247         20
   248         20
   249         40
   250         30
   251        100
   252         70
   253        260
   254        110
   255        120
   256         40
   257         60
   258         20
   259         20
   263         40
   264         30
   265         80
   266         60
   267        140
   268         70
   269        120
   270         40
   271         70
   272         20
   273         20
   277         30
   279         60
   280         70
   281        160
   282         80
   283        100
   284         40
   285         50
   286         20
   287         20
   293         40
   294         30
   295        110
   296         50
   297        110
   298         50
   299         40
   300         20
   301         20
   302         20
   307         30
   308         40
   309        470
   310        140
   311        100
   312         40
   313         30
   314         30
   315         30
   318         20
   321         40
   322         30
   323         60
   324         40
   325        180
   326         70
   327        100
   328         40
   329         30
   330         20
   337         70
   338         50
   339         60
   340         30
   341         80
   342         40
   343         20
   344         20
   351         20
   352         30
   353         70
   354         40
   355         20
   357         60
   358         30
   364         30
   365        190
   366         70
   367         50
   368         50
   369         40
   370         40
   371         30
   372         30
   380         30
   381         40
   382         40
   385         40
   396         70
   397         80
   398        140
   399         60
   400         40
   413         30
   414         30
   424        270
   425        110
   426         50
   427         10
   428         50
   429         20
   441         40
   442         20
   456        380
   457        110
   458         20