##TITLE=Library Entry 85196
##JCAMP-DX=Revision 4.10 
##DATA TYPE=MASS SPECTRUM
##SAMPLE DESCRIPTION=N.W. DAVIES, UNIVERSITY OF TASMANIA, TASMANIA, AUSTRALI
A
##NAMES=HP
##CAS NAME=Acetamide, N-(4-ethoxyphenyl)-N-hydroxy-
##MOLFORM=C10H13NO3
##CAS REGISTRY NO=19315-64-1
##MP= -300
##BP= -300
##MW= 195
##$RETENTION INDEX=0
##$CONDENSED SPECTRUM=NO
##NPOINTS= 55
##XYDATA=(XY..XY) 1 
    26         31
    27        113
    29        110
    31         34
    38         21
    39         53
    41         13
    42         26
    43        617
    44         12
    45         17
    50         20
    51         43
    52        109
    53         97
    54         17
    55         11
    62         12
    63         42
    64         35
    65         61
    66         10
    77         10
    78         20
    79         45
    80        109
    81        133
    82         11
    91         17
    92         15
    93         25
    94         37
   106         13
   107         73
   108        999
   109        807
   110         65
   123         12
   124        113
   125         19
   135         36
   136        146
   137        437
   138         48
   149         69
   150         23
   151         25
   152         36
   153        144
   154         13
   177         23
   178         13
   179        641
   180         19
   195         74