##TITLE=Library Entry 40272
##JCAMP-DX=Revision 4.10 
##DATA TYPE=MASS SPECTRUM
##SAMPLE DESCRIPTION=B.WEBSTER ICI PHARMACEUTICALS DIVISION. ALDERLEY PARK C
HESHIRE
##NAMES=HP
##CAS NAME=Propionanilide, 4'-[2-hydroxy-3-(isopropylamino)propoxy]-
##MOLFORM=C15H24N2O3
##CAS REGISTRY NO=19314-99-9
##MP= -300
##BP= -300
##MW= 280
##$RETENTION INDEX=0
##$CONDENSED SPECTRUM=NO
##NPOINTS= 22
##XYDATA=(XY..XY) 1 
    41         64
    42         43
    43         86
    56         96
    57        139
    72        999
    73         54
   100         54
   102         32
   108         64
   109        194
   110         16
   114         32
   116         43
   122         16
   165        226
   166         32
   204         11
   236         32
   265         32
   279          3
   280          4