##TITLE=Library Entry 96422
##JCAMP-DX=Revision 4.10 
##DATA TYPE=MASS SPECTRUM
##SAMPLE DESCRIPTION=B.WEBSTER ICI PHARMACEUTICALS DIVISION. ALDERLEY PARK C
HESHIRE
##NAMES=HP
##CAS NAME=2-Propanol, 1-(isopropylamino)-3-[(4-methoxy-2-methyl-1-naphthyl)
oxy]-
##MOLFORM=C18H25NO3
##CAS REGISTRY NO=19314-96-6
##MP= -300
##BP= -300
##MW= 303
##$RETENTION INDEX=0
##$CONDENSED SPECTRUM=NO
##NPOINTS= 35
##XYDATA=(XY..XY) 1 
    39         24
    41         77
    42         48
    43        119
    44         71
    56        149
    57         54
    58         42
    70         36
    71         29
    72        667
    73         42
    74         95
    91         18
    98         18
   100         36
   102         36
   105         54
   114         54
   115         65
   116        999
   117        107
   127         29
   128         54
   129         18
   144         36
   159         36
   172         60
   173        125
   187        119
   188        429
   189         65
   288         12
   303         77
   304         12