##TITLE=Library Entry 44766
##JCAMP-DX=Revision 4.10 
##DATA TYPE=MASS SPECTRUM
##SAMPLE DESCRIPTION=W.K.ROHWEDDER US DEPT. OF AGRICULT., PEORIA, ILLINOIS,
 USA
##NAMES=HP
##CAS NAME=Nonanoic acid, 9-oxo-, methyl ester
##MOLFORM=C10H18O3
##CAS REGISTRY NO=1931-63-1
##MP= -300
##BP= -300
##MW= 186
##$RETENTION INDEX=1436
##$CONDENSED SPECTRUM=NO
##NPOINTS= 120
##XYDATA=(XY..XY) 1 
    14          1
    15         75
    16          1
    17          3
    18         17
    26          5
    27        136
    28        115
    29        157
    30          5
    31         26
    32         36
    33          3
    38          3
    39        118
    40          2
    41        434
    42        100
    43        391
    44        108
    45         61
    46          3
    47          2
    48          4
    49          2
    50          2
    51          6
    52          3
    53         41
    54         43
    55        607
    56         60
    57        157
    58         22
    59        287
    60         19
    61         11
    63          4
    65          9
    66          9
    67        191
    68         97
    69        285
    70         47
    71         51
    72         13
    73         37
    74        999
    75         74
    76          6
    77         11
    78          4
    79         49
    80         34
    81         75
    82         82
    83        393
    84        103
    85         24
    86          3
    87        613
    88         56
    89          5
    91          8
    92          6
    93         25
    94         71
    95         59
    96         11
    97         64
    98         96
    99         14
   100          6
   101         78
   102          7
   105          1
   107         21
   108         24
   109         94
   110         38
   111        346
   112         36
   113         10
   114          3
   115         75
   116          6
   117          2
   118          3
   119          3
   121          3
   123          2
   124         11
   125         21
   126         20
   127          5
   128          1
   129         24
   130          9
   135          6
   136         55
   137          8
   139          1
   140          3
   141          4
   142          2
   143        291
   144         22
   145          2
   152         13
   153          4
   154         26
   155        168
   156         17
   157          3
   158        102
   159         10
   168          3
   171         14
   172          2
   185          1