##TITLE=Library Entry 23078
##JCAMP-DX=Revision 4.10 
##DATA TYPE=MASS SPECTRUM
##SAMPLE DESCRIPTION=NIST Mass Spectrometry Data Center, 1990.
##NAMES=HP
##CAS NAME=2-Propyn-1-ol, propionate
##MOLFORM=C6H8O2
##CAS REGISTRY NO=1932-92-9
##MP= -300
##BP= -300
##MW= 112
##$RETENTION INDEX=797
##$CONDENSED SPECTRUM=NO
##NPOINTS= 34
##XYDATA=(XY..XY) 1 
    13          4
    14         16
    15         12
    24          4
    25         20
    26        110
    27        339
    28        120
    29        609
    30         18
    31          7
    32          0
    36          6
    37         62
    38        125
    39        502
    40         32
    41         12
    42         21
    43         12
    44          6
    45         16
    52          5
    53         30
    54         11
    55         80
    56          5
    57        999
    58         34
    59          2
    67          4
    69          3
    83         31
    84          4