##TITLE=Library Entry 96283
##JCAMP-DX=Revision 4.10 
##DATA TYPE=MASS SPECTRUM
##SAMPLE DESCRIPTION=Tox21 Consortium/NIST Mass Spectrometry Data Center, 20
12
##NAMES=HP
##CAS NAME=Palmidrol, TMS derivative
##MOLFORM=C21H45NO2Si
##CAS REGISTRY NO=193264-58-3
##MP= -300
##BP= -300
##MW= 371
##$RETENTION INDEX=0
##$CONDENSED SPECTRUM=NO
##NPOINTS= 259
##XYDATA=(XY..XY) 1 
    15          2
    16          2
    18          5
    25          1
    26          3
    27         24
    28         14
    29         79
    30        132
    31          5
    32          5
    33          1
    34          1
    35          1
    36          1
    38          1
    39         19
    40          6
    41        238
    42         54
    43        576
    44        381
    45         63
    46         20
    47         19
    48          3
    49          1
    50          1
    51          3
    52          1
    53         14
    54         28
    55        282
    56         71
    57        270
    58         54
    59         64
    60         17
    61         23
    62          3
    65          2
    66          3
    67         38
    68         17
    69        100
    70         41
    71        109
    72         55
    73        562
    74         74
    75        208
    76         17
    77         22
    78          3
    79         13
    80          6
    81         38
    82         14
    83         62
    84         48
    85        258
    86         52
    87        139
    88         26
    89         15
    90          4
    91          6
    92          1
    93          6
    94          3
    95         39
    96         11
    97         37
    98        136
    99         36
   100         94
   101        305
   102         73
   103        311
   104         37
   105         13
   106          2
   107          5
   108          1
   109         21
   110          6
   111         14
   112         47
   113         17
   114         17
   116        999
   117        136
   118        135
   119         12
   120          4
   121          3
   122          3
   123          8
   124          7
   125          5
   126         31
   127         10
   128         19
   129         17
   130         20
   131         16
   132        147
   133         17
   134         54
   135          8
   136          2
   137          5
   138          5
   139          3
   140         35
   141         11
   142         30
   143         12
   144         13
   145         79
   146          9
   147          3
   148          1
   149          1
   151          4
   152          4
   153          3
   154         58
   155          8
   156         27
   157          3
   158        111
   159         41
   160         32
   161          4
   162          2
   165          2
   166          4
   167          1
   168         27
   169          5
   170         21
   171          2
   172        119
   173         19
   174          6
   175        300
   176         43
   177         12
   178          2
   179          1
   180          2
   181          1
   182         28
   183          5
   184         19
   185          6
   186         15
   187          4
   188         81
   189         13
   190          5
   191          1
   192          1
   193          1
   194          1
   196         19
   197          5
   198         15
   199          3
   200         10
   201          2
   202          9
   203          1
   208          1
   209          1
   210         19
   211          3
   212         12
   213          2
   214         17
   215          2
   216          4
   217          3
   219          1
   221          2
   222          2
   223          1
   224         12
   225          4
   226          4
   228         16
   229          3
   230          9
   231          3
   235          1
   236          3
   237          1
   238         25
   239         30
   240         10
   241          1
   242         11
   243          2
   244          7
   245          1
   246          2
   250          1
   252         23
   253          7
   254          1
   256         16
   257          2
   258          2
   259          2
   264         10
   265          2
   266         14
   267          4
   268          7
   269          1
   270         12
   271          1
   272          3
   280         37
   281         38
   282         16
   283          3
   284          7
   285          1
   286          4
   287          1
   298          6
   299          1
   300          2
   310          3
   311          2
   312         39
   313         10
   314          4
   315          1
   326          3
   327          2
   328         48
   329          9
   330          2
   340          1
   341          1
   342          5
   343          2
   354          1
   356        569
   357        152
   358         39
   359          5
   360          1
   370          6
   371          7
   372          2