##TITLE=Library Entry 71355
##JCAMP-DX=Revision 4.10 
##DATA TYPE=MASS SPECTRUM
##SAMPLE DESCRIPTION=Japan AIST/NIMC Database- Spectrum MS-NW-8886
##NAMES=HP
##CAS NAME=Piperidine, 1,1'-(1,2-ethanediyl)bis-
##MOLFORM=C12H24N2
##CAS REGISTRY NO=1932-04-3
##MP= -300
##BP= -300
##MW= 196
##$RETENTION INDEX=0
##$CONDENSED SPECTRUM=NO
##NPOINTS= 39
##XYDATA=(XY..XY) 1 
    15          2
    27          3
    28         10
    29          6
    30         10
    39          3
    41         43
    42         34
    43          7
    44         28
    53          1
    54          5
    55         44
    56         14
    57          3
    58          2
    67          2
    68          4
    69         22
    70         23
    71          1
    79          1
    80          1
    81          1
    82          4
    83          6
    84          6
    85          2
    96         13
    97          7
    98        999
    99         69
   100          2
   110          5
   111          3
   112         19
   113          2
   196          9
   197          1