##TITLE=Library Entry 66448
##JCAMP-DX=Revision 4.10 
##DATA TYPE=MASS SPECTRUM
##SAMPLE DESCRIPTION=ASES Database, Dalian Institute, P.R. China
##NAMES=HP
##CAS NAME=N-(4-Nitrophenyl)-N'-phenyl-urea
##MOLFORM=C13H11N3O3
##CAS REGISTRY NO=1932-32-7
##MP= -300
##BP= -300
##MW= 257
##$RETENTION INDEX=0
##$CONDENSED SPECTRUM=NO
##NPOINTS= 15
##XYDATA=(XY..XY) 1 
    63        199
    64        353
    65        300
    66        248
    77        101
    91        552
    92        250
    93        999
   109         99
   119        951
   120         99
   134        119
   138        200
   164        150
   257         30