##TITLE=Library Entry 16874
##JCAMP-DX=Revision 4.10 
##DATA TYPE=MASS SPECTRUM
##SAMPLE DESCRIPTION=Japan AIST/NIMC Database- Spectrum MS-NW-5733
##NAMES=HP
##CAS NAME=Isoamyl lactate
##MOLFORM=C8H16O3
##CAS REGISTRY NO=19329-89-6
##MP= -300
##BP= -300
##MW= 160
##$RETENTION INDEX=1047
##$CONDENSED SPECTRUM=NO
##NPOINTS= 67
##XYDATA=(XY..XY) 1 
    14          4
    15         29
    16          1
    17          3
    18         10
    25          1
    26         11
    27        126
    28         31
    29        120
    30          5
    31         38
    32          5
    37          2
    38          3
    39         56
    40          9
    41        188
    42        105
    43        677
    44         29
    45        999
    46         29
    47          3
    50          2
    51          3
    52          1
    53          9
    54          6
    55        253
    56         42
    57         50
    58          4
    59         23
    60          2
    61          5
    63         10
    67          2
    68          2
    69         34
    70        346
    71        249
    72         15
    73         12
    74         13
    75         34
    76          2
    85          2
    86          1
    87         17
    88          3
    89         20
    90          5
    91         18
    99          6
   100          1
   101          1
   102          2
   103          1
   104          1
   115         15
   116          2
   117          4
   118          1
   135          1
   144          2
   145          4