##TITLE=Library Entry 98985
##JCAMP-DX=Revision 4.10 
##DATA TYPE=MASS SPECTRUM
##SAMPLE DESCRIPTION=A.A.Kutin, Moscow, Russia
##NAMES=HP
##CAS NAME=Hydrazine, 1-benzoyl-2-p-toluoyl-
##MOLFORM=C15H14N2O2
##CAS REGISTRY NO=19338-21-7
##MP= -300
##BP= -300
##MW= 254
##$RETENTION INDEX=0
##$CONDENSED SPECTRUM=NO
##NPOINTS= 39
##XYDATA=(XY..XY) 1 
    39        147
    40         18
    41         44
    42         10
    43         28
    44         42
    45          5
    50         95
    51        206
    52         24
    53         10
    54          3
    63         50
    64         19
    65        202
    66         10
    67          3
    77        390
    78         28
    79          3
    86          2
    91        379
    92         27
    93          1
    94          0
   105        357
   106         27
   107          3
   108          1
   119        999
   120         77
   121         10
   122          1
   135          4
   136          0
   253          0
   254         74
   255         10
   256          0