##TITLE=Library Entry 61525
##JCAMP-DX=Revision 4.10 
##DATA TYPE=MASS SPECTRUM
##SAMPLE DESCRIPTION=A.A.Kutin, Moscow, Russia
##NAMES=HP
##CAS NAME=1-Hexanamine, N-(phenylmethylene)-
##MOLFORM=C13H19N
##CAS REGISTRY NO=19340-96-6
##MP= -300
##BP= -300
##MW= 189
##$RETENTION INDEX=1567
##$CONDENSED SPECTRUM=NO
##NPOINTS= 64
##XYDATA=(XY..XY) 1 
    37          4
    39        198
    40         53
    41        439
    42        103
    43        134
    44         24
    45        210
    50         55
    51        118
    52         37
    53         62
    54         56
    55        290
    56         38
    57         38
    58         24
    59         43
    60        108
    62         23
    63         42
    64         19
    65        134
    67         51
    68         16
    69         75
    70         26
    72         11
    73         42
    75          8
    76         28
    77        173
    78         66
    79         89
    81         31
    83         52
    86         34
    87         14
    89        100
    90        111
    91        999
    92         87
   100         12
   103         41
   104        328
   105        149
   106        125
   116          9
   117        155
   118        815
   119        252
   120        101
   128         23
   130         18
   131         34
   132        463
   133        102
   145         22
   146         73
   160        788
   161        104
   170         23
   174        155
   188        130