##TITLE=Library Entry 36516
##JCAMP-DX=Revision 4.10 
##DATA TYPE=MASS SPECTRUM
##SAMPLE DESCRIPTION=R.W.A.OLIVER UNIV. OF SALFORD, SALFORD, LANCASHIRE, UK
##NAMES=HP
##CAS NAME=p-Benzoquinone, 2-methoxy-5-(methylthio)-
##MOLFORM=C8H8O3S
##CAS REGISTRY NO=19349-06-5
##MP= -300
##BP= -300
##MW= 184
##$RETENTION INDEX=0
##$CONDENSED SPECTRUM=NO
##NPOINTS= 27
##XYDATA=(XY..XY) 1 
    39        180
    41        240
    45        450
    53        680
    57        470
    59        240
    69        999
    71        200
    72        370
    73        310
    75        290
    85        850
    95        240
    98        400
   109        300
   111        510
   113        290
   138        220
   141        600
   155        810
   156        820
   169        990
   170        200
   171        240
   184        990
   185        290
   186        270