##TITLE=Library Entry 61114
##JCAMP-DX=Revision 4.10 
##DATA TYPE=MASS SPECTRUM
##SAMPLE DESCRIPTION=V.A.Korolev, Moscow, Russia
##NAMES=HP
##CAS NAME=N-Benzyl-4-hydroxybutanamide
##MOLFORM=C11H15NO2
##CAS REGISTRY NO=19340-88-6
##MP= -300
##BP= -300
##MW= 193
##$RETENTION INDEX=0
##$CONDENSED SPECTRUM=NO
##NPOINTS= 107
##XYDATA=(XY..XY) 1 
    30        113
    31         98
    34          3
    36          2
    37         19
    38         58
    39        406
    40        116
    41        441
    42        203
    43        293
    44        167
    45        124
    46          3
    49          7
    50        141
    51        324
    52        100
    53         31
    54         23
    55        132
    56         51
    57         93
    58         34
    59         92
    60         12
    61          8
    62         31
    63        116
    64         39
    65        473
    66         32
    67          9
    68         16
    69        203
    70         27
    71         28
    72          7
    73         13
    74         32
    75         22
    76         36
    77        328
    78        150
    79        274
    80         21
    81          5
    82          5
    83          4
    84         40
    85         32
    86          8
    87         98
    88          6
    89        102
    90         50
    91        999
    92        278
    93         18
    97         13
    98         18
    99          2
   100          3
   101          1
   102          4
   103         24
   104        316
   105        184
   106        999
   107        523
   108         47
   109          2
   111          1
   115          7
   116         15
   117         40
   118        152
   119        103
   120          9
   125         14
   127          5
   128          2
   130         15
   131         13
   132         37
   133         18
   134         24
   135          5
   144          2
   145          4
   146         48
   147         39
   148        207
   149        576
   150         57
   151          6
   152          3
   160          6
   162        166
   163        108
   164         15
   174         11
   175         20
   176          7
   193        413
   194         56
   195          3