##TITLE=Library Entry 50771
##JCAMP-DX=Revision 4.10 
##DATA TYPE=MASS SPECTRUM
##SAMPLE DESCRIPTION=Chemical Concepts
##NAMES=HP
##CAS NAME=Cycloheptanone, 2-(acetyloxy)-
##MOLFORM=C9H14O3
##CAS REGISTRY NO=19347-07-0
##MP= -300
##BP= -300
##MW= 170
##$RETENTION INDEX=0
##$CONDENSED SPECTRUM=NO
##NPOINTS= 81
##XYDATA=(XY..XY) 1 
    26         16
    27        219
    29        102
    30          3
    31          5
    38         21
    39        279
    40         49
    41        143
    42        192
    43        273
    44        166
    45         29
    50         23
    51         11
    52         11
    53         73
    54         63
    55        395
    56         64
    57        237
    58        164
    59         21
    60         18
    61         19
    63          8
    65          7
    66         38
    67        230
    68         55
    69         61
    70         25
    71         80
    72         36
    73         10
    74          7
    77         14
    78          6
    79         38
    80         13
    81        999
    82        220
    83         52
    84         34
    85         19
    86          8
    87          4
    91         10
    92          9
    93          6
    94          6
    95         14
    96         12
    97          7
    98         18
    99        127
   100         52
   101          6
   105          7
   109         33
   110        507
   111         41
   112         14
   113         20
   114          9
   117          5
   118          4
   126          7
   127        897
   128         88
   129         13
   139          4
   141         11
   142          6
   143          3
   144          4
   152          5
   153          6
   155          3
   170         21
   171          3