##TITLE=Library Entry 40221
##JCAMP-DX=Revision 4.10 
##DATA TYPE=MASS SPECTRUM
##SAMPLE DESCRIPTION=B.WEBSTER ICI PHARMACEUTICALS DIVISION. ALDERLEY PARK C
HESHIRE
##NAMES=HP
##CAS NAME=2-Propanol, 1-[(1-methylethyl)amino]-3-(1-naphthalenylamino)-
##MOLFORM=C16H22N2O
##CAS REGISTRY NO=19343-23-8
##MP= -300
##BP= -300
##MW= 258
##$RETENTION INDEX=0
##$CONDENSED SPECTRUM=NO
##NPOINTS= 28
##XYDATA=(XY..XY) 1 
    41        148
    42        111
    43        222
    44        593
    45        407
    46        259
    55        148
    58        222
    60        444
    72        999
    98        222
   102        593
   115        296
   127        259
   128        259
   129        222
   143        963
   144        148
   154        185
   155        148
   156        556
   157        407
   180        148
   181        629
   182        185
   240         37
   258        296
   259         74