##TITLE=Library Entry 19237
##JCAMP-DX=Revision 4.10 
##DATA TYPE=MASS SPECTRUM
##SAMPLE DESCRIPTION=NIST Mass Spectrometry Data Center, 1994
##NAMES=HP
##CAS NAME=6-Chlorohexanoyl chloride
##MOLFORM=C6H10Cl2O
##CAS REGISTRY NO=19347-73-0
##MP= -300
##BP= -300
##MW= 168
##$RETENTION INDEX=0
##$CONDENSED SPECTRUM=NO
##NPOINTS= 73
##XYDATA=(XY..XY) 1 
    12          2
    13          8
    14         18
    15         40
    18          4
    25          8
    26         99
    27        601
    28        145
    29        115
    30          7
    33          5
    34          5
    35         24
    36         56
    37         29
    38         78
    39        507
    40         81
    41        979
    42        410
    43        227
    44          7
    47          7
    48         28
    49        130
    50         30
    51         82
    52         13
    53         94
    54        115
    55        999
    56         82
    57         11
    60         72
    61         17
    62         25
    63        179
    64         12
    65         62
    66          5
    67         72
    68        222
    69        669
    70         51
    71          4
    73         14
    75         26
    76         14
    77         31
    78        362
    79         39
    80        112
    81         15
    83          5
    87          5
    88         35
    89          9
    90         31
    91        132
    92         13
    93         45
    96         27
    97        137
    98          9
   104         85
   105         30
   106         28
   107          7
   133        296
   134         29
   135         98
   136          8