##TITLE=Library Entry 40057
##JCAMP-DX=Revision 4.10 
##DATA TYPE=MASS SPECTRUM
##SAMPLE DESCRIPTION=B.WEBSTER ICI PHARMACEUTICALS DIVISION. ALDERLEY PARK C
HESHIRE
##NAMES=HP
##CAS NAME=Benzeneethanol, .alpha.-[[(1-methylethyl)amino]methyl]-
##MOLFORM=C12H19NO
##CAS REGISTRY NO=19343-25-0
##MP= -300
##BP= -300
##MW= 193
##$RETENTION INDEX=0
##$CONDENSED SPECTRUM=NO
##NPOINTS= 21
##XYDATA=(XY..XY) 1 
    45         78
    46         48
    51         19
    56         96
    58         29
    60         52
    63         15
    65         44
    70         19
    71         11
    72        999
    73         67
    77         29
    91        178
    92         22
   102         26
   103         19
   117         29
   175         11
   178         37
   193         29