##TITLE=Library Entry 79660
##JCAMP-DX=Revision 4.10 
##DATA TYPE=MASS SPECTRUM
##SAMPLE DESCRIPTION=Chemical Concepts
##NAMES=HP
##CAS NAME=Benzamide, N-methyl-N-phenyl-
##MOLFORM=C14H13NO
##CAS REGISTRY NO=1934-92-5
##MP= -300
##BP= -300
##MW= 211
##$RETENTION INDEX=1814
##$CONDENSED SPECTRUM=NO
##NPOINTS= 72
##XYDATA=(XY..XY) 1 
    26          0
    27          9
    28          1
    29          0
    30          1
    38          1
    39         16
    41          1
    42          1
    43          4
    44          0
    50         16
    51        113
    52          7
    53          1
    54          0
    55          0
    62          0
    63          5
    64          5
    65          7
    66          2
    67          0
    71          0
    74          3
    75          5
    76          9
    77        449
    78         40
    79          6
    80          0
    88          0
    89          0
    90          0
    91          5
    92          0
    93          0
    99          0
   101          0
   102          0
   103          1
   104         17
   105        999
   106         76
   107          4
   108          0
   115          1
   118         22
   119          1
   120          1
   121          0
   122          1
   132          0
   134          0
   135          0
   140          0
   152          0
   153          0
   154          0
   157          0
   162          0
   163          5
   164          0
   165          0
   169          0
   184          0
   197          0
   207          0
   211        350
   212         48
   213          3
   214          0