##TITLE=Library Entry 22029
##JCAMP-DX=Revision 4.10 
##DATA TYPE=MASS SPECTRUM
##SAMPLE DESCRIPTION=D.HENNEBERG, MAX-PLANCK INSTITUTE, MULHEIM, WEST GERMAN
Y
##NAMES=HP
##CAS NAME=Cyclobutane, 1,2-diethyl-, trans-
##MOLFORM=C8H16
##CAS REGISTRY NO=19341-98-1
##MP= -300
##BP= -300
##MW= 112
##$RETENTION INDEX=0
##$CONDENSED SPECTRUM=NO
##NPOINTS= 39
##XYDATA=(XY..XY) 1 
    27        300
    28        172
    29        223
    30          1
    38          4
    39        265
    40         41
    41        986
    42        352
    43        130
    44         29
    50          4
    51         14
    52          3
    53         57
    54         60
    55        648
    56        999
    57        203
    58          2
    63          2
    65          2
    66          1
    67         32
    68         13
    69        191
    70        247
    71         28
    77          2
    78          2
    79          2
    81         66
    82         17
    83        155
    84        201
    85          7
    97          2
   112         17
   113          2