##TITLE=Library Entry 81538
##JCAMP-DX=Revision 4.10 
##DATA TYPE=MASS SPECTRUM
##SAMPLE DESCRIPTION=Exported from NIST MS Search
##NAMES=HP
##CAS NAME=D-Mannitol, 2,4:3,5-bis-O-(phenylmethylene)-
##MOLFORM=C20H22O6
##CAS REGISTRY NO=19342-60-0
##MP= -300
##BP= -300
##MW= 358
##$RETENTION INDEX=0
##$CONDENSED SPECTRUM=NO
##NPOINTS= 42
##XYDATA=(XY..XY) 1 
   105        999
   106         25
   107         92
   108        142
   122         31
   123         82
   145         25
   148         17
   149        135
   150         40
   161         85
   162         11
   163         11
   164         31
   175         21
   177         25
   179        679
   180        100
   191        350
   192        117
   193         28
   210         35
   211         14
   212         21
   220         14
   221         21
   222          7
   234          7
   235          7
   236          7
   240          7
   251         17
   252         10
   253          7
   281          7
   297         18
   298         14
   320         14
   327         14
   357         25
   358         54
   359         14