##TITLE=Library Entry 40202
##JCAMP-DX=Revision 4.10 
##DATA TYPE=MASS SPECTRUM
##SAMPLE DESCRIPTION=B.WEBSTER ICI PHARMACEUTICALS DIVISION. ALDERLEY PARK C
HESHIRE
##NAMES=HP
##CAS NAME=2-Propanol, 1-(isopropylamino)-3-(p-tolylthio)-
##MOLFORM=C13H21NOS
##CAS REGISTRY NO=19343-26-1
##MP= -300
##BP= -300
##MW= 239
##$RETENTION INDEX=0
##$CONDENSED SPECTRUM=NO
##NPOINTS= 28
##XYDATA=(XY..XY) 1 
    39         22
    41         44
    42         22
    43         62
    44         22
    45         62
    56         49
    57         22
    58         13
    60         27
    65         22
    72        999
    73         67
    77         22
    79         22
    91         44
    98         36
   102         26
   123         40
   124         22
   137         84
   138         13
   163         13
   166          4
   195         22
   221          9
   224          4
   239         13