##TITLE=Library Entry 49
##JCAMP-DX=Revision 4.10 
##DATA TYPE=MASS SPECTRUM
##SAMPLE DESCRIPTION=B. Derendyaev, Novosibirsk Institute of Organic Chemist
ry
##NAMES=HP
##CAS NAME=.alpha.-Aminoisobutyronitrile
##MOLFORM=C4H8N2
##CAS REGISTRY NO=19355-69-2
##MP= -300
##BP= -300
##MW= 84
##$RETENTION INDEX=0
##$CONDENSED SPECTRUM=NO
##NPOINTS= 29
##XYDATA=(XY..XY) 1 
    12        131
    13         99
    14        970
    15        285
    26        999
    27        479
    28        184
    30        480
    31        199
    34          8
    35          9
    36         32
    37         45
    38        156
    39        149
    40        371
    41        391
    42        569
    43        181
    44        878
    45         32
    50         36
    51        138
    52        313
    53        292
    54         63
    55         12
    56         12
    84         12