##TITLE=Library Entry 38354
##JCAMP-DX=Revision 4.10 
##DATA TYPE=MASS SPECTRUM
##SAMPLE DESCRIPTION=Japan AIST/NIMC Database- Spectrum MS-NW-8943
##NAMES=HP
##CAS NAME=Furan, tetrahydro-2-(methoxymethyl)-
##MOLFORM=C6H12O2
##CAS REGISTRY NO=19354-27-9
##MP= -300
##BP= -300
##MW= 116
##$RETENTION INDEX=859
##$CONDENSED SPECTRUM=NO
##NPOINTS= 49
##XYDATA=(XY..XY) 1 
    14          1
    15         20
    18          2
    26          4
    27         77
    28         22
    29         57
    30          3
    31         20
    32          2
    33          2
    38          2
    39         43
    40          9
    41        188
    42         55
    43        447
    44         18
    45        223
    46          5
    47          2
    51          2
    52          1
    53         10
    54          5
    55         23
    56          8
    57          9
    58         37
    59         10
    61          1
    67          3
    68          2
    69         10
    70        112
    71        999
    72         46
    73          5
    74          5
    75          4
    82          1
    83          4
    84          6
    85          9
    86          4
    87          8
   114          1
   115          1
   116          2