##TITLE=Library Entry 80381
##JCAMP-DX=Revision 4.10 
##DATA TYPE=MASS SPECTRUM
##SAMPLE DESCRIPTION=NIST Mass Spectrometry Data Center
##NAMES=HP
##CAS NAME=10-Epigazaniolide
##MOLFORM=C15H18O2
##CAS REGISTRY NO=193698-44-1
##MP= -300
##BP= -300
##MW= 230
##$RETENTION INDEX=1833
##$CONDENSED SPECTRUM=NO
##NPOINTS= 113
##XYDATA=(XY..XY) 1 
    26          5
    27         71
    28          8
    29         56
    38         21
    39        315
    40         72
    41        107
    50         62
    51        158
    52         63
    53        278
    54         38
    60         13
    62         15
    63        115
    64         38
    65        233
    66         55
    67        139
    74         14
    75         22
    76         14
    77        424
    78        118
    79        257
    80         25
    86          6
    87         10
    89         47
    90         13
    91        775
    92        100
    93         69
    96        170
    98          9
   102         38
   103        165
   104         77
   105        999
   106        369
   107        298
   108         55
   115        236
   116         77
   117        245
   118         77
   119        735
   120        163
   121         83
   127         49
   128        154
   129        174
   130         60
   131        154
   132        388
   133        154
   134         41
   139         22
   141         89
   142         57
   143        359
   144         76
   145         96
   146         30
   147         11
   149         21
   150         34
   152         13
   153         42
   154         70
   155         59
   156         81
   157        127
   158         70
   159        158
   160         28
   161         25
   162         24
   166         12
   167         44
   168         12
   169        340
   170         49
   171         75
   173         44
   174         24
   175         15
   176          5
   179         61
   180          7
   182         10
   183         18
   184         30
   185         69
   186          9
   187         72
   188         22
   189         20
   197        315
   198         49
   199          9
   201         44
   202         38
   211          6
   212         13
   213          9
   215        570
   216         96
   217         11
   230        633
   231        122
   232         13