##TITLE=Library Entry 40559
##JCAMP-DX=Revision 4.10 
##DATA TYPE=MASS SPECTRUM
##SAMPLE DESCRIPTION=NIST Mass Spectrometry Data Center
##NAMES=HP
##CAS NAME=1-Allyl-3-(2-(allylthio)propyl)trisulfane
##MOLFORM=C9H16S4
##CAS REGISTRY NO=193625-59-1
##MP= -300
##BP= -300
##MW= 252
##$RETENTION INDEX=1818
##$CONDENSED SPECTRUM=NO
##NPOINTS= 100
##XYDATA=(XY..XY) 1 
    26          1
    27         12
    29          3
    32          2
    34          1
    35          1
    37          4
    38         10
    39        180
    40         15
    41        535
    42         24
    43          2
    44          2
    45        156
    46         22
    47         39
    48          2
    49          2
    53          3
    54          1
    55         21
    56          1
    57          3
    58         18
    59         55
    60         10
    61         42
    62          2
    63          2
    64         56
    65          6
    66          6
    67          6
    68          2
    69         12
    70          2
    71         49
    72         21
    73        999
    74         80
    75         53
    76          5
    77          3
    78          7
    79         21
    80          3
    81         24
    82          3
    83          8
    84          1
    85          8
    86          1
    87         12
    88          1
    89          1
    91          7
    92          1
    93          3
    96          4
    97          4
    98          2
    99          7
   100          1
   101         26
   102          2
   103         38
   104         66
   105        329
   106         47
   107         39
   108          4
   109          2
   113         34
   114          5
   119          3
   128          5
   129          1
   130          2
   133          1
   137         17
   138         32
   139         11
   140          5
   141          1
   146          2
   147        457
   148         37
   149         41
   150          3
   151          1
   178          7
   179          9
   180          3
   181          1
   211          6
   212          1
   213          1
   252          3
   254          1