##TITLE=Library Entry 58211
##JCAMP-DX=Revision 4.10 
##DATA TYPE=MASS SPECTRUM
##SAMPLE DESCRIPTION=Japan AIST/NIMC Database- Spectrum MS-IW-5387
##NAMES=HP
##CAS NAME=N,N-Dimethylthiocarbamoyl phenyl trithiocarbonate
##MOLFORM=C10H11NS4
##CAS REGISTRY NO=19378-01-9
##MP= -300
##BP= -300
##MW= 273
##$RETENTION INDEX=0
##$CONDENSED SPECTRUM=NO
##NPOINTS= 71
##XYDATA=(XY..XY) 1 
    15          5
    27          2
    28          1
    38          2
    39         14
    40          1
    41          1
    42         35
    43          4
    44         12
    45         12
    46          1
    47         16
    49          1
    50          9
    51         24
    52          2
    55          1
    56         15
    57          1
    58          2
    59          2
    60          1
    61          9
    62          2
    63          5
    64          1
    65         26
    66          6
    69         12
    70          1
    71          1
    72         17
    73         60
    74          6
    75          5
    76          5
    77         46
    78          6
    81          1
    82          3
    83          1
    84          2
    88        999
    89         46
    90         48
    91          7
    96          1
    97          2
    98         14
    99          2
   108          7
   109         32
   110         15
   111          3
   120          1
   121          4
   123          1
   140          6
   141          2
   150          1
   153         15
   154          2
   155          1
   164          2
   196          2
   197        255
   198         31
   199         24
   200          3
   218          3