##TITLE=Library Entry 19322
##JCAMP-DX=Revision 4.10 
##DATA TYPE=MASS SPECTRUM
##SAMPLE DESCRIPTION=R.T.HOLMAN,UNIVERSITY OF MINNESOTA
##NAMES=HP
##CAS NAME=11-Octadecenoic acid, methyl ester, (Z)-
##MOLFORM=C19H36O2
##CAS REGISTRY NO=1937-63-9
##MP= -300
##BP= -300
##MW= 296
##$RETENTION INDEX=2103
##$CONDENSED SPECTRUM=NO
##NPOINTS= 233
##XYDATA=(XY..XY) 1 
    26          6
    27        120
    28         90
    29        290
    30          8
    31         13
    32         12
    33          3
    36          3
    37          2
    38          2
    39        100
    40         23
    41        750
    42        150
    43        540
    44         24
    45         28
    46          1
    49          1
    50          2
    51          5
    52          6
    53         74
    54        220
    55        999
    56        240
    57        240
    58         13
    59        180
    60          8
    61          3
    62          2
    63          2
    64          1
    65         16
    66         17
    67        280
    68        180
    69        700
    70        170
    71         92
    72         10
    73         46
    74        580
    75         85
    76          6
    77         18
    78          7
    79         52
    80         34
    81        240
    82        170
    83        460
    84        350
    85         80
    86          7
    87        400
    88         37
    89          4
    90          1
    91         16
    92          5
    93         30
    94         37
    95        190
    96        320
    97        370
    98        270
    99         38
   100          9
   101         61
   102          8
   103          2
   104          2
   105          9
   106          5
   107         25
   108         26
   109        110
   110        170
   111        180
   112         60
   113         28
   114         40
   115         65
   116         11
   117          3
   118          2
   119         21
   120          8
   121         32
   122         15
   123        110
   124         90
   125        100
   126         21
   127         27
   128         45
   129         47
   130         14
   131          3
   132          2
   133         20
   134         18
   135         32
   136         12
   137         70
   138         73
   139         65
   140         12
   141         52
   142         14
   143         43
   144          7
   145          3
   146          2
   147         16
   148         14
   149         22
   150         10
   151         46
   152         55
   153         38
   154          7
   155         15
   156          5
   157         17
   158          4
   159          2
   160          1
   161         13
   162          6
   163         14
   164         10
   165         30
   166         43
   167         23
   168          6
   169         21
   170          4
   171         13
   172          4
   173          2
   174          1
   175         11
   176          4
   177          7
   178          5
   179         19
   180         90
   181         26
   182          6
   183         12
   184          3
   185         11
   186          4
   187          2
   189          6
   190          2
   191          3
   192          2
   193         14
   194         19
   195          8
   196          3
   197          4
   198          2
   199         11
   200          6
   201          2
   203          3
   204          2
   205          3
   206          3
   207         14
   208         12
   209          6
   210          3
   211          3
   212          1
   213          9
   214          5
   215          2
   216          1
   217          3
   218          2
   219          1
   220         34
   221         26
   222        130
   223         26
   224          3
   225          2
   226          1
   227          4
   228          4
   229          2
   231          1
   233          1
   235         18
   236         18
   237          4
   238          1
   239          2
   240          1
   241          2
   242          1
   245          2
   246         14
   247          7
   248          2
   249          3
   250          1
   253          8
   254          2
   255          3
   256          1
   262          2
   263          5
   264        280
   265        160
   266         26
   267          6
   268          1
   278          3
   279          1
   294          2
   295          1
   296         52
   297         11
   298          5
   299          2