##TITLE=Library Entry 27153
##JCAMP-DX=Revision 4.10 
##DATA TYPE=MASS SPECTRUM
##SAMPLE DESCRIPTION=T.H.WHITESIDES, STANFORD UNIV., CALIFORNIA, USA
##NAMES=HP
##CAS NAME=Bicyclo[3.1.0]hexan-2-one, 1,5-bis(1,1-dimethylethyl)-3,3-dimethy
l-
##MOLFORM=C16H28O
##CAS REGISTRY NO=19377-95-8
##MP= -300
##BP= -300
##MW= 236
##$RETENTION INDEX=1565
##$CONDENSED SPECTRUM=NO
##NPOINTS= 14
##XYDATA=(XY..XY) 1 
    41        300
    43        100
    55        150
    57        999
    67         60
    69        100
    81         50
    83         90
   109        100
   123        100
   137        200
   165        500
   180        770
   236          4