##TITLE=Library Entry 13087
##JCAMP-DX=Revision 4.10 
##DATA TYPE=MASS SPECTRUM
##SAMPLE DESCRIPTION=A.A.Kutin, Moscow, Russia
##NAMES=HP
##CAS NAME=Thiazolidin-4-one, 5-(1-methyl-3-oxobutylideno)-2-thioxo-
##MOLFORM=C8H9NO2S2
##CAS REGISTRY NO=19374-88-0
##MP= -300
##BP= -300
##MW= 215
##$RETENTION INDEX=0
##$CONDENSED SPECTRUM=NO
##NPOINTS= 84
##XYDATA=(XY..XY) 1 
    33         24
    34          6
    36          0
    37          4
    39        106
    40        111
    41         87
    43        999
    45        163
    46          4
    47          6
    48          2
    50         12
    51         20
    53         30
    55          7
    56          0
    58         37
    59         44
    60         17
    61          1
    62          1
    63          4
    64          8
    65          8
    66          6
    67          9
    69         37
    70         19
    71         47
    72          8
    73          2
    74          2
    75          1
    76          4
    77         10
    78          2
    81          1
    82          5
    83         11
    85        343
    86        428
    87         37
    88         19
    91          5
    92          3
    95          6
    97          5
    99          7
   100          4
   104          1
   106          1
   110          0
   112          8
   114        143
   115         10
   116          5
   118          6
   119          1
   123          3
   127          2
   128          6
   131          2
   132         11
   133          2
   134          3
   135         27
   136          2
   145         19
   146          1
   148          0
   156          1
   170          1
   171          7
   173        493
   174         37
   175         42
   176          2
   196          5
   213          1
   215        263
   216         23
   217         22
   218          2