##TITLE=Library Entry 972
##JCAMP-DX=Revision 4.10 
##DATA TYPE=MASS SPECTRUM
##SAMPLE DESCRIPTION=R.E.Ardrey ET AL.Pharmaceutical Mass Spectra,L.,1985
##NAMES=HP
##CAS NAME=Taurolidine
##MOLFORM=C7H16N4O4S2
##CAS REGISTRY NO=19388-87-5
##MP= -300
##BP= -300
##MW= 284
##$RETENTION INDEX=0
##$CONDENSED SPECTRUM=NO
##NPOINTS= 35
##XYDATA=(XY..XY) 1 
    26         30
    27        110
    30        999
    31         20
    33         20
    34         70
    41         60
    42        280
    43        850
    44        330
    45         30
    46         20
    48         40
    54         40
    55        150
    56        180
    57        450
    58         30
    63         10
    64         40
    65         20
    69         20
    71         50
    72         70
    73         30
    80         20
    81         40
    91         10
   106         10
   108         30
   118         20
   120         20
   135        260
   136         90
   137         20