##TITLE=Library Entry 109900
##JCAMP-DX=Revision 4.10 
##DATA TYPE=MASS SPECTRUM
##SAMPLE DESCRIPTION=Japan AIST/NIMC Database- Spectrum MS-NW-5643
##NAMES=HP
##CAS NAME=Benzene, 1,4-dichloro-2-methyl-
##MOLFORM=C7H6Cl2
##CAS REGISTRY NO=19398-61-9
##MP= -300
##BP= -300
##MW= 160
##$RETENTION INDEX=1108
##$CONDENSED SPECTRUM=NO
##NPOINTS= 87
##XYDATA=(XY..XY) 1 
    15          1
    25          1
    26          5
    27          6
    28          4
    35          2
    36          9
    37         18
    38         24
    39         67
    40          5
    41          3
    42          2
    43         36
    44         84
    45          2
    47          4
    48          3
    49         13
    50         42
    51         36
    52          4
    60         11
    61         39
    62        122
    63        153
    64         19
    65         11
    71          1
    72          6
    73         59
    74         24
    75         26
    76          2
    77          2
    79          4
    80         11
    81          7
    82          1
    83          3
    84         11
    85         21
    86         23
    87         25
    88          9
    89        292
    90         45
    91         11
    92          1
    95          1
    96          4
    97         19
    98          3
    99         57
   100          4
   101         16
   102          1
   107          3
   108          2
   109          7
   110          3
   111          3
   112          1
   119          1
   120          1
   121          1
   122          1
   123         39
   124         57
   125        999
   126         99
   127        313
   128         26
   129          1
   133          9
   134          1
   135          6
   137          1
   157          1
   158          1
   159         75
   160        668
   161        100
   162        441
   163         41
   164         69
   165          5