##TITLE=Library Entry 78608
##JCAMP-DX=Revision 4.10 
##DATA TYPE=MASS SPECTRUM
##SAMPLE DESCRIPTION=NIST Mass Spectrometry Data Center, 1994
##NAMES=HP
##CAS NAME=2'-Trifluoromethylbenzanilide
##MOLFORM=C14H10F3NO
##CAS REGISTRY NO=1939-24-8
##MP= -300
##BP= -300
##MW= 265
##$RETENTION INDEX=0
##$CONDENSED SPECTRUM=NO
##NPOINTS= 96
##XYDATA=(XY..XY) 1 
     4          4
    17          1
    18          2
    26          3
    27         17
    28         10
    31          2
    37          3
    38         16
    39         30
    40          6
    41          2
    44          1
    47          4
    50         70
    51        217
    52         21
    53          4
    56          1
    57         11
    61          2
    62         10
    63         37
    64         17
    65          7
    66          1
    68          1
    69          9
    70          2
    73          2
    74         19
    75         33
    76          1
    77        584
    78         44
    79          2
    81          4
    82          2
    83         16
    84          1
    87          3
    88         11
    89          4
    90          5
    91         11
    92          2
    93          2
    94          2
    95         10
    96          1
    98          1
    99          2
   100          3
   101          2
   102          3
   103          2
   105        999
   106         76
   107          8
   108          2
   109          2
   110          2
   112          3
   113         24
   114         21
   115          2
   120         10
   121          2
   122          1
   125          3
   126          1
   132          5
   133          7
   138          0
   139          5
   140         15
   141          4
   145          2
   160          9
   161          1
   166          1
   167          1
   168          2
   169          1
   195          1
   196          6
   197          1
   216          1
   226          5
   227          0
   244          1
   246         13
   247          2
   265        165
   266         25
   267          2