##TITLE=Library Entry 50298
##JCAMP-DX=Revision 4.10 
##DATA TYPE=MASS SPECTRUM
##SAMPLE DESCRIPTION=Japan AIST/NIMC Database- Spectrum MS-NW-2112
##NAMES=HP
##CAS NAME=Cyclohexane, 1,4-dichloro-
##MOLFORM=C6H10Cl2
##CAS REGISTRY NO=19398-57-3
##MP= -300
##BP= -300
##MW= 152
##$RETENTION INDEX=0
##$CONDENSED SPECTRUM=NO
##NPOINTS= 68
##XYDATA=(XY..XY) 1 
    15          3
    17          1
    18          7
    26          9
    27         66
    28         10
    29         21
    32          3
    35          2
    36         16
    37          4
    38          9
    39         89
    40         15
    41        122
    42          9
    43          3
    44          2
    49          9
    50         12
    51         26
    52         11
    53         59
    54         66
    55         73
    56          4
    57          6
    58          1
    61          4
    62         21
    63          7
    64          7
    65         13
    66          5
    67         56
    68          6
    69          4
    73          3
    74          2
    75         52
    76          8
    77         33
    78          9
    79         96
    80        314
    81        999
    82         68
    83          3
    87          2
    88         24
    89          8
    90          9
    91         14
    92          5
    94          1
    95          3
    98          1
   101          4
   103          2
   104         21
   105          4
   115          5
   116         68
   117         43
   118         25
   119          9
   152          7
   154          4