##TITLE=Library Entry 57337
##JCAMP-DX=Revision 4.10 
##DATA TYPE=MASS SPECTRUM
##SAMPLE DESCRIPTION=NIST Mass Spectrometry Data Center, 1990.
##NAMES=HP
##CAS NAME=3-Hexanol, 3,4-diethyl-,
##MOLFORM=C10H22O
##CAS REGISTRY NO=19398-78-8
##MP= -300
##BP= -300
##MW= 158
##$RETENTION INDEX=0
##$CONDENSED SPECTRUM=NO
##NPOINTS= 31
##XYDATA=(XY..XY) 1 
    15         11
    27        161
    28         90
    29        307
    31         73
    39        104
    41        337
    43        327
    45        527
    51         14
    53         59
    55        216
    56         24
    57        185
    59        351
    67         36
    69        561
    70         46
    71        121
    73         35
    77         14
    79         19
    81         16
    83         23
    85         73
    87        999
    88         50
   111         69
   129        327
   130         27
   140         26