##TITLE=Library Entry 5737
##JCAMP-DX=Revision 4.10 
##DATA TYPE=MASS SPECTRUM
##SAMPLE DESCRIPTION=Humboldt-Universitat zu Berlin, Department of Chemistry
, Analytical Group
##NAMES=HP
##CAS NAME=(4-Bromophenoxy)-triisopropyl-silane
##MOLFORM=C15H25BrOSi
##CAS REGISTRY NO=193966-77-7
##MP= -300
##BP= -300
##MW= 328
##$RETENTION INDEX=0
##$CONDENSED SPECTRUM=NO
##NPOINTS= 190
##XYDATA=(XY..XY) 1 
    12          4
    14         15
    15         95
    16         10
    17         30
    18         84
    25          4
    27        797
    28        250
    29         78
    30          7
    31         21
    32          7
    37         10
    38         40
    39        360
    40         82
    41        943
    42        261
    43        999
    44         81
    45        303
    46         21
    47         31
    49          6
    50        135
    51         71
    52          9
    53         52
    54         11
    55         77
    56         17
    57         19
    58         37
    59        195
    60         28
    61         92
    62         19
    63         71
    64         28
    65         46
    66         21
    67         39
    68         11
    69         48
    70         21
    71         54
    72         15
    73         54
    74         41
    75        307
    76        254
    77        225
    78         53
    79         33
    80          8
    81         17
    82          9
    83         14
    84          6
    85         62
    86          9
    87         22
    88          6
    89         18
    90         16
    91        172
    92         30
    93         35
    94          5
    95         14
    96          6
    97          6
    99          6
   101         12
   102         11
   103         39
   104         17
   105         16
   106          7
   107         49
   109         51
   110          5
   111         11
   113         14
   115        248
   117         11
   118          4
   119         16
   120         54
   121        261
   122         49
   123         50
   124          9
   125         40
   129         10
   130          4
   131         19
   132          4
   133         14
   135        359
   136        156
   137        120
   138         17
   139         86
   140          7
   141          9
   143         10
   145         14
   146          4
   147         20
   148         12
   149        103
   150        160
   151         36
   152         11
   153          4
   155        140
   156         25
   157        173
   158         24
   159         16
   160          3
   161         33
   162          9
   163         60
   164         26
   165          7
   169          4
   171          8
   172          3
   173          7
   174          3
   175          5
   176          4
   177          3
   178         44
   179          7
   180          2
   187          4
   189          6
   190          3
   191          5
   199        115
   200         16
   201        120
   202         15
   203          9
   204          2
   205          2
   206         36
   207          9
   208          2
   213          4
   215        128
   216         20
   217        115
   218         17
   219          4
   227          2
   229        200
   230         28
   231        176
   232         26
   233          7
   241          3
   242          2
   243         24
   244          4
   245         21
   246          3
   255          2
   257         85
   258         15
   259         85
   260         14
   261          4
   269          1
   271          2
   283          2
   285        113
   286         23
   287        110
   288         21
   289          5
   328         26
   329          7
   330         26
   331          5
   332          1