##TITLE=Library Entry 20177
##JCAMP-DX=Revision 4.10 
##DATA TYPE=MASS SPECTRUM
##SAMPLE DESCRIPTION=Chemical Concepts
##NAMES=HP
##CAS NAME=trans-4-Decene
##MOLFORM=C10H20
##CAS REGISTRY NO=19398-89-1
##MP= -300
##BP= -300
##MW= 140
##$RETENTION INDEX=983
##$CONDENSED SPECTRUM=NO
##NPOINTS= 79
##XYDATA=(XY..XY) 1 
    26          8
    27        155
    28          9
    29        191
    30          4
    31          5
    37          1
    38          3
    39        113
    40         18
    41        514
    42        194
    43        243
    44         12
    45          4
    50          3
    51         10
    52          5
    53         53
    54         93
    55        999
    56        546
    57        156
    58         14
    59          2
    60          8
    61          0
    63          2
    64          0
    65         17
    66          8
    67        105
    68         41
    69        554
    70        364
    71         66
    72         14
    73         12
    74          1
    76          0
    77         10
    78          1
    79         15
    80          2
    81         31
    82         39
    83        147
    84        102
    85         35
    86          4
    87          1
    91          1
    93          1
    95         12
    96         14
    97         91
    98         34
    99         15
   100          3
   101          1
   103          0
   105          0
   107          0
   109          4
   110          4
   111         35
   112         15
   113         12
   114          1
   115          0
   123          1
   125         10
   126          1
   128          0
   138          1
   139          0
   140        113
   141         11
   142          0