##TITLE=Library Entry 61488
##JCAMP-DX=Revision 4.10 
##DATA TYPE=MASS SPECTRUM
##SAMPLE DESCRIPTION=NIST Mass Spectrometry Data Center, 1994
##NAMES=HP
##CAS NAME=3'-Trifluoromethyl-2-phenylacetanilide
##MOLFORM=C15H12F3NO
##CAS REGISTRY NO=1939-21-5
##MP= -300
##BP= -300
##MW= 279
##$RETENTION INDEX=0
##$CONDENSED SPECTRUM=NO
##NPOINTS= 126
##XYDATA=(XY..XY) 1 
    14          0
    17          0
    18          1
    20          2
    26          0
    27          5
    28          9
    32          0
    33          0
    37          6
    38         30
    39        143
    40         15
    41         31
    42          2
    44          1
    46          5
    50         31
    51         64
    52         20
    53          4
    54          1
    56          1
    57         12
    60          0
    61          5
    62         26
    63        107
    64         49
    65        263
    66         15
    67          0
    68          1
    69         14
    70          1
    74          0
    75         27
    76          9
    77         10
    78          3
    79          1
    80          1
    81          3
    83         21
    84          2
    85          0
    86          2
    87          5
    88         13
    89         82
    90        142
    91        999
    92        209
    93         14
    94          3
    95         21
    96          2
    99          3
   100          2
   101          2
   102          2
   104          1
   105          1
   106          1
   107          3
   108          1
   109          5
   110          1
   111          6
   112          3
   113         38
   114         30
   115          4
   116          2
   117          1
   118        578
   119         50
   120         16
   121          1
   122          1
   125         13
   126          4
   127          1
   131          1
   132          9
   133         18
   134          2
   137          1
   138          1
   139          7
   140         35
   141          8
   142         12
   143          2
   144          1
   145         64
   146          5
   152          1
   158          1
   160         67
   161        207
   162         16
   165          1
   168          3
   172          4
   174          2
   175          0
   179          0
   180          2
   181          1
   183          1
   187         10
   188         20
   189          1
   200          1
   201          0
   210          0
   235          0
   248          1
   250          2
   258          0
   260         30
   261          6
   279        144
   280         24
   281          2