##TITLE=Library Entry 2744
##JCAMP-DX=Revision 4.10 
##DATA TYPE=MASS SPECTRUM
##SAMPLE DESCRIPTION=D.HENNEBERG, MAX-PLANCK INSTITUTE, MULHEIM, WEST GERMAN
Y
##NAMES=HP
##CAS NAME=3-Decene
##MOLFORM=C10H20
##CAS REGISTRY NO=19398-37-9
##MP= -300
##BP= -300
##MW= 140
##$RETENTION INDEX=988
##$CONDENSED SPECTRUM=NO
##NPOINTS= 59
##XYDATA=(XY..XY) 1 
    22          0
    24          1
    26         12
    27        264
    29        324
    30         11
    34          0
    35          2
    36          0
    37         10
    38          7
    39        223
    40         19
    41        999
    42        415
    43        664
    44          8
    46          0
    47          0
    50          6
    51         14
    52          9
    53         70
    54         89
    55        928
    56        704
    57        194
    58          8
    63          6
    65         16
    66         11
    67        112
    68         66
    69        702
    70        482
    71         79
    72          3
    77         12
    78          1
    79          8
    80          0
    81         15
    82         30
    83        134
    84        140
    85         26
    86          2
    91          1
    95          2
    96         11
    97        103
    98         48
    99          3
   110          3
   111         42
   112         14
   113          0
   140        123
   141         12