##TITLE=Library Entry 34576
##JCAMP-DX=Revision 4.10 
##DATA TYPE=MASS SPECTRUM
##SAMPLE DESCRIPTION=Japan AIST/NIMC Database- Spectrum MS-NW-2963
##NAMES=HP
##CAS NAME=Pentane, 2,4-dibromo-
##MOLFORM=C5H10Br2
##CAS REGISTRY NO=19398-53-9
##MP= -300
##BP= -300
##MW= 228
##$RETENTION INDEX=1004
##$CONDENSED SPECTRUM=NO
##NPOINTS= 63
##XYDATA=(XY..XY) 1 
    14          1
    15          8
    25          1
    26         13
    27        154
    28          4
    29         69
    30          2
    36          1
    37          4
    38          9
    39        100
    40         19
    41        591
    42         57
    43         78
    44          2
    45          1
    50          4
    51          7
    52          3
    53         55
    54          7
    55         33
    56          1
    57          1
    61          1
    62          1
    63          2
    65          4
    66          2
    67         26
    68         11
    69        999
    70         55
    71          2
    79          6
    80         13
    81          6
    82         13
    93          2
    95          2
   105          1
   106          1
   107         66
   108          2
   109         63
   110          1
   113          1
   119          1
   121         10
   122          1
   123          9
   133          7
   135          6
   148          5
   149        220
   150         16
   151        217
   152         11
   228          6
   230         10
   232          5