##TITLE=Library Entry 9072
##JCAMP-DX=Revision 4.10 
##DATA TYPE=MASS SPECTRUM
##SAMPLE DESCRIPTION=NIST Mass Spectrometry Data Center, 1994
##NAMES=HP
##CAS NAME=Pentanamide, N-(2-methyl-3-trifluoromethyl)phenyl-
##MOLFORM=C13H16F3NO
##CAS REGISTRY NO=1939-26-0
##MP= -300
##BP= -300
##MW= 259
##$RETENTION INDEX=0
##$CONDENSED SPECTRUM=NO
##NPOINTS= 135
##XYDATA=(XY..XY) 1 
    15         16
    16          0
    17          2
    18          3
    20          3
    27        230
    28         82
    29        254
    30          6
    37          3
    38         16
    39        137
    40         26
    41        294
    42         75
    43        999
    44         42
    46          1
    50         14
    51         15
    52         10
    53         20
    54          1
    55        142
    56         40
    57         20
    61          1
    62          7
    63         40
    64         24
    65         19
    66          3
    67          6
    68          1
    69        162
    70          1
    71        810
    72         47
    73          0
    75         27
    76          8
    77          5
    80         11
    81          6
    82          3
    83         27
    84          4
    85          1
    87          2
    88         14
    89          4
    90          9
    91         18
    92          4
    93          6
    94          4
    95         28
    96          3
    97          1
    98        134
    99        101
   100         11
   101          2
   102          2
   104          1
   105          1
   106          1
   107          3
   108          2
   109          7
   111         18
   112          5
   113         40
   114         52
   115          6
   117          2
   118          3
   119          6
   120         17
   121          3
   122          2
   125         18
   126          5
   127          5
   128          1
   130          1
   131          1
   132          8
   133         20
   134          7
   137          1
   139          9
   140         40
   141         13
   142         31
   143          4
   144          1
   145         83
   146          8
   147          1
   148          1
   153          1
   154          2
   159         16
   160         84
   161        406
   162         42
   163          2
   166          1
   168          5
   169          0
   172          6
   173          4
   174          9
   186          4
   187         15
   188         51
   189          5
   196          1
   198          1
   200          2
   201          1
   202          5
   214          3
   215          2
   217        230
   218         23
   219          1
   230          7
   231          1
   240         51
   241          8
   244          2
   259         36
   260          7