##TITLE=Library Entry 99196
##JCAMP-DX=Revision 4.10 
##DATA TYPE=MASS SPECTRUM
##SAMPLE DESCRIPTION=NIST Mass Spectrometry Data Center, 1994
##NAMES=HP
##CAS NAME=3'-Trifluoromethyl-o-toluanilide
##MOLFORM=C15H12F3NO
##CAS REGISTRY NO=1939-22-6
##MP= -300
##BP= -300
##MW= 279
##$RETENTION INDEX=0
##$CONDENSED SPECTRUM=NO
##NPOINTS= 109
##XYDATA=(XY..XY) 1 
    18          2
    26          0
    27          0
    28          6
    37          3
    38         18
    39        107
    40         11
    41         24
    42          0
    44          1
    45          1
    50         22
    51         41
    52         13
    53          5
    54          1
    57         10
    61          3
    62         23
    63         85
    64         38
    65        242
    66         14
    67          0
    69         13
    70          1
    74          2
    75         18
    76          7
    77         11
    78          2
    79          1
    81          3
    83         19
    84          1
    85          0
    86          2
    87          4
    88          9
    89         67
    90          0
    91        548
    92         43
    93          2
    94          1
    95          9
    96          1
    99          2
   100          2
   101          1
   102          1
   103          0
   104          2
   105          3
   106          1
   107          2
   108          1
   109          2
   110          0
   111          1
   113         28
   114         17
   115          2
   116          2
   119        999
   120         99
   121          7
   122          0
   125          5
   126          1
   127          1
   128          1
   129          0
   132          6
   133         14
   134          1
   139          3
   140         16
   141          2
   142          1
   145         11
   146          1
   151          1
   152          1
   153          0
   159          1
   160         14
   161          3
   165          1
   166          1
   168          7
   169          0
   178          0
   180          3
   181          1
   201          0
   208          1
   210          2
   235          1
   248          1
   250          0
   258          0
   260         25
   261          4
   262          2
   279        104
   280         18
   281          1