##TITLE=Library Entry 19309
##JCAMP-DX=Revision 4.10 
##DATA TYPE=MASS SPECTRUM
##SAMPLE DESCRIPTION=NIST Mass Spectrometry Data Center, 1990.
##NAMES=HP
##CAS NAME=cis-3-Decene
##MOLFORM=C10H20
##CAS REGISTRY NO=19398-86-8
##MP= -300
##BP= -300
##MW= 140
##$RETENTION INDEX=986
##$CONDENSED SPECTRUM=NO
##NPOINTS= 43
##XYDATA=(XY..XY) 1 
    15          8
    27        242
    28         78
    29        267
    39        373
    40         88
    41        994
    42        298
    43        457
    44         19
    50         13
    51         40
    52         24
    53        155
    54        176
    55        999
    56        686
    57        180
    63          9
    65         42
    66         27
    67        204
    68        120
    69        770
    70        566
    71         90
    77         27
    78          7
    79         30
    80          7
    81         35
    82         58
    83        180
    84        181
    85         45
    96         25
    97        179
    98         61
   110          9
   111         73
   112         38
   140        298
   141         29