##TITLE=Library Entry 9885
##JCAMP-DX=Revision 4.10 
##DATA TYPE=MASS SPECTRUM
##SAMPLE DESCRIPTION=F.G.JIMENZ INSTITUTO DE QUIMICA, CUIDAD UNIV., PISO, ME
XICO.
##NAMES=HP
##CAS NAME=4H-Pyran-4-one, 3,5-diacetyl-2,6-dimethyl-
##MOLFORM=C11H12O4
##CAS REGISTRY NO=19396-77-1
##MP= -300
##BP= -300
##MW= 208
##$RETENTION INDEX=0
##$CONDENSED SPECTRUM=NO
##NPOINTS= 21
##XYDATA=(XY..XY) 1 
    39        120
    42         65
    43        999
    44         30
    67        420
    68         50
    69         50
    71         50
    83         35
    85        800
    95         30
   109        280
   125        150
   127         50
   148         55
   151        280
   165         80
   166         30
   193         80
   208        330
   209         50