##TITLE=Library Entry 88038
##JCAMP-DX=Revision 4.10 
##DATA TYPE=MASS SPECTRUM
##SAMPLE DESCRIPTION=A.A.Kutin, Moscow, Russia
##NAMES=HP
##CAS NAME=4-(2-Fluoroanilino)-4-oxobutanoic acid
##MOLFORM=C10H10FNO3
##CAS REGISTRY NO=193952-10-2
##MP= -300
##BP= -300
##MW= 211
##$RETENTION INDEX=0
##$CONDENSED SPECTRUM=NO
##NPOINTS= 100
##XYDATA=(XY..XY) 1 
    33         13
    34          1
    36          1
    37          5
    38         12
    39         20
    40         26
    41         13
    42         11
    43         24
    44         36
    45        101
    49          0
    50          9
    51         11
    52         11
    53          6
    55        112
    56         20
    57         48
    58          5
    59          2
    60          3
    61          3
    62          8
    63         20
    64         19
    65          8
    66          1
    67          1
    68          4
    69          7
    70          3
    71          2
    73         55
    74          8
    75         19
    76          4
    77          6
    78          1
    79          1
    80          2
    81         12
    82         24
    83         95
    84         33
    85          4
    89          4
    90         19
    91         21
    92          3
    93          2
    94          5
    95         10
    96          3
    97          2
    99          0
   101         55
   102          3
   103          1
   107          2
   111        999
   112         58
   113          2
   115          1
   117          1
   118          1
   121          2
   122          4
   123          1
   124          3
   127          1
   128          3
   131          0
   135          2
   137         12
   138         10
   141          0
   143          1
   145          0
   146          1
   147          0
   148          2
   149          2
   150          1
   164          1
   165          2
   166          2
   167          0
   171          1
   176          1
   189          3
   190          1
   191          0
   192          1
   193          6
   194          6
   202          1
   211         67
   212          6