##TITLE=Library Entry 59477
##JCAMP-DX=Revision 4.10 
##DATA TYPE=MASS SPECTRUM
##SAMPLE DESCRIPTION=Japan AIST/NIMC Database- Spectrum MS-NW-2249
##NAMES=HP
##CAS NAME=Benzenemethanesulfonyl chloride
##MOLFORM=C7H7ClO2S
##CAS REGISTRY NO=1939-99-7
##MP= -300
##BP= -300
##MW= 190
##$RETENTION INDEX=0
##$CONDENSED SPECTRUM=NO
##NPOINTS= 83
##XYDATA=(XY..XY) 1 
    16          2
    18          2
    24          1
    26          4
    27          8
    28         16
    29          1
    32          9
    35          2
    36          9
    37          7
    38         15
    39         58
    40          5
    41         10
    43          5
    44          6
    45         14
    48        101
    49          4
    50         23
    51         37
    52         11
    53          2
    60          1
    61          8
    62         19
    63         49
    64        239
    65        105
    66         10
    69          1
    73          4
    74          4
    75          4
    76          4
    77         21
    78          7
    79          1
    84          1
    85          3
    86          4
    87          3
    88          1
    89         45
    90         21
    91        999
    92         84
    93          3
    97          1
    99          5
   101          2
   103          1
   104          1
   105         18
   106         18
   107          2
   108          1
   109          1
   121          5
   122          3
   123          1
   125         44
   126        155
   127         24
   128         48
   129          3
   137          1
   138          2
   144          1
   145          1
   160          1
   162          1
   163          1
   165          3
   166          1
   167          8
   168          1
   169          1
   170          5
   171          1
   172          5
   190          1