##TITLE=Library Entry 12791
##JCAMP-DX=Revision 4.10 
##DATA TYPE=MASS SPECTRUM
##SAMPLE DESCRIPTION=NIST Mass Spectrometry Data Center, 1994
##NAMES=HP
##CAS NAME=3'-Trifluoromethylisobutyranilide
##MOLFORM=C11H12F3NO
##CAS REGISTRY NO=1939-27-1
##MP= -300
##BP= -300
##MW= 231
##$RETENTION INDEX=0
##$CONDENSED SPECTRUM=NO
##NPOINTS= 129
##XYDATA=(XY..XY) 1 
    14          1
    15         26
    16          0
    18          3
    20          2
    26         12
    27        191
    28         42
    30          1
    32          0
    33          0
    37          6
    38         25
    39        119
    40         21
    41        234
    42         69
    43        999
    44         36
    46          1
    50         17
    51         13
    52         10
    53          4
    54          3
    55         24
    56          5
    57         16
    58          1
    61          2
    62         12
    63         50
    64         29
    65         20
    66          3
    67          1
    69         28
    70         85
    71        214
    72         10
    73          1
    74          2
    75         32
    76          8
    77          3
    78          1
    80          1
    81          3
    82          3
    83         26
    84          4
    85          1
    87          3
    88         16
    89          4
    90          9
    91         19
    92          4
    93          4
    94          4
    95         25
    96          3
    99          5
   100          4
   101          2
   102          3
   104          1
   106          1
   107          3
   108          1
   109          6
   111         23
   112          6
   113         43
   114         57
   115          6
   116          0
   117          1
   118          2
   119          6
   120         16
   121          3
   122          2
   125         14
   126          4
   127          4
   128          1
   130          0
   132          9
   133         19
   134          5
   137          1
   138          1
   139          8
   140         40
   141         13
   142         28
   143          4
   144          0
   145         61
   146          6
   147          0
   148          1
   151          0
   152          1
   158          2
   161        576
   162         49
   163          2
   166          1
   168          3
   169          0
   170          0
   172          3
   173          1
   174          2
   187         12
   188         37
   189          3
   196          1
   202          5
   212         48
   213          6
   214          2
   215          1
   216          2
   231         88
   232         11
   233          0