##TITLE=Library Entry 31484
##JCAMP-DX=Revision 4.10 
##DATA TYPE=MASS SPECTRUM
##SAMPLE DESCRIPTION=J. SHAW, BORRISTON RESEARCH, ROCKVILLE, MD, USA
##NAMES=HP
##CAS NAME=Phenol, 4-bromo-2,5-dichloro-
##MOLFORM=C6H3BrCl2O
##CAS REGISTRY NO=1940-42-7
##MP= -300
##BP= -300
##MW= 240
##$RETENTION INDEX=0
##$CONDENSED SPECTRUM=NO
##NPOINTS= 140
##XYDATA=(XY..XY) 1 
    12         33
    13         19
    14         28
    15          5
    16         15
    17         96
    18        277
    19          6
    24         25
    25         93
    26         71
    29        509
    31         50
    35        192
    36        234
    37        561
    38        187
    39         35
    40          7
    41         24
    42         21
    43          6
    45         30
    47        152
    48        198
    49        301
    50        182
    51         39
    53        448
    54         21
    55          6
    56          1
    57          2
    60        356
    61        912
    62        999
    63        516
    64         41
    65         27
    66         83
    67         31
    71         83
    72        187
    73        300
    74        148
    75         65
    76         21
    77         20
    79        186
    81        249
    82         36
    83         56
    84         60
    85         45
    86         21
    87         58
    88         28
    89         71
    90         62
    91         40
    93         15
    95         35
    96        130
    97        976
    98        114
    99        313
   100         28
   102         19
   103         19
   104         11
   105          3
   106         12
   107         50
   108         27
   109         43
   110          8
   111          9
   114          7
   116         41
   117         21
   118         29
   119         14
   120         30
   121         44
   122         21
   123          4
   124          6
   125         35
   126         34
   127         22
   128         17
   129         16
   130          5
   131         20
   132         23
   133        249
   135        172
   136          9
   137         24
   138          3
   139          2
   140          9
   141         31
   142          7
   143         29
   144          4
   145          1
   146          2
   149          1
   150          2
   151         19
   152          4
   153         23
   155          7
   160         30
   161         26
   162         22
   163         17
   164          6
   165          3
   169          1
   171          1
   187          1
   204         11
   205          4
   206         14
   207          5
   208          3
   209          1
   211         13
   213         22
   215         10
   217          1
   240        255
   242        414
   243         28
   244        172
   245         11
   246         23
   247          1