##TITLE=Library Entry 52713
##JCAMP-DX=Revision 4.10 
##DATA TYPE=MASS SPECTRUM
##SAMPLE DESCRIPTION=Chemical Concepts
##NAMES=HP
##CAS NAME=Cyclohexanol, 1-ethenyl-
##MOLFORM=C8H14O
##CAS REGISTRY NO=1940-19-8
##MP= -300
##BP= -300
##MW= 126
##$RETENTION INDEX=0
##$CONDENSED SPECTRUM=NO
##NPOINTS= 81
##XYDATA=(XY..XY) 1 
    25          0
    26         14
    27        193
    28         17
    29        105
    30          2
    31         25
    33          0
    37          1
    38          7
    39        117
    40         23
    41        164
    42         72
    43        130
    44          9
    45          6
    46          0
    47          1
    48          1
    50          8
    51         21
    52         12
    53         47
    54         23
    55        288
    56         30
    57         71
    58         38
    59          8
    60          0
    61          0
    62          1
    63          4
    64          1
    65         21
    66          9
    67         63
    68         70
    69         47
    70        387
    71         88
    72         35
    73          1
    74          0
    75          1
    76          0
    77         20
    78          7
    79         50
    80         13
    81         84
    82         64
    83        999
    84        132
    85         16
    86          0
    91          9
    92          2
    93         44
    94          4
    95         11
    96          3
    97        148
    98        179
    99         55
   100          4
   103          1
   105          1
   106          0
   107          3
   108         28
   109          9
   110          1
   111        282
   112         22
   113          1
   125          6
   126        153
   127         13
   128          0