##TITLE=Library Entry 72255
##JCAMP-DX=Revision 4.10 
##DATA TYPE=MASS SPECTRUM
##SAMPLE DESCRIPTION=NIST Mass Spectrometry Data Center, 1990.
##NAMES=HP
##CAS NAME=Cyclohexanol, 1-ethyl-
##MOLFORM=C8H16O
##CAS REGISTRY NO=1940-18-7
##MP= -300
##BP= -300
##MW= 128
##$RETENTION INDEX=0
##$CONDENSED SPECTRUM=NO
##NPOINTS= 63
##XYDATA=(XY..XY) 1 
    14          4
    15         35
    16          7
    17          7
    18         24
    26         28
    27        290
    28         96
    29        325
    30         10
    31         69
    32          3
    37          5
    39        254
    40         60
    41        427
    42        111
    43        682
    44         30
    45         29
    50         20
    51         52
    52         24
    53        133
    54         60
    55        285
    56         41
    57        379
    58         18
    59         11
    63         13
    65         38
    66         28
    67        182
    68         44
    69         80
    70         30
    71         68
    72        233
    73         39
    74          4
    77         45
    78         20
    79        145
    80          4
    81        960
    82         98
    83         26
    84          4
    85        754
    86        101
    87          5
    91         27
    93          6
    95         46
    97         11
    99        999
   100         71
   103          4
   106          5
   110         71
   111         14
   128          6