##TITLE=Library Entry 77763
##JCAMP-DX=Revision 4.10 
##DATA TYPE=MASS SPECTRUM
##SAMPLE DESCRIPTION=NIST Mass Spectrometry Data Center, 1998.
##NAMES=HP
##CAS NAME=p-Toluidine, 3,5-dinitro-
##MOLFORM=C7H7N3O4
##CAS REGISTRY NO=19406-51-0
##MP= -300
##BP= -300
##MW= 197
##$RETENTION INDEX=0
##$CONDENSED SPECTRUM=NO
##NPOINTS= 124
##XYDATA=(XY..XY) 1 
    14          1
    15          2
    16          1
    25          1
    26          9
    27         40
    28        102
    29         16
    30        122
    31          2
    36          1
    37         15
    38         39
    39        159
    40         61
    41        183
    42         68
    43         65
    44         82
    45          3
    46         29
    47          1
    48          3
    49         12
    50        184
    51        512
    52        553
    53        181
    54        232
    55         34
    56          4
    57          1
    60          4
    61         34
    62        117
    63        216
    64         74
    65        239
    66        307
    67        191
    68         85
    69         19
    70          6
    72          1
    73          9
    74         54
    75         72
    76        153
    77        509
    78        668
    79        126
    80         70
    81         31
    82          7
    83          6
    84          2
    85          5
    86         12
    87         15
    88         15
    89         57
    90         52
    91         70
    92        125
    93        353
    94        314
    95         48
    96          6
    97          5
    98          1
    99          5
   100          8
   101          3
   102         40
   103         27
   104        999
   105        535
   106        127
   107         33
   108         11
   109         16
   110          2
   111          1
   114          2
   116          2
   117          2
   118          6
   119         40
   120         97
   121         70
   122         60
   123         18
   124          2
   125          4
   131          1
   132         16
   133         64
   134         88
   135         19
   136         17
   137          2
   138          2
   139          2
   141          1
   148          1
   149         21
   150        155
   151         22
   152          7
   162          2
   163        169
   164         19
   165          2
   167          6
   168          1
   177          1
   179          7
   180        971
   181         90
   182         10
   183          1
   197        580
   198         55
   199          7