##TITLE=Library Entry 94518
##JCAMP-DX=Revision 4.10 
##DATA TYPE=MASS SPECTRUM
##SAMPLE DESCRIPTION=G.Hvistendahl ET AL,Tetrahedron,28,1737(1972)
##NAMES=HP
##CAS NAME=2,4-Dimethylcynnolinium iodide
##MOLFORM=C10H11IN2
##CAS REGISTRY NO=19418-98-5
##MP= -300
##BP= -300
##MW= 286
##$RETENTION INDEX=0
##$CONDENSED SPECTRUM=NO
##NPOINTS= 33
##XYDATA=(XY..XY) 1 
    27         48
    28         77
    39         77
    50         59
    51         67
    57         67
    58         35
    62         28
    63         87
    64         28
    65         28
    74         26
    75         39
    76         16
    77         18
    89         97
   114         18
   115        999
   116         97
   127        158
   128         59
   130         38
   131          9
   139         18
   140         19
   141         80
   142        591
   144        782
   145        111
   157         19
   158         90
   159         73
   160          9