##TITLE=Library Entry 18721
##JCAMP-DX=Revision 4.10 
##DATA TYPE=MASS SPECTRUM
##SAMPLE DESCRIPTION=S.A. Rang et al., IR & MS of Unsatd. Hydrocarbons, 1977
##NAMES=HP
##CAS NAME=5-Decyne
##MOLFORM=C10H18
##CAS REGISTRY NO=1942-46-7
##MP= -300
##BP= -300
##MW= 138
##$RETENTION INDEX=1008
##$CONDENSED SPECTRUM=NO
##NPOINTS= 77
##XYDATA=(XY..XY) 1 
    15          3
    25          1
    26         14
    27        260
    29        127
    30          4
    37          1
    38          7
    39        193
    40         44
    41        417
    42         47
    43        175
    44          4
    45          0
    49          0
    50         14
    51         53
    52         78
    53        193
    54        999
    55        363
    56         44
    57         14
    58          1
    59          0
    61          0
    62          2
    63         14
    64          4
    65         60
    66         32
    67        631
    68        181
    69         45
    70          5
    71          1
    72          0
    74          0
    75          2
    76          0
    77         54
    78         13
    79         75
    80         31
    81        579
    82        114
    83         17
    84          2
    85          0
    86          0
    87          0
    89          0
    90          0
    91         21
    92          3
    93         21
    94          9
    95        290
    96        133
    97         14
    98          1
    99          0
   100          1
   103          0
   105          1
   107          2
   108          1
   109         96
   110         20
   111          2
   121          0
   123         21
   124          2
   138         60
   139          6
   140          0