##TITLE=Library Entry 32575
##JCAMP-DX=Revision 4.10 
##DATA TYPE=MASS SPECTRUM
##SAMPLE DESCRIPTION=D.HENNEBERG, MAX-PLANCK INSTITUTE, MULHEIM, WEST GERMAN
Y
##NAMES=HP
##CAS NAME=1,5-Cyclododecadiene, (E,Z)-
##MOLFORM=C12H20
##CAS REGISTRY NO=19428-99-0
##MP= -300
##BP= -300
##MW= 164
##$RETENTION INDEX=1356
##$CONDENSED SPECTRUM=NO
##NPOINTS= 82
##XYDATA=(XY..XY) 1 
    25          1
    26          7
    27        154
    28         24
    29        120
    30          2
    35          1
    37          6
    38          6
    39        321
    40         51
    41        620
    42         40
    43         42
    46          0
    50          9
    51         35
    52         26
    53        179
    54        890
    55        445
    56         33
    57          9
    60          0
    62          1
    63         12
    64          5
    65         70
    66         92
    67        999
    68        404
    69        125
    70          6
    71          2
    74          4
    75          5
    76          2
    77         82
    78         55
    79        387
    80        402
    81        689
    82        306
    83         76
    84          4
    89          3
    90          1
    91         52
    92         14
    93        253
    94        244
    95        236
    96        105
    97         34
    98          2
   103          1
   104          0
   105          7
   106          4
   107        172
   108         95
   109         82
   110         38
   111          4
   113          0
   117          0
   119          1
   120          7
   121        392
   122         96
   123         28
   124          1
   133          0
   134          1
   135        142
   136         99
   137          9
   149         28
   150          2
   163          0
   164         59
   165          6