##TITLE=Library Entry 81348
##JCAMP-DX=Revision 4.10 
##DATA TYPE=MASS SPECTRUM
##SAMPLE DESCRIPTION=Exported from NIST MS Search
##NAMES=HP
##CAS NAME=Nicotinonitrile, 1-butyl-1,4-dihydro-
##MOLFORM=C10H14N2
##CAS REGISTRY NO=19424-18-1
##MP= -300
##BP= -300
##MW= 162
##$RETENTION INDEX=0
##$CONDENSED SPECTRUM=NO
##NPOINTS= 43
##XYDATA=(XY..XY) 1 
    26        124
    27        445
    28        240
    29        598
    30        153
    38         58
    39        284
    40         58
    41        510
    42         73
    50         87
    51        167
    52        124
    53         73
    54         43
    55         73
    56         43
    57        335
    58         36
    63         29
    64         65
    65        131
    66         43
    76         51
    77        116
    78        124
    79         43
    80         43
    90         43
    91         80
    92         43
   104        146
   105        999
   106        124
   118         73
   119        394
   120         80
   121         65
   131         58
   133         36
   161        729
   162        401
   163         65