##TITLE=Library Entry 844
##JCAMP-DX=Revision 4.10 
##DATA TYPE=MASS SPECTRUM
##SAMPLE DESCRIPTION=Albert Lebedev, Moscow State University, Russia
##NAMES=HP
##CAS NAME=S-(2,5-Dichloro-6-cyano-3-[[(ethyloxy)carbonothioyl]thio]pyridin-
4-yl) o-ethyl (dithiocarbonate)
##MOLFORM=C12H10Cl2N2O2S4
##CAS REGISTRY NO=194228-14-3
##MP= -300
##BP= -300
##MW= 412
##$RETENTION INDEX=0
##$CONDENSED SPECTRUM=NO
##NPOINTS= 276
##XYDATA=(XY..XY) 1 
    16          3
    18          2
    26          8
    27        146
    28         32
    29        999
    30         24
    31          2
    32          6
    33          1
    34          1
    35          2
    41          1
    42          1
    43          8
    44          2
    45         16
    46          2
    47          3
    49          1
    53          2
    56          1
    57          2
    58          1
    59          3
    60          7
    61         30
    62          7
    63          2
    64         11
    65          2
    66          1
    67          1
    68          3
    69          3
    70         14
    71          3
    72          1
    73          1
    74          1
    75          2
    76          9
    77          7
    78          1
    79         40
    80          2
    81         15
    82          4
    83          3
    84          1
    85          2
    86          2
    87          2
    88         13
    89         73
    90          8
    91         12
    92          1
    93         13
    94         81
    95          8
    96          5
    97          3
    98          3
    99          1
   100          7
   101          3
   102          1
   103         21
   104          1
   105          8
   106         39
   107          8
   108          5
   109          3
   110          1
   111          3
   112          3
   113          1
   114          1
   115          7
   116          1
   117          5
   118          6
   119          4
   120          8
   121          4
   122          2
   123          4
   124          1
   125          1
   126          2
   127          1
   129          7
   130          4
   131          3
   132         11
   133          3
   134          5
   135          3
   136          1
   137          4
   138         11
   139          3
   140          1
   141         15
   142          4
   143          6
   144          5
   145          1
   146          2
   147          5
   148          1
   149          3
   150          2
   151          1
   152          1
   153          1
   155         17
   156          3
   157          7
   158          1
   159          2
   160          2
   161          1
   162          1
   163          1
   164         11
   165         10
   166          6
   167          4
   168          7
   169          8
   170          3
   171         11
   172         35
   173         14
   174         25
   175          5
   176          6
   177          2
   178          7
   179          2
   180          1
   181          1
   183          1
   187          6
   188          1
   189          2
   190          1
   191          5
   192          2
   193          5
   194          2
   195          6
   196          3
   197          3
   198          1
   199         73
   200         35
   201         49
   202         22
   203         14
   204         15
   205          5
   206          8
   207          2
   208         17
   209          3
   210         11
   211          4
   212          3
   213          3
   214          1
   215          1
   216          1
   217          1
   218          1
   225          1
   227          7
   228          2
   229          7
   230          3
   231         75
   232         41
   233         48
   234         36
   235        264
   236        101
   237        216
   238         66
   239         49
   240         15
   241          4
   242          1
   243          3
   244          1
   245          2
   246          1
   247          3
   248          1
   249          3
   251          1
   253          2
   255          1
   256          1
   257          1
   259          8
   260         30
   261         35
   262         28
   263        277
   264         38
   265        203
   266         26
   267        115
   268         13
   269         44
   270          5
   271         10
   272          1
   273          1
   278          5
   279         15
   280         16
   281         13
   282         10
   283          4
   284          2
   285          1
   288          7
   289         40
   291        389
   292         52
   293        288
   294         37
   295        169
   296         18
   297         86
   298         10
   299         23
   300          2
   301          2
   307          1
   308          2
   309          1
   310          1
   317          5
   318          1
   319          2
   321          1
   323         42
   324         13
   325         40
   326         11
   327         15
   328          3
   329          2
   348          2
   349          2
   350          2
   351          1
   353          2
   355          1
   377         92
   378         15
   379         48
   380          7
   381          7
   382          1
   383          1
   412          7
   413          1
   414          5
   415          1
   416          2