##TITLE=Library Entry 27682
##JCAMP-DX=Revision 4.10 
##DATA TYPE=MASS SPECTRUM
##SAMPLE DESCRIPTION=ASES Database, Dalian Institute, P.R. China
##NAMES=HP
##CAS NAME=N,N-Diethyl-butyrothioamide
##MOLFORM=C8H17NS
##CAS REGISTRY NO=19420-07-6
##MP= -300
##BP= -300
##MW= 159
##$RETENTION INDEX=0
##$CONDENSED SPECTRUM=NO
##NPOINTS= 24
##XYDATA=(XY..XY) 1 
    30        668
    32         40
    34         20
    40         60
    41         80
    42        109
    43         49
    44        342
    48         98
    56         49
    57         40
    58        999
    59         39
    60         30
    64         40
    70         30
    72        199
    73        278
    74         30
    88         19
   129         49
   130         19
   131         19
   159         20