##TITLE=Library Entry 32788
##JCAMP-DX=Revision 4.10 
##DATA TYPE=MASS SPECTRUM
##SAMPLE DESCRIPTION=Japan AIST/NIMC Database- Spectrum MS-NW-4272
##NAMES=HP
##CAS NAME=4-Octyne
##MOLFORM=C8H14
##CAS REGISTRY NO=1942-45-6
##MP= -300
##BP= -300
##MW= 110
##$RETENTION INDEX=811
##$CONDENSED SPECTRUM=NO
##NPOINTS= 65
##XYDATA=(XY..XY) 1 
    14          1
    15          7
    26         19
    27        197
    28          6
    29        134
    30          3
    31          1
    37          7
    38         18
    39        208
    40         53
    41        472
    42         58
    43         44
    44          1
    45          1
    49          3
    50         37
    51         85
    52         78
    53        378
    54        142
    55        259
    56         30
    57          6
    58          1
    60          2
    61          4
    62          9
    63         22
    64          5
    65         86
    66         79
    67        999
    68        265
    69         45
    70          3
    71          2
    73          2
    74          6
    75          3
    76          1
    77         87
    78         16
    79        239
    80         38
    81        567
    82        145
    83          9
    85          1
    86          1
    91         16
    92          2
    93         28
    94          4
    95        194
    96         17
    97          2
   107          1
   108          1
   109          8
   110        376
   111         35
   112          1