##TITLE=Library Entry 81222
##JCAMP-DX=Revision 4.10 
##DATA TYPE=MASS SPECTRUM
##SAMPLE DESCRIPTION=Exported from NIST MS Search
##NAMES=HP
##CAS NAME=Nicotinonitrile, 1,4-dihydro-1-propyl-
##MOLFORM=C9H12N2
##CAS REGISTRY NO=19424-17-0
##MP= -300
##BP= -300
##MW= 148
##$RETENTION INDEX=0
##$CONDENSED SPECTRUM=NO
##NPOINTS= 31
##XYDATA=(XY..XY) 1 
    25         81
    26        418
    27        175
    28         62
    36         31
    37         62
    38        250
    39         62
    40        350
    41         93
    42        450
    50         81
    51        156
    52        106
    53         43
    64         56
    65        106
    75         62
    76         81
    77         87
    92         75
   104        112
   105        999
   106        125
   118         68
   119        300
   133         43
   134         12
   147        624
   148        393
   149         56