##TITLE=Library Entry 31454
##JCAMP-DX=Revision 4.10 
##DATA TYPE=MASS SPECTRUM
##SAMPLE DESCRIPTION=Japan AIST/NIMC Database- Spectrum MS-IW- 831
##NAMES=HP
##CAS NAME=Propanamide, 2,3-dichloro-
##MOLFORM=C3H5Cl2NO
##CAS REGISTRY NO=19433-84-2
##MP= -300
##BP= -300
##MW= 141
##$RETENTION INDEX=0
##$CONDENSED SPECTRUM=NO
##NPOINTS= 74
##XYDATA=(XY..XY) 1 
    15          2
    16          6
    17          1
    18          1
    25          2
    26         21
    27         71
    28          7
    35          3
    36         31
    37          1
    38         10
    39          1
    40          2
    41          3
    42          6
    43          9
    44        723
    45         12
    46          2
    47          2
    48          3
    49         10
    50          2
    51          5
    52          5
    53          6
    54          3
    55         28
    56          1
    57          1
    60          7
    61         79
    62        999
    63         55
    64        338
    65          9
    66          1
    69          1
    70         38
    71          9
    72          2
    75          1
    76          4
    77          9
    78          4
    79          3
    80          4
    82          1
    87          1
    88          4
    89         49
    90          3
    91         15
    92          1
    93          1
    95          1
    96          7
    97         20
    98         14
    99         13
   100          8
   101          2
   102          1
   105        257
   106        358
   107         95
   108        116
   109          5
   141          8
   142          3
   143          5
   144          2
   145          1