##TITLE=Library Entry 83799
##JCAMP-DX=Revision 4.10 
##DATA TYPE=MASS SPECTRUM
##SAMPLE DESCRIPTION=NIST Mass Spectrometry Data Center
##NAMES=HP
##CAS NAME=(4aR,5R,9aR)-1,1,4a,8-Tetramethyl-2,3,4,4a,5,6,7,9a-octahydro-1H-
benzo[7]annulen-5-ol
##MOLFORM=C15H26O
##CAS REGISTRY NO=19435-77-9
##MP= -300
##BP= -300
##MW= 222
##$RETENTION INDEX=1674
##$CONDENSED SPECTRUM=NO
##NPOINTS= 134
##XYDATA=(XY..XY) 1 
    26          1
    27         76
    28         12
    29        144
    30          4
    31         19
    38          3
    39        174
    40         33
    41        729
    42         53
    43        471
    44         90
    45         26
    46          1
    47          1
    50          7
    51         45
    52         24
    53        210
    54         26
    55        500
    56         73
    57        126
    58         14
    59         13
    61          1
    62          3
    63         15
    64          7
    65        126
    66         35
    67        376
    68         65
    69        604
    70         71
    71        104
    72         26
    73          5
    74          2
    76          5
    77        331
    78         63
    79        381
    80        112
    81        476
    82        249
    84        134
    85        101
    86          7
    87          2
    89          4
    90          3
    91        413
    92        137
    93        735
    94        284
    95        435
    96        209
    97        188
    98         51
   102          3
   103         26
   104         11
   105        299
   106        141
   107        999
   108        363
   109        671
   110        119
   111        260
   112         44
   113          9
   115         25
   116          7
   117         37
   118         22
   119        615
   120        160
   121        297
   122        301
   123        414
   124        105
   125         87
   126         24
   128          8
   131         17
   133        234
   134         85
   135        206
   136         68
   137        115
   138         49
   140         12
   147         70
   148         66
   149         54
   150         15
   151         45
   152         24
   153         41
   154          9
   155          1
   160          6
   161        199
   163        390
   164         82
   165         28
   166         26
   167          4
   168          1
   175         27
   176         40
   177         13
   178         48
   179         72
   180         10
   189        168
   190         24
   191         15
   192          3
   193          7
   194         41
   195          5
   196          1
   204        191
   205         31
   206          2
   207         61
   208          9
   209          1
   222        139
   223         22
   224          2