##TITLE=Library Entry 1430
##JCAMP-DX=Revision 4.10 
##DATA TYPE=MASS SPECTRUM
##SAMPLE DESCRIPTION=Exported from NIST MS Search
##NAMES=HP
##CAS NAME=Glycine, N-[N-[N-(heptafluorobutyryl)glycyl]glycyl]-, methyl este
r
##MOLFORM=C11H12F7N3O5
##CAS REGISTRY NO=19444-87-2
##MP= -300
##BP= -300
##MW= 399
##$RETENTION INDEX=0
##$CONDENSED SPECTRUM=NO
##NPOINTS= 195
##XYDATA=(XY..XY) 1 
    10          7
    11          5
    12          7
    13         57
    16          7
    18         25
    26         10
    27         25
    28        150
    29         80
    30        999
    31         55
    32         30
    33         20
    38          5
    40          5
    41         12
    42         97
    43        125
    44         62
    45         25
    46          5
    47          5
    50         20
    51         17
    52          5
    53         10
    54         17
    55         12
    56        185
    57         35
    58         60
    59         45
    60         12
    61          2
    62         17
    63          5
    64          5
    65          2
    66          2
    68          5
    69        165
    70         17
    71        195
    72         25
    73         12
    74         25
    75          5
    76          7
    78         25
    79         12
    80          2
    81         12
    82          7
    83         10
    84         10
    85        105
    86         17
    87         20
    88        100
    89         27
    90        187
    91         12
    93          7
    96          7
    97         17
    98          7
    99         15
   100         52
   101         12
   102         17
   108         30
   109         27
   110         10
   111          7
   112          7
   113        325
   114         50
   115         20
   116         20
   119         35
   125         22
   126          5
   127         22
   128         25
   129          7
   130          7
   131         25
   132          2
   133          2
   134          2
   135          2
   136          2
   137          2
   138          2
   139          2
   140          5
   141        180
   142         20
   143          5
   145          7
   146          7
   147         17
   148          2
   149          2
   150         17
   151          2
   152          2
   153          2
   154          2
   155         17
   156          2
   157         25
   158          2
   159         17
   160          5
   169        175
   170         17
   171          5
   172          2
   173        315
   174         25
   175          5
   176          2
   177          2
   178         37
   179          5
   180          2
   181          2
   182          5
   183          2
   186         10
   187         15
   188          5
   191         25
   197         17
   198         22
   206         17
   207          5
   208         17
   209         12
   214         30
   225          2
   226        312
   227        237
   228         25
   229          2
   230         27
   231          2
   233          2
   234          2
   235         17
   236          2
   237         17
   238          2
   239          2
   240          5
   241          2
   242          2
   243          5
   246          5
   253         12
   254         20
   263         32
   264          7
   265          7
   266         22
   267          5
   268          2
   271          2
   281          5
   282          5
   283         27
   284        699
   285        122
   286         12
   292          5
   293          5
   294          2
   300          5
   303          5
   310          2
   311        142
   312         25
   313          2
   320          5
   323          5
   340         42
   341          7
   360          7
   367         25
   368         30
   369          7
   399         30
   400          5