##TITLE=Library Entry 29290
##JCAMP-DX=Revision 4.10 
##DATA TYPE=MASS SPECTRUM
##SAMPLE DESCRIPTION=Chemical Concepts
##NAMES=HP
##CAS NAME=3,7-Diazabicyclo[3.3.1]nonan-9-one, 1-methoxymethyl-3,7-dimethyl-
##MOLFORM=C11H20N2O2
##CAS REGISTRY NO=194427-54-8
##MP= -300
##BP= -300
##MW= 212
##$RETENTION INDEX=0
##$CONDENSED SPECTRUM=NO
##NPOINTS= 88
##XYDATA=(XY..XY) 1 
    27         37
    28         36
    29         29
    30          8
    39         39
    40          8
    41        123
    42        249
    43         50
    44        101
    45        104
    53         16
    54          7
    55        129
    56         15
    57        120
    58        999
    59         42
    65          0
    66          1
    67         11
    68         24
    69         14
    70         56
    71         12
    72          0
    77          0
    79          0
    80          0
    81         16
    82         47
    83         21
    84        114
    85         16
    88          0
    90          8
    93          0
    94         42
    95         21
    96         35
    97          8
    98         17
    99          7
   100          0
   107          2
   108         65
   109         24
   110         23
   111         16
   112          7
   113          0
   114         13
   120          0
   122        206
   123         44
   124         79
   125         19
   126         11
   127          0
   128          4
   135          0
   136         64
   137         26
   138         79
   139          8
   140         10
   141          0
   149          6
   150          1
   151          0
   152          3
   153          3
   154        197
   155         52
   156          1
   163          0
   167         27
   168         66
   169         39
   170          0
   179          1
   180          0
   181         13
   182          0
   197          0
   211         28
   212        254
   213         29