##TITLE=Library Entry 57364
##JCAMP-DX=Revision 4.10 
##DATA TYPE=MASS SPECTRUM
##SAMPLE DESCRIPTION=Chemical Concepts
##NAMES=HP
##CAS NAME=N,N-Dimethylformamide trimethylene acetal
##MOLFORM=C6H13NO2
##CAS REGISTRY NO=19449-32-2
##MP= -300
##BP= -300
##MW= 131
##$RETENTION INDEX=0
##$CONDENSED SPECTRUM=NO
##NPOINTS= 78
##XYDATA=(XY..XY) 1 
    25          2
    26         16
    27         75
    28        132
    29        130
    30         95
    31        332
    33          3
    38          4
    39         22
    40         20
    41        227
    42        168
    43         47
    44        282
    45         29
    46         78
    47         10
    51          3
    53          4
    54          3
    55         11
    56         17
    57         46
    58        261
    59        297
    60         20
    61          4
    67          2
    68          2
    69          3
    70          3
    71          6
    72        233
    73        794
    74        258
    75         17
    76          2
    78          9
    79          4
    80          2
    81          2
    82          1
    83          2
    84          4
    85          4
    86          8
    87        999
    88         80
    89         11
    90          3
    91          3
    93          1
    94          2
    95          3
    96          2
    97          3
    98          2
    99          2
   100          8
   101        309
   102         36
   103          4
   104          1
   105          2
   107          3
   108          3
   109          2
   111          2
   116          3
   117          2
   121          2
   122          2
   129          3
   130         89
   131        297
   132         35
   133          5