##TITLE=Library Entry 24960
##JCAMP-DX=Revision 4.10 
##DATA TYPE=MASS SPECTRUM
##SAMPLE DESCRIPTION=Japan AIST/NIMC Database- Spectrum MS-IW-4183
##NAMES=HP
##CAS NAME=2-Hydroxy-gamma-butyrolactone
##MOLFORM=C4H6O3
##CAS REGISTRY NO=19444-84-9
##MP= -300
##BP= -300
##MW= 102
##$RETENTION INDEX=2142
##$CONDENSED SPECTRUM=NO
##NPOINTS= 55
##XYDATA=(XY..XY) 1 
    12          1
    13          3
    14         12
    15         42
    16          3
    17          3
    18          9
    24          1
    25          8
    26         51
    27        197
    28        403
    29        412
    30        332
    31        171
    32          6
    36          2
    37          7
    38          9
    39         66
    40         87
    41         53
    42         41
    43        284
    44        330
    45        143
    46         33
    47          8
    52          1
    53          7
    54          7
    55         79
    56         33
    57        999
    58        691
    59         25
    60          2
    68          2
    69          2
    71          5
    72          4
    73         11
    74          2
    75          3
    76          1
    80          1
    82          1
    84          6
    85          9
    86          6
    99          1
   100          1
   101         14
   102         50
   103          2