##TITLE=Library Entry 4761
##JCAMP-DX=Revision 4.10 
##DATA TYPE=MASS SPECTRUM
##SAMPLE DESCRIPTION=J.MOLLER UNIV. OF COPENHAGEN, DENMARK
##NAMES=HP
##CAS NAME=1,2,4,5-Tetrazine, 3,6-bis(1,1-dimethylethyl)-
##MOLFORM=C10H18N4
##CAS REGISTRY NO=19455-88-0
##MP= -300
##BP= -300
##MW= 194
##$RETENTION INDEX=0
##$CONDENSED SPECTRUM=NO
##NPOINTS= 23
##XYDATA=(XY..XY) 1 
    15         46
    27        121
    28         78
    29        117
    30         24
    39        147
    40         55
    41        643
    42        999
    43         49
    52         42
    55         35
    56        102
    57        941
    58         45
    66         27
    67         49
    68        265
    69         39
    82         35
    83         57
    84        252
   194         10