##TITLE=Library Entry 83101
##JCAMP-DX=Revision 4.10 
##DATA TYPE=MASS SPECTRUM
##SAMPLE DESCRIPTION=Exported from NIST MS Search
##NAMES=HP
##CAS NAME=Uridine, cyclic 2',3'-(phenylboronate)
##MOLFORM=C15H15BN2O6
##CAS REGISTRY NO=19455-04-0
##MP= -300
##BP= -300
##MW= 330
##$RETENTION INDEX=0
##$CONDENSED SPECTRUM=NO
##NPOINTS= 73
##XYDATA=(XY..XY) 1 
    25        180
    26        330
    27        750
    28        480
    31        480
    39        470
    40        370
    41        480
    42        380
    43        460
    44        320
    45        320
    46         20
    51        270
    52        220
    53        420
    54        440
    55        460
    56         30
    57        340
    58         20
    69        150
    70        270
    71        210
    72         10
    73        230
    74         20
    77        280
    78        230
    79        150
    80         10
    82        280
    83         20
    89        230
    90         10
    91        270
    92         20
   104        240
   105        470
   106        999
   107         70
   111         40
   112        280
   113        470
   114         40
   118        280
   119         30
   141         80
   146        470
   147        700
   148         70
   158        350
   159        280
   160        200
   161         20
   171        170
   172        820
   173        430
   174         40
   179         80
   188        110
   189        130
   190         10
   201         80
   202         10
   217        110
   218        210
   219         20
   253        200
   254         20
   255         10
   299         30
   330         30