##TITLE=Library Entry 34782
##JCAMP-DX=Revision 4.10 
##DATA TYPE=MASS SPECTRUM
##SAMPLE DESCRIPTION=J.MOLLER UNIV. OF COPENHAGEN, DENMARK
##NAMES=HP
##CAS NAME=s-Tetrazine, 3,6-bis(diisopropylamino)-
##MOLFORM=C14H28N6
##CAS REGISTRY NO=19455-91-5
##MP= -300
##BP= -300
##MW= 280
##$RETENTION INDEX=0
##$CONDENSED SPECTRUM=NO
##NPOINTS= 21
##XYDATA=(XY..XY) 1 
    14         31
    27        116
    28         62
    39         42
    41        209
    42        107
    43        789
    44         40
    55         22
    69        999
    70         52
    82         23
    83         83
    84        136
    85        163
    99        107
   111        510
   112         38
   126         53
   127        117
   280         47