##TITLE=Library Entry 10981
##JCAMP-DX=Revision 4.10 
##DATA TYPE=MASS SPECTRUM
##SAMPLE DESCRIPTION=NIST Mass Spectrometry Data Center
##NAMES=HP
##CAS NAME=Stigmastanol
##MOLFORM=C29H52O
##CAS REGISTRY NO=19466-47-8
##MP= -300
##BP= -300
##MW= 416
##$RETENTION INDEX=3317
##$CONDENSED SPECTRUM=NO
##NPOINTS= 317
##XYDATA=(XY..XY) 1 
    15          4
    17          1
    18          2
    25          1
    26          6
    27         47
    28         19
    29        101
    30          5
    31         10
    32          1
    33          1
    36          1
    37          3
    38          4
    39         50
    40         14
    41        416
    42         75
    43        999
    44         42
    45         17
    46          1
    47          1
    49          1
    50          3
    51          7
    52          4
    53         66
    54         27
    55        667
    56         81
    57        574
    58         38
    59         21
    60          1
    61          1
    62          1
    63          3
    64          1
    65         31
    66         18
    67        413
    68        131
    69        486
    70         68
    71        222
    72         15
    73         14
    74          3
    75          6
    76          1
    77        101
    78         28
    79        428
    80         86
    81        640
    82        135
    83        233
    84         71
    85        217
    86         16
    87          8
    88          3
    89          7
    91        317
    92         78
    93        539
    94        182
    95        656
    96         90
    97        206
    98         87
    99         38
   100          6
   101          9
   102          3
   103         16
   104         16
   105        313
   106        165
   107        716
   108        539
   109        415
   110         81
   111        152
   112         19
   113          7
   114          3
   115         21
   116         11
   117         61
   118         33
   119        254
   120        171
   121        456
   122        284
   123        306
   124        194
   125         80
   126         10
   127          8
   128         41
   129         24
   130         11
   131         93
   132         33
   133        257
   134        158
   135        318
   136        159
   137        119
   138         71
   139         23
   140          4
   141          9
   142         11
   143         18
   144         12
   145        152
   146         55
   147        353
   148        175
   149        267
   150         50
   151         56
   152         12
   153          7
   154          6
   155          5
   156          3
   157         13
   158          9
   159        107
   160         67
   161        188
   162         86
   163        100
   164         46
   165        544
   166        210
   167         40
   168          7
   169          3
   170          2
   171         12
   172          6
   173         89
   174         42
   175         95
   176         36
   177         48
   178         48
   179         24
   180         10
   181          3
   182          2
   183          2
   184          1
   185         10
   186          6
   187         60
   188         40
   189         53
   190         95
   191         66
   192         32
   193         17
   194          5
   195          2
   196          1
   197          2
   198          1
   199         15
   200          7
   201        118
   202         32
   203         35
   204         18
   205         25
   206         36
   207          8
   208          1
   209          1
   211          1
   212          1
   213          7
   214          5
   215        703
   216        300
   217        231
   218         42
   219         82
   220         25
   221          5
   222          1
   223          1
   225          1
   227          4
   228          2
   229         21
   230         49
   231         40
   232         29
   233        559
   234        409
   235         70
   236         16
   237          3
   238          1
   240          1
   241          8
   242          3
   243         12
   244          4
   245          4
   246          3
   247          8
   248         62
   249         12
   250          2
   255          6
   256          5
   257         43
   258         11
   259          6
   260          3
   261          7
   262          9
   263          3
   264          1
   269          2
   270          2
   271          5
   272          3
   273          8
   274         13
   275         13
   276          4
   277          1
   278          1
   281          1
   283          2
   284          1
   285         21
   286          5
   287          4
   288          2
   289          4
   290         75
   291         20
   292          6
   293          1
   295          1
   297          1
   298          1
   299          3
   300          3
   301          9
   302          4
   303         24
   304         12
   305          3
   306          1
   313          3
   314          2
   315          3
   316         23
   317         14
   318         12
   319          4
   328          1
   329          3
   330          2
   331          3
   332          1
   339          1
   341          2
   342          2
   343          5
   344          6
   345          2
   346          1
   355          7
   356          3
   357          3
   358          2
   359         42
   360         12
   361          2
   369          4
   370          2
   371          1
   372          3
   373          2
   374          1
   381          1
   383         86
   384         27
   385          5
   386          1
   387          4
   388          2
   397          4
   398         16
   399          6
   400          2
   401        219
   402         71
   403         11
   404          1
   414          4
   415          2
   416        433
   417        132
   418         23
   419          3