##TITLE=Library Entry 84924
##JCAMP-DX=Revision 4.10 
##DATA TYPE=MASS SPECTRUM
##SAMPLE DESCRIPTION=NIST Mass Spectrometry Data Center
##NAMES=HP
##CAS NAME=(1R,4aS,8aR)-1,4a-Dimethyl-7-(prop-1-en-2-yl)-1,2,3,4,4a,5,6,8a-o
ctahydronaphthalene
##MOLFORM=C15H24
##CAS REGISTRY NO=194607-93-7
##MP= -300
##BP= -300
##MW= 204
##$RETENTION INDEX=1490
##$CONDENSED SPECTRUM=NO
##NPOINTS= 88
##XYDATA=(XY..XY) 1 
    26          2
    27         31
    29         47
    39        137
    40         26
    41        285
    42         34
    50         15
    51         62
    52         36
    53        126
    54         15
    55        274
    56         18
    57         14
    58          7
    62          6
    63         33
    64         19
    65        131
    66         32
    67        132
    68         17
    69         88
    70         11
    74          5
    75          9
    76          8
    77        294
    78         85
    79        401
    80        147
    81        250
    82         23
    83         17
    87          3
    89         18
    90          5
    91        597
    92        143
    93        467
    94        112
    95        191
    96         88
    97        361
    98         27
   102         13
   103         69
   104         32
   105        488
   107        443
   108        999
   115        124
   116         47
   117        156
   118         31
   119        445
   120        170
   121        219
   122        130
   123        110
   124         15
   127         16
   128         61
   129         55
   130         36
   131         89
   132         48
   133        409
   134        201
   143         14
   144          9
   145        282
   146         39
   147        291
   148        180
   152          3
   153          3
   161        315
   162         61
   174          7
   175         56
   176        120
   187          7
   189        179
   190         16
   204        303
   205         51