##TITLE=Library Entry 923
##JCAMP-DX=Revision 4.10 
##DATA TYPE=MASS SPECTRUM
##SAMPLE DESCRIPTION=Japan AIST/NIMC Database- Spectrum MS-NW-4966
##NAMES=HP
##CAS NAME=L-Isoleucine, N-glycyl-
##MOLFORM=C8H16N2O3
##CAS REGISTRY NO=19461-38-2
##MP= -300
##BP= -300
##MW= 188
##$RETENTION INDEX=0
##$CONDENSED SPECTRUM=NO
##NPOINTS= 71
##XYDATA=(XY..XY) 1 
    15          2
    17          3
    18         10
    26          1
    27         18
    28         40
    29         36
    30        999
    31         84
    32         11
    39         11
    40          2
    41         38
    42          7
    43          7
    44          7
    45          9
    46          3
    52          1
    53          3
    54          3
    55          8
    56          9
    57         21
    58          5
    59          6
    67          2
    68          3
    69         16
    70         11
    71          2
    72          1
    73          3
    74         13
    75         25
    76          1
    82          1
    83          1
    84          8
    85          9
    86         52
    87          8
    89          3
    96          2
    97          2
    98          2
    99          6
   101          1
   102          3
   103          5
   112          3
   113          2
   114         38
   115          6
   116          2
   125          1
   127          8
   128          1
   130          3
   131          2
   132         14
   141          1
   142          5
   143         10
   144          9
   145          3
   158          2
   159          2
   170          1
   188         18
   189          2