##TITLE=Library Entry 87014
##JCAMP-DX=Revision 4.10 
##DATA TYPE=MASS SPECTRUM
##SAMPLE DESCRIPTION=Humboldt-Universitat zu Berlin, Department of Chemistry
, Analytical Group
##NAMES=HP
##CAS NAME=Phosphoramidic acid, N-ethyl-, diethyl ester
##MOLFORM=C6H16NO3P
##CAS REGISTRY NO=1946-09-4
##MP= -300
##BP= -300
##MW= 181
##$RETENTION INDEX=0
##$CONDENSED SPECTRUM=NO
##NPOINTS= 79
##XYDATA=(XY..XY) 1 
    30        625
    31         39
    32         10
    34          3
    39          8
    40         19
    41         51
    42        211
    43        180
    44        992
    45        112
    46         27
    47        111
    48          9
    49         14
    54          3
    55          4
    56         30
    57         11
    58         86
    59          6
    61          6
    62         10
    63         12
    64         11
    65        124
    66          5
    69          3
    70          5
    71          2
    72         14
    73          8
    74          6
    75          3
    76         24
    77          6
    78          6
    79         32
    80        268
    81        182
    82         67
    83         26
    87          9
    88          8
    90          5
    91         43
    92        129
    93         44
    94        118
    95          6
    96          5
    97          8
    98         75
   106         60
   108        258
   109        103
   110        999
   111         49
   112          8
   120          5
   122        133
   124        172
   125         10
   126         60
   127          3
   136         60
   138        374
   139         18
   140          3
   152         27
   153         13
   154         12
   166        428
   167         27
   168          4
   180         13
   181         61
   182         34
   183          2