##TITLE=Library Entry 91014
##JCAMP-DX=Revision 4.10 
##DATA TYPE=MASS SPECTRUM
##SAMPLE DESCRIPTION=A.Mandelbaum ET AL, J.Mass Spectrom., 32, 750(1997)
##NAMES=HP
##CAS NAME=1-Methoxy-3-dimethylaminocyclohexane (cis)
##MOLFORM=C9H19NO
##CAS REGISTRY NO=194720-37-1
##MP= -300
##BP= -300
##MW= 157
##$RETENTION INDEX=0
##$CONDENSED SPECTRUM=NO
##NPOINTS= 38
##XYDATA=(XY..XY) 1 
    41         66
    42        108
    43         36
    44         55
    45         44
    46         12
    53          5
    55         25
    56         55
    57          3
    58         82
    68          5
    70         53
    71        333
    72         46
    77          3
    79         20
    81         29
    82         36
    83          5
    84        670
    85         62
    96          7
    97         18
    98         47
   110         12
   111          7
   112         22
   114        999
   115         60
   124         25
   126        191
   127         40
   142        353
   143         27
   156          9
   157        512
   158         35