##TITLE=Library Entry 2091
##JCAMP-DX=Revision 4.10 
##DATA TYPE=MASS SPECTRUM
##SAMPLE DESCRIPTION=Chuck Anderson, Aldrich Chemical Co.
##NAMES=HP
##CAS NAME=dl-2,3-Dibromo-1,4-butanediol
##MOLFORM=C4H8Br2O2
##CAS REGISTRY NO=1947-58-6
##MP= -300
##BP= -300
##MW= 246
##$RETENTION INDEX=0
##$CONDENSED SPECTRUM=NO
##NPOINTS= 73
##XYDATA=(XY..XY) 1 
    15         21
    18          6
    19          9
    26         48
    27        225
    28         59
    29        598
    30         40
    31        930
    32         15
    36         33
    37         26
    38         79
    39        559
    40         71
    41        999
    42        124
    43        225
    44         37
    45         47
    47         17
    50         13
    51         14
    53         17
    55         77
    56         10
    57        801
    58         26
    59         15
    68         10
    69        245
    70         28
    79         21
    80         17
    81         29
    82         14
    87        102
    93         12
    95         10
   104          2
   105         34
   106         21
   107         62
   108         17
   109         33
   111          8
   118         43
   119        490
   120         45
   121        569
   122         29
   123         73
   124          1
   135         43
   136         21
   137        157
   138         24
   139        101
   149        512
   150         21
   151        596
   152         16
   167        173
   168          6
   169        210
   170          3
   184          4
   186         15
   187          1
   188          8
   198         31
   200         69
   202         33