##TITLE=Library Entry 96551
##JCAMP-DX=Revision 4.10 
##DATA TYPE=MASS SPECTRUM
##SAMPLE DESCRIPTION=Chuck Anderson, Aldrich Chemical Co.
##NAMES=HP
##CAS NAME=2-Bromophenylacetonitrile
##MOLFORM=C8H6BrN
##CAS REGISTRY NO=19472-74-3
##MP= -300
##BP= -300
##MW= 195
##$RETENTION INDEX=0
##$CONDENSED SPECTRUM=NO
##NPOINTS= 77
##XYDATA=(XY..XY) 1 
    25          1
    26         10
    27         11
    28          6
    36          3
    37         21
    38         36
    39         69
    40         10
    41          4
    43          8
    44         10
    45          2
    48          0
    49         10
    50         73
    51         36
    52         10
    53          0
    55          0
    56          3
    57          0
    58         63
    60          2
    61         28
    62         62
    63         98
    64         29
    65         17
    66          2
    73          6
    74         31
    75         35
    76         24
    77          4
    79          6
    80          2
    81          5
    82          2
    84          3
    85          8
    86         14
    87         29
    88         68
    89        246
    90         47
    91          3
    93          1
    95          0
    97          6
    98          5
    99          5
   100          0
   106          0
   110          0
   111          2
   112          1
   114         78
   115        168
   116        999
   117         76
   118          2
   119          4
   128          0
   141          0
   143          2
   155          0
   157          0
   167          2
   168          0
   169          6
   171          3
   194          5
   195        199
   196         20
   197        204
   198         16