##TITLE=Library Entry 19692
##JCAMP-DX=Revision 4.10 
##DATA TYPE=MASS SPECTRUM
##SAMPLE DESCRIPTION=Japan AIST/NIMC Database- Spectrum MS-NW-5104
##NAMES=HP
##CAS NAME=1-Tridecanethiol
##MOLFORM=C13H28S
##CAS REGISTRY NO=19484-26-5
##MP= -300
##BP= -300
##MW= 216
##$RETENTION INDEX=0
##$CONDENSED SPECTRUM=NO
##NPOINTS= 149
##XYDATA=(XY..XY) 1 
    14          2
    15          6
    16          2
    17          1
    18          3
    26          8
    27        195
    28         39
    29        369
    30          9
    31          3
    32         10
    33          2
    34          6
    35         18
    36          5
    37          2
    38          3
    39        127
    40         25
    41        770
    42        219
    43        977
    44         34
    45         40
    46         12
    47        179
    48          8
    49          9
    50          3
    51          7
    52          5
    53         56
    54        109
    55        999
    56        729
    57        849
    58         42
    59         16
    60         51
    61        142
    62         10
    63          9
    64          1
    65          9
    66         13
    67        135
    68        326
    69        906
    70        731
    71        349
    72         22
    73         18
    74         10
    75         16
    76          3
    77          7
    78          3
    79         12
    80          4
    81         62
    82        311
    83        879
    84        492
    85        196
    86         11
    87         33
    88         40
    89        219
    90         14
    91         13
    92          2
    93          3
    94          2
    95         25
    96        154
    97        609
    98        302
    99         44
   100          4
   101         14
   102          5
   103         31
   104          3
   105          3
   106          1
   108          1
   109          7
   110         57
   111        309
   112        200
   113         25
   114          2
   115          6
   116          1
   117          7
   119          2
   123          3
   124         25
   125        142
   126        108
   127         17
   128          2
   129          4
   130          1
   131          3
   133          1
   134          9
   136          9
   137          2
   138         11
   139         40
   140         51
   141          9
   142          1
   143          2
   145          2
   148          2
   151          2
   152          9
   153         27
   154        130
   155         17
   156          2
   157          1
   159          2
   167          2
   171          2
   173          2
   178          1
   180          4
   181          1
   182        279
   183         46
   184          5
   185          1
   187          4
   188          1
   199          1
   201          1
   210          1
   212          2
   213          3
   214          5
   215         37
   216        183
   217         34
   218          9
   219          2