##TITLE=Library Entry 10984
##JCAMP-DX=Revision 4.10 
##DATA TYPE=MASS SPECTRUM
##SAMPLE DESCRIPTION=Japan AIST/NIMC Database- Spectrum MS-NW-5865
##NAMES=HP
##CAS NAME=Diazene, bis[4-(pentyloxy)phenyl]-, 1-oxide
##MOLFORM=C22H30N2O3
##CAS REGISTRY NO=19482-05-4
##MP= -300
##BP= -300
##MW= 370
##$RETENTION INDEX=0
##$CONDENSED SPECTRUM=NO
##NPOINTS= 216
##XYDATA=(XY..XY) 1 
    15          6
    17          2
    18          7
    25          1
    26         13
    27        154
    28         22
    29        300
    30          6
    31          1
    37          3
    38         10
    39        115
    40         13
    41        339
    42         50
    43        999
    44         32
    45          2
    50         20
    51         19
    52         55
    53         31
    54          8
    55        104
    56          7
    57          7
    58          1
    62          6
    63         39
    64         53
    65        180
    66         15
    67          7
    68          5
    69         74
    70         11
    71        246
    72         11
    74          2
    75          7
    76         55
    77         27
    78         22
    79         82
    80         40
    81         40
    82          5
    83          1
    87          1
    88          2
    89          3
    90         11
    91         18
    92         17
    93        299
    94         60
    95         15
    96          8
    97          3
   101          1
   102          2
   103          6
   104          3
   105          9
   106         33
   107        475
   108        135
   109         77
   110         20
   111          3
   114          2
   115          6
   116          4
   117          8
   118          4
   119          8
   120          9
   121         49
   122         20
   123        203
   124        102
   125          7
   126          2
   127          6
   128          9
   129          4
   130          3
   131          9
   132          6
   133         10
   134         10
   135          7
   136          8
   137          9
   138          1
   139          6
   140          3
   141          2
   142          1
   143          3
   144          5
   145          5
   146          5
   147          4
   148          5
   149          3
   150          2
   151          1
   152          1
   153          1
   154          2
   155          3
   156          4
   157          9
   158          5
   159          4
   160          2
   161          9
   162          3
   163        326
   164         53
   165          5
   166          1
   167          1
   168          3
   169          2
   170          5
   171          2
   172          3
   173          9
   174          9
   175          2
   176          1
   177         64
   178         16
   179          9
   180          4
   182          2
   183          3
   184          7
   185         13
   186         10
   187          4
   188          1
   189          1
   190          6
   191         40
   192          9
   193         42
   194         14
   195          3
   196          2
   197          1
   198          2
   199          5
   200          5
   201         56
   202         38
   203          5
   204          1
   205          1
   207          1
   210          1
   212          5
   213         39
   214          9
   215          2
   225          1
   228          2
   229         28
   230         21
   231          4
   241          1
   242          2
   243          3
   244          1
   247          1
   254          1
   255          4
   256          1
   257          1
   259          1
   269          1
   270          1
   271          8
   272         32
   273          6
   281          2
   282          1
   283          9
   284          9
   285          3
   299         36
   300         56
   301         12
   302          2
   312          1
   313          4
   314          1
   324          1
   338          1
   341          1
   342          3
   343          1
   352          5
   353          2
   354         63
   355         16
   356          2
   368          2
   369          7
   370        415
   371         98
   372         16
   373          3