##TITLE=Library Entry 46922
##JCAMP-DX=Revision 4.10 
##DATA TYPE=MASS SPECTRUM
##SAMPLE DESCRIPTION=Chemical Concepts
##NAMES=HP
##CAS NAME=2,2'-Divinylbenzophenone
##MOLFORM=C17H14O
##CAS REGISTRY NO=194877-11-7
##MP= -300
##BP= -300
##MW= 234
##$RETENTION INDEX=0
##$CONDENSED SPECTRUM=NO
##NPOINTS= 186
##XYDATA=(XY..XY) 1 
    26         10
    27         86
    28         35
    29         19
    32          5
    37          2
    38         10
    39        106
    40          6
    41         27
    42          5
    43         51
    44          3
    45          2
    49          2
    50        102
    51        370
    52         60
    53         46
    54          3
    55         25
    56          9
    57         37
    58          4
    59          3
    60          2
    61          4
    62         29
    63        122
    64         17
    65         27
    66          3
    67          4
    68          4
    69         13
    70         15
    71         19
    73         11
    74         57
    75        131
    76        171
    77        999
    78         79
    79         10
    80          2
    81         25
    82         15
    83         20
    84          5
    85          6
    86         13
    87         31
    88         72
    89        116
    90         30
    91        198
    92         16
    93          5
    94         20
    95         46
    96         10
    97          8
    98         14
    99         15
   100         37
   101        207
   102        209
   103        760
   104        102
   105         80
   106         13
   107         30
   108         44
   109         99
   110         10
   111          8
   112          6
   113         17
   114          8
   115        101
   116        148
   117         19
   118         99
   119         44
   120          4
   121          2
   122          3
   123          3
   124          2
   125          8
   126         21
   127         37
   128         76
   129         53
   130          9
   131        327
   132         37
   133          5
   134          2
   135          4
   137          6
   138          4
   139         27
   140          5
   141          8
   142          4
   143          7
   146          7
   147          3
   149         47
   150         32
   151         43
   152         54
   153         12
   154          3
   155          5
   156         11
   157          9
   158          2
   159          2
   161          3
   162          6
   163         29
   164         15
   165         96
   166         18
   167         19
   168          4
   173          2
   174         11
   175         18
   176         68
   177         45
   178        189
   179         69
   180         18
   181          7
   182          4
   183          3
   185          3
   186          3
   187         19
   188         25
   189        139
   190         80
   191        233
   192         77
   193         25
   194         11
   195          5
   196          2
   197          4
   198         11
   199         24
   200         61
   201         81
   202        297
   203        270
   204        119
   205        294
   206        113
   207         84
   208         23
   209          5
   210          3
   211          3
   212          4
   213         15
   214         40
   215        445
   216        355
   217        232
   218         97
   219        255
   220         47
   221          7
   222          2
   228          2
   229          6
   230         29
   231        244
   232        122
   233        319
   234        480
   235         85
   236          9