##TITLE=Library Entry 52911
##JCAMP-DX=Revision 4.10 
##DATA TYPE=MASS SPECTRUM
##SAMPLE DESCRIPTION=Exported from NIST MS Search
##NAMES=HP
##CAS NAME=Neronine, 4.beta.,5-dihydro-
##MOLFORM=C18H21NO6
##CAS REGISTRY NO=19483-30-8
##MP= -300
##BP= -300
##MW= 347
##$RETENTION INDEX=0
##$CONDENSED SPECTRUM=NO
##NPOINTS= 235
##XYDATA=(XY..XY) 1 
    41         67
    42         67
    43        186
    44         67
    45         83
    50          4
    51          4
    52          4
    53          7
    54          7
    55         11
    56         51
    57        238
    58         67
    59         11
    60         39
    61          7
    62          4
    63          7
    65          7
    66          7
    67         67
    68         39
    69        194
    70         55
    71        162
    72          7
    73         39
    74          4
    75          7
    76          7
    77         11
    78          7
    79         15
    80         11
    81         95
    82        218
    83        999
    84        115
    85        123
    86          4
    87          7
    88          4
    89          4
    90          4
    91         23
    92          4
    93         27
    94         31
    95         91
    96        686
    97        218
    98         43
    99         43
   100          4
   101          4
   102          4
   103          4
   104          4
   105         19
   106          7
   107         19
   108          7
   109         67
   110         43
   111         87
   112         27
   113         23
   114          7
   115         11
   116          7
   117          7
   119         11
   120          7
   121         19
   122          7
   123         47
   124         19
   125         55
   126         55
   127         35
   128          7
   129         11
   130          4
   131          7
   133          7
   134          7
   135         27
   136         11
   137         39
   138         19
   139         35
   140          7
   141         15
   142          4
   143          7
   144          4
   145          7
   146          4
   147          7
   148          7
   149         27
   150          7
   151         27
   152         11
   153         15
   154          7
   155         11
   156          4
   157          4
   158          4
   159          7
   161          7
   162          7
   163         19
   164          7
   165         27
   166          7
   167          7
   168          7
   169          7
   170          4
   171          4
   172          4
   173          4
   174          4
   175          4
   176          4
   177         11
   178          4
   179         11
   180          7
   181          7
   182          7
   183          7
   185          7
   186          4
   187          4
   189          4
   191         11
   192         11
   193         11
   194          7
   195          7
   196          7
   197          7
   199          4
   203          4
   204          4
   205         11
   206          4
   207         11
   208          4
   209          7
   210          4
   211          4
   213          7
   215          4
   217          7
   218          7
   219          7
   220          7
   221         51
   222          7
   223          7
   224          7
   225          7
   227          4
   231          7
   233          4
   234          4
   235          4
   239          4
   240          4
   242          4
   246          4
   247          4
   248          4
   249          4
   250          7
   251          7
   252          4
   254          4
   255          4
   256          7
   257          7
   260          4
   261          4
   262          4
   265          4
   266          4
   269          4
   270          7
   271          7
   272          7
   273          4
   274          4
   275          7
   276          4
   277          4
   278          4
   279          4
   280          4
   281          4
   282          4
   283          4
   284          7
   287          4
   288          4
   289          4
   290          4
   291          4
   292          4
   294          4
   296          4
   297          4
   298          7
   299          4
   300          4
   301          4
   302          4
   312          4
   313          4
   315          4
   316          4
   317          4
   323          4
   331          4
   333         11
   334          4
   341          4
   343          4
   345          4
   347        138
   348         35