##TITLE=Library Entry 15115
##JCAMP-DX=Revision 4.10 
##DATA TYPE=MASS SPECTRUM
##SAMPLE DESCRIPTION=Exported from NIST MS Search
##NAMES=HP
##CAS NAME=L-Alanine, N-L-alanyl-
##MOLFORM=C6H12N2O3
##CAS REGISTRY NO=1948-31-8
##MP= -300
##BP= -300
##MW= 160
##$RETENTION INDEX=0
##$CONDENSED SPECTRUM=NO
##NPOINTS= 24
##XYDATA=(XY..XY) 1 
    15         69
    27         61
    28        471
    29         30
    40         23
    41         42
    42        131
    43         96
    44        999
    45         34
    54         11
    55         19
    56        115
    57         23
    58         15
    70         38
    71        100
    72         15
    98         15
    99        463
   100         38
   114         38
   142        451
   143         27