##TITLE=Library Entry 1474
##JCAMP-DX=Revision 4.10 
##DATA TYPE=MASS SPECTRUM
##SAMPLE DESCRIPTION=Japan AIST/NIMC Database- Spectrum MS-NW-2267
##NAMES=HP
##CAS NAME=2-Deoxy-D-galactose
##MOLFORM=C6H12O5
##CAS REGISTRY NO=1949-89-9
##MP= -300
##BP= -300
##MW= 164
##$RETENTION INDEX=0
##$CONDENSED SPECTRUM=NO
##NPOINTS= 109
##XYDATA=(XY..XY) 1 
    12          8
    13         21
    14         76
    15        308
    16         13
    17         16
    18         58
    19         10
    24          5
    25         20
    26         93
    27        367
    28        313
    29        927
    30        142
    31        999
    32        267
    33         12
    34          2
    36          5
    37         22
    38         35
    39        239
    40         64
    41        197
    42        262
    43        939
    44        758
    45        569
    46         58
    47         48
    48          1
    49          4
    50          9
    51         15
    52          9
    53         54
    54         38
    55        237
    56        381
    57        753
    58        200
    59         23
    60        505
    61        343
    62         26
    63          5
    64          2
    65          5
    66          5
    67          4
    68        146
    69        136
    70         51
    71        223
    72        117
    73        281
    74        374
    75         68
    76          4
    77          2
    79          2
    80          2
    81         61
    82         31
    83         19
    84         41
    85        292
    86        363
    87         43
    88          8
    89          9
    90          5
    91         27
    92          2
    93          1
    94          7
    95          7
    96          3
    97        115
    98         50
    99         42
   100         18
   101          7
   102         23
   103        339
   104         16
   105          3
   109          2
   110         29
   111         13
   112          2
   113          1
   115         89
   116         12
   117         14
   118          2
   120          6
   126          1
   127          2
   128         43
   129         11
   130          1
   131          1
   133          2
   145          1
   146          6
   147          1
   149          1