##TITLE=Library Entry 77870
##JCAMP-DX=Revision 4.10 
##DATA TYPE=MASS SPECTRUM
##SAMPLE DESCRIPTION=Exported from NIST MS Search
##NAMES=HP
##CAS NAME=Isoxazole, 4,5-dihydro-3-(4-methylphenyl)-5-phenyl-
##MOLFORM=C16H15NO
##CAS REGISTRY NO=19505-66-9
##MP= -300
##BP= -300
##MW= 237
##$RETENTION INDEX=0
##$CONDENSED SPECTRUM=NO
##NPOINTS= 19
##XYDATA=(XY..XY) 1 
    50         60
    51        150
    63         80
    65        140
    77        230
    78        160
    89         90
    91        270
   103        130
   104        999
   105        200
   115        150
   117        100
   131        160
   133        220
   207        190
   220        120
   236        230
   237        849