##TITLE=Library Entry 79209
##JCAMP-DX=Revision 4.10 
##DATA TYPE=MASS SPECTRUM
##SAMPLE DESCRIPTION=A.A.Kutin, Moscow, Russia
##NAMES=HP
##CAS NAME=Benzaldehyde, 4-cyano-, benzoylhydrazone
##MOLFORM=C15H11N3O
##CAS REGISTRY NO=195066-12-7
##MP= -300
##BP= -300
##MW= 249
##$RETENTION INDEX=0
##$CONDENSED SPECTRUM=NO
##NPOINTS= 145
##XYDATA=(XY..XY) 1 
    33          0
    34          2
    36          0
    37          3
    38          9
    39         20
    40         38
    41          3
    42          1
    43          4
    44          9
    45          0
    46          0
    49          1
    50         37
    51        113
    52         12
    53          2
    54          0
    55          1
    56          0
    57          2
    58          0
    61          3
    62         14
    63         22
    64         10
    65          7
    66          1
    67          0
    68          0
    69          1
    70          1
    71          0
    72          0
    73          2
    74          8
    75         15
    76         25
    77        397
    78         29
    79          1
    80          0
    81          0
    82          0
    83          0
    84          0
    85          0
    86          1
    87          4
    88         16
    89          9
    90         20
    91          2
    92          2
    93          0
    94          0
    95          0
    96          0
    97          0
    98          0
    99          1
   100          1
   101          2
   102          7
   103          3
   105        999
   106         73
   107          4
   108          0
   109          1
   110          0
   111          1
   112          0
   114         12
   115         12
   116          2
   117          9
   118          2
   119          0
   121        258
   122         22
   123          2
   124          2
   125          0
   127          0
   128          2
   129          3
   130          1
   131          0
   132          0
   133          0
   134          0
   135          3
   136          0
   137          0
   138          0
   139          0
   140          0
   141          0
   143          1
   144          3
   145          0
   146          0
   147          8
   148          0
   149          1
   150          0
   151          0
   152          0
   153          0
   155          0
   157          0
   161          0
   163          0
   164          0
   165          0
   166          0
   167          0
   168          0
   169          0
   170          0
   171          0
   172          0
   174          0
   176          0
   177          0
   181          0
   183          0
   185          0
   188          0
   190          1
   191          0
   192          0
   193          0
   201          0
   202          0
   203          0
   205          0
   206          0
   219          0
   248          2
   249         35
   250          7
   251          0