##TITLE=Library Entry 72567
##JCAMP-DX=Revision 4.10 
##DATA TYPE=MASS SPECTRUM
##SAMPLE DESCRIPTION=Exported from NIST MS Search
##NAMES=HP
##CAS NAME=Benzo[b]thiophene, octahydro-, cis-
##MOLFORM=C8H14S
##CAS REGISTRY NO=19516-14-4
##MP= -300
##BP= -300
##MW= 142
##$RETENTION INDEX=0
##$CONDENSED SPECTRUM=NO
##NPOINTS= 122
##XYDATA=(XY..XY) 1 
    25          1
    26         17
    27        172
    28         62
    29         80
    30          2
    31          1
    32          8
    33          3
    34          7
    35          7
    36          1
    37          4
    38         13
    39        225
    40         32
    41        261
    42         18
    43         11
    44         11
    45        202
    46         37
    47         97
    48          4
    49          6
    50         18
    51         48
    52         25
    53        133
    54        105
    55        139
    56         10
    57         10
    58         48
    59         72
    60         66
    61         72
    62         11
    63         15
    64          3
    65         77
    66         40
    67        316
    68         49
    69         24
    70          5
    71         53
    72         17
    73         50
    74         13
    75         10
    76          9
    77         79
    78         58
    79        363
    80        144
    81        375
    82         64
    83          9
    84         24
    85        224
    86        159
    87         77
    88         17
    89          5
    90          2
    91         43
    92          7
    93        222
    94         40
    95        268
    96         29
    97         29
    98          5
    99        999
   100         88
   101         68
   102          6
   103          3
   104          1
   105          7
   106          2
   107         36
   108        498
   109         90
   110          8
   111          8
   112          7
   113        103
   114        112
   115         14
   116          6
   117          1
   118          1
   119          1
   120          1
   121          1
   122          1
   123          1
   124          1
   125          1
   126          1
   127         32
   128          3
   129          2
   130          1
   131          1
   132          1
   133          1
   134          1
   135          1
   136          1
   137          1
   138          1
   139          2
   140          5
   141         56
   142        823
   143         83
   144         40
   145          4
   146          1