##TITLE=Library Entry 107718
##JCAMP-DX=Revision 4.10 
##DATA TYPE=MASS SPECTRUM
##SAMPLE DESCRIPTION=TNO Volatile Compounds in Food - Chemical Concepts
##NAMES=HP
##CAS NAME=4,5-Dimethyl-2-isopropyloxazole
##MOLFORM=C8H13NO
##CAS REGISTRY NO=19519-45-0
##MP= -300
##BP= -300
##MW= 139
##$RETENTION INDEX=949
##$CONDENSED SPECTRUM=NO
##NPOINTS= 77
##XYDATA=(XY..XY) 1 
    24          2
    25         12
    26         18
    27         95
    28         15
    29         32
    30          9
    33          2
    34          5
    35          8
    36          4
    37          1
    38         15
    39         90
    40         21
    41        102
    42        168
    43        514
    44         13
    46          3
    47          2
    48          3
    49          5
    50          5
    51          4
    52         14
    53         38
    54         84
    55        214
    56         20
    57          3
    62         10
    63          3
    64          6
    65          6
    66         16
    67          7
    68         26
    69         30
    70        105
    71         21
    76          2
    77          2
    78          3
    79          5
    80         19
    81         14
    82         23
    83          4
    92          5
    93          3
    94         11
    95          5
    96        188
    97         16
    98          1
   100          2
   102          2
   104          3
   105          3
   106          4
   107          2
   108          7
   109          3
   111          5
   112          2
   115          2
   121          2
   122          4
   124        999
   125         51
   126          9
   136          1
   137         19
   138         36
   139        180
   140         14