##TITLE=Library Entry 56327
##JCAMP-DX=Revision 4.10 
##DATA TYPE=MASS SPECTRUM
##SAMPLE DESCRIPTION=Finnigan MAT: Toxicological Library (LIBR-TX)
##NAMES=HP
##CAS NAME=Amiodarone
##MOLFORM=C25H29I2NO3
##CAS REGISTRY NO=1951-25-3
##MP= -300
##BP= -300
##MW= 645
##$RETENTION INDEX=0
##$CONDENSED SPECTRUM=NO
##NPOINTS= 16
##XYDATA=(XY..XY) 1 
    42         19
    44         27
    56         30
    58         29
    70         20
    71         20
    72          8
    84         30
    86        999
    87         51
    99         19
   100         19
   159         10
   201         19
   263          9
   546          9