##TITLE=Library Entry 57015
##JCAMP-DX=Revision 4.10 
##DATA TYPE=MASS SPECTRUM
##SAMPLE DESCRIPTION=Japan AIST/NIMC Database- Spectrum MS-NW-4363
##NAMES=HP
##CAS NAME=Butanoic acid, 3-chloro-
##MOLFORM=C4H7ClO2
##CAS REGISTRY NO=1951-12-8
##MP= -300
##BP= -300
##MW= 122
##$RETENTION INDEX=0
##$CONDENSED SPECTRUM=NO
##NPOINTS= 78
##XYDATA=(XY..XY) 1 
    12          1
    13          2
    14          9
    15         22
    16          2
    17          4
    18         10
    24          1
    25          6
    26         37
    27        314
    28         26
    29         23
    30          2
    31         21
    32          6
    34          3
    35          9
    36         44
    37         36
    38         57
    39        279
    40         73
    41        535
    42        231
    43        317
    44         51
    45        275
    46          9
    47          5
    48          2
    49         26
    50          3
    51          9
    52          1
    53          7
    54          1
    55          7
    56          1
    57         17
    58        155
    59         22
    60        197
    61         19
    62         21
    63        181
    64         10
    65         63
    66          2
    67          3
    68         45
    69         92
    70          4
    71         47
    72          2
    73          3
    75          7
    76         46
    77         43
    78         17
    79         16
    80          1
    81          2
    85         17
    86        313
    87        999
    88         48
    89          7
    91          3
   103          3
   105         18
   106          1
   107          8
   109          1
   121         11
   122          2
   123          4
   124          1