##TITLE=Library Entry 95115
##JCAMP-DX=Revision 4.10 
##DATA TYPE=MASS SPECTRUM
##SAMPLE DESCRIPTION=NIST Mass Spectrometry Data Center
##NAMES=HP
##CAS NAME=1-Naphthalenecarboxaldehyde, 2-ethoxy-
##MOLFORM=C13H12O2
##CAS REGISTRY NO=19523-57-0
##MP= -300
##BP= -300
##MW= 200
##$RETENTION INDEX=0
##$CONDENSED SPECTRUM=NO
##NPOINTS= 100
##XYDATA=(XY..XY) 1 
    15          3
    26         13
    27         79
    29         93
    30          2
    37          2
    38          8
    39         47
    40          1
    41          4
    42          1
    43         21
    44          1
    45          1
    49          1
    50         34
    51         49
    52          8
    53          7
    55          2
    57          7
    61         10
    62         61
    63        136
    64         24
    65         63
    66          4
    71          5
    73          2
    74         49
    75         60
    76         32
    77         46
    78          5
    79          1
    85          7
    86         33
    87         54
    88         75
    89        154
    90         16
    91          3
    97          1
    98         15
    99         14
   100         12
   101         29
   102         10
   103          2
   109          1
   110          4
   111          4
   112          1
   113        104
   114        192
   115        999
   116        213
   117         16
   118          1
   122          3
   125          9
   126        260
   127        122
   128        115
   129         35
   130          3
   131          1
   139          5
   140          1
   141         11
   142         31
   143        160
   144        722
   145         79
   146          5
   152          4
   153         16
   154         85
   155         81
   156         14
   157         30
   158          4
   165          3
   168          1
   169          3
   170         13
   171        876
   172        197
   173         20
   174          1
   181         21
   182         32
   183        193
   184         27
   185         14
   186          1
   199         38
   200        462
   201         62
   202          5