##TITLE=Library Entry 64396
##JCAMP-DX=Revision 4.10 
##DATA TYPE=MASS SPECTRUM
##SAMPLE DESCRIPTION=Japan AIST/NIMC Database- Spectrum MS-IW-4538
##NAMES=HP
##CAS NAME=(N-(Benzyloxycarbonyl)glycyl)-l-serine hydrazide
##MOLFORM=C13H18N4O5
##CAS REGISTRY NO=19526-00-2
##MP= -300
##BP= -300
##MW= 310
##$RETENTION INDEX=0
##$CONDENSED SPECTRUM=NO
##NPOINTS= 183
##XYDATA=(XY..XY) 1 
    14          1
    15          5
    16          2
    17          2
    26          4
    27         14
    28         33
    29         17
    30         63
    31         18
    32         29
    33          9
    37          1
    38          4
    39         18
    40          5
    41         11
    42         21
    43         21
    44         20
    45          5
    46          1
    49          1
    50          9
    51         24
    52          8
    53          7
    54          4
    55         10
    56         20
    57          9
    58          5
    59          9
    60         98
    61          5
    62          5
    63         11
    64          4
    65         56
    66          5
    67          1
    68          2
    69          3
    70          9
    71          4
    72          4
    73          4
    74         16
    75          5
    76          3
    77         52
    78         12
    79         86
    80          9
    81          1
    82          3
    83          5
    84          5
    85         10
    86          9
    87          4
    88         16
    89         20
    90         21
    91        999
    92         96
    93          5
    95          1
    96          2
    97          4
    98          5
    99          5
   100          6
   101          9
   102          5
   103          4
   104          9
   105         12
   106         42
   107         81
   108        102
   109          9
   110          2
   111          3
   112          2
   113          4
   114          3
   115          2
   116          2
   117          6
   118          3
   119         13
   120         38
   121          5
   122        127
   123         11
   124          1
   125          6
   126          9
   127          4
   128          3
   129          3
   130          7
   131          1
   132          2
   133          3
   134          1
   138          1
   139          2
   140          2
   141          3
   142          1
   143         45
   144          6
   145          8
   146          4
   147          1
   149          1
   150         28
   151          4
   153          8
   154          2
   155          1
   156          1
   157          1
   158          4
   159          1
   161          9
   162          5
   163          1
   164          1
   165          2
   166          2
   167          1
   168          1
   170          6
   171         31
   172          5
   173          2
   174          3
   175          1
   178          3
   183          1
   184          4
   185          1
   186          1
   188          1
   189          9
   190          1
   191          3
   192          7
   193          1
   201          1
   202          9
   203          3
   207         16
   208          4
   209          2
   221          1
   233          5
   234          2
   235          9
   236          2
   248          1
   249          1
   251         41
   252          6
   253          1
   261          3
   262          4
   263          1
   266          6
   267          1
   274          5
   275          1
   278          3
   279        164
   280         28
   281          4
   292         19
   293          3
   310         28
   311          5