##TITLE=Library Entry 40170
##JCAMP-DX=Revision 4.10 
##DATA TYPE=MASS SPECTRUM
##SAMPLE DESCRIPTION=O5-27-4B
##NAMES=HP
##CAS NAME=Alanine, N-[N-[N-(3-phenyl-N-propionyl-L-alanyl)-L-valyl]-L-leucy
l]-, methyl ester, L-
##MOLFORM=C27H42N4O6
##CAS REGISTRY NO=19526-15-9
##MP= -300
##BP= -300
##MW= 518
##$RETENTION INDEX=0
##$CONDENSED SPECTRUM=NO
##NPOINTS= 147
##XYDATA=(XY..XY) 1 
    70         50
    71         40
    72        999
    73         60
    74         30
    75         10
    77         20
    78         10
    79         10
    80         10
    81         20
    82         20
    83         30
    84         20
    85         30
    86        300
    87         30
    91         70
    92         10
    93         10
    95         10
    96         10
    97         20
    98         30
    99         20
   100         10
   102         20
   103         30
   104         90
   105         20
   109         10
   110         10
   111         20
   112         20
   113         10
   117         10
   118         20
   119         30
   120        410
   121         50
   122         10
   123         10
   124         10
   125         20
   126         20
   127         40
   128         20
   131         80
   132         20
   133         10
   141         20
   142         10
   143         10
   146         10
   147         10
   154         10
   155         20
   158         10
   160         10
   169         20
   170         10
   175         20
   176        120
   177         30
   181         20
   182         20
   183         10
   184         20
   185         10
   186         10
   195         10
   196         10
   197         30
   198         10
   202         50
   203         50
   204        170
   205         30
   206         10
   211         30
   212         10
   213         10
   217         40
   218         10
   223         20
   230         40
   231         10
   239         10
   243         10
   244         10
   245         10
   250         20
   256         10
   268         10
   275         10
   276         20
   277         10
   285         10
   289         10
   294         10
   300         10
   302         10
   303        340
   304         60
   305         10
   315         10
   316         10
   317         10
   324         10
   326         10
   342         10
   354          9
   355          2
   359          2
   360          1
   370          1
   371          1
   372          1
   374          2
   375          1
   388         46
   389         16
   390          3
   401          1
   402          8
   403          2
   409          1
   415         20
   416         22
   417          6
   418          1
   427          2
   445          1
   462          8
   463          2
   476          1
   486          1
   487          2
   488          1
   500          1
   501          1
   503          2
   504          2
   517          1
   518          3
   519          2
   520          1