##TITLE=Library Entry 89397
##JCAMP-DX=Revision 4.10 
##DATA TYPE=MASS SPECTRUM
##SAMPLE DESCRIPTION=Chemical Concepts
##NAMES=HP
##CAS NAME=Bicyclo[2.2.1]heptane-1,2-dicarboxylic acid
##MOLFORM=C9H12O4
##CAS REGISTRY NO=195254-73-0
##MP= -300
##BP= -300
##MW= 184
##$RETENTION INDEX=0
##$CONDENSED SPECTRUM=NO
##NPOINTS= 131
##XYDATA=(XY..XY) 1 
    25          2
    26         28
    27        284
    28         63
    29        152
    30          7
    31         38
    33          2
    35          1
    36          6
    37         11
    38         38
    39        424
    40        102
    41        357
    42         49
    43        155
    44         31
    45        155
    46         18
    47         14
    49          2
    50         32
    51         77
    52         39
    53        187
    54         52
    55        328
    56         40
    57         39
    58          8
    59          9
    60         25
    61          6
    62         19
    63         35
    64         22
    65        217
    66        278
    67        723
    68        177
    69         55
    70         19
    71         22
    72          6
    73        416
    74         29
    75          9
    76          2
    77        195
    78         52
    79        245
    80         94
    81        110
    82         74
    83         60
    84         35
    85         17
    86         18
    87          3
    88          3
    89          8
    90          5
    91        135
    92         47
    93        430
    94        533
    95        128
    96         22
    97         73
    98         35
    99         36
   100          4
   101          2
   102          1
   103          5
   104          4
   105         24
   106         28
   107         30
   108          5
   109          9
   110        335
   111        313
   112        999
   113         74
   114         11
   115          2
   117          1
   118          1
   119         11
   120         40
   121         42
   122        107
   123         84
   124         44
   125         46
   126          5
   127          1
   128          2
   129          6
   130          3
   131          2
   132          1
   135          1
   136          2
   137         29
   138        211
   139         58
   140        114
   141         15
   142          3
   143          1
   147          1
   148         46
   149         14
   150          2
   151          2
   155          2
   156         26
   157          3
   163          1
   165          3
   166        131
   167         30
   168          3
   169          1
   183          1
   184          0
   185          2
   186          0