##TITLE=Library Entry 21601
##JCAMP-DX=Revision 4.10 
##DATA TYPE=MASS SPECTRUM
##SAMPLE DESCRIPTION=H.Maurer,J.Chromatogr.,530,307(1990)
##NAMES=HP
##CAS NAME=Crotarbital
##MOLFORM=C10H14N2O3
##CAS REGISTRY NO=1952-67-6
##MP= -300
##BP= -300
##MW= 210
##$RETENTION INDEX=1620
##$CONDENSED SPECTRUM=NO
##NPOINTS= 56
##XYDATA=(XY..XY) 1 
    51         41
    52         30
    53        137
    54         67
    55        999
    56         93
    57         30
    65         48
    66         30
    67         89
    68         19
    69         41
    70         41
    71         11
    73         11
    77         96
    78         15
    79         56
    80         37
    81         44
    82         19
    83         22
    85         15
    91         15
    92         33
    93         30
    94         81
    95         56
    96         15
    97          7
    98         81
   105         37
   106         11
   109         19
   110         44
   111          7
   112         33
   113         15
   120         52
   121        144
   122         41
   123         15
   124         26
   138        281
   139         30
   141        393
   142         30
   153         15
   155         33
   156        933
   157         67
   167         19
   181        852
   182        115
   195         15
   210         63