##TITLE=Library Entry 15151
##JCAMP-DX=Revision 4.10 
##DATA TYPE=MASS SPECTRUM
##SAMPLE DESCRIPTION=NIST Mass Spectrometry Data Center
##NAMES=HP
##CAS NAME=n-Butylethylenediamine
##MOLFORM=C6H16N2
##CAS REGISTRY NO=19522-69-1
##MP= -300
##BP= -300
##MW= 116
##$RETENTION INDEX=0
##$CONDENSED SPECTRUM=NO
##NPOINTS= 41
##XYDATA=(XY..XY) 1 
    11          2
    15         22
    16          1
    17          7
    18         45
    25          2
    26         15
    27        112
    28        177
    29        192
    30        611
    38          6
    39         56
    40         17
    41        202
    42        121
    43        109
    44        999
    45         25
    50          3
    51          3
    52          2
    53          8
    54          8
    55         25
    56         49
    57         94
    58          8
    68          4
    69          5
    70         10
    71          6
    72         15
    73         38
    83          2
    84          8
    86        484
    87         33
    99          4
   116         19
   117          2