##TITLE=Library Entry 38450
##JCAMP-DX=Revision 4.10 
##DATA TYPE=MASS SPECTRUM
##SAMPLE DESCRIPTION=CARL DJERASSI DEPT OF CHEM STANFORD UNIV STANFORD CALIF
 94305
##NAMES=HP
##CAS NAME=1,2-Cyclohexanediol, 1-methyl-, trans-
##MOLFORM=C7H14O2
##CAS REGISTRY NO=19534-08-8
##MP= -300
##BP= -300
##MW= 130
##$RETENTION INDEX=0
##$CONDENSED SPECTRUM=NO
##NPOINTS= 42
##XYDATA=(XY..XY) 1 
    39        120
    41        300
    42         90
    43        850
    44        140
    45         70
    51         10
    53         30
    54         20
    55        230
    56        120
    57        190
    58        440
    59         20
    67         60
    68        110
    69        170
    70        430
    71        999
    72         40
    73         10
    74         10
    77         10
    79         40
    81         20
    83        150
    84        110
    85         30
    87         40
    88         10
    91         10
    94         50
    95         10
    97        180
    98         10
   100         10
   111         10
   112        210
   113         10
   115         50
   130        100
   131         10