##TITLE=Library Entry 34698
##JCAMP-DX=Revision 4.10 
##DATA TYPE=MASS SPECTRUM
##SAMPLE DESCRIPTION=Japan AIST/NIMC Database- Spectrum MS-NW-4661
##NAMES=HP
##CAS NAME=3,6-Dimethyl-1-heptyn-3-ol
##MOLFORM=C9H16O
##CAS REGISTRY NO=19549-98-5
##MP= -300
##BP= -300
##MW= 140
##$RETENTION INDEX=0
##$CONDENSED SPECTRUM=NO
##NPOINTS= 76
##XYDATA=(XY..XY) 1 
    15          9
    17          3
    18         10
    25          1
    26          8
    27         53
    28          8
    29         54
    30          1
    31          4
    37          1
    38          5
    39         59
    40         12
    41        105
    42         15
    43        199
    44          6
    45          6
    50          7
    51         15
    52          6
    53         21
    54          9
    55         45
    56         26
    57         40
    58         21
    59         11
    62          1
    63          4
    64          1
    65         13
    66         11
    67         15
    68         32
    69        999
    70         60
    71         22
    72          2
    73          1
    75          1
    77         16
    78          3
    79         51
    80          9
    81         16
    82          4
    83         11
    84         92
    85          9
    86          1
    91         46
    92          9
    93          7
    94          1
    95          7
    96          2
    97         28
    98          3
    99          1
   103          1
   105         12
   106          2
   107         37
   108          4
   109          1
   110          2
   111          4
   112          1
   114          1
   121          2
   122          1
   123          1
   125         33
   126          3