##TITLE=Library Entry 17352
##JCAMP-DX=Revision 4.10 
##DATA TYPE=MASS SPECTRUM
##SAMPLE DESCRIPTION=NIST Mass Spectrometry Data Center, 1990.
##NAMES=HP
##CAS NAME=4-Heptanol, 3,5-dimethyl-
##MOLFORM=C9H20O
##CAS REGISTRY NO=19549-79-2
##MP= -300
##BP= -300
##MW= 144
##$RETENTION INDEX=0
##$CONDENSED SPECTRUM=NO
##NPOINTS= 27
##XYDATA=(XY..XY) 1 
    26         12
    27        134
    28         95
    29        283
    30         17
    31         62
    32         13
    39        107
    41        370
    42         32
    43        154
    45        999
    46         23
    53         30
    55         82
    56         47
    57        260
    58         82
    59         24
    67         18
    69        471
    70         45
    71         74
    85         24
    86        151
    87        732
    88         43