##TITLE=Library Entry 35580
##JCAMP-DX=Revision 4.10 
##DATA TYPE=MASS SPECTRUM
##SAMPLE DESCRIPTION=NIST Mass Spectrometry Data Center, 1990.
##NAMES=HP
##CAS NAME=3-Heptanol, 2,2-dimethyl-
##MOLFORM=C9H20O
##CAS REGISTRY NO=19549-70-3
##MP= -300
##BP= -300
##MW= 144
##$RETENTION INDEX=814
##$CONDENSED SPECTRUM=NO
##NPOINTS= 28
##XYDATA=(XY..XY) 1 
    15         13
    27        100
    28         76
    29        162
    31         34
    32         12
    39         89
    41        412
    42         29
    43        154
    44         44
    45        126
    53         20
    55         64
    56         92
    57        369
    58         27
    59         39
    67         18
    69        999
    70         71
    71         37
    73         12
    85         41
    86        224
    87        541
    88         30
   129         11