##TITLE=Library Entry 7525
##JCAMP-DX=Revision 4.10 
##DATA TYPE=MASS SPECTRUM
##SAMPLE DESCRIPTION=NIST Mass Spectrometry Data Center, 1990.
##NAMES=HP
##CAS NAME=3,5-Dimethyl-1,6-heptadien-4-ol
##MOLFORM=C9H16O
##CAS REGISTRY NO=19549-66-7
##MP= -300
##BP= -300
##MW= 140
##$RETENTION INDEX=0
##$CONDENSED SPECTRUM=NO
##NPOINTS= 33
##XYDATA=(XY..XY) 1 
    14          5
    16          2
    26         26
    27        239
    28        116
    29        327
    31         47
    32         21
    39        210
    40         52
    41        419
    43        999
    44         37
    45         20
    50         23
    51         36
    52         15
    53         75
    55        331
    56        607
    57        180
    58         14
    65         23
    67         65
    69         28
    77         15
    79         23
    83         34
    84         58
    85        167
    86         11
    91         18
   107         12