##TITLE=Library Entry 52730
##JCAMP-DX=Revision 4.10 
##DATA TYPE=MASS SPECTRUM
##SAMPLE DESCRIPTION=Exported from NIST MS Search
##NAMES=HP
##CAS NAME=3-Heptanol, 2,6-dimethyl-
##MOLFORM=C9H20O
##CAS REGISTRY NO=19549-73-6
##MP= -300
##BP= -300
##MW= 144
##$RETENTION INDEX=0
##$CONDENSED SPECTRUM=NO
##NPOINTS= 100
##XYDATA=(XY..XY) 1 
    12          1
    13          1
    14          4
    15         39
    16          2
    17          2
    18          5
    19          6
    25          1
    26         27
    27        383
    28         67
    29        273
    30         16
    31         79
    32          2
    33          1
    36          6
    37          5
    38         12
    39        182
    40         33
    41        469
    42         64
    43        493
    44         61
    45        101
    46          3
    47          1
    48          1
    49          1
    50          5
    51         10
    52          5
    53         34
    54         10
    55        549
    56        111
    57        298
    58         39
    59         42
    60          2
    61          1
    62          1
    63          2
    64          1
    65          4
    67         14
    69        130
    70         29
    71         91
    72         34
    73        551
    74         25
    75          2
    77          3
    78          1
    79          3
    81         39
    82          8
    83        999
    84         68
    85          9
    86         27
    87         27
    88          2
    89          1
    91          1
    92          1
    93          1
    95          1
    97         11
    98          3
    99         34
   100         61
   101        271
   102         17
   103          1
   105          1
   107          1
   109          1
   111          9
   112          1
   113          1
   115          9
   116          1
   117          1
   119          1
   123          1
   125          1
   126         12
   127          3
   128          1
   129          2
   131          1
   132          1
   140          1
   141          1
   142         17
   143          5