##TITLE=Library Entry 65861
##JCAMP-DX=Revision 4.10 
##DATA TYPE=MASS SPECTRUM
##SAMPLE DESCRIPTION=Humboldt-Universitat zu Berlin, Department of Chemistry
, Analytical Group
##NAMES=HP
##CAS NAME=3-Hydroxy-butansaeureanilid
##MOLFORM=C10H13NO2
##CAS REGISTRY NO=1954-91-2
##MP= -300
##BP= -300
##MW= 179
##$RETENTION INDEX=0
##$CONDENSED SPECTRUM=NO
##NPOINTS= 92
##XYDATA=(XY..XY) 1 
    12          2
    13          3
    14         22
    15        121
    16          6
    17          4
    18         13
    19         55
    26         17
    27         99
    28         44
    29        126
    30          9
    31         56
    37         13
    38         46
    39        219
    40         39
    41         80
    42         65
    43        324
    44         35
    45        359
    47          1
    50         26
    51         74
    52         28
    53          8
    54          9
    55          4
    56          1
    57          5
    58          4
    59          7
    60          1
    61          3
    62         10
    63         38
    64         40
    65        151
    66        104
    67         12
    68          2
    69          9
    70          1
    71          5
    72          0
    74          5
    75          4
    77         81
    78         16
    79         10
    80          1
    82          1
    85          2
    87         13
    88          1
    89          2
    91         43
    92        100
    93        999
    94         94
    95          5
   102          1
   103          1
   104          5
   105          2
   106         27
   107          3
   108          0
   115          0
   116          1
   117          2
   118          3
   119         16
   120         34
   121          4
   122          2
   130          0
   132          1
   134         19
   135         17
   136          2
   146          0
   160          0
   161          0
   162          1
   164          6
   165          1
   179        103
   180         18
   181          1