##TITLE=Library Entry 40603
##JCAMP-DX=Revision 4.10 
##DATA TYPE=MASS SPECTRUM
##SAMPLE DESCRIPTION=Exported from NIST MS Search
##NAMES=HP
##CAS NAME=3-Heptanol, 2,4-dimethyl-
##MOLFORM=C9H20O
##CAS REGISTRY NO=19549-72-5
##MP= -300
##BP= -300
##MW= 144
##$RETENTION INDEX=1363
##$CONDENSED SPECTRUM=NO
##NPOINTS= 104
##XYDATA=(XY..XY) 1 
    12          1
    13          1
    14          4
    15         35
    16          2
    17          2
    18          7
    19          5
    25          1
    26         31
    27        395
    28         61
    29        259
    30         17
    31        102
    32          2
    33          1
    36          3
    37          5
    38         12
    39        170
    40         31
    41        361
    42         70
    43        550
    44         27
    45        279
    46          6
    47          1
    49          1
    50          4
    51         10
    52          4
    53         33
    54         10
    55        452
    56         65
    57        196
    58         56
    59        158
    60          6
    61          1
    62          1
    63          2
    64          1
    65          4
    66          2
    67         14
    68          6
    69         53
    70         49
    71        170
    72        101
    73        999
    74         45
    75          4
    76          1
    77          3
    78          1
    79          3
    80          1
    81          6
    82          5
    83        370
    84         31
    85         19
    86          4
    87          5
    88          1
    89          2
    91          1
    93          1
    95          3
    96          1
    97         34
    98          6
    99         15
   100         51
   101        304
   102         20
   103          2
   104          1
   105          1
   107          1
   109          1
   110          1
   111         14
   112          3
   113          2
   114          1
   115          3
   116          1
   117          1
   119          1
   123          1
   124          1
   125          2
   126          4
   127          4
   128          3
   129          9
   130          1
   143          3
   144          1