##TITLE=Library Entry 57074
##JCAMP-DX=Revision 4.10 
##DATA TYPE=MASS SPECTRUM
##SAMPLE DESCRIPTION=Exported from NIST MS Search
##NAMES=HP
##CAS NAME=4-Heptanol, 2,4-dimethyl-
##MOLFORM=C9H20O
##CAS REGISTRY NO=19549-77-0
##MP= -300
##BP= -300
##MW= 144
##$RETENTION INDEX=0
##$CONDENSED SPECTRUM=NO
##NPOINTS= 101
##XYDATA=(XY..XY) 1 
    12          1
    13          2
    14          8
    15         81
    16          4
    17         10
    18         35
    19          6
    25          1
    26         34
    27        458
    28         64
    29        259
    30          8
    31         61
    32          3
    33          1
    36          1
    37          7
    38         18
    39        251
    40         46
    41        565
    42         76
    43        770
    44         32
    45        692
    46         16
    47          3
    48          1
    49          1
    50          8
    51         18
    52          8
    53         50
    54         12
    55        282
    56        187
    57        313
    58        103
    59        296
    60         10
    61          2
    62          1
    63          5
    64          1
    65         11
    66          5
    67         41
    68         14
    69        316
    70         55
    71         67
    72          5
    73         34
    74          2
    75          1
    77          9
    78          3
    79          8
    80          2
    81         10
    82         11
    83        231
    84         61
    85         40
    86         12
    87        999
    88         55
    89          4
    91          3
    92          1
    93          1
    94          1
    95          5
    96          1
    97          6
    98          3
    99          2
   100          7
   101        535
   102         35
   103          2
   107          1
   109          2
   110          1
   111         14
   112          2
   113          2
   115          2
   123          1
   124          1
   125          2
   126         67
   127         10
   128          1
   129        113
   130         10
   131          1
   140          1
   143          1