##TITLE=Library Entry 8119
##JCAMP-DX=Revision 4.10 
##DATA TYPE=MASS SPECTRUM
##SAMPLE DESCRIPTION=NIST Mass Spectrometry Data Center, 1990.
##NAMES=HP
##CAS NAME=2-Heptanone, 4,6-dimethyl-
##MOLFORM=C9H18O
##CAS REGISTRY NO=19549-80-5
##MP= -300
##BP= -300
##MW= 142
##$RETENTION INDEX=1045
##$CONDENSED SPECTRUM=NO
##NPOINTS= 27
##XYDATA=(XY..XY) 1 
    15         46
    27        117
    28         60
    29         82
    39        142
    40         31
    41        290
    43        999
    44         29
    53         24
    55         75
    56         53
    57        167
    58        524
    59        171
    67         38
    69        313
    70         21
    71         62
    82         20
    83         78
    84        299
    85        314
    86         21
    99         15
   109         52
   127         16