##TITLE=Library Entry 25003
##JCAMP-DX=Revision 4.10 
##DATA TYPE=MASS SPECTRUM
##SAMPLE DESCRIPTION=NIST Mass Spectrometry Data Center, 1990.
##NAMES=HP
##CAS NAME=5,9-Dimethyl-3-decanol
##MOLFORM=C12H26O
##CAS REGISTRY NO=19550-53-9
##MP= -300
##BP= -300
##MW= 186
##$RETENTION INDEX=0
##$CONDENSED SPECTRUM=NO
##NPOINTS= 54
##XYDATA=(XY..XY) 1 
    15         11
    18         20
    27        223
    28         69
    29        380
    30         11
    31        275
    32          0
    39        158
    41        733
    42        210
    43        728
    44         51
    45         35
    51         10
    53         61
    55        569
    56        340
    57        999
    58        171
    59        934
    60         34
    65         12
    67         56
    69        514
    70        191
    71        567
    72         91
    73         42
    77         10
    79         15
    81         74
    83        720
    84        142
    85         69
    87          9
    95         29
    97        163
    98         50
    99         43
   101         15
   110         10
   111         65
   112        137
   113         58
   125          7
   126         46
   127         13
   128          8
   139          7
   155         11
   157        132
   158         18
   168         19