##TITLE=Library Entry 40927
##JCAMP-DX=Revision 4.10 
##DATA TYPE=MASS SPECTRUM
##SAMPLE DESCRIPTION=Japan AIST/NIMC Database- Spectrum MS-IW- 621
##NAMES=HP
##CAS NAME=3,4-Dimethyl-3-hexanol
##MOLFORM=C8H18O
##CAS REGISTRY NO=19550-08-4
##MP= -300
##BP= -300
##MW= 130
##$RETENTION INDEX=1411
##$CONDENSED SPECTRUM=NO
##NPOINTS= 62
##XYDATA=(XY..XY) 1 
    15          5
    16          1
    17          1
    18          4
    26          3
    27         46
    28         10
    29         84
    30          2
    31         25
    38          1
    39         36
    40          5
    41        127
    42         10
    43        152
    44          5
    45        272
    46          6
    50          2
    51          5
    52          2
    53         17
    54          5
    55        568
    56         44
    57        159
    58          8
    59        127
    60          4
    63          1
    65          4
    66          1
    67         13
    68          2
    69         36
    70         13
    71         40
    72         33
    73        999
    74         46
    75          3
    77          2
    79          4
    81          5
    82          5
    83        242
    84         43
    85          9
    86          2
    95          2
    97         20
    98          2
    99          1
   101        229
   102         14
   103          1
   112         51
   113         11
   114          2
   115         54
   116          4