##TITLE=Library Entry 9123
##JCAMP-DX=Revision 4.10 
##DATA TYPE=MASS SPECTRUM
##SAMPLE DESCRIPTION=CONTINENTAL OIL CO., PONCA CITY, OKLA, USA
##NAMES=HP
##CAS NAME=2-Hexanone, 3,4-dimethyl-
##MOLFORM=C8H16O
##CAS REGISTRY NO=19550-10-8
##MP= -300
##BP= -300
##MW= 128
##$RETENTION INDEX=0
##$CONDENSED SPECTRUM=NO
##NPOINTS= 71
##XYDATA=(XY..XY) 1 
    18          3
    19          0
    25          0
    26         16
    27        151
    28         41
    29        144
    30          3
    31          2
    32          0
    37          2
    38          6
    39         84
    40         11
    41        164
    42         24
    43        999
    44         29
    45          9
    49          0
    50          5
    51          9
    52          3
    53         19
    54          6
    55         47
    56         24
    57        124
    58          6
    59          2
    62          0
    63          1
    65          2
    66          1
    67          5
    68          1
    69         22
    70          3
    71         19
    72        409
    73         21
    74          1
    77          1
    78          0
    79          1
    80          0
    81          2
    82          0
    83          3
    84          7
    85         65
    86          4
    87          1
    93          0
    95          2
    97          1
    98          0
    99         20
   100          1
   104          0
   105          3
   106          0
   110          0
   111          0
   113          5
   114          0
   117          1
   118          0
   119          1
   128          2
   129          0