##TITLE=Library Entry 52182
##JCAMP-DX=Revision 4.10 
##DATA TYPE=MASS SPECTRUM
##SAMPLE DESCRIPTION=NIST Mass Spectrometry Data Center, 1990.
##NAMES=HP
##CAS NAME=trans-4,4-Dimethyl-2-hexene
##MOLFORM=C8H16
##CAS REGISTRY NO=19550-83-5
##MP= -300
##BP= -300
##MW= 112
##$RETENTION INDEX=736
##$CONDENSED SPECTRUM=NO
##NPOINTS= 36
##XYDATA=(XY..XY) 1 
    15         13
    26         11
    27         93
    28         34
    29         79
    39        189
    40         39
    41        294
    42         24
    43         85
    44          9
    50         17
    51         36
    52         16
    53         85
    54          9
    55        906
    56         52
    57         12
    63         12
    65         37
    66         14
    67        107
    68         26
    69        117
    70         31
    71         10
    77         22
    78          6
    79         32
    81         27
    83        999
    84         71
    97         81
   112        159
   113         15