##TITLE=Library Entry 67730
##JCAMP-DX=Revision 4.10 
##DATA TYPE=MASS SPECTRUM
##SAMPLE DESCRIPTION=NIST Mass Spectrometry Data Center
##NAMES=HP
##CAS NAME=2,9-Dimethyl-5-decyne
##MOLFORM=C12H22
##CAS REGISTRY NO=19550-56-2
##MP= -300
##BP= -300
##MW= 166
##$RETENTION INDEX=0
##$CONDENSED SPECTRUM=NO
##NPOINTS= 71
##XYDATA=(XY..XY) 1 
    15         17
    16          1
    18          3
    26          9
    27        220
    28         24
    29        258
    30          5
    37          2
    38         10
    39        235
    40         61
    41        574
    42         46
    43        310
    44          8
    50         15
    51         56
    52         61
    53        113
    54        225
    55        268
    56        270
    57        160
    58          7
    61          1
    62          4
    63         19
    64          6
    65         85
    66         39
    67        469
    68        132
    69        226
    70         29
    71          3
    74          1
    75          1
    77         82
    78         17
    79        104
    80         24
    81        430
    82        210
    83         30
    84          2
    85          1
    89          2
    91         50
    92          7
    93         46
    95        999
    96        162
    97         31
    98          4
   103          2
   105          4
   107         11
   109        119
   110        151
   111         18
   112          1
   121          1
   122          4
   123         49
   124         10
   135          1
   137          1
   151         42
   152          4
   166          2