##TITLE=Library Entry 29743
##JCAMP-DX=Revision 4.10 
##DATA TYPE=MASS SPECTRUM
##SAMPLE DESCRIPTION=NIST Mass Spectrometry Data Center, 1990.
##NAMES=HP
##CAS NAME=3-Hexanol, 4,4-dimethyl-
##MOLFORM=C8H18O
##CAS REGISTRY NO=19550-09-5
##MP= -300
##BP= -300
##MW= 130
##$RETENTION INDEX=0
##$CONDENSED SPECTRUM=NO
##NPOINTS= 36
##XYDATA=(XY..XY) 1 
    15         25
    26         27
    27        253
    28         85
    29        293
    31        208
    39        285
    40         57
    41        555
    42        112
    43        818
    44         55
    45        339
    50         20
    51         38
    53        115
    55        603
    56         63
    57        312
    58        239
    59        999
    60         35
    65         22
    67         58
    69         94
    70        783
    71        699
    72         73
    73         80
    83        217
    84         36
    85         23
    97         21
   101        167
   112         30
   115         15