##TITLE=Library Entry 81341
##JCAMP-DX=Revision 4.10 
##DATA TYPE=MASS SPECTRUM
##SAMPLE DESCRIPTION=Humboldt-Universitat zu Berlin, Department of Chemistry
, Analytical Group
##NAMES=HP
##CAS NAME=2-Phenylbutenolide
##MOLFORM=C10H8O2
##CAS REGISTRY NO=1955-39-1
##MP= -300
##BP= -300
##MW= 160
##$RETENTION INDEX=0
##$CONDENSED SPECTRUM=NO
##NPOINTS= 83
##XYDATA=(XY..XY) 1 
    12          2
    13          4
    14         13
    15          6
    16          4
    17          7
    18         28
    24          1
    25         10
    26        119
    27        377
    28         34
    29         19
    30          2
    32          2
    37         27
    38         53
    39         95
    40          6
    41          9
    42         15
    43          8
    44          6
    45          2
    48          1
    49         19
    50        234
    51        541
    52         71
    53         38
    54         41
    55        194
    56          8
    58         30
    60          2
    61         19
    62         44
    63         68
    64         10
    65         16
    66         12
    67          1
    69          2
    71          1
    72          2
    73         14
    74         71
    75         44
    76         55
    77        699
    78         88
    79          5
    82         30
    83          3
    84          2
    85          6
    86         12
    87         12
    88          6
    89         29
    90          5
    91          3
    98          4
    99          1
   101          3
   102         16
   103         86
   104         72
   105        999
   106         78
   107          5
   110          1
   113          3
   114          7
   115         79
   116         10
   131        379
   132        146
   133         15
   134          2
   160        715
   161         84
   162          8