##TITLE=Library Entry 10071
##JCAMP-DX=Revision 4.10 
##DATA TYPE=MASS SPECTRUM
##SAMPLE DESCRIPTION=NIST Mass Spectrometry Data Center, 1990.
##NAMES=HP
##CAS NAME=5-Hexen-3-ol, 2,3-dimethyl-
##MOLFORM=C8H16O
##CAS REGISTRY NO=19550-90-4
##MP= -300
##BP= -300
##MW= 128
##$RETENTION INDEX=0
##$CONDENSED SPECTRUM=NO
##NPOINTS= 28
##XYDATA=(XY..XY) 1 
    15         33
    27        108
    28         71
    29         55
    31         22
    32         13
    38         20
    39        183
    40         32
    41        374
    43        999
    44         35
    45        207
    51         13
    53         33
    55         44
    57         30
    59         23
    65         16
    67         49
    69        376
    70         27
    71         84
    85        147
    87        599
    88         37
    95         35
   110         11