##TITLE=Library Entry 8974
##JCAMP-DX=Revision 4.10 
##DATA TYPE=MASS SPECTRUM
##SAMPLE DESCRIPTION=NIST Mass Spectrometry Data Center, 1990.
##NAMES=HP
##CAS NAME=1,3-Dimethylcyclopentanol
##MOLFORM=C7H14O
##CAS REGISTRY NO=19550-46-0
##MP= -300
##BP= -300
##MW= 114
##$RETENTION INDEX=0
##$CONDENSED SPECTRUM=NO
##NPOINTS= 56
##XYDATA=(XY..XY) 1 
    14          6
    15         58
    16          6
    17          8
    18         20
    26         27
    27        240
    28         83
    29        156
    30         10
    31         42
    32         10
    38         35
    39        250
    40         59
    41        286
    42         97
    43        999
    44         39
    45         56
    50         27
    51         50
    52         24
    53        109
    54         28
    55        173
    56         52
    57        188
    58        536
    59        170
    63          9
    65         30
    66         17
    67        114
    68         19
    69         21
    70          9
    71        967
    72         62
    77         41
    78         10
    79        119
    80          9
    81        444
    82         37
    83          7
    84          7
    85        569
    86         35
    91          6
    95         18
    96         47
    97         33
    98          6
    99         98
   114          8