##TITLE=Library Entry 29697
##JCAMP-DX=Revision 4.10 
##DATA TYPE=MASS SPECTRUM
##SAMPLE DESCRIPTION=CHEMICAL SAMPLES COMPANY
##NAMES=HP
##CAS NAME=2-Hexanol, 2,3-dimethyl-
##MOLFORM=C8H18O
##CAS REGISTRY NO=19550-03-9
##MP= -300
##BP= -300
##MW= 130
##$RETENTION INDEX=0
##$CONDENSED SPECTRUM=NO
##NPOINTS= 79
##XYDATA=(XY..XY) 1 
    12          0
    13          2
    14          5
    15         43
    16          1
    17          1
    18          5
    19          1
    24          0
    25          1
    26          8
    27        117
    28         27
    29         85
    30          3
    31         40
    32          3
    37          2
    38          4
    39         70
    40         12
    41        142
    42         33
    43        229
    44          8
    45         39
    46          1
    47          0
    50          2
    51          4
    52          2
    53         13
    54          3
    55         81
    56          9
    57         28
    58         32
    59        999
    60         33
    61          2
    62          0
    63          1
    65          2
    66          1
    67          5
    68          2
    69         31
    70         30
    71         77
    72          6
    73         10
    74         32
    75          4
    77          1
    79          1
    81          1
    82          1
    83         15
    84          1
    85          3
    86          0
    87         10
    88          0
    89          1
    95          0
    97          9
    98          1
    99         15
   100          1
   101          1
   112          1
   113          0
   115         44
   116         12
   117         17
   118          1
   120          0
   129          1
   130          0