##TITLE=Library Entry 38240
##JCAMP-DX=Revision 4.10 
##DATA TYPE=MASS SPECTRUM
##SAMPLE DESCRIPTION=NIST Mass Spectrometry Data Center, 1990.
##NAMES=HP
##CAS NAME=3-Hexanone, 4,4-dimethyl-
##MOLFORM=C8H16O
##CAS REGISTRY NO=19550-14-2
##MP= -300
##BP= -300
##MW= 128
##$RETENTION INDEX=0
##$CONDENSED SPECTRUM=NO
##NPOINTS= 25
##XYDATA=(XY..XY) 1 
    14         11
    15         19
    26         26
    27        239
    28        120
    29        332
    32         13
    39        155
    40         29
    41        232
    42         13
    43        997
    44         40
    51         14
    53         37
    55        178
    57        313
    58         11
    70        276
    71        999
    72         60
    99         23
   100         84
   128         85
   129          9