##TITLE=Library Entry 38458
##JCAMP-DX=Revision 4.10 
##DATA TYPE=MASS SPECTRUM
##SAMPLE DESCRIPTION=NIST Mass Spectrometry Data Center, 1990.
##NAMES=HP
##CAS NAME=1,2-Dimethylcyclopentanol
##MOLFORM=C7H14O
##CAS REGISTRY NO=19550-45-9
##MP= -300
##BP= -300
##MW= 114
##$RETENTION INDEX=0
##$CONDENSED SPECTRUM=NO
##NPOINTS= 26
##XYDATA=(XY..XY) 1 
    15         41
    27        121
    28        170
    29         84
    32         41
    39        153
    40         30
    41        159
    43        618
    45         39
    53         69
    55        128
    57        185
    58        379
    59        100
    67         42
    69         24
    71        999
    72        220
    79         42
    81        190
    85        232
    96         37
    97         30
    99         85
   114         44