##TITLE=Library Entry 20706
##JCAMP-DX=Revision 4.10 
##DATA TYPE=MASS SPECTRUM
##SAMPLE DESCRIPTION=NIST Mass Spectrometry Data Center, 1990.
##NAMES=HP
##CAS NAME=3-Hexene, 3,4-dimethyl-, (Z)-
##MOLFORM=C8H16
##CAS REGISTRY NO=19550-87-9
##MP= -300
##BP= -300
##MW= 112
##$RETENTION INDEX=783
##$CONDENSED SPECTRUM=NO
##NPOINTS= 55
##XYDATA=(XY..XY) 1 
    14          1
    15         23
    16          0
    17          2
    25          1
    26         14
    27        152
    28         44
    29        112
    30          3
    37          3
    39        175
    40         36
    41        334
    42         26
    43         66
    44          2
    46          1
    50         17
    51         40
    52         18
    53         91
    54          1
    55        999
    56         80
    57         26
    62          3
    63         10
    64          3
    65         24
    66          9
    67         68
    68         15
    69        164
    70         22
    71          1
    74          1
    77         23
    78          5
    79         31
    80          7
    81         31
    82          1
    83        705
    84         59
    85          2
    91          5
    93          2
    94          1
    95         11
    96          1
    97         63
    98          5
   112        236
   113         22