##TITLE=Library Entry 34755
##JCAMP-DX=Revision 4.10 
##DATA TYPE=MASS SPECTRUM
##SAMPLE DESCRIPTION=Japan AIST/NIMC Database- Spectrum MS-IW- 620
##NAMES=HP
##CAS NAME=3-Hexanol, 2,5-dimethyl-
##MOLFORM=C8H18O
##CAS REGISTRY NO=19550-07-3
##MP= -300
##BP= -300
##MW= 130
##$RETENTION INDEX=0
##$CONDENSED SPECTRUM=NO
##NPOINTS= 60
##XYDATA=(XY..XY) 1 
    15          4
    18          2
    26          2
    27         67
    28          9
    29         61
    30          2
    31         26
    38          2
    39         50
    40          8
    41        234
    42         31
    43        516
    44         44
    45        361
    46          8
    47          1
    50          1
    51          3
    52          1
    53         14
    54          4
    55        245
    56         50
    57        189
    58         15
    59         14
    60          1
    65          2
    67         10
    68         16
    69        999
    70         68
    71         86
    72         22
    73        456
    74         20
    75          1
    77          2
    79          2
    81          2
    83          2
    84          3
    85         67
    86         83
    87        401
    88         22
    89          1
    91          1
    95          4
    97         12
    98          1
   110          1
   111          4
   112         10
   113          9
   115          1
   128         17
   129          5