##TITLE=Library Entry 3531
##JCAMP-DX=Revision 4.10 
##DATA TYPE=MASS SPECTRUM
##SAMPLE DESCRIPTION=NIST Mass Spectrometry Data Center, 1998.
##NAMES=HP
##CAS NAME=2-Oxetanone, 3,3-dimethyl-
##MOLFORM=C5H8O2
##CAS REGISTRY NO=1955-45-9
##MP= -300
##BP= -300
##MW= 100
##$RETENTION INDEX=0
##$CONDENSED SPECTRUM=NO
##NPOINTS= 37
##XYDATA=(XY..XY) 1 
    13          1
    14          4
    15         13
    25          4
    26         32
    27        131
    28         71
    29         88
    30         14
    31          4
    36          3
    37         37
    38         76
    39        460
    40        143
    41        999
    42        619
    43         89
    44         18
    45          8
    48          1
    49          7
    50         28
    51         24
    52          7
    53         37
    54         12
    55         90
    56        644
    57         35
    58          1
    69         15
    70        695
    71         32
    72          4
    83          1
   101          1