##TITLE=Library Entry 20687
##JCAMP-DX=Revision 4.10 
##DATA TYPE=MASS SPECTRUM
##SAMPLE DESCRIPTION=NIST Mass Spectrometry Data Center, 1990.
##NAMES=HP
##CAS NAME=trans-3,4-Dimethyl-2-hexene
##MOLFORM=C8H16
##CAS REGISTRY NO=19550-82-4
##MP= -300
##BP= -300
##MW= 112
##$RETENTION INDEX=761
##$CONDENSED SPECTRUM=NO
##NPOINTS= 38
##XYDATA=(XY..XY) 1 
    15         12
    26         15
    27        123
    28         42
    29        110
    39        185
    40         37
    41        323
    42         28
    43         77
    44          7
    50         25
    51         49
    52         22
    53        108
    54          7
    55        999
    56         76
    57         19
    63         11
    65         36
    66         14
    67        114
    68         22
    69        108
    70         16
    77         26
    78          7
    79         31
    80          5
    81         30
    82          5
    83        973
    84         87
    95          7
    97         52
   112        234
   113         22