##TITLE=Library Entry 59873
##JCAMP-DX=Revision 4.10 
##DATA TYPE=MASS SPECTRUM
##SAMPLE DESCRIPTION=Chemical Concepts
##NAMES=HP
##CAS NAME=Benzene, 1-methyl-2-(phenylmethoxy)-
##MOLFORM=C14H14O
##CAS REGISTRY NO=19578-70-2
##MP= -300
##BP= -300
##MW= 198
##$RETENTION INDEX=0
##$CONDENSED SPECTRUM=NO
##NPOINTS= 89
##XYDATA=(XY..XY) 1 
    25          0
    26          3
    27         22
    29          1
    30          0
    31          0
    36          2
    37          2
    38          9
    39         70
    40          3
    41         14
    42          1
    46          1
    47          0
    49          1
    50         19
    51         44
    52         21
    53         14
    54          0
    55          1
    56          1
    58          0
    61          1
    62          6
    63         28
    64          8
    65        128
    66          7
    68          1
    71          1
    72          0
    73          0
    74          2
    75          1
    76          2
    77         51
    78         17
    79         12
    80          1
    81          1
    83          0
    84          0
    85          0
    87          0
    88          1
    89         21
    90         10
    91        999
    92         85
    93          3
    94          0
   103          0
   105          0
   106          0
   107         11
   108          2
   111          0
   115          1
   119          0
   127          0
   128          0
   129          1
   130          0
   131          0
   136          0
   138          0
   140          0
   152          2
   153          1
   154          1
   155          0
   160          0
   164          0
   165          1
   166          0
   168          0
   169          1
   178          0
   179          0
   182          0
   183          0
   195          0
   196          0
   197          0
   198         98
   199         15
   200          1