##TITLE=Library Entry 52213
##JCAMP-DX=Revision 4.10 
##DATA TYPE=MASS SPECTRUM
##SAMPLE DESCRIPTION=T.A.BLAZER DU PONT, GIBBSTOWN, N.J., USA
##NAMES=HP
##CAS NAME=Cyclohexane, azido-
##MOLFORM=C6H11N3
##CAS REGISTRY NO=19573-22-9
##MP= -300
##BP= -300
##MW= 125
##$RETENTION INDEX=0
##$CONDENSED SPECTRUM=NO
##NPOINTS= 68
##XYDATA=(XY..XY) 1 
    14         12
    15         60
    16          1
    25          2
    26         51
    27        269
    28        105
    29        111
    30         14
    31          1
    36          1
    37         11
    38         30
    39        273
    40         60
    41        603
    42        186
    43         61
    44          2
    45          0
    49          3
    50         24
    51         36
    52         19
    53         66
    54        191
    55        701
    56         40
    57          3
    58          0
    61          1
    62          2
    63          5
    64          1
    65         12
    66          7
    67         72
    68         43
    69         47
    70          4
    71          2
    73          0
    74          1
    75          0
    77          9
    78          2
    79         15
    80          5
    81         27
    82         23
    83        999
    84         66
    85          2
    92          0
    93          6
    94          1
    95          5
    96         14
    97          6
    98          1
   104          0
   105          2
   106          4
   107          3
   108          4
   109          1
   125          7
   126          0