##TITLE=Library Entry 59609
##JCAMP-DX=Revision 4.10 
##DATA TYPE=MASS SPECTRUM
##SAMPLE DESCRIPTION=NIST Mass Spectrometry Data Center, 1994
##NAMES=HP
##CAS NAME=4-Benzyloxyiodobenzene
##MOLFORM=C13H11IO
##CAS REGISTRY NO=19578-68-8
##MP= -300
##BP= -300
##MW= 310
##$RETENTION INDEX=0
##$CONDENSED SPECTRUM=NO
##NPOINTS= 52
##XYDATA=(XY..XY) 1 
    26          5
    27          9
    29          3
    37         14
    38         55
    39         90
    40          6
    41         18
    46          1
    50         52
    51         51
    52         14
    53          5
    55          1
    61         15
    62         47
    63        143
    64        108
    65        185
    66         11
    73          3
    74         15
    75         11
    76         27
    77         18
    78          3
    79          1
    86          2
    87          2
    89         37
    91        999
    92        108
    93          5
   105          3
   115          1
   127         14
   128          3
   151          1
   152          4
   153          3
   154          2
   164          1
   165          4
   181          2
   183          1
   191         22
   192          1
   203          1
   219         14
   220          1
   310         49
   311          6