##TITLE=Library Entry 63677
##JCAMP-DX=Revision 4.10 
##DATA TYPE=MASS SPECTRUM
##SAMPLE DESCRIPTION=Chemical Concepts
##NAMES=HP
##CAS NAME=Benzene, 1,3-dimethyl-2-(phenylmethoxy)-
##MOLFORM=C15H16O
##CAS REGISTRY NO=19578-74-6
##MP= -300
##BP= -300
##MW= 212
##$RETENTION INDEX=0
##$CONDENSED SPECTRUM=NO
##NPOINTS= 142
##XYDATA=(XY..XY) 1 
    26          1
    27         17
    28         15
    29          4
    30          0
    31          3
    32          2
    37          0
    38          3
    39         43
    40          4
    41         18
    42          1
    43          3
    44          2
    45          1
    46          0
    47          0
    49          0
    50          5
    51         20
    52          8
    53         11
    54          1
    55          2
    56          2
    57          8
    58          0
    59          1
    61          0
    62          3
    63         15
    64          5
    65         87
    66          7
    67          2
    68          0
    69          1
    70          1
    71          1
    72          0
    73          2
    74          0
    75          1
    76          1
    77         39
    78         10
    79          5
    80          0
    81          0
    82          0
    83          0
    84          0
    85          0
    86          0
    87          0
    88          0
    89         11
    90          7
    91        999
    92         81
    93          5
    94          0
    95          0
    96          0
    97          1
    98          0
    99          0
   101          0
   102          1
   103          4
   104          2
   105          5
   106          1
   107          2
   108          0
   109          0
   110          0
   111          1
   112          0
   113          0
   114          0
   115          2
   116          0
   117          0
   118          0
   119          0
   120          5
   121          9
   122          2
   123          0
   125          0
   127          0
   128          0
   129          0
   131          0
   133          1
   134          0
   135          0
   136          0
   137          0
   138          0
   139          0
   141          0
   142          0
   147          0
   152          0
   153          0
   154          0
   155          9
   156          1
   157          3
   158          0
   161          0
   163          0
   165          1
   166          0
   167          0
   168          0
   169          0
   170          0
   172          0
   174          0
   178          0
   179          0
   181          0
   183          0
   189          0
   193          0
   194          0
   195          1
   196          0
   197          0
   198          2
   199          0
   203          0
   207          0
   209          0
   211          0
   212         99
   213         16
   214          1