##TITLE=Library Entry 24984
##JCAMP-DX=Revision 4.10 
##DATA TYPE=MASS SPECTRUM
##SAMPLE DESCRIPTION=Japan AIST/NIMC Database- Spectrum MS-NW-4042
##NAMES=HP
##CAS NAME=Heptyl isobutyl ketone
##MOLFORM=C12H24O
##CAS REGISTRY NO=19594-40-2
##MP= -300
##BP= -300
##MW= 184
##$RETENTION INDEX=0
##$CONDENSED SPECTRUM=NO
##NPOINTS= 91
##XYDATA=(XY..XY) 1 
    14          1
    15          9
    17          1
    18          3
    26          3
    27        102
    28         18
    29        154
    30          4
    31          4
    37          1
    38          4
    39         87
    40         20
    41        328
    42         57
    43        446
    44         14
    45         16
    46          1
    50          2
    51          5
    52          2
    53         17
    54          5
    55         81
    56         51
    57        999
    58        677
    59         68
    60          4
    63          1
    65          4
    66          2
    67         25
    68          8
    69        118
    70         17
    71         50
    72         38
    73          3
    77          3
    78          1
    79          4
    81          8
    82         17
    83        316
    84        158
    85        615
    86         41
    87          5
    91          2
    93          1
    95         10
    96          4
    97          4
    98          7
    99          4
   100        157
   101        151
   102         10
   103          1
   105          2
   107          1
   108          1
   109        306
   110         28
   111          7
   112          1
   113         12
   114          1
   119          2
   120          1
   123          3
   124          2
   125          5
   126          7
   127        314
   128         29
   129          3
   138          2
   140          1
   141         12
   142          2
   151          2
   166          2
   167          1
   169         14
   170          2
   184         20
   185          3