##TITLE=Library Entry 17451
##JCAMP-DX=Revision 4.10 
##DATA TYPE=MASS SPECTRUM
##SAMPLE DESCRIPTION=Exported from NIST MS Search
##NAMES=HP
##CAS NAME=Benzene, (2-ethoxyethoxy)-
##MOLFORM=C10H14O2
##CAS REGISTRY NO=19594-02-6
##MP= -300
##BP= -300
##MW= 166
##$RETENTION INDEX=0
##$CONDENSED SPECTRUM=NO
##NPOINTS= 89
##XYDATA=(XY..XY) 1 
    14          2
    15          2
    17          2
    18         11
    19         12
    26          6
    27         63
    28         29
    29        140
    30          5
    31        215
    32          7
    37          3
    38         15
    39         81
    40         16
    41         21
    42          5
    43         55
    44         54
    45        999
    46         23
    47          3
    50         25
    51        104
    52         10
    53          6
    54          1
    55         15
    57          3
    58          4
    59        149
    60          7
    61          5
    62          6
    63         22
    64         11
    65         90
    66         62
    67          5
    68          2
    70          9
    72        205
    73        348
    74         22
    75          7
    76         12
    77        326
    78         40
    79         46
    80          4
    81          1
    85          3
    86          5
    87          8
    88         56
    89          4
    90          1
    91         31
    92         11
    93         23
    94        557
    95         53
    96          4
    99          1
   103          6
   105          2
   107         63
   108         12
   109          2
   119          8
   120          8
   121         38
   122          7
   123          1
   133          2
   135          1
   136          1
   137          2
   138         27
   139          3
   149          1
   151          1
   152          8
   164          1
   165          1
   166        354
   167         41
   168          4