##TITLE=Library Entry 12081
##JCAMP-DX=Revision 4.10 
##DATA TYPE=MASS SPECTRUM
##SAMPLE DESCRIPTION=F.B.Jariwala et al, J. Am. Soc. Mass Spectrom. 19, 1114
-1118 (2008)
##NAMES=HP
##CAS NAME=Acetamide,N-(2-iodophenyl)-
##MOLFORM=C8H8INO
##CAS REGISTRY NO=19591-17-4
##MP= -300
##BP= -300
##MW= 261
##$RETENTION INDEX=0
##$CONDENSED SPECTRUM=NO
##NPOINTS= 48
##XYDATA=(XY..XY) 1 
    37         83
    38        179
    39        214
    40         32
    41         65
    42        129
    43        999
    44         19
    49         13
    50         91
    51         48
    52        131
    53         13
    61         50
    62         91
    63        299
    64        253
    65        426
    66         41
    73         13
    74         41
    75         21
    76         39
    77         24
    78         15
    79         15
    87          8
    88          8
    89          8
    90         41
    91        212
    92        435
    93         83
   104         15
   105         15
   106         15
   119          8
   127         76
   128         17
   133         17
   134        961
   135         91
   191         10
   218         17
   219        454
   220         35
   261        124
   262         15