##TITLE=Library Entry 18713
##JCAMP-DX=Revision 4.10 
##DATA TYPE=MASS SPECTRUM
##SAMPLE DESCRIPTION=Japan AIST/NIMC Database- Spectrum MS-IW-1536
##NAMES=HP
##CAS NAME=Oxirane, 5-hexenyl-
##MOLFORM=C8H14O
##CAS REGISTRY NO=19600-63-6
##MP= -300
##BP= -300
##MW= 126
##$RETENTION INDEX=0
##$CONDENSED SPECTRUM=NO
##NPOINTS= 77
##XYDATA=(XY..XY) 1 
    14          3
    15         37
    18          2
    26         19
    27        306
    28         81
    29        458
    30         14
    31        182
    32          2
    33          1
    36          4
    37          5
    38         20
    39        510
    40         94
    41        813
    42        203
    43        185
    44         48
    45         37
    46          1
    49          2
    50         15
    51         35
    52         18
    53        260
    54        999
    55        903
    56        106
    57        219
    58        100
    59         12
    61          1
    62          4
    63          8
    64          1
    65         49
    66         69
    67        986
    68        607
    69        143
    70        122
    71        191
    72         16
    73          1
    74          1
    75          1
    77         58
    78         19
    79        340
    80        210
    81        332
    82        101
    83        270
    84         60
    85         31
    86          2
    91         44
    92          5
    93        317
    94         31
    95        235
    96         23
    97         67
    98         31
    99          2
   103          1
   105          3
   107         17
   108          7
   109          6
   110          1
   111         10
   112          1
   125          5
   126          2