##TITLE=Library Entry 37596
##JCAMP-DX=Revision 4.10 
##DATA TYPE=MASS SPECTRUM
##SAMPLE DESCRIPTION=Div. of Experiment Therapeutics WRAIR, WRAMC, Washingto
n DC 20307
##NAMES=HP
##CAS NAME=Piperazine, 1-methyl-4-[3,3-bis(4-chlorophenyl)acryloyl]-
##MOLFORM=C20H20Cl2N2O
##CAS REGISTRY NO=19618-30-5
##MP= -300
##BP= -300
##MW= 374
##$RETENTION INDEX=0
##$CONDENSED SPECTRUM=NO
##NPOINTS= 182
##XYDATA=(XY..XY) 1 
    41         12
    42        147
    43        117
    44         62
    45          2
    49          3
    50          5
    51          9
    52          1
    54         12
    55         22
    56        350
    57         69
    58        376
    59         12
    62          0
    63          4
    68          4
    70        999
    71         85
    72         31
    73          2
    74          5
    75         22
    76          5
    77          3
    81          1
    82         29
    83        665
    84         48
    85         17
    86          5
    87          4
    88          8
    89          1
    93          0
    94          1
    95          2
    96          1
    97         25
    98         65
    99        327
   100         24
   101         12
   102          5
   106          3
   110          1
   111         23
   112          1
   113         50
   114          4
   115          5
   123          2
   125          6
   126          6
   127          4
   131          0
   136          9
   137          4
   138         10
   139         67
   140          6
   141         10
   149          9
   150         11
   151         17
   152          5
   160          1
   162          0
   163          3
   164          1
   165          6
   166          2
   167          2
   169          0
   170          2
   173          2
   174          8
   175         13
   176         87
   177         25
   178          9
   179          0
   180          1
   186          3
   187          0
   188          2
   189          3
   190          0
   191          4
   192          2
   199          2
   204          0
   205          1
   206          1
   209          1
   210          5
   211          7
   212        108
   213         17
   214         36
   215          5
   220          4
   221          1
   222          1
   225          6
   226          5
   227          3
   228          2
   235          5
   236          0
   237          4
   238          0
   239          4
   240          1
   241          3
   246          6
   247         13
   248          6
   249          9
   250          2
   251          2
   254          1
   260          3
   261         16
   262          6
   263         11
   264          2
   265          2
   272          0
   273          3
   274          1
   275         79
   276          8
   277         56
   278          8
   279          8
   280          1
   282          1
   284          0
   288          1
   289          2
   290          2
   291          3
   292          7
   293          2
   294          4
   296          1
   302          0
   304          2
   305          0
   306         10
   307          2
   308          6
   309          0
   310          0
   316         31
   317         14
   318         25
   319         11
   320          7
   321          2
   330          2
   331          3
   332          3
   333          2
   334          0
   339          2
   341          0
   345          3
   347          1
   359          2
   361          1
   372          1
   373          7
   374        148
   375         55
   376        100
   377         34
   378         16
   379          6
   380          0