##TITLE=Library Entry 58309
##JCAMP-DX=Revision 4.10 
##DATA TYPE=MASS SPECTRUM
##SAMPLE DESCRIPTION=Japan AIST/NIMC Database- Spectrum MS-NW-2312
##NAMES=HP
##CAS NAME=3-Hydroxymyristic acid
##MOLFORM=C14H28O3
##CAS REGISTRY NO=1961-72-4
##MP= -300
##BP= -300
##MW= 244
##$RETENTION INDEX=0
##$CONDENSED SPECTRUM=NO
##NPOINTS= 139
##XYDATA=(XY..XY) 1 
    14          2
    15          9
    16          1
    17          2
    18          7
    26          2
    27         65
    28         14
    29        134
    30          3
    31          8
    39         41
    40          8
    41        237
    42         63
    43        305
    44         31
    45         18
    47         11
    51          2
    52          1
    53         17
    54         36
    55        231
    56        128
    57        206
    58         90
    59         35
    60         43
    61         12
    65          3
    66          7
    67         60
    68         58
    69        180
    70        112
    71        267
    72         13
    73         32
    74          3
    77          3
    78          1
    79          8
    80          7
    81         58
    82         92
    83        145
    84         86
    85         48
    86         17
    87         38
    88         30
    89        999
    90         37
    91          9
    93          4
    94          7
    95         43
    96         79
    97        128
    98         68
    99         22
   100         25
   101         17
   102          3
   103          1
   104          2
   105          2
   107          3
   108          6
   109         24
   110         38
   111         68
   112         31
   113         21
   114         39
   115          9
   116          3
   119          4
   120          1
   121          2
   122          3
   123         19
   124         31
   125         21
   126         11
   127         24
   128         12
   129          9
   130          5
   131          1
   133          3
   134          4
   135          2
   136          1
   137         13
   138         21
   139          8
   140         36
   141          7
   142          5
   143          8
   144          3
   147          2
   148          2
   149          1
   151          9
   152          7
   153          3
   154          9
   155          5
   156          3
   157          3
   158          4
   161          1
   164         17
   165          9
   166         52
   167         11
   168          1
   169          3
   170          1
   172          2
   179          3
   180          3
   182          3
   183          9
   184          3
   185          9
   186          1
   190          6
   191          1
   197          1
   198          6
   199          1
   208         33
   209          5
   226         19
   227          3