##TITLE=Library Entry 16942
##JCAMP-DX=Revision 4.10 
##DATA TYPE=MASS SPECTRUM
##SAMPLE DESCRIPTION=Leung Pu, NIH, Bethesda, Maryland, U.S.
##NAMES=HP
##CAS NAME=Imidodicarbonic acid, diethyl ester
##MOLFORM=C6H11NO4
##CAS REGISTRY NO=19617-44-8
##MP= -300
##BP= -300
##MW= 161
##$RETENTION INDEX=0
##$CONDENSED SPECTRUM=NO
##NPOINTS= 74
##XYDATA=(XY..XY) 1 
    41         37
    42         56
    43        275
    44        840
    45        999
    46        100
    47         37
    49          8
    50          2
    51          2
    53          1
    54          4
    55          9
    56         26
    57         10
    58         15
    59         39
    60          0
    61         11
    62         64
    63         15
    64          3
    65          1
    69          2
    70        105
    71         12
    72         52
    73         11
    74         73
    75          5
    76          0
    77          1
    78          1
    81          0
    82          1
    83          0
    85          0
    87          4
    88        310
    89        214
    90         47
    91          5
    97          0
    99          3
   100          2
   102          6
   104          3
   105          1
   106         27
   107          7
   108          4
   109          3
   110          0
   111          0
   114          4
   115          3
   116        239
   117        210
   118         12
   119          1
   120          0
   127          4
   131          2
   132         14
   133        690
   134          3
   143          1
   144          1
   145          0
   146          6
   147          0
   160          2
   161         22
   162          1