##TITLE=Library Entry 22108
##JCAMP-DX=Revision 4.10 
##DATA TYPE=MASS SPECTRUM
##SAMPLE DESCRIPTION=Div. of Experiment Therapeutics WRAIR, WRAMC, Washingto
n DC 20307
##NAMES=HP
##CAS NAME=2-[N-Aziridylmethyl]glutaronitrile
##MOLFORM=C8H11N3
##CAS REGISTRY NO=19626-79-0
##MP= -300
##BP= -300
##MW= 149
##$RETENTION INDEX=0
##$CONDENSED SPECTRUM=NO
##NPOINTS= 58
##XYDATA=(XY..XY) 1 
    41        318
    42        779
    43        225
    44         13
    47          4
    48          2
    49         31
    50          7
    51         33
    52         63
    53         64
    54        140
    55         63
    56        999
    57        218
    58          8
    62          1
    63          4
    64         10
    65          5
    66         36
    67         23
    68         33
    69         78
    70          4
    75          0
    76          2
    77          1
    78          4
    79          7
    80         27
    81         12
    82         96
    83          2
    84         18
    86         10
    88          1
    91          0
    92          1
    93          4
    94          2
    95          9
    96         63
    97          4
   105          0
   106          2
   107         10
   108          1
   109         89
   110          6
   120          9
   121          2
   122          4
   123          0
   148          4
   149         24
   150          4
   151          1