##TITLE=Library Entry 30056
##JCAMP-DX=Revision 4.10 
##DATA TYPE=MASS SPECTRUM
##SAMPLE DESCRIPTION=API 0334
##NAMES=HP
##CAS NAME=Pentaborane(9)
##MOLFORM=B5H9
##CAS REGISTRY NO=19624-22-7
##MP= -300
##BP= -300
##MW= 64
##$RETENTION INDEX=0
##$CONDENSED SPECTRUM=NO
##NPOINTS= 48
##XYDATA=(XY..XY) 1 
    10         61
    11        234
    12         72
    13        162
    21          2
    22          9
    23         30
    24         38
    25         23
    26         11
    27         18
    28          4
    29          3
    30          1
    31          2
    32          9
    33         31
    34         74
    35        109
    36         74
    37         34
    38         13
    39          8
    40          1
    41          3
    42         15
    43         56
    44        132
    45        220
    46        320
    47        397
    48        326
    49         86
    50         33
    51          3
    52         23
    53         99
    54        251
    55        370
    56        389
    57        471
    58        686
    59        999
    60        970
    61        678
    62        764
    63        615
    64        491