##TITLE=Library Entry 107693
##JCAMP-DX=Revision 4.10 
##DATA TYPE=MASS SPECTRUM
##SAMPLE DESCRIPTION=CARL DJERASSI DEPT OF CHEM STANFORD UNIV STANFORD CALIF
 94305
##NAMES=HP
##CAS NAME=1H-Cyclopent[ij]indolo[2,3-a]quinolizine, 13a-ethyl-2,3,5,6,6a,11
,12,13,13a,13b-decahydro-11-methyl-, [6aR-(6a.alpha.,11aS*,13a.beta.,13b.bet
a.)]-
##MOLFORM=C20H28N2
##CAS REGISTRY NO=19637-77-5
##MP= -300
##BP= -300
##MW= 296
##$RETENTION INDEX=0
##$CONDENSED SPECTRUM=NO
##NPOINTS= 176
##XYDATA=(XY..XY) 1 
    40        100
    41        990
    42        550
    43        590
    44        600
    45        200
    48         50
    50         50
    51        110
    52         90
    53        160
    54        150
    55        580
    56        230
    57        380
    58        230
    59        110
    60         90
    61         30
    62         20
    63         70
    64         80
    65        100
    66         40
    67        230
    68        120
    69        150
    70        110
    71         40
    72         30
    75         20
    76         30
    77        240
    78         70
    79        110
    80        100
    81        100
    82        120
    83         50
    84         60
    85         40
    87         20
    89         80
    90         50
    91        190
    92         50
    93         60
    94        120
    95        130
    96        210
    97         50
    98         40
    99         20
   101         20
   102         60
   103         80
   104         40
   105         50
   106         70
   107         70
   108         40
   109        100
   110        210
   111        230
   112         50
   113         20
   114         30
   115        190
   116         80
   117        120
   118         90
   119         60
   120         70
   121         20
   122        260
   123        130
   124        999
   125        150
   126         90
   127         50
   128        100
   129         90
   130        160
   131        100
   132         80
   133         60
   134        150
   135         40
   136         50
   137         30
   138        250
   139        120
   140         30
   141         30
   142         60
   143        190
   144        870
   145        370
   146        140
   147         40
   148        160
   150         40
   151         30
   152        120
   153         20
   154         50
   155         40
   156         90
   157        220
   158        660
   159        140
   160         40
   161         20
   162         20
   163        140
   164         30
   165         20
   166         20
   167         70
   168         70
   169         50
   170        190
   171        260
   172        130
   173         20
   176         50
   180         40
   181         50
   182        100
   183         70
   184        120
   185         60
   186         30
   188         20
   190         80
   191         20
   193         20
   194         60
   195         30
   196         80
   197         40
   198         30
   199         60
   208         30
   209         40
   210         70
   211         80
   212         40
   213         30
   222         40
   223         30
   224         40
   225         60
   226         40
   236         20
   237         30
   238         40
   239        140
   240         60
   251         40
   252         20
   253        140
   254         40
   265         60
   266         40
   267        260
   268        300
   269         60
   279         30
   281         90
   282         40
   293         30
   294        100
   295        160
   296        610
   297        140