##TITLE=Library Entry 893
##JCAMP-DX=Revision 4.10 
##DATA TYPE=MASS SPECTRUM
##SAMPLE DESCRIPTION=Japan AIST/NIMC Database- Spectrum MS-NW-2143
##NAMES=HP
##CAS NAME=L-Valine, N-glycyl-
##MOLFORM=C7H14N2O3
##CAS REGISTRY NO=1963-21-9
##MP= -300
##BP= -300
##MW= 174
##$RETENTION INDEX=0
##$CONDENSED SPECTRUM=NO
##NPOINTS= 92
##XYDATA=(XY..XY) 1 
    14          2
    15          8
    16          2
    17         14
    18         67
    19          1
    26          5
    27         44
    28        112
    29         40
    30        999
    31         79
    32          8
    37          2
    38          4
    39         34
    40          7
    41         60
    42         20
    43         47
    44         20
    45          6
    46          2
    50          1
    51          2
    52          3
    53          5
    54          9
    55         44
    56         37
    57         29
    58          5
    59         15
    60          1
    64          1
    66          2
    67          5
    68          7
    69         13
    70         23
    71          9
    72         94
    73          8
    74         10
    75         10
    80          1
    81          3
    82          5
    83          8
    84          8
    85         28
    86          8
    87          6
    89          1
    91          1
    94          1
    95          3
    96          1
    97          1
    98          8
    99          3
   100          3
   101          4
   102          5
   103          4
   109          1
   110          1
   111          3
   112          1
   113         16
   114         65
   115          5
   116          5
   117          1
   118          4
   119          2
   126          1
   127          2
   128          9
   129         13
   130          9
   131          7
   132          5
   139          1
   140          1
   141          1
   145          1
   154          1
   156          2
   157          1
   174         15
   175          1