##TITLE=Library Entry 107515
##JCAMP-DX=Revision 4.10 
##DATA TYPE=MASS SPECTRUM
##SAMPLE DESCRIPTION=CARL DJERASSI DEPT OF CHEM STANFORD UNIV STANFORD CALIF
 94305
##NAMES=HP
##CAS NAME=Aspidofractinine, 6-oxo-
##MOLFORM=C19H22N2O
##CAS REGISTRY NO=19634-36-7
##MP= -300
##BP= -300
##MW= 294
##$RETENTION INDEX=0
##$CONDENSED SPECTRUM=NO
##NPOINTS= 143
##XYDATA=(XY..XY) 1 
    40         60
    41        160
    42        170
    43         80
    44         20
    49         10
    50         50
    51         30
    52         80
    53         60
    54         90
    55         70
    56         80
    57         10
    62         10
    63         30
    64         10
    65         40
    66         20
    67        100
    68         30
    69         20
    70         20
    71         10
    72         10
    74         10
    75         10
    76         20
    77        100
    78         30
    79         20
    80         30
    81         20
    82         20
    83         20
    84         20
    85         10
    86         10
    88         10
    89         30
    90         30
    91         40
    92         20
    93         20
    94         60
    95         90
    96         20
    97         10
    98         10
    99         10
   101         20
   102         20
   103         40
   104         20
   105         20
   106         10
   108         30
   109         10
   110         20
   111         10
   112         20
   114         10
   115         90
   116         20
   117         20
   118         30
   119         20
   122         50
   123        999
   124        110
   125         20
   126         70
   127         30
   128         60
   129         40
   130        100
   131         20
   132         10
   133         20
   136         50
   137         20
   138        300
   139         80
   140         30
   141         20
   142         20
   143        160
   144        350
   145         50
   147         20
   150         30
   151         10
   152         30
   153         10
   154         40
   155         30
   156        230
   157        200
   158        370
   159         40
   165         10
   166         10
   167         90
   168         80
   169         40
   170         30
   171         20
   180         70
   181         40
   182        160
   183         60
   184         10
   191         10
   192         10
   193         10
   194         40
   195         60
   196         30
   197         10
   207         10
   208         20
   209         50
   210         20
   220         10
   222         10
   223         30
   224         10
   225         10
   235         10
   236         10
   237         20
   238         30
   239         10
   247         10
   250         10
   251         10
   265         20
   266        510
   267        100
   292         10
   293         40
   294        470
   295        100