##TITLE=Library Entry 86924
##JCAMP-DX=Revision 4.10 
##DATA TYPE=MASS SPECTRUM
##SAMPLE DESCRIPTION=CARL DJERASSI DEPT OF CHEM STANFORD UNIV STANFORD CALIF
 94305
##NAMES=HP
##CAS NAME=Aspidofractinine, 3-oxo-
##MOLFORM=C19H22N2O
##CAS REGISTRY NO=19634-37-8
##MP= -300
##BP= -300
##MW= 294
##$RETENTION INDEX=0
##$CONDENSED SPECTRUM=NO
##NPOINTS= 211
##XYDATA=(XY..XY) 1 
    41        910
    42        510
    43        560
    44        250
    45         30
    49         10
    50         60
    51        180
    52        100
    53        270
    54        220
    55        440
    56        240
    57        320
    58        150
    59         20
    60         50
    61         10
    62         30
    63        110
    64         50
    65        170
    66         70
    67        270
    68        130
    69        160
    70        150
    71        130
    72         30
    73         50
    74         20
    75         60
    76         60
    77        320
    78        100
    79        190
    80        120
    81        230
    82        130
    83        110
    84         90
    85         80
    86         20
    87         40
    88         40
    89        110
    90         80
    91        200
    92         90
    93        110
    94        110
    95        130
    96        620
    97        130
    98         60
    99         50
   100         20
   101         50
   102         90
   103        100
   104         60
   105         90
   106         40
   107         90
   108        170
   109        420
   110        999
   111        150
   112         60
   113         30
   114         40
   115        270
   116        110
   117        120
   118         80
   119         50
   120         70
   121         70
   122        210
   123        100
   124        420
   125         80
   126         50
   127        100
   128        160
   129        160
   130        250
   131         60
   132         60
   133        120
   134         40
   135         30
   136         90
   137         30
   138         80
   139         50
   140         60
   141         60
   142         60
   143        260
   144        200
   145         50
   146         20
   147         30
   148         20
   149         20
   150         10
   151         10
   152         50
   153         30
   154        130
   155        100
   156        190
   157        140
   158        110
   159         50
   160         30
   161         10
   162         10
   163         20
   164         30
   165         60
   166         50
   167        170
   168        190
   169        160
   170        130
   171        110
   172         50
   173         30
   174         10
   175         10
   176         10
   177         10
   178         20
   179         20
   180        150
   181        110
   182        170
   183        110
   184         80
   185         80
   186         20
   187         10
   189         10
   190         10
   191         10
   192         20
   193         40
   194         90
   195        100
   196         90
   197        110
   198         40
   199         20
   201         30
   203         20
   204         20
   205         10
   206         40
   207         70
   208         80
   209        240
   210        160
   211         70
   212         20
   215         20
   216         10
   217         20
   218         20
   219         20
   220         70
   221         50
   222         60
   223        110
   224         80
   225         30
   230         10
   231         10
   232         10
   233         20
   234         30
   235         20
   236         30
   237        210
   238        210
   239         50
   240         10
   249         20
   250         20
   251         70
   252         30
   253         10
   263         10
   264         20
   265         80
   266         90
   267         30
   268         10
   274         10
   275         10
   277         20
   279         20
   280         10
   291         40
   292        110
   293        160
   294        550
   295        150
   296        110
   297         20