##TITLE=Library Entry 60394
##JCAMP-DX=Revision 4.10 
##DATA TYPE=MASS SPECTRUM
##SAMPLE DESCRIPTION=Japan AIST/NIMC Database- Spectrum MS-IW-4549
##NAMES=HP
##CAS NAME=(N-(Benzyloxycarbonyl)-d-valyl)-l-threonyl-l-leucine methyl ester
##MOLFORM=C24H37N3O7
##CAS REGISTRY NO=19648-17-0
##MP= -300
##BP= -300
##MW= 479
##$RETENTION INDEX=0
##$CONDENSED SPECTRUM=NO
##NPOINTS= 319
##XYDATA=(XY..XY) 1 
    13          1
    14          3
    15         19
    16          1
    25          1
    26          6
    27         47
    28         84
    29         70
    30        108
    31         25
    32         13
    33          5
    37          4
    38          9
    39         53
    40         10
    41        107
    42         44
    43        150
    44        117
    45         22
    46          2
    49          2
    50         22
    51         50
    52         17
    53         25
    54         20
    55        120
    56        113
    57         67
    58         26
    59         17
    60          3
    61          3
    62          7
    63         17
    64          5
    65         49
    66          6
    67         10
    68         17
    69         64
    70         64
    71         17
    72        278
    73         19
    74         95
    75          8
    76          5
    77        117
    78         27
    79        236
    80         25
    81          8
    82         23
    83         43
    84         74
    85         72
    86        965
    87         70
    88         42
    89         29
    90         34
    91        999
    92         94
    93          6
    94          4
    95          8
    96         18
    97         27
    98         65
    99         17
   100         26
   101         15
   102         16
   103          2
   104          3
   105         13
   106          6
   107        188
   108        237
   109         22
   110         11
   111         21
   112         44
   113         41
   114         20
   115          5
   116         22
   117          3
   118          2
   119          1
   120         24
   121          3
   122          2
   123          2
   124          6
   125          7
   126          9
   127         78
   128         23
   129         12
   130          9
   131          3
   132          2
   133          1
   134          1
   135          2
   136          2
   137          3
   138          9
   139         28
   140         51
   141         55
   142          8
   143         12
   144         30
   145          7
   146        209
   147         25
   148          3
   149          1
   150          1
   151          2
   152          4
   153         22
   154         61
   155        121
   156        116
   157         17
   158          2
   159          1
   160          1
   161          4
   162        239
   163         30
   164         33
   165          6
   166          2
   167          5
   168          5
   169         31
   170         27
   171          7
   172         37
   173         37
   174          5
   175          8
   176          3
   177          1
   178          2
   179          2
   180          4
   181         21
   182        147
   183         91
   184         16
   185          6
   186          1
   187          3
   189          1
   191          1
   192          1
   193          1
   194          1
   195          4
   196          6
   197          8
   198          3
   199        115
   200         22
   201        133
   202         26
   203         13
   204          2
   205          7
   206         79
   207         12
   208          8
   209         32
   210          8
   211          5
   212          1
   213         15
   214          4
   215          1
   216          6
   217          3
   218          1
   219         12
   220          2
   221          3
   222          1
   223          1
   224          8
   225         16
   226         60
   227         96
   228         15
   229         23
   230          4
   231         24
   232          3
   233          1
   234         63
   235          9
   236          3
   237          1
   238          5
   239        164
   240         20
   241          6
   242          1
   243          1
   244          2
   245          5
   246          2
   247          4
   248          1
   250          4
   251          5
   252        107
   253         27
   254          4
   255          6
   256          1
   257          1
   261          1
   262          1
   263          5
   264          4
   265          6
   266          5
   267         34
   268        212
   269         35
   270          5
   271         91
   272         11
   273         18
   274          2
   275          1
   276          3
   277          3
   278          3
   279          1
   280          4
   281          1
   282          2
   283          3
   284         10
   285          5
   286          1
   289          6
   290         11
   291          9
   292          3
   293          5
   294         15
   295         21
   296          9
   297         13
   298          2
   300         10
   301          2
   307         11
   308          2
   309          1
   310          2
   311          2
   312         95
   313         15
   314          3
   315         31
   316          5
   317          2
   319          2
   321          2
   322          1
   326          1
   327         80
   328         15
   329          2
   334          2
   335         39
   336          8
   337          1
   338          2
   339          1
   340          2
   353          2
   356          3
   371          2
   372          1
   376          4
   377          1
   379          5
   380          1
   402          5
   403          6
   404          1
   405          1
   420          4
   421          1
   423          1
   430          2
   435        161
   436         40
   437          8
   438          1
   446          1
   448          1
   461          3
   462          1
   464          1
   479          2
   480          1