##TITLE=Library Entry 3077
##JCAMP-DX=Revision 4.10 
##DATA TYPE=MASS SPECTRUM
##SAMPLE DESCRIPTION=Chemical Concepts
##NAMES=HP
##CAS NAME=1-Cyclopropyl-6-fluoro-4(1H)-oxo-7-(4-[2,2,2-trifluoro-1-isovaler
amido-1-(trifluoromethyl)ethyl]-1-piperazinyl)-3-quinolinecarboxylic acid
##MOLFORM=C25H27F7N4O4
##CAS REGISTRY NO=196401-21-5
##MP= -300
##BP= -300
##MW= 580
##$RETENTION INDEX=0
##$CONDENSED SPECTRUM=NO
##NPOINTS= 227
##XYDATA=(XY..XY) 1 
    33          9
    35         14
    36         56
    37         12
    38         48
    39        363
    41        999
    42        266
    43        447
    44         87
    45         13
    47         12
    48          2
    50         37
    51         29
    52         17
    53         66
    54         35
    55        122
    56        387
    57        859
    58         44
    59         28
    60          4
    61          5
    62          5
    63         10
    64          6
    65         15
    66          6
    67         11
    69        217
    70         17
    71         22
    72          4
    73          8
    74         11
    75         19
    76         21
    77         11
    78         14
    79          7
    80         13
    81         24
    82         15
    83         30
    85        485
    86         29
    87          9
    88          5
    89          6
    90          3
    92         83
    93         16
    94         20
    95         24
    96         40
    97         15
    98          5
    99         18
   100         16
   101         13
   102          9
   103          2
   104          2
   105          6
   106         17
   107         34
   108         18
   109          9
   110          4
   111          7
   113         16
   115         18
   116          5
   117          5
   118          8
   119         12
   120         20
   121         16
   122         15
   123         10
   124          5
   125          6
   126         15
   127         10
   128         10
   129          5
   130          3
   131          5
   132         21
   133         26
   134         26
   135         14
   136         16
   137          5
   138          4
   139          6
   140          9
   142         78
   143          9
   145         21
   146         29
   147         23
   148         18
   149         11
   150          9
   151          5
   152          6
   153          4
   154          9
   155          5
   156          9
   157         21
   158          9
   159         12
   160         23
   161         35
   162         17
   163          5
   164          6
   165          1
   166          5
   167          3
   168          3
   169          4
   170          4
   171         13
   172         29
   173         28
   174         39
   175         21
   176         22
   177          9
   178          4
   180          5
   181          3
   182          4
   183          4
   184          6
   185         10
   186         11
   187         18
   188         24
   189         22
   190          9
   192        101
   193          5
   194          1
   195          1
   196          1
   197          4
   198          5
   199          9
   200         16
   201         37
   202         34
   203         22
   204         32
   205          7
   206         15
   207         31
   208          3
   209          3
   210          2
   211          4
   212          5
   213          9
   214         12
   215         38
   216         16
   217         11
   218         22
   219          4
   221          1
   222          1
   224          2
   225          2
   226          1
   227          9
   228          9
   229         49
   230         38
   231         26
   232         12
   233          2
   234          6
   237          1
   238          3
   239          3
   240          2
   241          2
   243          5
   245        378
   246         45
   247          6
   248          2
   255          3
   257         23
   258          7
   259          3
   266          3
   267          2
   270          2
   271          2
   272          7
   273          3
   275          2
   284          2
   285          8
   287        349
   288         61
   289        260
   290         38
   291          3
   301          3
   314          1
   329          6
   331        178
   332         35
   333          3
   361          1
   363          2
   380          2
   383          8
   384          2
   433          4