##TITLE=Library Entry 59354
##JCAMP-DX=Revision 4.10 
##DATA TYPE=MASS SPECTRUM
##SAMPLE DESCRIPTION=Exported from NIST MS Search
##NAMES=HP
##CAS NAME=Diaziridinone, (1,1-dimethylethyl)(1,1-dimethyl-2-phenylethyl)-
##MOLFORM=C15H22N2O
##CAS REGISTRY NO=19656-67-8
##MP= -300
##BP= -300
##MW= 246
##$RETENTION INDEX=0
##$CONDENSED SPECTRUM=NO
##NPOINTS= 73
##XYDATA=(XY..XY) 1 
    26         40
    27        230
    28        160
    29        165
    30         12
    38         40
    39        370
    40        100
    41        730
    42        470
    43         70
    50         60
    51        130
    52         50
    53         60
    54         50
    55        230
    56        460
    57        800
    58        100
    59         40
    63         80
    65        240
    66         20
    67         20
    68         20
    69         30
    70         50
    71         70
    72         30
    77        130
    78         60
    79         50
    83        400
    84        370
    85         30
    89         90
    90        100
    91        999
    92        320
    93         30
    98         30
    99        350
   103         50
   104         90
   105        100
   106         40
   114         50
   115         90
   116         40
   117        180
   118         30
   129         30
   130         60
   131         50
   132        130
   133        420
   134         70
   135         30
   139         80
   145         30
   146        670
   147        700
   148         90
   149         20
   155         90
   158         20
   174         20
   175         20
   190         20
   191         20
   231         30
   246         20