##TITLE=Library Entry 71006
##JCAMP-DX=Revision 4.10 
##DATA TYPE=MASS SPECTRUM
##SAMPLE DESCRIPTION=Japan AIST/NIMC Database- Spectrum MS-NW-9223
##NAMES=HP
##CAS NAME=1-Piperidinepropanoic acid, ethyl ester
##MOLFORM=C10H19NO2
##CAS REGISTRY NO=19653-33-9
##MP= -300
##BP= -300
##MW= 185
##$RETENTION INDEX=0
##$CONDENSED SPECTRUM=NO
##NPOINTS= 73
##XYDATA=(XY..XY) 1 
    15          5
    18          1
    26          2
    27         22
    28         31
    29         32
    30         14
    31          8
    32          1
    39          9
    40          2
    41         54
    42         70
    43         12
    44         27
    45          8
    46          1
    51          1
    52          1
    53          4
    54         11
    55         74
    56         40
    57          9
    58          3
    59          3
    67          4
    68          8
    69         24
    70         25
    71          2
    73          8
    74          5
    79          1
    80          2
    81          2
    82         11
    83          9
    84         41
    85          6
    86          2
    88          1
    94          2
    95          1
    96         53
    97          8
    98        999
    99         71
   100          6
   101          2
   102          1
   110          4
   111          2
   112          8
   113          1
   114          1
   116          1
   128          3
   129          1
   130          1
   138          1
   140          8
   141          1
   142          2
   144          1
   154          1
   156         21
   157          2
   170          1
   183          1
   184         16
   185         39
   186          5