##TITLE=Library Entry 69412
##JCAMP-DX=Revision 4.10 
##DATA TYPE=MASS SPECTRUM
##SAMPLE DESCRIPTION=Tox21 Consortium/NIST Mass Spectrometry Data Center, 20
12
##NAMES=HP
##CAS NAME=N8-(3-Chloro-4-fluorophenyl)-N2-(1-methylpiperidin-4-yl)pyrimido[
5,4-d]pyrimidine-2,8-diamine
##MOLFORM=C18H19ClFN7
##CAS REGISTRY NO=196612-93-8
##MP= -300
##BP= -300
##MW= 387
##$RETENTION INDEX=0
##$CONDENSED SPECTRUM=NO
##NPOINTS= 175
##XYDATA=(XY..XY) 1 
    15          1
    18          1
    27          4
    28          9
    29          9
    30          4
    39          6
    40          1
    41          9
    42         72
    43         44
    44         31
    45          1
    50          1
    51          1
    52          4
    53         10
    54          7
    55         42
    56          8
    57          7
    58         11
    59          1
    63          1
    64          1
    65          4
    66          3
    67          7
    68         13
    69          4
    70         20
    71          4
    74          1
    75          1
    77          2
    78          2
    79          5
    80          6
    81         12
    82         16
    83          2
    84          1
    90          1
    91          2
    92          6
    93          5
    94         30
    95          8
    96        999
    97         76
    98          9
    99          1
   100          1
   103          1
   104          1
   105          1
   106          2
   107          2
   108          3
   109          4
   110          1
   111          2
   117          3
   118          3
   119          6
   120          3
   121          2
   122          1
   128          1
   129          9
   130          2
   131          4
   132          4
   133          2
   134          2
   135          1
   136          2
   137          1
   140          2
   141          1
   142          1
   143          1
   144          4
   145          4
   146          4
   147          2
   148          1
   151          1
   152          1
   154          1
   155          3
   156          5
   157          3
   158          3
   159          2
   160          3
   161          1
   162          1
   166          1
   167          1
   168          1
   169          1
   170          3
   171          3
   172          2
   173          1
   174          1
   181          2
   182          1
   183          2
   184          1
   185          2
   186          1
   187          5
   188          1
   193          3
   194          3
   195          2
   196          1
   197          1
   198          1
   199          1
   200          2
   201          1
   208          1
   209          1
   211          1
   212          1
   213          1
   220          1
   221          1
   222          1
   227          1
   228          1
   234          1
   235          1
   236          1
   239          1
   240          1
   246          1
   247          1
   248          1
   249          1
   253          1
   254          1
   255          1
   261          1
   262          1
   263          1
   264          1
   267          1
   274          1
   275          1
   276          1
   279          2
   288          1
   289          7
   290          3
   291          6
   292          2
   293          1
   301          1
   302          1
   303          1
   315          5
   316          1
   317          3
   318          1
   327          1
   329          1
   331          1
   343          1
   387          5
   388          1
   389          1