##TITLE=Library Entry 220
##JCAMP-DX=Revision 4.10 
##DATA TYPE=MASS SPECTRUM
##SAMPLE DESCRIPTION=J. SHAW, BORRISTON RESEARCH, ROCKVILLE, MD, USA
##NAMES=HP
##CAS NAME=Dichlormate
##MOLFORM=C9H9Cl2NO2
##CAS REGISTRY NO=1966-58-1
##MP= -300
##BP= -300
##MW= 233
##$RETENTION INDEX=1793
##$CONDENSED SPECTRUM=NO
##NPOINTS= 107
##XYDATA=(XY..XY) 1 
    12          4
    15        518
    16         15
    17         28
    18         73
    19          1
    26         33
    28        999
    29        297
    30        210
    31         46
    32          5
    35         19
    36         10
    37         32
    38         49
    39        109
    40          6
    41          8
    42         11
    44        132
    45         18
    47          7
    49         32
    50        110
    51         77
    52          9
    53          4
    55          9
    56         18
    58        577
    59         88
    60         16
    62        174
    63        186
    64         11
    65          2
    69          1
    73        114
    74        112
    75        152
    77         98
    78          9
    79          4
    80          2
    81          1
    83          6
    84         26
    85         35
    86         37
    87         44
    89        232
    90         12
    91          1
    94          1
    96          7
    97         38
    99         38
   101          9
   103          1
   105          3
   107         11
   109         52
   110         14
   111        105
   112         21
   113         59
   114          7
   115          9
   119          1
   120          1
   121          3
   123        198
   124         53
   125         68
   126         16
   127          2
   133         26
   135         17
   137          3
   139          8
   141        220
   143         85
   145         33
   147         45
   148          5
   149         17
   150          3
   151          2
   157          1
   159        360
   161        253
   163         49
   164          3
   173         12
   175         39
   176        216
   177         32
   178        143
   179         11
   180         21
   181          1
   233         16
   234          4
   235         10
   236          2
   237          1