##TITLE=Library Entry 18875
##JCAMP-DX=Revision 4.10 
##DATA TYPE=MASS SPECTRUM
##SAMPLE DESCRIPTION=Japan AIST/NIMC Database- Spectrum MS-NW-1336
##NAMES=HP
##CAS NAME=2-Propenoic acid, 2,3-dibromopropyl ester
##MOLFORM=C6H8Br2O2
##CAS REGISTRY NO=19660-16-3
##MP= -300
##BP= -300
##MW= 270
##$RETENTION INDEX=0
##$CONDENSED SPECTRUM=NO
##NPOINTS= 82
##XYDATA=(XY..XY) 1 
    14          2
    15          7
    25          2
    26         34
    27        244
    28         23
    29         19
    30          2
    31         15
    32          5
    37          2
    38          7
    39         75
    40          7
    41         44
    42          4
    43         11
    44          4
    45          2
    53          7
    54          7
    55        999
    56         36
    57         24
    58          1
    65          1
    67          2
    69          1
    71          2
    73         69
    74          2
    75          2
    79          2
    80          3
    81          2
    82          3
    83          1
    85        117
    86          6
    87          1
    89          2
    91          8
    92          7
    93         10
    95          9
    98          1
   103          2
   105          5
   106          7
   107          8
   108          8
   109          4
   111         20
   112          2
   113          1
   119         72
   120          3
   121         75
   122          4
   123          9
   125          8
   127         12
   128          1
   135          3
   137          3
   161          4
   163          5
   177          2
   179          2
   191        112
   192          8
   193        108
   194          8
   198         17
   199          4
   200         34
   201          9
   202         17
   203          4
   271          1
   273          2
   275          1