##TITLE=Library Entry 5245
##JCAMP-DX=Revision 4.10 
##DATA TYPE=MASS SPECTRUM
##SAMPLE DESCRIPTION=Exported from NIST MS Search
##NAMES=HP
##CAS NAME=2,4(1H,3H)-Pyrimidinedione, 3,6-dimethyl-
##MOLFORM=C6H8N2O2
##CAS REGISTRY NO=19674-60-3
##MP= -300
##BP= -300
##MW= 140
##$RETENTION INDEX=0
##$CONDENSED SPECTRUM=NO
##NPOINTS= 22
##XYDATA=(XY..XY) 1 
    15         80
    27        110
    29         40
    30         40
    39        100
    40         80
    41         80
    42        999
    43         60
    54         80
    55         60
    56         70
    68        300
    69         50
    70         30
    83        350
    84         80
   110         50
   111         50
   112         40
   140        640
   141         80