##TITLE=Library Entry 16918
##JCAMP-DX=Revision 4.10 
##DATA TYPE=MASS SPECTRUM
##SAMPLE DESCRIPTION=NIST Mass Spectrometry Data Center, 1998.
##NAMES=HP
##CAS NAME=2-Propanol, 1-bromo-
##MOLFORM=C3H7BrO
##CAS REGISTRY NO=19686-73-8
##MP= -300
##BP= -300
##MW= 138
##$RETENTION INDEX=0
##$CONDENSED SPECTRUM=NO
##NPOINTS= 61
##XYDATA=(XY..XY) 1 
    13          1
    14          4
    15         19
    16          1
    19         12
    25          2
    26         13
    27         55
    28          1
    29         73
    30          3
    31         49
    32          1
    36          1
    37         10
    38         19
    39         68
    40          9
    41         76
    42         43
    43        224
    44         78
    45        999
    46         27
    47          3
    53          2
    55          4
    57         26
    58          8
    59          3
    61          1
    62          1
    79         12
    80          6
    81         13
    82          6
    83          1
    91          4
    92          4
    93         28
    94          9
    95         26
    96          4
    97          2
   104          1
   105          3
   106          1
   107          4
   109          1
   119          1
   120          1
   121          6
   122          3
   123         84
   124          3
   125         77
   126          2
   137          6
   138          2
   139          6
   140          2