##TITLE=Library Entry 33479
##JCAMP-DX=Revision 4.10 
##DATA TYPE=MASS SPECTRUM
##SAMPLE DESCRIPTION=Chemical Concepts
##NAMES=HP
##CAS NAME=Cyclohept-4-enone
##MOLFORM=C7H10O
##CAS REGISTRY NO=19686-79-4
##MP= -300
##BP= -300
##MW= 110
##$RETENTION INDEX=0
##$CONDENSED SPECTRUM=NO
##NPOINTS= 68
##XYDATA=(XY..XY) 1 
    26         18
    27        183
    28         75
    29         38
    30          0
    31          4
    37          4
    38         25
    39        450
    40        153
    41        369
    42        126
    43         50
    44          3
    45          3
    49          1
    50         33
    51         75
    52         52
    53        428
    54        377
    55        142
    56         14
    57         14
    58          1
    59          1
    61          2
    62          4
    63         17
    64          3
    65         73
    66         78
    67        989
    68        999
    69         67
    70          5
    71          6
    72          0
    73          0
    74          2
    75          2
    76          1
    77         42
    78         17
    79         80
    80         13
    81        281
    82        258
    83         20
    84          3
    85          3
    91         24
    92        150
    93         13
    94          6
    95         78
    96          7
    97          2
    98          1
    99          0
   105          4
   106          1
   107          1
   108          0
   109         24
   110        863
   111        114
   112          7