##TITLE=Library Entry 38267
##JCAMP-DX=Revision 4.10 
##DATA TYPE=MASS SPECTRUM
##SAMPLE DESCRIPTION=Chemical Concepts
##NAMES=HP
##CAS NAME=Tetrahydro[2,2']bifuranyl-5-one
##MOLFORM=C8H12O3
##CAS REGISTRY NO=19680-00-3
##MP= -300
##BP= -300
##MW= 156
##$RETENTION INDEX=0
##$CONDENSED SPECTRUM=NO
##NPOINTS= 59
##XYDATA=(XY..XY) 1 
    26          6
    27         95
    28         36
    29         91
    30          4
    31         13
    36          8
    38          5
    39         67
    40         79
    41        140
    42         70
    43        351
    44         48
    45          7
    50          3
    51          6
    52          2
    53          8
    54          6
    55         37
    56         18
    57         24
    58          3
    59          4
    60          4
    63          2
    64          2
    65          2
    66          2
    67          7
    68          4
    69         14
    70         17
    71        999
    72         44
    73          4
    77          3
    79          4
    80          2
    81          7
    82          4
    83          7
    84          8
    85         52
    86          9
    91          4
    95          2
    97          3
    98          8
   101          4
   111          4
   112          2
   114          2
   115         13
   127          2
   128          6
   141          2
   156         18