##TITLE=Library Entry 19878
##JCAMP-DX=Revision 4.10 
##DATA TYPE=MASS SPECTRUM
##SAMPLE DESCRIPTION=CARL DJERASSI DEPT OF CHEM STANFORD UNIV STANFORD CALIF
 94305
##NAMES=HP
##CAS NAME=5-Decene
##MOLFORM=C10H20
##CAS REGISTRY NO=19689-19-1
##MP= -300
##BP= -300
##MW= 140
##$RETENTION INDEX=0
##$CONDENSED SPECTRUM=NO
##NPOINTS= 34
##XYDATA=(XY..XY) 1 
    41        363
    42        191
    43        262
    44         10
    51         10
    52         10
    53         40
    54         80
    55        999
    56        515
    57        131
    58         10
    65         10
    66         10
    67         50
    68         30
    69        383
    70        373
    71         50
    79         10
    81         10
    82         20
    83        131
    84        151
    85         30
    95         10
    96         10
    97        151
    98         60
    99         10
   111         40
   112         20
   140        252
   141         20