##TITLE=Library Entry 62073
##JCAMP-DX=Revision 4.10 
##DATA TYPE=MASS SPECTRUM
##SAMPLE DESCRIPTION=Exported from NIST MS Search
##NAMES=HP
##CAS NAME=Diaziridinone, bis(1,1-dimethyl-2-phenylethyl)-
##MOLFORM=C21H26N2O
##CAS REGISTRY NO=19694-14-5
##MP= -300
##BP= -300
##MW= 322
##$RETENTION INDEX=0
##$CONDENSED SPECTRUM=NO
##NPOINTS= 62
##XYDATA=(XY..XY) 1 
    27         30
    28         70
    29         50
    39         70
    40         20
    41        120
    42        100
    43         70
    51         30
    53         20
    55        160
    56        170
    57         80
    58        300
    63         30
    65        150
    69         50
    70         20
    71         40
    77         60
    78         20
    79         30
    81         20
    83        100
    84        450
    85         30
    89         50
    90         60
    91        999
    92        220
    99        550
   100         40
   103         30
   104         50
   105        150
   106         30
   116         30
   117        100
   118         20
   119         20
   129         20
   130         50
   131         80
   132        200
   133        870
   134        120
   146        460
   147        600
   148        140
   159         20
   160         20
   174        120
   175         40
   188         20
   190         20
   191         40
   215         40
   231        200
   232         30
   233         20
   307         10
   322         20