##TITLE=Library Entry 62283
##JCAMP-DX=Revision 4.10 
##DATA TYPE=MASS SPECTRUM
##SAMPLE DESCRIPTION=A.A.Kutin, Moscow, Russia
##NAMES=HP
##CAS NAME=But-3-yn-1-ol, 2-benzylamino-
##MOLFORM=C11H13NO
##CAS REGISTRY NO=19699-35-5
##MP= -300
##BP= -300
##MW= 175
##$RETENTION INDEX=0
##$CONDENSED SPECTRUM=NO
##NPOINTS= 111
##XYDATA=(XY..XY) 1 
    33         30
    34          3
    36          2
    37         18
    38         47
    39        205
    40         47
    41         54
    42          8
    43         11
    44         26
    45          4
    46          2
    47          0
    48          0
    49          6
    50         65
    51        127
    52         67
    53         15
    54         32
    55          4
    57          4
    59          8
    60          1
    61          4
    62         16
    63         48
    65        208
    67          4
    68          3
    69          1
    70          2
    72         19
    73          4
    74         13
    75          9
    76         13
    77         91
    78         25
    79         22
    80          2
    81          0
    82          0
    83          0
    84          1
    85          1
    86          2
    87          3
    89         41
    91        999
    92         57
    94          0
    95          0
    96          0
    97          0
    98          2
    99          0
   100          0
   101          0
   102          1
   103          5
   104         19
   105         38
   106         21
   107          6
   108          0
   109          0
   111          0
   112          0
   113          1
   114          2
   115         22
   116          7
   117          5
   118          2
   121         27
   122          2
   123          0
   126          0
   127          1
   128          3
   129          1
   130          2
   131          0
   132          0
   133          0
   134          0
   135          0
   136          0
   138          0
   140          1
   141          1
   142         11
   144        385
   145         44
   146          2
   147          0
   148          0
   149          0
   150          0
   154          0
   155          0
   156          0
   157          2
   158          6
   159          0
   173          0
   174          1
   175          1
   176          0