##TITLE=Library Entry 40717
##JCAMP-DX=Revision 4.10 
##DATA TYPE=MASS SPECTRUM
##SAMPLE DESCRIPTION=Japan AIST/NIMC Database- Spectrum MS-NW-6063
##NAMES=HP
##CAS NAME=2-Methoxy-1,3-dioxolane
##MOLFORM=C4H8O3
##CAS REGISTRY NO=19693-75-5
##MP= -300
##BP= -300
##MW= 104
##$RETENTION INDEX=0
##$CONDENSED SPECTRUM=NO
##NPOINTS= 35
##XYDATA=(XY..XY) 1 
    13          2
    14         13
    15        151
    16          8
    18          2
    19          1
    25          1
    26         12
    27         85
    28         30
    29        287
    30         14
    31        200
    32         15
    33         55
    41          1
    42         19
    43        172
    44        121
    45        453
    46         10
    47         11
    59         21
    60          5
    61         38
    62          1
    71          1
    73        999
    74        205
    75         41
    76          2
    77          1
   103         63
   104          3
   105          1