##TITLE=Library Entry 45646
##JCAMP-DX=Revision 4.10 
##DATA TYPE=MASS SPECTRUM
##SAMPLE DESCRIPTION=Exported from NIST MS Search
##NAMES=HP
##CAS NAME=Carbonodithioic acid, O,S-dimethyl ester
##MOLFORM=C3H6OS2
##CAS REGISTRY NO=19708-81-7
##MP= -300
##BP= -300
##MW= 122
##$RETENTION INDEX=0
##$CONDENSED SPECTRUM=NO
##NPOINTS= 35
##XYDATA=(XY..XY) 1 
    27         33
    28        230
    29        466
    30         73
    31        764
    32        500
    33         44
    34         39
    35         33
    43         44
    44         89
    45        410
    46        309
    47        707
    48         50
    49         39
    58         28
    59         56
    60         78
    61         73
    62        123
    64         89
    75        999
    76        269
    77        134
    78         39
    79         44
    91        230
    92         11
    93         39
   106          5
   107         11
   122        865
   123         56
   124         89