##TITLE=Library Entry 89226
##JCAMP-DX=Revision 4.10 
##DATA TYPE=MASS SPECTRUM
##SAMPLE DESCRIPTION=MASS SPECTRA OF ORGANIC COMPOUNDS, V. 6, B. H. KENNETT
 ET AL, DIV. OF FOOD RESEARCH, CSIRO, AUSTRALIA
##NAMES=HP
##CAS NAME=4a(2H)-Naphthalenol, octahydro-4,8a-dimethyl-,(4.alpha.,4a.alpha.
,8a.beta.)-
##MOLFORM=C12H22O
##CAS REGISTRY NO=19700-21-1
##MP= -300
##BP= -300
##MW= 182
##$RETENTION INDEX=1431
##$CONDENSED SPECTRUM=NO
##NPOINTS= 73
##XYDATA=(XY..XY) 1 
    27         90
    29        140
    30         10
    31         20
    39        110
    40         30
    41        300
    42         50
    43        250
    45         20
    51         20
    52         10
    53         90
    54         30
    55        280
    56         70
    57         80
    58         20
    65         30
    66         20
    67        160
    68         70
    69        140
    70         50
    71         70
    72         50
    73         20
    77         50
    78         20
    79         80
    80         20
    81        130
    82         80
    83        120
    84         90
    85         90
    91         50
    92         10
    93         80
    94         30
    95        100
    96         90
    97        130
    98         40
    99         30
   105         30
   106         10
   107         50
   108         60
   109         50
   110         40
   111        230
   112        999
   113        100
   114         20
   119         10
   121         40
   122         20
   123         30
   124         10
   125        140
   126        130
   127         10
   135         20
   138         10
   139         20
   149        100
   150         20
   164         60
   165         10
   167         20
   182         70
   183         20