##TITLE=Library Entry 39576
##JCAMP-DX=Revision 4.10 
##DATA TYPE=MASS SPECTRUM
##SAMPLE DESCRIPTION=M. Lozynski, Dep. Chem., Poznan Tech. Univ., Poznan, Po
land
##NAMES=HP
##CAS NAME=Dimethylcarbamothioic acid, O-butyl ester
##MOLFORM=C7H15NOS
##CAS REGISTRY NO=19708-86-2
##MP= -300
##BP= -300
##MW= 161
##$RETENTION INDEX=0
##$CONDENSED SPECTRUM=NO
##NPOINTS= 20
##XYDATA=(XY..XY) 1 
    27        630
    28         42
    29        130
    39         40
    41        110
    42         74
    43         77
    44        160
    56         40
    57         34
    58         32
    72        999
    73         52
    74         50
    88        130
   105         49
   106        350
   161        270
   162         25
   163         13