##TITLE=Library Entry 13368
##JCAMP-DX=Revision 4.10 
##DATA TYPE=MASS SPECTRUM
##SAMPLE DESCRIPTION=Japan AIST/NIMC Database- Spectrum MS-NW-4138
##NAMES=HP
##CAS NAME=Acetylphthalimide
##MOLFORM=C10H7NO3
##CAS REGISTRY NO=1971-49-9
##MP= -300
##BP= -300
##MW= 189
##$RETENTION INDEX=0
##$CONDENSED SPECTRUM=NO
##NPOINTS= 85
##XYDATA=(XY..XY) 1 
    12          1
    13          3
    14         17
    15         81
    16          1
    17          2
    25          1
    26          4
    27          8
    28          7
    29          5
    30          1
    36          2
    37         25
    38         35
    39         42
    40          5
    41          5
    42        261
    43        999
    44         29
    45          5
    48          1
    49         10
    50        195
    51         31
    52         25
    53          7
    59          8
    60          5
    61          6
    62         10
    63         31
    64         31
    65          4
    66         19
    70         33
    72          1
    73          9
    74         58
    75         70
    76        304
    77         69
    78          5
    86          1
    87          1
    88          2
    89          4
    90        172
    91         15
    92          5
    94          2
    99          1
   101          2
   102         55
   103        101
   104        262
   105        249
   106         19
   107          1
   117         21
   118         12
   119          4
   130        123
   131         18
   132         14
   133         22
   134          2
   137          1
   138          1
   146         16
   147        131
   148        189
   149         16
   150          1
   160          2
   161        511
   162         49
   163          4
   174        419
   175         42
   176          4
   189        553
   190         64
   191          7