##TITLE=Library Entry 54570
##JCAMP-DX=Revision 4.10 
##DATA TYPE=MASS SPECTRUM
##SAMPLE DESCRIPTION=ATLAS OF MASS SPECTRA OF ORGANIC COMPOUNDS, V. A. KOPTY
UG, ED.
##NAMES=HP
##CAS NAME=Propanal, propylhydrazone
##MOLFORM=C6H14N2
##CAS REGISTRY NO=19718-39-9
##MP= -300
##BP= -300
##MW= 114
##$RETENTION INDEX=912
##$CONDENSED SPECTRUM=NO
##NPOINTS= 31
##XYDATA=(XY..XY) 1 
    27        160
    28        340
    29        180
    30        714
    31         16
    38          5
    39         47
    40         11
    41        137
    42         35
    43        103
    44         23
    45          3
    52          3
    54         20
    55         12
    56        167
    57         28
    58         28
    69          8
    70          3
    71         14
    72         22
    73          3
    83          3
    85        999
    86         47
    99          5
   113          5
   114        276
   115         24