##TITLE=Library Entry 48933
##JCAMP-DX=Revision 4.10 
##DATA TYPE=MASS SPECTRUM
##SAMPLE DESCRIPTION=Japan AIST/NIMC Database- Spectrum MS-NW-2555
##NAMES=HP
##CAS NAME=Carbobenzoxy-dl-histidine
##MOLFORM=C14H15N3O4
##CAS REGISTRY NO=19728-57-5
##MP= -300
##BP= -300
##MW= 289
##$RETENTION INDEX=0
##$CONDENSED SPECTRUM=NO
##NPOINTS= 125
##XYDATA=(XY..XY) 1 
    12          6
    13          1
    14          2
    15          9
    16         15
    17          4
    18         15
    25          4
    26         40
    27         84
    28        238
    29         47
    30         12
    31         29
    32          5
    36          6
    37         24
    38         46
    39        148
    40         40
    41         52
    42         35
    43         27
    44        441
    45          9
    46          2
    48          1
    49         10
    50         86
    51        205
    52         95
    53         94
    54        166
    55         85
    56          9
    57         19
    58          1
    59          1
    60          5
    61         10
    62         20
    63         54
    64         16
    65         93
    66         26
    67         12
    68         10
    69         13
    70          3
    71          5
    73          9
    74         28
    75         15
    76         14
    77        488
    78        113
    79        999
    80        118
    81        991
    82        343
    83         22
    84          3
    85          4
    86          4
    87          4
    88          1
    89         62
    90         83
    91        323
    92         36
    93         15
    94         15
    95          6
    96          2
    97          4
    98          2
    99          1
   101          1
   103          1
   104          1
   105         41
   106         15
   107        647
   108        880
   109        400
   110         53
   111          5
   112          1
   115          1
   118          4
   119          2
   120         12
   121          7
   122          4
   123          1
   125          1
   129          2
   133          1
   135         29
   136         35
   137         91
   138         46
   139          5
   140          3
   154          5
   155          1
   162          1
   163          3
   171         19
   172          6
   179          2
   180          4
   181         35
   182          4
   183          2
   184          1
   185          1
   199          4
   200          3
   201          2
   226          5
   228          1
   244          1
   245          2
   271          1