##TITLE=Library Entry 1467
##JCAMP-DX=Revision 4.10 
##DATA TYPE=MASS SPECTRUM
##SAMPLE DESCRIPTION=Chemical Concepts
##NAMES=HP
##CAS NAME=1-Propanol, 3-mercapto-
##MOLFORM=C3H8OS
##CAS REGISTRY NO=19721-22-3
##MP= -300
##BP= -300
##MW= 92
##$RETENTION INDEX=798
##$CONDENSED SPECTRUM=NO
##NPOINTS= 65
##XYDATA=(XY..XY) 1 
    27        433
    28        222
    29        194
    30        162
    31        999
    33         24
    34         58
    35        225
    36          6
    37         14
    38         22
    39        132
    40          1
    41        916
    42        152
    43         84
    44         23
    45        236
    46        394
    47        350
    48         35
    49         17
    50          2
    52          1
    53          3
    54          1
    55         15
    56          4
    57        671
    58        779
    59        176
    60         35
    61        306
    62         33
    63         25
    64          7
    65          1
    66          1
    67          2
    68          2
    69          6
    70          1
    71         35
    72         37
    73         64
    74        396
    75         64
    76         24
    77         12
    78          1
    79          2
    81          1
    82          1
    83          0
    84          1
    85          1
    87          3
    88          2
    89          5
    90          1
    91         11
    92        525
    93         31
    94         28
    95          1