##TITLE=Library Entry 7337
##JCAMP-DX=Revision 4.10 
##DATA TYPE=MASS SPECTRUM
##SAMPLE DESCRIPTION=Div. of Experiment Therapeutics WRAIR, WRAMC, Washingto
n DC 20307
##NAMES=HP
##CAS NAME=Cholesterol 3.beta.-O-[2-chloroethyl]- ether
##MOLFORM=C29H49ClO
##CAS REGISTRY NO=1972-30-1
##MP= -300
##BP= -300
##MW= 448
##$RETENTION INDEX=0
##$CONDENSED SPECTRUM=NO
##NPOINTS= 198
##XYDATA=(XY..XY) 1 
    41        462
    43        999
    44         34
    45          2
    47         11
    49         76
    51         23
    53         59
    55        616
    57        529
    58         22
    59         10
    63        214
    65         81
    67        282
    69        355
    71        265
    72         14
    77         79
    79        323
    81        563
    82         16
    83        217
    84         11
    85         60
    86         13
    88          2
    91        295
    93        322
    95        460
    96         33
    97        105
    98          6
    99         14
   103         16
   104          6
   105        351
   106         57
   107        457
   108         89
   109        191
   110         17
   111         55
   113         10
   114          4
   115         28
   117        126
   118         13
   119        306
   120        165
   121        218
   122         43
   123         86
   124          3
   125         34
   127         14
   128         21
   129         46
   130         22
   131        156
   132         33
   133        243
   134         67
   135        157
   136         24
   137         32
   139         10
   141         14
   142          4
   143        124
   144         28
   145        376
   146         76
   147        179
   148         61
   149         93
   150          7
   151         32
   152          4
   153          8
   155          9
   156          5
   157         65
   158         70
   159        209
   160        164
   161        210
   162         45
   163        120
   164          8
   165         24
   167          2
   169         11
   170          2
   171         63
   172         25
   173         82
   174         32
   175         39
   177         37
   179         20
   181          2
   183         10
   184          4
   185         58
   186         32
   187         70
   188         17
   189         36
   191         31
   192          4
   193         23
   197         17
   198          4
   199         66
   200         22
   201         37
   202          8
   203         18
   205         31
   206         23
   207         19
   211          8
   212          5
   213        171
   214         48
   215         39
   216         13
   217         12
   219         24
   220         10
   225         13
   227         28
   228         34
   229         36
   230          5
   231          7
   233         15
   239         11
   240         37
   241         29
   242         16
   243          7
   245         13
   246         27
   247        153
   248         31
   249          2
   253          8
   255        147
   256         34
   257         10
   259         16
   260         34
   261         18
   262          4
   273          6
   274         54
   275        192
   276         40
   277          4
   283         10
   287          9
   293         15
   295          8
   299          2
   300         10
   301        143
   302         35
   311         10
   313         13
   314          9
   326         74
   327         34
   328         15
   329         85
   330         22
   335         24
   336          4
   337         10
   339          8
   340         14
   353        184
   354         55
   355         11
   367         15
   368        562
   369        171
   370         24
   433         44
   434         13
   435         16
   436          4
   447          2
   448        156
   449         50
   450         53
   451         14