##TITLE=Library Entry 13240
##JCAMP-DX=Revision 4.10 
##DATA TYPE=MASS SPECTRUM
##SAMPLE DESCRIPTION=J. PLIMMER- U. KLINGEBIEL
##NAMES=HP
##CAS NAME=s-Triazine, 2,4-bis(ethylamino)-6-methyl-
##MOLFORM=C8H15N5
##CAS REGISTRY NO=1973-07-5
##MP= -300
##BP= -300
##MW= 181
##$RETENTION INDEX=0
##$CONDENSED SPECTRUM=NO
##NPOINTS= 64
##XYDATA=(XY..XY) 1 
    39        117
    40        450
    41        252
    42        405
    43        999
    44        405
    45         45
    50         45
    51         54
    52         54
    53         63
    54         72
    55        396
    56        135
    57         90
    58        261
    59         54
    67        153
    68        279
    69        243
    70        153
    71        486
    72         54
    73         45
    76         54
    77         54
    78         72
    79         54
    80         54
    81         54
    82         54
    83        126
    84         81
    85         72
    91         54
    93         36
    94         54
    95         72
    96        171
    97        324
    98         90
   109         54
   110        144
   111        126
   112         54
   122         72
   123        108
   124         54
   125        198
   126         45
   135         36
   137         90
   138        414
   139        126
   149         36
   152        252
   153        360
   154         72
   166        252
   167         99
   169         45
   180        144
   181        557
   182         99