##TITLE=Library Entry 49255
##JCAMP-DX=Revision 4.10 
##DATA TYPE=MASS SPECTRUM
##SAMPLE DESCRIPTION=Dmitri Zagorevskii, University of Missouri-Columbia, Co
lumbia, MO
##NAMES=HP
##CAS NAME=2-Carbomethoxyvinylydenecyclohexanol
##MOLFORM=C10H14O3
##CAS REGISTRY NO=197307-14-5
##MP= -300
##BP= -300
##MW= 182
##$RETENTION INDEX=0
##$CONDENSED SPECTRUM=NO
##NPOINTS= 132
##XYDATA=(XY..XY) 1 
    26         13
    27        268
    29        257
    30         16
    31        121
    33         28
    36          6
    38         13
    39        299
    40         53
    41        661
    42         82
    43        377
    44         58
    45         82
    46          9
    47          2
    50         25
    51        217
    52        187
    53        478
    54        102
    55        365
    56         39
    57        156
    58         24
    59        589
    60         46
    61         32
    63         25
    64         19
    65        238
    66        296
    67        493
    68        142
    69        280
    70        113
    71         85
    72         43
    73         29
    74         68
    75         23
    76          7
    77        439
    78        336
    79        999
    80        434
    81        509
    82        125
    83        146
    84        133
    85         81
    86         13
    87         58
    88          5
    89          9
    90          7
    91        268
    92         57
    93        416
    94        686
    95        398
    96         99
    97        170
    98         78
    99         25
   100         43
   101        457
   102         23
   103         98
   104         97
   105        172
   106        135
   107        275
   108        359
   109        274
   110         71
   111        349
   112         54
   113         70
   114         34
   115          8
   116          5
   117          2
   118          7
   119         23
   120         22
   121        560
   122        827
   123        189
   124         47
   125         94
   126         65
   127         60
   128          8
   129         23
   131         64
   132         47
   133         56
   134         12
   135        330
   136         47
   137         51
   138         60
   139         57
   140         12
   141         16
   142          9
   143          7
   147          9
   148          7
   149        147
   150        695
   151        306
   152        101
   153        150
   154         34
   155          6
   163         53
   164        260
   165         61
   166         23
   167         18
   168          9
   169         11
   170          5
   179          9
   180         71
   181         48
   182        198
   183         24
   184          6