##TITLE=Library Entry 55542
##JCAMP-DX=Revision 4.10 
##DATA TYPE=MASS SPECTRUM
##SAMPLE DESCRIPTION=ASES Database, Dalian Institute, P.R. China
##NAMES=HP
##CAS NAME=2,5-Dichloropyrazine
##MOLFORM=C4H2Cl2N2
##CAS REGISTRY NO=19745-07-4
##MP= -300
##BP= -300
##MW= 148
##$RETENTION INDEX=0
##$CONDENSED SPECTRUM=NO
##NPOINTS= 38
##XYDATA=(XY..XY) 1 
    35         19
    36         39
    37         78
    38         59
    39         29
    47         58
    48         29
    49        111
    50        259
    51        300
    52        187
    53         49
    60        230
    61         69
    62        130
    63         19
    64          9
    76         49
    77         80
    78         69
    84         99
    85        999
    86         89
    87        337
    88         19
    89         10
    94         70
    96         39
   120        558
   121         29
   122        340
   123          9
   124         88
   148        687
   149         49
   150        446
   151         20
   152        129