##TITLE=Library Entry 33853
##JCAMP-DX=Revision 4.10 
##DATA TYPE=MASS SPECTRUM
##SAMPLE DESCRIPTION=Chemical Concepts
##NAMES=HP
##CAS NAME=9-Oxabicyclo[3.3.1]nonan-2-one
##MOLFORM=C8H12O2
##CAS REGISTRY NO=19740-79-5
##MP= -300
##BP= -300
##MW= 140
##$RETENTION INDEX=0
##$CONDENSED SPECTRUM=NO
##NPOINTS= 64
##XYDATA=(XY..XY) 1 
    26         49
    27        453
    29        412
    30         31
    31         40
    36         18
    38         32
    39        383
    40        112
    41        628
    42        336
    43        434
    44        234
    45         52
    49         23
    50         25
    51         39
    52         34
    53        191
    54        373
    55        724
    56        636
    57        664
    58         68
    60         50
    64         18
    65         34
    66         97
    67        436
    68        999
    69        423
    70        332
    71        188
    72         25
    73         31
    77         36
    78         21
    79        402
    80        100
    81        136
    82         57
    83        638
    84        560
    85         95
    91         30
    93         44
    94        116
    95         47
    96         51
    97        172
    98         48
   102         29
   105         21
   107         23
   109         26
   110         20
   111         44
   112        781
   113        103
   123         24
   125         22
   140        845
   141        143
   142         20