##TITLE=Library Entry 32331
##JCAMP-DX=Revision 4.10 
##DATA TYPE=MASS SPECTRUM
##SAMPLE DESCRIPTION=Chemical Concepts
##NAMES=HP
##CAS NAME=Spiro[2.4]heptan-5-one
##MOLFORM=C7H10O
##CAS REGISTRY NO=19740-31-9
##MP= -300
##BP= -300
##MW= 110
##$RETENTION INDEX=0
##$CONDENSED SPECTRUM=NO
##NPOINTS= 71
##XYDATA=(XY..XY) 1 
    27        756
    28        289
    29         70
    30          5
    31         10
    33          0
    35          1
    36          3
    37         42
    38        104
    39        989
    40        319
    41        413
    42        139
    43        121
    44         13
    45         20
    46         20
    48          3
    49         25
    50        139
    51        200
    52        109
    53        577
    54        957
    55        205
    56         58
    57         14
    58          2
    59          5
    60          6
    61         12
    62         18
    63         32
    64          6
    65         72
    66         50
    67        999
    68        235
    69         27
    70          2
    71          6
    72          1
    73          4
    74          8
    75          2
    76          0
    77         31
    78          6
    79         56
    80         14
    81        395
    82        611
    83         34
    84          2
    85          0
    86          0
    87          0
    89          0
    91          6
    92          5
    93          4
    94          1
    95         81
    96          7
    97          1
   108          3
   109         25
   110        408
   111         31
   112          2