##TITLE=Library Entry 23428
##JCAMP-DX=Revision 4.10 
##DATA TYPE=MASS SPECTRUM
##SAMPLE DESCRIPTION=Exported from NIST MS Search
##NAMES=HP
##CAS NAME=Heptane, 3-bromo-
##MOLFORM=C7H15Br
##CAS REGISTRY NO=1974-05-6
##MP= -300
##BP= -300
##MW= 178
##$RETENTION INDEX=1029
##$CONDENSED SPECTRUM=NO
##NPOINTS= 91
##XYDATA=(XY..XY) 1 
    12          1
    13          1
    14         13
    15         44
    16          4
    24          1
    25          1
    26         27
    27        269
    28         97
    29        269
    30          7
    36          2
    37          5
    38         15
    39        177
    40         35
    41        442
    42         95
    43        377
    44         13
    45          2
    46          1
    47          1
    48          1
    49          1
    50          8
    51         14
    52          7
    53         33
    54         16
    55        158
    56        105
    57        999
    58         41
    59          2
    61          1
    62          1
    63          3
    64          1
    65          4
    66          2
    67         10
    68          4
    69         55
    70         20
    71         14
    72          2
    73          1
    74          1
    75          1
    77          2
    78          1
    79          3
    80          3
    81          4
    82          3
    83          5
    84          1
    85         11
    86          1
    87          1
    93          4
    94          1
    95          4
    96          1
    97          2
    98          6
    99        120
   100         10
   101          1
   106          3
   107          7
   108          3
   109          5
   111          1
   112          1
   113          1
   114          1
   117          1
   121          3
   122          1
   123          1
   133          1
   134          1
   135          5
   136          1
   137          5
   138          1
   149          1
   163          1