##TITLE=Library Entry 52880
##JCAMP-DX=Revision 4.10 
##DATA TYPE=MASS SPECTRUM
##SAMPLE DESCRIPTION=Japan AIST/NIMC Database- Spectrum MS-NW-3660
##NAMES=HP
##CAS NAME=Pentachlorophenyl dichloroacetate
##MOLFORM=C8HCl7O2
##CAS REGISTRY NO=19745-69-8
##MP= -300
##BP= -300
##MW= 374
##$RETENTION INDEX=0
##$CONDENSED SPECTRUM=NO
##NPOINTS= 162
##XYDATA=(XY..XY) 1 
    12          2
    24          1
    28          4
    35         10
    36          6
    37          3
    38          2
    47         32
    48         61
    49         10
    50         18
    59          3
    60         30
    61          2
    63          4
    65          8
    66          4
    70          1
    71         18
    72          3
    73          6
    76         83
    77          2
    78         24
    82          7
    83        999
    84         15
    85        630
    86          7
    87        104
    88          1
    89          2
    94          4
    95         59
    96          6
    97         19
    98          1
   100          2
   101          4
   102          2
   106         13
   107         11
   108          9
   109          4
   110         17
   111         51
   112         10
   113         31
   114          3
   115          5
   117         24
   118          9
   119         24
   120          7
   121          8
   122          1
   123          1
   130         64
   131          5
   132         45
   133          4
   134          7
   141         38
   142         16
   143         38
   144         10
   145         12
   146          2
   147          1
   153          1
   158          1
   160          1
   165         95
   166          5
   167         95
   168          5
   169         29
   170          1
   171          3
   177          9
   178          1
   179          9
   180          1
   181          3
   195          1
   200         11
   201          4
   202         13
   203          4
   204          6
   205          2
   206          1
   212         14
   213          2
   214         18
   215          3
   216          9
   217          1
   218          2
   228          7
   229          2
   230          9
   231          3
   232          5
   233          1
   234          1
   235         95
   236          5
   237        150
   238          8
   239         92
   240          5
   241         30
   242          1
   243          5
   247         35
   248          5
   249         55
   250          8
   251         36
   252          5
   253         10
   254          2
   255          2
   257          1
   258          1
   259          1
   263         44
   264        220
   265         87
   266        342
   267         63
   268        222
   269         26
   270         67
   271          6
   272          9
   284          1
   285          1
   291          6
   293          8
   295          5
   297          2
   304          2
   306          3
   308          2
   311          2
   313          4
   315          3
   317          1
   346          2
   348          4
   350          3
   352          2
   374         10
   375          1
   376         22
   377          2
   378         21
   379          2
   380         11
   382          3