##TITLE=Library Entry 23424
##JCAMP-DX=Revision 4.10 
##DATA TYPE=MASS SPECTRUM
##SAMPLE DESCRIPTION=RADIAN CORP
##NAMES=HP
##CAS NAME=Heptane, 2-bromo-
##MOLFORM=C7H15Br
##CAS REGISTRY NO=1974-04-5
##MP= -300
##BP= -300
##MW= 178
##$RETENTION INDEX=1032
##$CONDENSED SPECTRUM=NO
##NPOINTS= 39
##XYDATA=(XY..XY) 1 
    15          9
    26         14
    27        176
    29        194
    30          4
    37          2
    38          9
    39        219
    40         33
    41        581
    42        145
    43        300
    44          9
    50          7
    51         13
    52          7
    53         45
    54         22
    55        205
    56        137
    57        999
    58         44
    63          3
    65          7
    67         16
    68          5
    69         75
    70         32
    71         10
    79          4
    81          2
    83          5
    93          1
    98         15
    99         86
   100          6
   107          9
   109          9
   121          2