##TITLE=Library Entry 47520
##JCAMP-DX=Revision 4.10 
##DATA TYPE=MASS SPECTRUM
##SAMPLE DESCRIPTION=NIST Mass Spectrometry Data Center, 1998.
##NAMES=HP
##CAS NAME=Benzoic acid, 2-methyl-3-nitro-
##MOLFORM=C8H7NO4
##CAS REGISTRY NO=1975-50-4
##MP= -300
##BP= -300
##MW= 181
##$RETENTION INDEX=0
##$CONDENSED SPECTRUM=NO
##NPOINTS= 113
##XYDATA=(XY..XY) 1 
    15          1
    17          2
    26          7
    27         34
    29         20
    30         64
    31          5
    36          1
    37         24
    38         62
    39        296
    40         27
    41         57
    42          8
    43        201
    44         19
    45         76
    46         23
    47          1
    48          1
    49         15
    50        148
    51        308
    52        141
    53        214
    54         16
    55         51
    56          2
    57          3
    58          2
    59          2
    60          5
    61         59
    62        211
    63        574
    64        183
    65        407
    66         54
    67         57
    68         15
    69          6
    70          1
    71          2
    72          1
    73         14
    74         80
    75        101
    76         75
    77        999
    78        231
    79        284
    80        167
    81         43
    82          8
    83          1
    84          5
    85         25
    86         54
    87         51
    88         45
    89        550
    90        282
    91        763
    92        477
    93         68
    94         13
    95         13
    96          1
    98          1
    99          2
   100          1
   101          1
   102          4
   103         51
   104         36
   105        293
   106         98
   107         76
   108         84
   109         17
   110          1
   116         64
   117        151
   118         84
   119         71
   120         35
   121         31
   122         17
   123          2
   132         13
   133         28
   134         84
   135         38
   136         52
   137          8
   138          1
   146        159
   147         19
   148          4
   149          5
   150          2
   151         17
   152          3
   161          1
   162         12
   163          5
   164        860
   165         83
   166          9
   180          1
   181         81
   182          8
   183          1