##TITLE=Library Entry 2053
##JCAMP-DX=Revision 4.10 
##DATA TYPE=MASS SPECTRUM
##SAMPLE DESCRIPTION=NIST Mass Spectrometry Data Center, 1994
##NAMES=HP
##CAS NAME=Decanenitrile
##MOLFORM=C10H19N
##CAS REGISTRY NO=1975-78-6
##MP= -300
##BP= -300
##MW= 153
##$RETENTION INDEX=1286
##$CONDENSED SPECTRUM=NO
##NPOINTS= 67
##XYDATA=(XY..XY) 1 
    14          2
    15         45
    18          3
    27        542
    28        117
    29        555
    30         44
    37          8
    39        363
    41        999
    42        237
    43        506
    44         29
    45          1
    49          1
    50         10
    51         29
    52         33
    53        115
    54        417
    55        403
    56        160
    57        265
    58         16
    62          1
    63          4
    64          5
    65         15
    66         20
    67         60
    68        105
    69        348
    70        105
    71         62
    72          5
    75          1
    77         11
    79         45
    80         24
    82        525
    83        357
    84         52
    85          9
    91         12
    93         27
    94         20
    96        477
    97        349
    98         36
    99          1
   105          2
   107         13
   108          8
   110        331
   111         91
   112          9
   121          3
   122          4
   124        142
   125         20
   126          1
   136          0
   138         23
   139          2
   152         11
   153          1
   154          2