##TITLE=Library Entry 63593
##JCAMP-DX=Revision 4.10 
##DATA TYPE=MASS SPECTRUM
##SAMPLE DESCRIPTION=Chemical Concepts
##NAMES=HP
##CAS NAME=Ethylene, tetrabenzyl-
##MOLFORM=C30H28
##CAS REGISTRY NO=19754-02-0
##MP= -300
##BP= -300
##MW= 388
##$RETENTION INDEX=0
##$CONDENSED SPECTRUM=NO
##NPOINTS= 192
##XYDATA=(XY..XY) 1 
    26          0
    27          1
    29          4
    30          0
    33          0
    36          0
    38          0
    39          7
    40          1
    41          6
    42          0
    43          1
    44          1
    45          0
    50          1
    51          8
    52          2
    53          1
    54          0
    55          2
    56          0
    57          3
    59          0
    61          0
    62          0
    63          5
    64          2
    65         40
    66          2
    67          1
    71          0
    74          0
    75          2
    76          1
    77         17
    78          7
    79          6
    81          1
    82          2
    83          1
    84          0
    85          0
    86          0
    87          1
    88          0
    89         10
    90          2
    91        999
    92         73
    93          4
    95          2
    96          2
    97          0
    98          1
    99          1
   100          0
   101          4
   102          7
   103         11
   104          2
   105         10
   106          1
   107          1
   108          2
   109          0
   110          0
   111          1
   112          1
   113          1
   114          2
   115         60
   116         27
   117         69
   118          8
   119          0
   120          0
   122          1
   123          0
   125          0
   126          5
   127         14
   128         18
   129         77
   130          8
   131          1
   132          0
   133          1
   134          0
   135          1
   137          1
   138          0
   139          3
   140          0
   141         35
   142          5
   143          0
   145          0
   147          0
   150          1
   151          3
   152          9
   153          2
   154          2
   155          1
   161          1
   162          0
   163          2
   164          2
   165         21
   166          6
   167         36
   168          6
   169          1
   175          1
   176          4
   177          2
   178         26
   179         21
   180          5
   181         74
   182         12
   183          1
   185          0
   186          0
   187          0
   189         13
   190         13
   191         21
   192          6
   193         57
   194         23
   195          1
   200          2
   201          1
   202         25
   203         29
   204         25
   205        192
   206         45
   207          9
   208          1
   209          1
   210          1
   211          0
   213          0
   214          0
   215         10
   216          3
   217         10
   218         25
   219        177
   220         33
   221          3
   226          0
   227          0
   229          0
   230          0
   231          2
   232          0
   237          0
   239          0
   240          0
   241          0
   249          0
   251          0
   252          0
   253          0
   255          0
   256          0
   263          0
   265          0
   266          0
   267          0
   268          0
   277          0
   278          0
   281          2
   282          0
   283          0
   287          0
   293          0
   295          0
   296          4
   297        150
   298         41
   299          5
   310          1
   355          0
   388        183
   389         60
   390          8
   391          0