##TITLE=Library Entry 47517
##JCAMP-DX=Revision 4.10 
##DATA TYPE=MASS SPECTRUM
##SAMPLE DESCRIPTION=NIST Mass Spectrometry Data Center, 1998.
##NAMES=HP
##CAS NAME=2-Methyl-5-nitrobenzoic acid
##MOLFORM=C8H7NO4
##CAS REGISTRY NO=1975-52-6
##MP= -300
##BP= -300
##MW= 181
##$RETENTION INDEX=0
##$CONDENSED SPECTRUM=NO
##NPOINTS= 99
##XYDATA=(XY..XY) 1 
    26          5
    27         23
    29         10
    30         66
    31          2
    37         14
    38         38
    39        214
    40         20
    41         26
    42          3
    43         56
    44          2
    45         48
    46         25
    47          1
    49         12
    50        102
    51        205
    52         78
    53        135
    54          9
    55         29
    56          1
    57          1
    58          3
    60          3
    61         41
    62        134
    63        381
    64         81
    65        100
    66         21
    67         36
    68          4
    69          5
    72          1
    73          9
    74         47
    75         40
    76         28
    77        999
    78        165
    79        383
    80         27
    81          7
    84          4
    85         19
    86         42
    87         39
    88         21
    89        391
    90        129
    91         26
    92         11
    93          5
    94          3
    95         10
    96          1
    99          1
   101          1
   102          2
   103          4
   104         19
   105        315
   106         51
   107         23
   108          2
   109          1
   115          1
   116         12
   117         28
   118         53
   119          9
   120          4
   121          3
   122          2
   123          4
   131          1
   132          2
   133        124
   134         79
   135        318
   136         35
   137          4
   147          1
   148          2
   149          1
   150          3
   151         30
   152          3
   163        771
   164        169
   165         44
   166          5
   179          1
   181        709
   182         68
   183          9