##TITLE=Library Entry 58548
##JCAMP-DX=Revision 4.10 
##DATA TYPE=MASS SPECTRUM
##SAMPLE DESCRIPTION=A.A.Kutin, Moscow, Russia
##NAMES=HP
##CAS NAME=Diphenyl-1,2,5-oxadiazole
##MOLFORM=C14H10N2O
##CAS REGISTRY NO=19768-02-6
##MP= -300
##BP= -300
##MW= 222
##$RETENTION INDEX=0
##$CONDENSED SPECTRUM=NO
##NPOINTS= 96
##XYDATA=(XY..XY) 1 
    33          4
    34          2
    36          5
    37         43
    38        131
    39        358
    40         90
    41         64
    42          5
    43          9
    44         25
    50        316
    51        385
    52         80
    53          7
    55          2
    57          1
    61         66
    62        215
    63        518
    64        331
    65         66
    66          2
    69          2
    70          1
    72          0
    73         13
    74         64
    75        105
    76        212
    77        166
    78         11
    81          8
    82         18
    84         13
    85         11
    86         31
    87         61
    88        223
    89        999
    90        136
    91        323
    92         22
    96         19
    98          5
    99          6
   100          4
   101          7
   102         54
   103        183
   104         19
   105          8
   111         13
   112          2
   113          8
   114         24
   115         28
   116          3
   119        852
   120         55
   121          2
   125          0
   126          6
   127          1
   128          0
   137          1
   138          2
   139          7
   140          3
   149          0
   150          7
   151         14
   152         13
   153          0
   163         25
   164         19
   165         36
   166          5
   175          5
   176         29
   177         53
   178        181
   179         23
   188          3
   189         13
   190         53
   191        140
   192        660
   193         99
   194          8
   203          2
   204          2
   205          3
   222        829
   223         99
   224          6