##TITLE=Library Entry 29296
##JCAMP-DX=Revision 4.10 
##DATA TYPE=MASS SPECTRUM
##SAMPLE DESCRIPTION=Japan AIST/NIMC Database- Spectrum MS-NW-7476
##NAMES=HP
##CAS NAME=2-Bromo-N,N-dimethylbenzylamine
##MOLFORM=C9H12BrN
##CAS REGISTRY NO=1976-04-1
##MP= -300
##BP= -300
##MW= 213
##$RETENTION INDEX=0
##$CONDENSED SPECTRUM=NO
##NPOINTS= 90
##XYDATA=(XY..XY) 1 
    14          1
    15         21
    26          1
    27          5
    28          2
    29          1
    30         18
    37          2
    38          7
    39         23
    40          5
    41          9
    42        112
    43         25
    44         47
    45          3
    50         12
    51         16
    52          3
    53          3
    54          1
    56          3
    57         33
    58        999
    59         37
    60          1
    61          3
    62          9
    63         33
    64         11
    65         26
    66         10
    67          6
    74          5
    75          9
    76          7
    77          7
    78          2
    79          1
    80          2
    81          1
    82          2
    85          1
    86          3
    87          3
    88          2
    89         57
    90         63
    91         65
    92          6
   102          3
   103          2
   104          1
   105          1
   106          2
   107          1
   116          5
   117          7
   118          7
   119          2
   120          1
   128          1
   130          2
   131          4
   132         34
   133          4
   134         13
   135          2
   143          2
   145          1
   148          1
   155          1
   157          1
   169         85
   170          8
   171         83
   172          8
   183          2
   184          1
   185          1
   196          3
   197          1
   198          4
   199          1
   210          1
   212         64
   213        129
   214         76
   215        125
   216         13