##TITLE=Library Entry 56226
##JCAMP-DX=Revision 4.10 
##DATA TYPE=MASS SPECTRUM
##SAMPLE DESCRIPTION=Japan AIST/NIMC Database- Spectrum MS-IW-2901
##NAMES=HP
##CAS NAME=N(2),N(2)-Dimethyl-1,2-butanediamine
##MOLFORM=C6H16N2
##CAS REGISTRY NO=19764-59-1
##MP= -300
##BP= -300
##MW= 116
##$RETENTION INDEX=0
##$CONDENSED SPECTRUM=NO
##NPOINTS= 46
##XYDATA=(XY..XY) 1 
    15          9
    26          2
    27         18
    28         29
    29         27
    30         54
    31         24
    38          1
    39         10
    40          3
    41         31
    42         72
    43         25
    44         80
    45          5
    46          5
    52          1
    53          2
    54          5
    55         10
    56         49
    57         55
    58         71
    59        202
    60          7
    68          5
    69          4
    70         44
    71        217
    72         21
    73          1
    82          2
    83          1
    84         26
    85         15
    86        999
    87         68
    88          2
    96          1
    98          1
    99          1
   113          1
   115          9
   116          7
   117         23
   118          1