##TITLE=Library Entry 20951
##JCAMP-DX=Revision 4.10 
##DATA TYPE=MASS SPECTRUM
##SAMPLE DESCRIPTION=NIST Mass Spectrometry Data Center, 1990.
##NAMES=HP
##CAS NAME=3-Ethyl-3-heptanol
##MOLFORM=C9H20O
##CAS REGISTRY NO=19780-41-7
##MP= -300
##BP= -300
##MW= 144
##$RETENTION INDEX=853
##$CONDENSED SPECTRUM=NO
##NPOINTS= 35
##XYDATA=(XY..XY) 1 
    15         21
    26         30
    27        306
    28        145
    29        434
    30         16
    31        101
    32         17
    39        189
    41        491
    42         70
    43        353
    45        506
    51         25
    53         80
    55        999
    56        112
    57        334
    59        504
    65         21
    67         58
    69        398
    70         45
    71         66
    72         28
    73         97
    83         24
    84        131
    85         50
    87        914
    88         58
    97        204
   115        838
   116         66
   126         73