##TITLE=Library Entry 23579
##JCAMP-DX=Revision 4.10 
##DATA TYPE=MASS SPECTRUM
##SAMPLE DESCRIPTION=Japan AIST/NIMC Database- Spectrum MS-NW-3423
##NAMES=HP
##CAS NAME=5-Dodecanone
##MOLFORM=C12H24O
##CAS REGISTRY NO=19780-10-0
##MP= -300
##BP= -300
##MW= 184
##$RETENTION INDEX=0
##$CONDENSED SPECTRUM=NO
##NPOINTS= 83
##XYDATA=(XY..XY) 1 
    14          1
    15         14
    18          1
    26         21
    27        293
    28         79
    29        493
    30         12
    31          8
    37          1
    38          7
    39        158
    40         28
    41        537
    42         99
    43        260
    44          9
    45          6
    50          5
    51         10
    52          5
    53         36
    54         16
    55        139
    56         32
    57        999
    58        531
    59         66
    60          4
    63          2
    65          6
    66          3
    67         36
    68          9
    69         20
    70         13
    71        138
    72         31
    73          3
    74          1
    77          5
    78          1
    79          7
    80          2
    81         15
    82         35
    83         17
    84         17
    85        395
    86         26
    87          2
    91          2
    93          2
    94          1
    95         15
    96          4
    97          4
    98          7
    99         15
   100        102
   101         39
   102          3
   109         26
   110          3
   111          2
   113         70
   114          8
   115          1
   120          1
   123          1
   124          8
   125          2
   127        258
   128         22
   129          2
   141          4
   142         40
   143          5
   155         27
   156          4
   169          1
   184         37
   185          5