##TITLE=Library Entry 67709
##JCAMP-DX=Revision 4.10 
##DATA TYPE=MASS SPECTRUM
##SAMPLE DESCRIPTION=NIST Mass Spectrometry Data Center
##NAMES=HP
##CAS NAME=2,6-Dimethyl-1-nonen-3-yn-5-ol
##MOLFORM=C11H18O
##CAS REGISTRY NO=19780-98-4
##MP= -300
##BP= -300
##MW= 166
##$RETENTION INDEX=0
##$CONDENSED SPECTRUM=NO
##NPOINTS= 91
##XYDATA=(XY..XY) 1 
    15          7
    16          1
    17          2
    18          2
    26          9
    27        140
    28          5
    29        136
    30          3
    31          9
    37          2
    38         12
    39        190
    40         43
    41        379
    42         34
    43        370
    44         13
    45          8
    49          2
    50         24
    51         65
    52         32
    53         61
    54          7
    55         98
    56          6
    57         17
    58          8
    59          2
    62          9
    63         28
    64          7
    65        106
    66         41
    67        154
    68         21
    69         26
    70         11
    71         52
    72          3
    73          2
    74          4
    75          5
    77         61
    78         23
    79         41
    80         13
    81         96
    82         28
    83         10
    84          3
    89          4
    90          3
    91         50
    92         10
    93         41
    95        999
    96        180
    97         22
    98          3
   100          7
   103          6
   104          2
   105         19
   106         17
   107         28
   108         18
   109        174
   110         20
   111          8
   115          4
   117          3
   119         15
   120          4
   121          5
   122          7
   123         71
   124         57
   125         10
   126          2
   133         29
   134          2
   135          3
   137         42
   138          9
   139          2
   148          5
   151         51
   152          6
   166         14