##TITLE=Library Entry 20676
##JCAMP-DX=Revision 4.10 
##DATA TYPE=MASS SPECTRUM
##SAMPLE DESCRIPTION=NIST Mass Spectrometry Data Center, 1990.
##NAMES=HP
##CAS NAME=2-Pentene, 3-ethyl-2-methyl-
##MOLFORM=C8H16
##CAS REGISTRY NO=19780-67-7
##MP= -300
##BP= -300
##MW= 112
##$RETENTION INDEX=778
##$CONDENSED SPECTRUM=NO
##NPOINTS= 42
##XYDATA=(XY..XY) 1 
    15         15
    26          9
    27         79
    28         32
    29         66
    39        205
    40         42
    41        325
    42         36
    43         72
    44          7
    50         20
    51         46
    52         20
    53        101
    54          7
    55        999
    56         66
    57         29
    62          7
    63         16
    64          4
    65         41
    66         17
    67        115
    68         32
    69        298
    70         78
    77         34
    78          9
    79         42
    80          8
    81         34
    82          8
    83        604
    84         49
    91          7
    95          9
    97        131
    98          9
   112        265
   113         23