##TITLE=Library Entry 16984
##JCAMP-DX=Revision 4.10 
##DATA TYPE=MASS SPECTRUM
##SAMPLE DESCRIPTION=Chemical Concepts
##NAMES=HP
##CAS NAME=2-Heptanol, 5-ethyl-
##MOLFORM=C9H20O
##CAS REGISTRY NO=19780-40-6
##MP= -300
##BP= -300
##MW= 144
##$RETENTION INDEX=0
##$CONDENSED SPECTRUM=NO
##NPOINTS= 77
##XYDATA=(XY..XY) 1 
    26          4
    27        145
    28         11
    29        177
    30          3
    31         33
    37          0
    38          2
    39         79
    40         11
    41        244
    42         79
    43        411
    44         58
    45        999
    46         20
    47          2
    48          0
    50          1
    51          4
    52          2
    53         22
    54         14
    55        563
    56        115
    57        101
    58         15
    59         38
    60          1
    61          0
    63          0
    65          3
    66          1
    67         13
    68         12
    69        284
    70        290
    71        219
    72         10
    73          8
    74          0
    77          2
    79          2
    80          0
    81         15
    82          2
    83         34
    84        358
    85         42
    86          2
    87          0
    88          1
    89          0
    91          0
    93          0
    95          2
    96         12
    97        168
    98         88
    99         33
   100         12
   101          0
   103          1
   109          0
   111         30
   112          2
   113          0
   115          6
   116          0
   125          3
   126        139
   127         15
   128          0
   129         24
   130          2
   143          2
   144          0