##TITLE=Library Entry 3860
##JCAMP-DX=Revision 4.10 
##DATA TYPE=MASS SPECTRUM
##SAMPLE DESCRIPTION=Japan AIST/NIMC Database- Spectrum MS-NW-1224
##NAMES=HP
##CAS NAME=2-Butenal, 2-ethyl-
##MOLFORM=C6H10O
##CAS REGISTRY NO=19780-25-7
##MP= -300
##BP= -300
##MW= 98
##$RETENTION INDEX=801
##$CONDENSED SPECTRUM=NO
##NPOINTS= 62
##XYDATA=(XY..XY) 1 
    14          2
    15         20
    17          2
    18          7
    25          1
    26         26
    27        244
    28         44
    29        184
    30          5
    31         11
    32          6
    36          1
    37         16
    38         38
    39        324
    40         43
    41        999
    42        158
    43        117
    44         18
    45         10
    47          1
    49          4
    50         30
    51         44
    52         18
    53        113
    54         45
    55        368
    56         39
    57         27
    58         15
    59          1
    60          1
    61          5
    62          8
    63         12
    64          2
    65         25
    66          7
    67         56
    68         10
    69        335
    70         54
    71         11
    72          1
    77         14
    78          3
    79         76
    80         13
    81          8
    82          1
    83        303
    84         16
    85          1
    95          2
    96          2
    97         85
    98        821
    99         55
   100          4