##TITLE=Library Entry 29653
##JCAMP-DX=Revision 4.10 
##DATA TYPE=MASS SPECTRUM
##SAMPLE DESCRIPTION=NIST Mass Spectrometry Data Center, 1990.
##NAMES=HP
##CAS NAME=4-Ethyl-3-octanol
##MOLFORM=C10H22O
##CAS REGISTRY NO=19781-26-1
##MP= -300
##BP= -300
##MW= 158
##$RETENTION INDEX=0
##$CONDENSED SPECTRUM=NO
##NPOINTS= 35
##XYDATA=(XY..XY) 1 
    27        118
    28         67
    29        209
    30         67
    31        175
    39         76
    41        310
    42         52
    43        177
    44         13
    45         19
    53         23
    55        189
    56        103
    57        283
    58        281
    59        999
    60         35
    67         16
    69        276
    70         71
    71         34
    72         20
    73         17
    83         19
    84         12
    85         18
    87         15
    98        106
    99         13
   100         15
   111         46
   129         85
   130          7
   140          9