##TITLE=Library Entry 18719
##JCAMP-DX=Revision 4.10 
##DATA TYPE=MASS SPECTRUM
##SAMPLE DESCRIPTION=B. Derendyaev, Novosibirsk Institute of Organic Chemist
ry
##NAMES=HP
##CAS NAME=5-Dodecyne
##MOLFORM=C12H22
##CAS REGISTRY NO=19780-12-2
##MP= -300
##BP= -300
##MW= 166
##$RETENTION INDEX=1202
##$CONDENSED SPECTRUM=NO
##NPOINTS= 100
##XYDATA=(XY..XY) 1 
    15          2
    24          1
    25          1
    26         14
    27        270
    29        270
    30          7
    31          1
    36          1
    37          1
    38          6
    39        196
    40         46
    41        603
    42         99
    43        381
    44          8
    45          1
    49          1
    50          9
    51         42
    52         81
    53        196
    54        999
    55        603
    56         69
    57         42
    58          2
    59          1
    60          5
    61          1
    62          1
    63          4
    65         64
    66         52
    67        935
    68        307
    69        208
    70         31
    71         10
    72          1
    73          2
    74          1
    75          2
    76          1
    77         69
    78         17
    79        118
    80         41
    81        861
    82        208
    83         47
    84          6
    85          3
    86          1
    87          1
    89          1
    90          1
    91         31
    92          5
    93         32
    94         15
    95        430
    96        196
    97         32
    98          3
    99          1
   101          1
   103          1
   104          1
   105          3
   106          1
   107          7
   108          5
   109        245
   110         86
   111          9
   112          1
   113          1
   115          1
   117          1
   119          1
   121          1
   122          1
   123         99
   124         32
   125          4
   126          1
   127          1
   128          1
   135          1
   136          1
   137        109
   138         13
   139          1
   151          4
   152          1
   165          1
   166          9
   167          1