##TITLE=Library Entry 20671
##JCAMP-DX=Revision 4.10 
##DATA TYPE=MASS SPECTRUM
##SAMPLE DESCRIPTION=Exported from NIST MS Search
##NAMES=HP
##CAS NAME=1-Pentene, 3-ethyl-2-methyl-
##MOLFORM=C8H16
##CAS REGISTRY NO=19780-66-6
##MP= -300
##BP= -300
##MW= 112
##$RETENTION INDEX=735
##$CONDENSED SPECTRUM=NO
##NPOINTS= 72
##XYDATA=(XY..XY) 1 
    12          1
    13          1
    14          5
    15         28
    16          1
    24          1
    25          1
    26         16
    27        209
    28         25
    29        136
    30          3
    31          1
    36          1
    37          4
    38         15
    39        248
    40         42
    41        460
    42         56
    43        112
    44          5
    45          1
    46          1
    49          1
    50         12
    51         31
    52         14
    53         82
    54         17
    55        999
    56         72
    57         10
    58          1
    60          1
    61          1
    62          4
    63          8
    64          1
    65         17
    66          8
    67          7
    68         24
    69         55
    70         25
    71          5
    72          1
    73          1
    74          1
    75          1
    76          1
    77          9
    78          2
    79         11
    80          2
    81         16
    82         21
    83        560
    84        299
    85         18
    86          1
    91          1
    92          1
    93          1
    94          1
    95          2
    96          1
    97         27
    98          2
   111          1
   112         69
   113          6