##TITLE=Library Entry 20682
##JCAMP-DX=Revision 4.10 
##DATA TYPE=MASS SPECTRUM
##SAMPLE DESCRIPTION=NIST Mass Spectrometry Data Center, 1990.
##NAMES=HP
##CAS NAME=3-Ethyl-4-methyl-2-pentene
##MOLFORM=C8H16
##CAS REGISTRY NO=19780-68-8
##MP= -300
##BP= -300
##MW= 112
##$RETENTION INDEX=736
##$CONDENSED SPECTRUM=NO
##NPOINTS= 40
##XYDATA=(XY..XY) 1 
    15         20
    27         97
    28         40
    29         62
    39        228
    40         50
    41        402
    42         43
    43         89
    44          9
    50         22
    51         52
    52         25
    53        113
    54          9
    55        999
    56         74
    57         38
    62          8
    63         18
    65         47
    66         21
    67        115
    68         37
    69        319
    70         93
    77         30
    78          9
    79         44
    80          9
    81         36
    82          9
    83        704
    84         57
    91          6
    95          8
    97        153
    98         12
   112        262
   113         26