##TITLE=Library Entry 29706
##JCAMP-DX=Revision 4.10 
##DATA TYPE=MASS SPECTRUM
##SAMPLE DESCRIPTION=NIST Mass Spectrometry Data Center, 1990.
##NAMES=HP
##CAS NAME=2,4-Dimethyl-4-penten-2-ol
##MOLFORM=C7H14O
##CAS REGISTRY NO=19781-53-4
##MP= -300
##BP= -300
##MW= 114
##$RETENTION INDEX=1195
##$CONDENSED SPECTRUM=NO
##NPOINTS= 35
##XYDATA=(XY..XY) 1 
    15          8
    26          8
    27         61
    28         22
    29         43
    30          8
    31        111
    38         16
    39        144
    40         35
    41        176
    42          8
    43        419
    44         12
    50         19
    51         25
    52         10
    53         45
    54         15
    55         88
    56        164
    57         30
    58         10
    59        999
    60         34
    65         10
    67         18
    69         17
    77         13
    79         41
    81         98
    82          7
    96         22
    97         12
    99         33