##TITLE=Library Entry 20672
##JCAMP-DX=Revision 4.10 
##DATA TYPE=MASS SPECTRUM
##SAMPLE DESCRIPTION=NIST Mass Spectrometry Data Center, 1990.
##NAMES=HP
##CAS NAME=2,3-Dimethyl-2-octene
##MOLFORM=C10H20
##CAS REGISTRY NO=19781-18-1
##MP= -300
##BP= -300
##MW= 140
##$RETENTION INDEX=961
##$CONDENSED SPECTRUM=NO
##NPOINTS= 34
##XYDATA=(XY..XY) 1 
    26         11
    27        134
    28         54
    29        145
    39        204
    40         48
    41        433
    42         49
    43        100
    51         28
    52         14
    53         92
    55        999
    56         81
    57         29
    65         34
    66         15
    67        142
    68         38
    69        370
    70        194
    71         22
    77         24
    79         28
    81         46
    83        809
    84        267
    85         35
    95         13
    96         30
    97        172
    98         32
   140        254
   141         27