##TITLE=Library Entry 34926
##JCAMP-DX=Revision 4.10 
##DATA TYPE=MASS SPECTRUM
##SAMPLE DESCRIPTION=NIST Mass Spectrometry Data Center, 1990.
##NAMES=HP
##CAS NAME=8-Hexadecanol
##MOLFORM=C16H34O
##CAS REGISTRY NO=19781-83-0
##MP= -300
##BP= -300
##MW= 242
##$RETENTION INDEX=0
##$CONDENSED SPECTRUM=NO
##NPOINTS= 48
##XYDATA=(XY..XY) 1 
    27         89
    28         67
    29        199
    31         19
    39         56
    41        381
    42         79
    43        347
    44         56
    45         18
    53         26
    55        425
    56         96
    57        372
    58         86
    59         26
    66         13
    67         76
    69        999
    70        108
    71        103
    72         16
    81         47
    82         67
    83        305
    84         48
    85         30
    95         27
    96         35
    97         68
    98         26
    99         15
   100         13
   110         24
   111        188
   112         24
   113         13
   124         15
   125         29
   127         48
   128         15
   129        124
   130         12
   141         35
   142         21
   143        121
   144         10
   224         29