##TITLE=Library Entry 32690
##JCAMP-DX=Revision 4.10 
##DATA TYPE=MASS SPECTRUM
##SAMPLE DESCRIPTION=NIST Mass Spectrometry Data Center, 1990.
##NAMES=HP
##CAS NAME=Cyclohexane, 1,3-dimethyl-2-methylene-, cis-
##MOLFORM=C9H16
##CAS REGISTRY NO=19781-47-6
##MP= -300
##BP= -300
##MW= 124
##$RETENTION INDEX=0
##$CONDENSED SPECTRUM=NO
##NPOINTS= 45
##XYDATA=(XY..XY) 1 
    27        129
    28         15
    29         67
    39        305
    40         71
    41        370
    42         57
    43         51
    50         35
    51         93
    52         45
    53        217
    54         77
    55        229
    56         25
    57          8
    62          9
    63         27
    64         10
    65         93
    66          8
    67        999
    68        813
    69        166
    70         48
    77        120
    78         29
    79        182
    80         58
    81        498
    82        536
    83         61
    91         78
    92         12
    93         45
    94         12
    95        323
    96        141
    97         11
   105         19
   107         23
   109        809
   110         70
   124        179
   125         17