##TITLE=Library Entry 78913
##JCAMP-DX=Revision 4.10 
##DATA TYPE=MASS SPECTRUM
##SAMPLE DESCRIPTION=Exported from NIST MS Search
##NAMES=HP
##CAS NAME=Valeric acid, 2-cyano-2-hydroxy-3-methyl-, ethyl ester, benzoate
 (ester)
##MOLFORM=C16H19NO4
##CAS REGISTRY NO=19788-62-6
##MP= -300
##BP= -300
##MW= 289
##$RETENTION INDEX=0
##$CONDENSED SPECTRUM=NO
##NPOINTS= 110
##XYDATA=(XY..XY) 1 
    41        406
    42         61
    43        101
    44         61
    45         61
    50        210
    51        525
    52        118
    53        108
    54         27
    55        169
    56        128
    57        576
    58         67
    64         10
    65         61
    66        135
    67        128
    68        264
    69        118
    70         10
    71         20
    73         16
    74         33
    75         40
    76        186
    77        813
    78        237
    79         50
    80         33
    81         33
    82         27
    83         27
    84         40
    85        796
    86         84
    87         10
    91         33
    93         44
    94        176
    95         44
    96        210
    97         27
   103         20
   104         61
   105        999
   106        518
   107         54
   108          6
   110          6
   111        169
   112        338
   113         74
   114         16
   115         27
   116         10
   117          6
   120         10
   121        101
   122        400
   123        254
   124        108
   125          6
   126         20
   129          6
   130          6
   138          6
   139        220
   140        711
   141        111
   142         16
   144         27
   149         10
   150         10
   152         40
   153         16
   154         33
   160         74
   161         50
   167        694
   168        162
   169        288
   170         16
   171         20
   172         27
   173         10
   178         10
   181         10
   183          6
   184         10
   187         27
   188        162
   189         44
   191         10
   196         50
   198        101
   199          6
   202         10
   207         10
   214          6
   216         67
   217        762
   218        128
   233        118
   244        237
   245         67
   271        101
   272         13
   289        162
   290         33