##TITLE=Library Entry 20406
##JCAMP-DX=Revision 4.10 
##DATA TYPE=MASS SPECTRUM
##SAMPLE DESCRIPTION=L.E. Slivon, Battelle Columbus Laboratories, Columbus,
 Ohio 43201
##NAMES=HP
##CAS NAME=4-Hexadecanol
##MOLFORM=C16H34O
##CAS REGISTRY NO=19781-43-2
##MP= -300
##BP= -300
##MW= 242
##$RETENTION INDEX=0
##$CONDENSED SPECTRUM=NO
##NPOINTS= 84
##XYDATA=(XY..XY) 1 
    40         13
    41        459
    42        101
    43        693
    44         70
    45          3
    49          9
    50          8
    51          5
    53         38
    54         56
    55        999
    56        159
    57        475
    58        230
    59         10
    65         19
    66         19
    67        121
    68         62
    69        481
    70         25
    71        492
    72        170
    73        976
    74         38
    77         12
    78         13
    79         23
    80         15
    81         94
    82         94
    83        490
    84         74
    85        157
    86        291
    87        115
    91          9
    95         75
    96         70
    97        620
    98         76
    99        163
   100         11
   105         12
   107          8
   109         45
   110         44
   111        475
   112         72
   113         41
   114          9
   117          9
   123         32
   124         44
   125        272
   126         41
   127         11
   128         21
   133         10
   137          6
   138         23
   139         45
   140         22
   141         18
   142         11
   152         25
   153         20
   154         16
   155         19
   166          9
   167          4
   168         11
   169         11
   170          8
   180         10
   181         10
   196         13
   197        123
   198         25
   199        244
   200         31
   207          2
   224         19