##TITLE=Library Entry 37325
##JCAMP-DX=Revision 4.10 
##DATA TYPE=MASS SPECTRUM
##SAMPLE DESCRIPTION=Exported from NIST MS Search
##NAMES=HP
##CAS NAME=Tridecane, 3-methylene-
##MOLFORM=C14H28
##CAS REGISTRY NO=19780-34-8
##MP= -300
##BP= -300
##MW= 196
##$RETENTION INDEX=1407
##$CONDENSED SPECTRUM=NO
##NPOINTS= 107
##XYDATA=(XY..XY) 1 
    13          1
    14          9
    15         13
    16          2
    24          1
    25          1
    26          8
    27        178
    28         84
    29        262
    30          6
    37          2
    38          4
    39        118
    40         28
    41        477
    42        131
    43        266
    44         12
    45          1
    46          1
    47          1
    50          3
    51          8
    52          6
    53         52
    54         44
    55        491
    56        117
    57        111
    58          5
    59          1
    61          1
    62          1
    63          2
    64          1
    65          8
    66          6
    67         56
    68         24
    69        170
    70        999
    71        260
    72         13
    73          1
    74          1
    75          1
    76          1
    77          6
    78          3
    79          8
    80          3
    81         21
    82         21
    83        161
    84         41
    85         22
    86          2
    89          1
    91          5
    92          1
    93          1
    94          1
    95          7
    96          6
    97         52
    98         12
    99          2
   103          1
   104          1
   105          2
   106          1
   107          1
   109          3
   110          1
   111         27
   112          5
   113          1
   115          1
   117          1
   119          1
   123          1
   124          1
   125          7
   126          8
   127          1
   133          1
   138          1
   139          2
   140          2
   141          1
   143          1
   145          1
   147          1
   153          1
   154          1
   155          1
   166          3
   167         13
   168          5
   169          1
   181          1
   193          1
   194          1
   196         27
   197          4
   198          1