##TITLE=Library Entry 35157
##JCAMP-DX=Revision 4.10 
##DATA TYPE=MASS SPECTRUM
##SAMPLE DESCRIPTION=NIST Mass Spectrometry Data Center, 1990.
##NAMES=HP
##CAS NAME=Dimethyl 2-methyladipate
##MOLFORM=C9H16O4
##CAS REGISTRY NO=19780-94-0
##MP= -300
##BP= -300
##MW= 188
##$RETENTION INDEX=1245
##$CONDENSED SPECTRUM=NO
##NPOINTS= 61
##XYDATA=(XY..XY) 1 
    14         28
    15         77
    26         18
    27        126
    28         29
    29        141
    30         17
    31         60
    39        207
    40         69
    41        506
    42        277
    43        214
    44         20
    45        108
    48         27
    49         28
    51         17
    53         85
    55        538
    56        167
    57        222
    59        991
    60         33
    65         20
    67         73
    68        308
    69        999
    70         79
    71         51
    72         18
    73         82
    74        337
    75         18
    81         31
    82         37
    83         46
    85         63
    87        299
    88        947
    89         43
    95         21
    96        118
    97        480
    98         39
    99         22
   100         46
   101        183
   102         35
   113        156
   114        132
   115        334
   116         23
   124         27
   125         51
   128        607
   129        346
   130         28
   156         66
   157        263
   158         24