##TITLE=Library Entry 69165
##JCAMP-DX=Revision 4.10 
##DATA TYPE=MASS SPECTRUM
##SAMPLE DESCRIPTION=A.Pleshkova, Nesmeyanov Inst.Org.Elem.Cpds, Moscow
##NAMES=HP
##CAS NAME=N-(1,1-Dimethyl-2-propynyl)-N,N-dimethylamine
##MOLFORM=C7H13N
##CAS REGISTRY NO=19788-24-0
##MP= -300
##BP= -300
##MW= 111
##$RETENTION INDEX=0
##$CONDENSED SPECTRUM=NO
##NPOINTS= 17
##XYDATA=(XY..XY) 1 
    27         12
    28         46
    29          4
    39         43
    41         70
    42        113
    43          5
    44        132
    45          7
    53         67
    56        108
    57          7
    81         26
    96        999
    97         36
   111         31
   112          3