##TITLE=Library Entry 29655
##JCAMP-DX=Revision 4.10 
##DATA TYPE=MASS SPECTRUM
##SAMPLE DESCRIPTION=NIST Mass Spectrometry Data Center, 1990.
##NAMES=HP
##CAS NAME=3-Hexanol, 4-ethyl-
##MOLFORM=C8H18O
##CAS REGISTRY NO=19780-44-0
##MP= -300
##BP= -300
##MW= 130
##$RETENTION INDEX=953
##$CONDENSED SPECTRUM=NO
##NPOINTS= 28
##XYDATA=(XY..XY) 1 
    15         10
    27        130
    28         66
    29        162
    30         10
    31        191
    32         11
    39         81
    41        225
    42         41
    43        178
    44         13
    45         51
    53         23
    55        188
    56         20
    57        116
    58        207
    59        999
    60         33
    69         17
    70        129
    71         47
    72         14
    83         92
    84          9
   101         96
   102          8