##TITLE=Library Entry 20691
##JCAMP-DX=Revision 4.10 
##DATA TYPE=MASS SPECTRUM
##SAMPLE DESCRIPTION=NIST Mass Spectrometry Data Center, 1990.
##NAMES=HP
##CAS NAME=4-Ethyl-2-hexene
##MOLFORM=C8H16
##CAS REGISTRY NO=19780-46-2
##MP= -300
##BP= -300
##MW= 112
##$RETENTION INDEX=0
##$CONDENSED SPECTRUM=NO
##NPOINTS= 33
##XYDATA=(XY..XY) 1 
    26         10
    27         84
    28         33
    29         73
    39        154
    40         29
    41        243
    42         34
    43         42
    44          8
    50         16
    51         28
    52         14
    53         77
    54          8
    55        999
    56         57
    63          8
    65         28
    66         12
    67         91
    68         29
    69         54
    70         49
    77         17
    79         18
    81         17
    83        569
    84         84
    85          4
    97         11
   112        168
   113         15