##TITLE=Library Entry 87134
##JCAMP-DX=Revision 4.10 
##DATA TYPE=MASS SPECTRUM
##SAMPLE DESCRIPTION=Exported from NIST MS Search
##NAMES=HP
##CAS NAME=Cyclohexanone, 2-[(3,5-dimethyl-4-isoxazolyl)methyl]-
##MOLFORM=C12H17NO2
##CAS REGISTRY NO=19788-40-0
##MP= -300
##BP= -300
##MW= 207
##$RETENTION INDEX=0
##$CONDENSED SPECTRUM=NO
##NPOINTS= 14
##XYDATA=(XY..XY) 1 
    42        100
    43        350
    44         20
    68        460
    69         40
    95        170
    96         20
    98         90
   110        999
   111         70
   136         50
   150         60
   207        230
   208         30