##TITLE=Library Entry 24062
##JCAMP-DX=Revision 4.10 
##DATA TYPE=MASS SPECTRUM
##SAMPLE DESCRIPTION=NIST Mass Spectrometry Data Center, 1990.
##NAMES=HP
##CAS NAME=2-Ethyl-1-dodecanol
##MOLFORM=C14H30O
##CAS REGISTRY NO=19780-33-7
##MP= -300
##BP= -300
##MW= 214
##$RETENTION INDEX=2090
##$CONDENSED SPECTRUM=NO
##NPOINTS= 48
##XYDATA=(XY..XY) 1 
    27        170
    28         95
    29        371
    31        180
    39        122
    41        764
    42        179
    43        859
    44         39
    45         23
    53         55
    54         69
    55        633
    56        315
    57        999
    58         46
    59         20
    66         12
    67         90
    68         65
    69        371
    70        461
    71        597
    72        136
    81         42
    82        103
    83        349
    84        171
    85        297
    86         19
    95         20
    96         86
    97        342
    98        103
    99         54
   110         42
   111        203
   112         65
   113         29
   124         22
   125         77
   126         34
   127         19
   139         25
   140         21
   167         18
   168         30
   196         18