##TITLE=Library Entry 2686
##JCAMP-DX=Revision 4.10 
##DATA TYPE=MASS SPECTRUM
##SAMPLE DESCRIPTION=RADIAN CORP
##NAMES=HP
##CAS NAME=2-Dodecen-1-yl(-)succinic anhydride
##MOLFORM=C16H26O3
##CAS REGISTRY NO=19780-11-1
##MP= -300
##BP= -300
##MW= 266
##$RETENTION INDEX=1966
##$CONDENSED SPECTRUM=NO
##NPOINTS= 120
##XYDATA=(XY..XY) 1 
    27        216
    28         74
    29        354
    30          4
    32         16
    39        234
    40         49
    41        999
    42         87
    43        899
    44         45
    45         17
    51         38
    52         25
    53        227
    54         51
    55        971
    56        134
    57        561
    58         27
    63          3
    65        100
    66         35
    67        374
    68         73
    69        822
    70        192
    71        292
    72         26
    73         16
    77        178
    78         33
    79        280
    80         46
    81        350
    82        165
    83        530
    84        152
    85        194
    86         13
    91        172
    92         26
    93        213
    94         48
    95        351
    96        241
    97        387
    98         91
    99         83
   100         27
   103          1
   105         67
   106         15
   107        194
   108         59
   109        334
   110        167
   111        223
   112         37
   113         13
   115          2
   117         12
   119         36
   120          1
   121        160
   122         62
   123        258
   124         91
   125         86
   126         19
   127         23
   131         18
   133         24
   135        131
   136         57
   137        217
   138         47
   139         54
   140         19
   141         24
   145         24
   147         16
   149         96
   150         41
   151         93
   152         27
   153         32
   154         27
   155         22
   156          2
   159         20
   163         76
   164         48
   165         76
   166         89
   167         68
   168         51
   169         15
   173         11
   177         49
   178         28
   179         27
   180         19
   181         66
   182         57
   183         12
   191         35
   192         13
   193         11
   195         60
   196         42
   197          1
   205         21
   209         61
   210         24
   219         10
   221          2
   223         37
   237         22
   266         15