##TITLE=Library Entry 16823
##JCAMP-DX=Revision 4.10 
##DATA TYPE=MASS SPECTRUM
##SAMPLE DESCRIPTION=NIST Mass Spectrometry Data Center, 1990.
##NAMES=HP
##CAS NAME=6-Heptene-2,4-diol
##MOLFORM=C7H14O2
##CAS REGISTRY NO=19781-76-1
##MP= -300
##BP= -300
##MW= 130
##$RETENTION INDEX=927
##$CONDENSED SPECTRUM=NO
##NPOINTS= 39
##XYDATA=(XY..XY) 1 
    14          5
    15         44
    16          1
    18         17
    19         60
    26         19
    27        159
    28         56
    29        118
    30          1
    31         43
    32          5
    38         23
    39        185
    40         50
    41        295
    42        172
    43        550
    44         75
    45        999
    46         19
    47         30
    51         13
    53         40
    55         39
    57         18
    58          9
    67        100
    68         78
    69         53
    70         25
    71        247
    72         12
    73         12
    77         13
    79         23
    87         10
    89        201
    97         12