##TITLE=Library Entry 51463
##JCAMP-DX=Revision 4.10 
##DATA TYPE=MASS SPECTRUM
##SAMPLE DESCRIPTION=Japan AIST/NIMC Database- Spectrum MS-NW-5967
##NAMES=HP
##CAS NAME=n-Heptadecylcyclohexane
##MOLFORM=C23H46
##CAS REGISTRY NO=19781-73-8
##MP= -300
##BP= -300
##MW= 322
##$RETENTION INDEX=0
##$CONDENSED SPECTRUM=NO
##NPOINTS= 92
##XYDATA=(XY..XY) 1 
    27         19
    28          6
    29         62
    30          1
    39         18
    40          4
    41        180
    42         35
    43        218
    44          8
    53         12
    54         29
    55        324
    56         56
    57        158
    58          7
    65          2
    66          3
    67         86
    68         36
    69        110
    70         39
    71         69
    72          4
    77          3
    79          7
    80          3
    81         30
    82        999
    83        799
    84         69
    85         41
    86          3
    91          1
    93          1
    95          9
    96         35
    97         98
    98         17
    99          9
   109          6
   110          9
   111         39
   112         11
   113          6
   123          2
   124          6
   125         21
   126          9
   127          4
   137          1
   138          6
   139         16
   140          9
   141          3
   152          4
   153          9
   154          7
   155          2
   166          3
   167          8
   168          5
   169          2
   180          2
   181          5
   182          3
   183          2
   194          2
   195          3
   196          3
   197          1
   208          1
   209          2
   210          7
   211          2
   222          1
   223          1
   224          1
   225          1
   237          1
   238         41
   239         16
   240          3
   251          1
   265          1
   266          1
   294          2
   320          1
   321          2
   322        164
   323         43
   324          6