##TITLE=Library Entry 16710
##JCAMP-DX=Revision 4.10 
##DATA TYPE=MASS SPECTRUM
##SAMPLE DESCRIPTION=Japan AIST/NIMC Database- Spectrum MS-NW-8944
##NAMES=HP
##CAS NAME=Ethyl 2,3-epoxybutyrate
##MOLFORM=C6H10O3
##CAS REGISTRY NO=19780-35-9
##MP= -300
##BP= -300
##MW= 130
##$RETENTION INDEX=962
##$CONDENSED SPECTRUM=NO
##NPOINTS= 59
##XYDATA=(XY..XY) 1 
    14          5
    15         19
    18          2
    26         28
    27        186
    28         92
    29        596
    30         33
    31         77
    32          5
    38          3
    39         23
    40          9
    41         37
    42         30
    43        166
    44         14
    45        999
    46         28
    47          7
    53          2
    54          1
    55         27
    56         16
    57        325
    58        135
    59         13
    60          3
    61          6
    68          4
    69         57
    70          8
    71         44
    72          3
    73        172
    74        179
    75         19
    76         13
    83          2
    84         83
    85        122
    86         12
    87         39
    88          6
    89          2
    99          7
   100          1
   101          5
   102        334
   103         20
   104          7
   113          2
   114          1
   115         19
   116          2
   128          1
   129          2
   130          1
   131          2