##TITLE=Library Entry 32786
##JCAMP-DX=Revision 4.10 
##DATA TYPE=MASS SPECTRUM
##SAMPLE DESCRIPTION=NIST Mass Spectrometry Data Center, 1990.
##NAMES=HP
##CAS NAME=Ethylidenecyclooctane
##MOLFORM=C10H18
##CAS REGISTRY NO=19780-51-9
##MP= -300
##BP= -300
##MW= 138
##$RETENTION INDEX=0
##$CONDENSED SPECTRUM=NO
##NPOINTS= 49
##XYDATA=(XY..XY) 1 
    14         13
    15         12
    16          8
    26         25
    27        221
    28         19
    29        156
    39        449
    40        104
    41        629
    42         98
    43         68
    50         30
    51         90
    52         54
    53        269
    54        217
    55        514
    56         76
    57         13
    63         25
    65        114
    67        999
    68        283
    69        174
    70        149
    71         38
    77        115
    78         32
    79        209
    80        108
    81        833
    82        293
    83         92
    84         15
    91         52
    92          9
    93         43
    94          9
    95        324
    96        138
    97         16
   107         11
   109        393
   110        330
   111         30
   123         12
   138        213
   139         25