##TITLE=Library Entry 29702
##JCAMP-DX=Revision 4.10 
##DATA TYPE=MASS SPECTRUM
##SAMPLE DESCRIPTION=NIST Mass Spectrometry Data Center, 1990.
##NAMES=HP
##CAS NAME=2,3-Dimethyl-4-penten-2-ol
##MOLFORM=C7H14O
##CAS REGISTRY NO=19781-52-3
##MP= -300
##BP= -300
##MW= 114
##$RETENTION INDEX=0
##$CONDENSED SPECTRUM=NO
##NPOINTS= 39
##XYDATA=(XY..XY) 1 
    15          9
    26          7
    27         61
    28          7
    29         41
    30          7
    31        114
    38         12
    39         92
    40         22
    41        134
    42          7
    43        348
    44         12
    45          8
    50         14
    51         25
    52         10
    53         48
    54         16
    55         72
    56         71
    57         15
    58          8
    59        999
    60         39
    65          9
    66          5
    67         15
    69         20
    70          6
    71         12
    77         13
    79         36
    81         70
    82          6
    96         21
    97          7
    99         23