##TITLE=Library Entry 20114
##JCAMP-DX=Revision 4.10 
##DATA TYPE=MASS SPECTRUM
##SAMPLE DESCRIPTION=NIST Mass Spectrometry Data Center, 1990.
##NAMES=HP
##CAS NAME=3-Ethyl-3-octene
##MOLFORM=C10H20
##CAS REGISTRY NO=19781-31-8
##MP= -300
##BP= -300
##MW= 140
##$RETENTION INDEX=0
##$CONDENSED SPECTRUM=NO
##NPOINTS= 44
##XYDATA=(XY..XY) 1 
    15          5
    27         97
    28          6
    29         93
    39        130
    40         32
    41        328
    42         37
    43         71
    44          4
    50          8
    51         27
    52         14
    53         91
    54          4
    55        999
    56         97
    57         32
    63          8
    65         33
    66         17
    67        128
    68          8
    69        887
    70        114
    71         12
    77         26
    78          5
    79         34
    80          6
    81         44
    82         10
    83         36
    84        176
    85         32
    91          7
    95          7
    97        145
    98         19
   110         16
   111        151
   112         18
   140        144
   141         17