##TITLE=Library Entry 33356
##JCAMP-DX=Revision 4.10 
##DATA TYPE=MASS SPECTRUM
##SAMPLE DESCRIPTION=Japan AIST/NIMC Database- Spectrum MS-NW-2211
##NAMES=HP
##CAS NAME=4-Heptyn-2-ol
##MOLFORM=C7H12O
##CAS REGISTRY NO=19781-81-8
##MP= -300
##BP= -300
##MW= 112
##$RETENTION INDEX=0
##$CONDENSED SPECTRUM=NO
##NPOINTS= 67
##XYDATA=(XY..XY) 1 
    14          4
    15         30
    16          1
    17          2
    18          7
    26         11
    27        131
    28         10
    29         43
    30          1
    31         12
    32          2
    37          9
    38         21
    39        182
    40        160
    41        289
    42        104
    43        238
    44         16
    45        827
    46         17
    47          3
    49          4
    50         28
    51         55
    52         38
    53        410
    54         21
    55         34
    56          6
    57         13
    58          7
    59          1
    61          6
    62         12
    63         22
    64          5
    65         44
    66         50
    67        796
    68        999
    69         81
    70         32
    71          3
    74          2
    75          1
    77         35
    78          5
    79         37
    80          4
    81          5
    82         11
    83         13
    84          5
    85          1
    91          9
    92          1
    93          6
    94         10
    95          9
    96          1
    97         86
    98          6
   110          2
   111          3
   112          3