##TITLE=Library Entry 35154
##JCAMP-DX=Revision 4.10 
##DATA TYPE=MASS SPECTRUM
##SAMPLE DESCRIPTION=Chemical Concepts
##NAMES=HP
##CAS NAME=3-Octanol, 6-ethyl-
##MOLFORM=C10H22O
##CAS REGISTRY NO=19781-27-2
##MP= -300
##BP= -300
##MW= 158
##$RETENTION INDEX=0
##$CONDENSED SPECTRUM=NO
##NPOINTS= 90
##XYDATA=(XY..XY) 1 
    25          0
    26          3
    27        151
    28          3
    29        258
    30          9
    31        206
    33          0
    34          0
    37          0
    38          1
    39         68
    40         24
    41        347
    42         67
    43        416
    44         33
    45         74
    46          2
    47          0
    48          0
    49          0
    50          0
    51          3
    52          2
    53         22
    54         10
    55        435
    56         55
    57        113
    58        110
    59        934
    60         22
    61          1
    63          0
    65          3
    66          2
    67         18
    68         10
    69        999
    70        187
    71        107
    72         10
    73         12
    74          0
    77          2
    78          0
    79          3
    80          1
    81         16
    82          4
    83         87
    84        187
    85         77
    86          4
    87          7
    88         13
    89          1
    91          0
    95          4
    96          1
    97         11
    98         54
    99         15
   100          4
   101          1
   103          0
   109          3
   110         25
   111        341
   112         43
   113          7
   114          0
   115          2
   117          2
   125          0
   127          0
   128          7
   129        255
   130         20
   131          1
   139          1
   140        106
   141         13
   143          0
   155          0
   156          0
   157          2
   158          0
   159          0