##TITLE=Library Entry 32823
##JCAMP-DX=Revision 4.10 
##DATA TYPE=MASS SPECTRUM
##SAMPLE DESCRIPTION=Japan AIST/NIMC Database- Spectrum MS-NW-5315
##NAMES=HP
##CAS NAME=8-Hexadecyne
##MOLFORM=C16H30
##CAS REGISTRY NO=19781-86-3
##MP= -300
##BP= -300
##MW= 222
##$RETENTION INDEX=0
##$CONDENSED SPECTRUM=NO
##NPOINTS= 144
##XYDATA=(XY..XY) 1 
    14          2
    15          4
    25          1
    26          9
    27        184
    28         20
    29        290
    30          7
    31          1
    36          1
    37          1
    38          5
    39        151
    40         32
    41        615
    42         86
    43        556
    44         18
    45          2
    50          7
    51         31
    52         55
    53        142
    54        624
    55        679
    56        117
    57        134
    58          7
    59          1
    60          3
    61          1
    62          2
    63          9
    64          3
    65         62
    66         66
    67        999
    68        312
    69        330
    70         47
    71         26
    72          2
    73          2
    74          1
    75          1
    76          1
    77         82
    78         24
    79        171
    80         71
    81        987
    82        411
    83        248
    84         32
    85         12
    86          1
    87          1
    89          2
    90          1
    91         56
    92         11
    93         68
    94         24
    95        635
    96        249
    97        122
    98         15
    99          3
   101          1
   102          1
   103          3
   104          2
   105         13
   106          3
   107         25
   108         11
   109        311
   110        184
   111         40
   112          4
   113          4
   115          4
   116          1
   117          4
   118          1
   119          4
   120          1
   121         11
   122          6
   123        210
   124         61
   125          9
   126          1
   127          2
   128          2
   129          2
   130          1
   131          1
   133          3
   134          1
   135          6
   136          3
   137         56
   138         26
   139          6
   140          1
   141          1
   143          1
   145          1
   147          1
   149          2
   150          1
   151         32
   152         13
   153          6
   154          2
   155          1
   161          1
   163          3
   164          1
   165         29
   166          8
   167          3
   168          1
   177          1
   178          2
   179         42
   180         16
   181          3
   191          2
   192          1
   193         10
   194          2
   195          1
   202          1
   203          1
   204          1
   207          2
   208          1
   218          1
   220          2
   221          1
   222          4
   223          1