##TITLE=Library Entry 24046
##JCAMP-DX=Revision 4.10 
##DATA TYPE=MASS SPECTRUM
##SAMPLE DESCRIPTION=NIST Mass Spectrometry Data Center, 1990.
##NAMES=HP
##CAS NAME=2-Hexyl-1-octanol
##MOLFORM=C14H30O
##CAS REGISTRY NO=19780-79-1
##MP= -300
##BP= -300
##MW= 214
##$RETENTION INDEX=2116
##$CONDENSED SPECTRUM=NO
##NPOINTS= 47
##XYDATA=(XY..XY) 1 
    27        161
    28         88
    29        349
    30         15
    31         94
    39        102
    41        632
    42        130
    43        804
    44         41
    53         49
    54         64
    55        549
    56        312
    57        999
    58         48
    66         23
    67        107
    68         90
    69        418
    70        258
    71        522
    72         34
    79         19
    81         69
    82        110
    83        272
    84        164
    85        294
    86         27
    95         30
    96         54
    97        209
    98        101
    99         72
   110         74
   111        207
   112         75
   113         36
   124         22
   125         63
   126         46
   127         26
   128         20
   139         20
   168         25
   196         26