##TITLE=Library Entry 16880
##JCAMP-DX=Revision 4.10 
##DATA TYPE=MASS SPECTRUM
##SAMPLE DESCRIPTION=NIST Mass Spectrometry Data Center, 1990.
##NAMES=HP
##CAS NAME=3,5-Dimethyl-2-octanol
##MOLFORM=C10H22O
##CAS REGISTRY NO=19781-09-0
##MP= -300
##BP= -300
##MW= 158
##$RETENTION INDEX=0
##$CONDENSED SPECTRUM=NO
##NPOINTS= 38
##XYDATA=(XY..XY) 1 
    19         15
    27        133
    28          8
    29        165
    31         27
    39        156
    40         53
    41        486
    42        156
    43        840
    45        999
    46         24
    53         75
    55        530
    56        181
    57        460
    58         53
    59         25
    65         18
    67         50
    69        389
    70        634
    71        728
    72         74
    73         15
    77         14
    81         19
    83        112
    84        200
    85        165
    97        135
    98         31
   111         62
   112        187
   113        116
   114         39
   140         43
   143         18