##TITLE=Library Entry 31362
##JCAMP-DX=Revision 4.10 
##DATA TYPE=MASS SPECTRUM
##SAMPLE DESCRIPTION=Japan AIST/NIMC Database- Spectrum MS-IW-3838
##NAMES=HP
##CAS NAME=Propanoic acid, 2-mercapto-, ethyl ester
##MOLFORM=C5H10O2S
##CAS REGISTRY NO=19788-49-9
##MP= -300
##BP= -300
##MW= 134
##$RETENTION INDEX=897
##$CONDENSED SPECTRUM=NO
##NPOINTS= 74
##XYDATA=(XY..XY) 1 
    14          1
    15          6
    18          1
    19          1
    25          1
    26         21
    27        131
    28         49
    29        230
    30          6
    31          5
    32          4
    33          7
    34          6
    35         59
    36          1
    37          3
    39          1
    41          4
    42          3
    43         15
    44          9
    45         60
    46          9
    47         14
    48          1
    53          3
    54          2
    55         40
    56         44
    57         10
    58         24
    59         90
    60        283
    61        999
    62         66
    63         62
    64          3
    65          1
    72          2
    73         26
    74         13
    75          7
    76          1
    77          8
    78          3
    87          4
    88        306
    89         68
    90         18
    91         11
    92          1
    93          1
    96          1
    97         12
    98          1
    99          8
   101          3
   102          3
   104          1
   105          8
   106         40
   107          3
   108          2
   116          1
   119          8
   120          2
   121          1
   132          1
   133          1
   134        448
   135         30
   136         22
   137          1