##TITLE=Library Entry 79405
##JCAMP-DX=Revision 4.10 
##DATA TYPE=MASS SPECTRUM
##SAMPLE DESCRIPTION=Exported from NIST MS Search
##NAMES=HP
##CAS NAME=Benzeneacetonitrile, .alpha.-(benzoyloxy)-4-chloro-
##MOLFORM=C15H10ClNO2
##CAS REGISTRY NO=19788-56-8
##MP= -300
##BP= -300
##MW= 271
##$RETENTION INDEX=0
##$CONDENSED SPECTRUM=NO
##NPOINTS= 33
##XYDATA=(XY..XY) 1 
    50         40
    51        118
    62         16
    63         27
    64         13
    73          6
    74         10
    75         20
    76          6
    77        202
    78          6
    88         16
   105        999
   106         67
   110         16
   113         54
   114         27
   123         33
   124         33
   125          6
   139         50
   141         10
   149         84
   150        202
   151         50
   152         57
   165         10
   191          6
   226          6
   271        162
   272         27
   273         50
   274          6