##TITLE=Library Entry 9139
##JCAMP-DX=Revision 4.10 
##DATA TYPE=MASS SPECTRUM
##SAMPLE DESCRIPTION=NIST Mass Spectrometry Data Center, 1990.
##NAMES=HP
##CAS NAME=3,5-Dimethyl-2-octanone
##MOLFORM=C10H20O
##CAS REGISTRY NO=19781-14-7
##MP= -300
##BP= -300
##MW= 156
##$RETENTION INDEX=1077
##$CONDENSED SPECTRUM=NO
##NPOINTS= 24
##XYDATA=(XY..XY) 1 
    15         33
    27        101
    28         66
    29        101
    39         97
    41        244
    43        999
    44         27
    45         10
    53         30
    55        137
    57        287
    58         16
    67         19
    69         61
    70         28
    71        207
    72        981
    73         51
    83         13
    84         55
    85        148
    86         13
   113         18