##TITLE=Library Entry 60289
##JCAMP-DX=Revision 4.10 
##DATA TYPE=MASS SPECTRUM
##SAMPLE DESCRIPTION=Drug Lab
##NAMES=HP
##CAS NAME=3.beta.,17.beta.-dihydroxyestr-4-ene
##MOLFORM=C18H28O2
##CAS REGISTRY NO=19793-20-5
##MP= -300
##BP= -300
##MW= 276
##$RETENTION INDEX=0
##$CONDENSED SPECTRUM=NO
##NPOINTS= 209
##XYDATA=(XY..XY) 1 
    38          1
    39        104
    40         26
    41        357
    42         27
    43        200
    44         35
    45         20
    46          1
    50          5
    51         37
    52         22
    53        198
    54         38
    55        406
    56         28
    57        198
    58         22
    59          5
    60          1
    61          1
    62          1
    63         14
    64          8
    65        149
    66         52
    67        399
    68         72
    69         93
    70         25
    71         53
    72          8
    73          2
    74          2
    75          3
    76          6
    77        363
    78        136
    79        563
    80         95
    81        342
    82         74
    83        105
    84         21
    85         16
    86         11
    87          3
    88          1
    89         15
    90          8
    91        999
    92        314
    93        416
    94        203
    95        363
    96        134
    97        118
    98         16
    99          6
   100          2
   101          4
   102         13
   103         71
   104        131
   105        394
   106        152
   107        306
   108        154
   109        259
   110        215
   111         50
   112          5
   113          2
   114          2
   115        137
   116         58
   117        248
   118         94
   119        220
   120        127
   121        168
   122        132
   123        116
   124         25
   125          7
   126          3
   127         27
   128        102
   129        178
   130         81
   131        280
   132         99
   133        217
   134         77
   135        163
   136         97
   137         31
   138         10
   139         12
   140          6
   141         49
   142         34
   143        132
   144        126
   145        208
   146        149
   147        193
   148         86
   149        134
   150         35
   151         90
   152         23
   153         17
   154         17
   155         27
   156         16
   157         79
   158         62
   159        158
   160         72
   161         74
   162         76
   163         33
   164         55
   165         23
   166          7
   167          8
   168          4
   169         26
   170         11
   171         63
   172         38
   173         65
   174         89
   175         42
   176         16
   177         14
   178          6
   179          3
   180          1
   181          3
   182          2
   183         35
   184         16
   185        135
   186         58
   187         65
   188         29
   189         20
   190          8
   191          4
   192          2
   194          1
   195          2
   196          1
   197         28
   198         21
   199        156
   200        132
   201         65
   202         22
   203         35
   204         28
   205         13
   206          9
   207          1
   210          1
   211         12
   212         14
   213         11
   214         56
   215         26
   216         13
   217         28
   218        151
   219         29
   220          5
   221          1
   225         57
   226         11
   227          4
   228          1
   229         28
   230         14
   231          4
   232         13
   233          7
   234          1
   239          5
   240         33
   241          8
   242          2
   243         44
   244          9
   245          1
   247          8
   248          3
   256          3
   257          4
   258        206
   259         42
   260          6
   261          5
   262          1
   274          3
   275         14
   276        137
   277         27
   278          2