##TITLE=Library Entry 64406
##JCAMP-DX=Revision 4.10 
##DATA TYPE=MASS SPECTRUM
##SAMPLE DESCRIPTION=A.A.Kutin, Moscow, Russia
##NAMES=HP
##CAS NAME=Benzene-1,4-dicarboxamide, N,N'-dibenzyl-N,N'-dimethyl-
##MOLFORM=C24H24N2O2
##CAS REGISTRY NO=197961-05-0
##MP= -300
##BP= -300
##MW= 372
##$RETENTION INDEX=0
##$CONDENSED SPECTRUM=NO
##NPOINTS= 228
##XYDATA=(XY..XY) 1 
    34          0
    36          1
    38          5
    39         41
    40         11
    41         25
    42        165
    43         13
    44         21
    45          1
    50         36
    51         57
    52         11
    53          3
    54          0
    55          3
    56          3
    57          3
    58         24
    59          1
    61          0
    62          4
    63         27
    64         10
    65        167
    66         15
    67          0
    68          1
    69          1
    70          1
    71          1
    73         15
    74          6
    75         31
    76        229
    77        127
    78         32
    79         28
    80          2
    81          1
    82          1
    83          2
    84          1
    86          0
    87          1
    89         39
    91        999
    92         79
    93          3
    94          1
    95          0
    96          1
    97          1
    98          1
    99          0
   101          0
   102          8
   103         28
   104        190
   105         91
   106         44
   107         13
   108          2
   109          0
   111          2
   112          2
   113          0
   115          4
   116          5
   117         19
   118         54
   119         16
   120        309
   121         33
   122         10
   123          1
   124          0
   125          3
   126          7
   127          3
   128          5
   129          2
   130         22
   131          4
   132         22
   133        340
   134         39
   135          4
   136          0
   138          0
   139          2
   141         94
   142         11
   143          2
   144          1
   145          2
   146          9
   147          9
   148          4
   149          1
   150          1
   151          6
   152         36
   153         14
   154          3
   155          6
   156          1
   157          0
   158          3
   160         23
   161          4
   162         60
   163         10
   164          6
   165         76
   166         47
   167         29
   168          5
   169          4
   170          1
   171          7
   172          2
   173          5
   174          9
   175         18
   176          3
   177          3
   178          7
   179          5
   180         12
   181         21
   182          4
   183          1
   184          1
   185          2
   186         15
   189          0
   190          2
   191          2
   192          9
   193         25
   194         24
   195         24
   196          6
   197          2
   198         52
   199          8
   200          3
   201          0
   203          9
   204          1
   205          0
   206          2
   207          2
   208          5
   209          8
   210          2
   211          0
   212          1
   215          0
   218          0
   219          1
   220          2
   221          9
   222         10
   223         30
   224         56
   225        277
   226         50
   227          3
   229          0
   233          0
   234          1
   235          6
   236         15
   237          6
   238          2
   239          1
   240          0
   241          0
   243          0
   249          7
   250        101
   251         27
   252        231
   253         57
   254          7
   255          1
   262          0
   263          7
   264          1
   265          5
   266          2
   267          2
   268          0
   269          0
   278          0
   279          4
   281        728
   282        142
   283         17
   284          2
   293          1
   294          8
   295          1
   296          0
   300          0
   301          0
   312          0
   313          0
   314          2
   315         19
   316          4
   317          0
   326          1
   328          1
   329          1
   330          0
   341          0
   342          0
   343          0
   357          3
   358          1
   359          0
   371         80
   372         87
   373         21
   374          2