##TITLE=Library Entry 26127
##JCAMP-DX=Revision 4.10 
##DATA TYPE=MASS SPECTRUM
##SAMPLE DESCRIPTION=R. HERZSCHUH, SECT. CHEM., KARL-MARX UNIV., LEIPZIG, GD
R
##NAMES=HP
##CAS NAME=trans-3-tert-butylcycloheptanol
##MOLFORM=C11H22O
##CAS REGISTRY NO=19790-14-8
##MP= -300
##BP= -300
##MW= 170
##$RETENTION INDEX=0
##$CONDENSED SPECTRUM=NO
##NPOINTS= 14
##XYDATA=(XY..XY) 1 
    57        999
    67        280
    81        420
    95        360
    96        770
   109         40
   113        250
   124         19
   137         66
   152         85
   153         29
   155         40
   168         37
   170          0