##TITLE=Library Entry 77674
##JCAMP-DX=Revision 4.10 
##DATA TYPE=MASS SPECTRUM
##SAMPLE DESCRIPTION=NIST Mass Spectrometry Data Center, 1994
##NAMES=HP
##CAS NAME=1,3-Phenylenediacetic acid
##MOLFORM=C10H10O4
##CAS REGISTRY NO=19806-17-8
##MP= -300
##BP= -300
##MW= 194
##$RETENTION INDEX=0
##$CONDENSED SPECTRUM=NO
##NPOINTS= 87
##XYDATA=(XY..XY) 1 
    15          4
    16         10
    17          0
    18          6
    26          7
    27         39
    28          1
    29         21
    31         19
    37          4
    38         21
    39         99
    40          7
    41         17
    42          9
    43         22
    44          1
    45        201
    46          9
    47          9
    50         50
    51        134
    52         45
    53         32
    55         23
    59          2
    60          2
    61          5
    62         27
    63         83
    64         16
    65         53
    66         10
    67          6
    69          2
    74         22
    75         22
    77        382
    78        221
    79         73
    80         12
    81          3
    82          6
    86         11
    87          6
    89         22
    91        268
    92         35
    93         35
    94          9
    95          4
    97          6
    98          2
    99          4
   101          8
   102         48
   103        229
   104        999
   105        349
   106         26
   107         33
   108          5
   116          3
   119         18
   121        544
   122         38
   123          3
   125          6
   131         37
   132        121
   133          2
   134          0
   135          1
   137          4
   147         23
   149        984
   150        365
   151         25
   152          3
   163          0
   165          4
   168          8
   176          1
   177          6
   194        325
   195         36
   196          1