##TITLE=Library Entry 46248
##JCAMP-DX=Revision 4.10 
##DATA TYPE=MASS SPECTRUM
##SAMPLE DESCRIPTION=A.A.Kutin, Moscow, Russia
##NAMES=HP
##CAS NAME=Quinoxaline, 2,3-bis(4-bromophenyl)-
##MOLFORM=C20H12Br2N2
##CAS REGISTRY NO=19802-70-1
##MP= -300
##BP= -300
##MW= 438
##$RETENTION INDEX=0
##$CONDENSED SPECTRUM=NO
##NPOINTS= 224
##XYDATA=(XY..XY) 1 
    33          3
    34          5
    35          1
    36          5
    37         10
    38         35
    39         69
    40         44
    41         10
    42          4
    43          9
    44         18
    45          3
    50        768
    51        258
    52         53
    53          9
    54          2
    55          6
    56          3
    57          6
    58          2
    59          1
    60          1
    61         14
    62         54
    63         67
    64         30
    65          8
    66          1
    67          2
    68          1
    69          4
    70          3
    71          3
    74        184
    75        508
    76        999
    77        240
    78         18
    79         15
    80         20
    81         15
    82         22
    83          2
    84          3
    85          6
    86         25
    87         51
    88         53
    89         14
    90          6
    91          6
    93         14
    95          2
    97          4
    98         27
    99         48
   100         40
   101         48
   102        495
   103         53
   104          6
   105          5
   106          2
   107          4
   108          2
   109          3
   110         12
   111         19
   112         26
   113         31
   114         16
   115          8
   116          2
   117          4
   118          2
   119          6
   120          2
   121          3
   122         11
   123         14
   124         12
   125         50
   126         65
   127         38
   128         14
   129          9
   130          2
   131          5
   132          1
   133          1
   134          3
   135          4
   136          2
   137         11
   140        389
   142          1
   143          1
   144          0
   145          1
   146          3
   147          3
   148          4
   149         24
   150         88
   151        300
   152         75
   153         13
   154          6
   155         67
   156          8
   157         65
   158          4
   161          3
   162          4
   163          8
   164          6
   165          2
   166          1
   167          3
   168          1
   169          2
   171          2
   172          1
   173          3
   174         19
   175         30
   176         80
   177        241
   178        407
   179        155
   181        182
   182         17
   183         69
   184         10
   185          1
   186          1
   187          2
   188          6
   189          4
   190          5
   191          1
   193          1
   195          1
   198          1
   199          3
   200          4
   201          7
   202         10
   203         10
   204         12
   205          3
   206          4
   207          1
   208          1
   212          1
   213          1
   214          1
   215          1
   216          1
   217          1
   218          2
   219         16
   220         30
   221         17
   223          1
   224          3
   225          4
   226          4
   227          4
   228          3
   229          2
   230          4
   231          2
   232          3
   233          1
   238          0
   239          0
   240          1
   241          1
   249          2
   250          3
   251         10
   252          9
   253          8
   254          8
   255          3
   256          6
   257         96
   258         20
   259         93
   260         13
   261          1
   275          1
   276          4
   277         16
   278         25
   279         89
   280        129
   281         30
   283         32
   284          6
   285         23
   286          4
   333          1
   334          1
   335          0
   354          0
   355          4
   357          8
   358         30
   359         88
   360         43
   361         78
   362         17
   363          2
   438        120
   439         88
   440        197
   441         71
   442        114
   443         20
   444          2