##TITLE=Library Entry 87530
##JCAMP-DX=Revision 4.10 
##DATA TYPE=MASS SPECTRUM
##SAMPLE DESCRIPTION=RADIAN CORP
##NAMES=HP
##CAS NAME=1H-Pyrrole-3-carboxamide, 2,5-dihydro-2,2,5,5-tetramethyl-
##MOLFORM=C9H16N2O
##CAS REGISTRY NO=19805-75-5
##MP= -300
##BP= -300
##MW= 168
##$RETENTION INDEX=0
##$CONDENSED SPECTRUM=NO
##NPOINTS= 73
##XYDATA=(XY..XY) 1 
    15          7
    18          7
    27         15
    28         65
    29          8
    30          9
    32         17
    38          2
    39         40
    40         14
    41         62
    42        107
    43         12
    44         45
    45          1
    47          5
    50          5
    51         17
    52         16
    53         34
    54          4
    55         13
    56          8
    57          3
    58         15
    61         28
    63          4
    64          1
    65         30
    66         15
    67         46
    68          3
    69         31
    70          2
    76          8
    77         22
    78          7
    79         13
    80         18
    81          9
    82         13
    83          5
    84          4
    91         18
    92         16
    93         78
    94        123
    95        266
    96         23
   105          1
   106         13
   107         15
   108         93
   109         40
   110        999
   111         84
   112          4
   119          7
   120         24
   121          8
   122         30
   123          5
   124          5
   134          4
   135         16
   136         27
   137         11
   138          1
   151          5
   152          2
   153        394
   154         37
   155          2