##TITLE=Library Entry 20554
##JCAMP-DX=Revision 4.10 
##DATA TYPE=MASS SPECTRUM
##SAMPLE DESCRIPTION=RADIAN CORP
##NAMES=HP
##CAS NAME=1,14-Tetradecanediol
##MOLFORM=C14H30O2
##CAS REGISTRY NO=19812-64-7
##MP= -300
##BP= -300
##MW= 230
##$RETENTION INDEX=1924
##$CONDENSED SPECTRUM=NO
##NPOINTS= 36
##XYDATA=(XY..XY) 1 
    27         44
    29        144
    31        398
    39         72
    41        579
    42        128
    43        295
    44         29
    45         30
    53         38
    54        208
    55        999
    56        209
    57        224
    66         35
    67        524
    68        473
    69        574
    70        143
    71         94
    73         45
    79         21
    81        439
    82        672
    83        355
    84         64
    85         39
    95        304
    96        293
    97        160
    98         16
   109        110
   110         78
   111         38
   123         29
   124         12