##TITLE=Library Entry 61899
##JCAMP-DX=Revision 4.10 
##DATA TYPE=MASS SPECTRUM
##SAMPLE DESCRIPTION=NIST Mass Spectrometry Data Center
##NAMES=HP
##CAS NAME=o-Chlorophenethyl alcohol
##MOLFORM=C8H9ClO
##CAS REGISTRY NO=19819-95-5
##MP= -300
##BP= -300
##MW= 156
##$RETENTION INDEX=0
##$CONDENSED SPECTRUM=NO
##NPOINTS= 89
##XYDATA=(XY..XY) 1 
    15          1
    26          4
    27         12
    28          9
    29         17
    30          3
    31         80
    35          1
    36          2
    37          9
    38         18
    39         87
    40          9
    41          8
    43         11
    44          5
    45          6
    46          2
    47          1
    49         10
    50         59
    51         83
    52         12
    53          7
    55          1
    56          1
    59          3
    60          4
    61         18
    62         48
    63        147
    64         32
    65         78
    66          4
    67          1
    72          2
    73         36
    74         27
    75         50
    76         12
    77         53
    78         10
    79          3
    84          5
    85         10
    86         13
    87         14
    88          3
    89        322
    90         95
    91        999
    92         86
    93          5
    96          1
    97          7
    98          3
    99         82
   100          7
   101         41
   102         26
   103         36
   104          5
   111          4
   112         13
   113          3
   114          5
   115          1
   118          1
   119          6
   120         26
   121          9
   122          2
   123          4
   125        866
   126        510
   127        309
   128        169
   129         13
   136          2
   137          9
   138         15
   139          4
   140          5
   152          1
   154          4
   156        316
   157         32
   158        103
   159          8