##TITLE=Library Entry 81135
##JCAMP-DX=Revision 4.10 
##DATA TYPE=MASS SPECTRUM
##SAMPLE DESCRIPTION=Japan AIST/NIMC Database- Spectrum MS-NW-5466
##NAMES=HP
##CAS NAME=Benzeneethanol, 2-methyl-
##MOLFORM=C9H12O
##CAS REGISTRY NO=19819-98-8
##MP= -300
##BP= -300
##MW= 136
##$RETENTION INDEX=1216
##$CONDENSED SPECTRUM=NO
##NPOINTS= 74
##XYDATA=(XY..XY) 1 
    15          2
    18          2
    26          3
    27         42
    28          8
    29          8
    30          1
    31         25
    32          1
    37          3
    38          9
    39         62
    40          8
    41         12
    42          1
    43          6
    44          1
    45          1
    49          1
    50         21
    51         55
    52         16
    53         22
    54          2
    55          2
    57          4
    58          2
    59          1
    61          3
    62         10
    63         31
    64          8
    65         47
    66          6
    67          2
    73          1
    74          8
    75          7
    76          7
    77        138
    78         43
    79        138
    80          9
    85          1
    86          2
    87          3
    89         15
    90          6
    91        210
    92         33
    93          7
    94          1
    98          1
   101          2
   102         10
   103         83
   104         37
   105        999
   106        320
   107         28
   108          1
   115         25
   116          9
   117        101
   118        104
   119         29
   120          3
   121          1
   133          1
   134          5
   135          3
   136        349
   137         35
   138          3