##TITLE=Library Entry 98318
##JCAMP-DX=Revision 4.10 
##DATA TYPE=MASS SPECTRUM
##SAMPLE DESCRIPTION=V.Zaikin,Topchiev Inst.Petrochem.Synth.,Moscow
##NAMES=HP
##CAS NAME=4-Nitrobenzoic acid, 3-phenylpropyl ester
##MOLFORM=C16H15NO4
##CAS REGISTRY NO=19814-57-4
##MP= -300
##BP= -300
##MW= 285
##$RETENTION INDEX=0
##$CONDENSED SPECTRUM=NO
##NPOINTS= 100
##XYDATA=(XY..XY) 1 
    22          2
    26          6
    27          8
    29          5
    30          9
    35          2
    36         14
    37          2
    38          4
    39         15
    40          7
    41          8
    42          1
    43          2
    44         37
    45          2
    49          2
    50         24
    51         18
    52          7
    53          3
    55          2
    58          1
    61          2
    62          3
    63         10
    64          7
    65         55
    66          5
    67          1
    69          1
    73          4
    74         13
    75         28
    76         55
    77         31
    78         21
    79         17
    80          2
    81          4
    82          5
    87          1
    89          8
    90          6
    91        215
    92         48
    93          9
    94          2
    96         10
    97          2
   102          4
   103         36
   104        104
   105         47
   106          5
   107          2
   109          5
   115         33
   116         11
   117        556
   118        999
   119        100
   120         34
   121         24
   122          6
   123          2
   131          1
   132          2
   133          7
   134         12
   135          5
   136          1
   137         36
   138          4
   139          1
   147          1
   148          3
   149          2
   150         92
   151         17
   152          4
   153          3
   163          2
   165          4
   166          2
   167         37
   168          3
   173          1
   176          2
   177          4
   178          1
   179          1
   181          4
   191         10
   192          2
   193          6
   194          2
   255          2
   267          2
   269          1