##TITLE=Library Entry 4497
##JCAMP-DX=Revision 4.10 
##DATA TYPE=MASS SPECTRUM
##SAMPLE DESCRIPTION=A.Pleshkova, Nesmeyanov Inst.Org.Elem.Cpds, Moscow
##NAMES=HP
##CAS NAME=N-Bromaziridine
##MOLFORM=C2H4BrN
##CAS REGISTRY NO=19816-89-8
##MP= -300
##BP= -300
##MW= 121
##$RETENTION INDEX=0
##$CONDENSED SPECTRUM=NO
##NPOINTS= 23
##XYDATA=(XY..XY) 1 
    28        167
    29         41
    30         31
    31         65
    32         11
    39         34
    40        153
    41        479
    42        999
    43        204
    44         37
    45         44
    46         11
    80         24
    82         20
    93         10
    95          9
   106         14
   108         14
   121        269
   122          7
   123        267
   124          7