##TITLE=Library Entry 146
##JCAMP-DX=Revision 4.10 
##DATA TYPE=MASS SPECTRUM
##SAMPLE DESCRIPTION=A.Pleshkova, Nesmeyanov Inst.Org.Elem.Cpds, Moscow
##NAMES=HP
##CAS NAME=Azetidine, 2-methyl-
##MOLFORM=C4H9N
##CAS REGISTRY NO=19812-49-8
##MP= -300
##BP= -300
##MW= 71
##$RETENTION INDEX=0
##$CONDENSED SPECTRUM=NO
##NPOINTS= 20
##XYDATA=(XY..XY) 1 
    26         23
    27        130
    28        999
    29        155
    30        745
    31        105
    32          8
    39         70
    40         43
    41        173
    42        648
    43        393
    44        125
    45         38
    55         13
    56        363
    57         30
    70         95
    71        295
    72         30