##TITLE=Library Entry 31673
##JCAMP-DX=Revision 4.10 
##DATA TYPE=MASS SPECTRUM
##SAMPLE DESCRIPTION=K.-C.Ting ET AL.JAOAC, 81, 93(1998)
##NAMES=HP
##CAS NAME=2,4-Dichlorophenoxyacetic acid, 2-chloroethyl ester
##MOLFORM=C10H9Cl3O3
##CAS REGISTRY NO=19810-30-1
##MP= -300
##BP= -300
##MW= 282
##$RETENTION INDEX=0
##$CONDENSED SPECTRUM=NO
##NPOINTS= 110
##XYDATA=(XY..XY) 1 
    51         87
    52          9
    53         21
    54          1
    55         13
    57         13
    59         17
    60         14
    61         73
    62        160
    63        999
    64         41
    65        246
    66          6
    71          8
    72         40
    73        164
    74        256
    75        331
    76         31
    77        342
    78         11
    79         96
    82         37
    83         63
    84         72
    85         26
    87         39
    88         24
    89          3
    93         53
    94          5
    95         17
    96          6
    97         57
    98         45
    99         34
   100         19
   107         36
   108         15
   109        409
   110        106
   111        471
   112        116
   113        110
   114         23
   119          7
   121        107
   123         31
   125          2
   126         28
   127          4
   128         21
   133        255
   134         12
   135        160
   136          7
   137         22
   138          2
   139         19
   140          9
   141          8
   145        486
   146         40
   147        389
   148         26
   149        108
   150          6
   151          8
   155          9
   156          2
   157          1
   161        260
   162        175
   163        171
   164        114
   165         29
   166         16
   173          9
   175        740
   176         58
   177        454
   178         36
   179         72
   180          6
   183         28
   184          5
   185         62
   186          4
   187         14
   189          4
   191          1
   205         30
   207         19
   211          8
   219         14
   220         12
   221          6
   222          3
   246          2
   247         36
   248          4
   249         17
   282        200
   283         23
   284        185
   285         19
   286         59
   287          5
   288          5