##TITLE=Library Entry 61411
##JCAMP-DX=Revision 4.10 
##DATA TYPE=MASS SPECTRUM
##SAMPLE DESCRIPTION=NIST Mass Spectrometry Data Center
##NAMES=HP
##CAS NAME=1,3-Diphenylacetone p-tosylhydrazone
##MOLFORM=C22H22N2O2S
##CAS REGISTRY NO=19816-88-7
##MP= -300
##BP= -300
##MW= 378
##$RETENTION INDEX=0
##$CONDENSED SPECTRUM=NO
##NPOINTS= 100
##XYDATA=(XY..XY) 1 
    27         10
    38          9
    39         89
    40          3
    41         25
    43         11
    45         18
    48          7
    50         52
    51        134
    52         31
    53         14
    61         10
    62         34
    63        119
    64         36
    65        311
    66         20
    67          9
    69         14
    74         19
    75         23
    76         34
    77        190
    78         65
    79         50
    80         17
    82         16
    86          9
    87         13
    88         12
    89        129
    90         38
    91        999
    92        242
    93         22
    95         16
    97          6
   101          6
   102         48
   103        288
   104         37
   105          8
   106         98
   107         41
   108         21
   111          7
   113          9
   114         13
   115        579
   116        410
   117        151
   118         22
   121          8
   123         18
   124         15
   126          8
   127          9
   128         23
   129          6
   130          6
   131         45
   132         83
   133         12
   137         13
   139         75
   140         42
   141         13
   143          9
   145         37
   151         13
   152         44
   153         16
   155         20
   156         46
   157          7
   163         11
   164         12
   165        107
   166         30
   167         30
   170          9
   176         12
   177         13
   178        243
   179        326
   180         47
   189         42
   190         16
   191         47
   192         27
   193        283
   194        342
   195         57
   196         18
   206         11
   221         13
   222         15
   223        288
   224         47