##TITLE=Library Entry 37009
##JCAMP-DX=Revision 4.10 
##DATA TYPE=MASS SPECTRUM
##SAMPLE DESCRIPTION=A.Pleshkova, Nesmeyanov Inst.Org.Elem.Cpds, Moscow
##NAMES=HP
##CAS NAME=N-Bromo-2,2-dimethylaziridine
##MOLFORM=C4H8BrN
##CAS REGISTRY NO=19816-91-2
##MP= -300
##BP= -300
##MW= 149
##$RETENTION INDEX=0
##$CONDENSED SPECTRUM=NO
##NPOINTS= 28
##XYDATA=(XY..XY) 1 
    27        146
    28        423
    29         50
    30        286
    31         35
    39        227
    40         53
    41        445
    42        350
    43        202
    44         23
    54         92
    55        314
    56        202
    57         53
    58         59
    59         13
    70        999
    71        137
    72         22
    80         59
    81         11
    82         56
    83         10
   149         37
   150          2
   151         35
   152          2