##TITLE=Library Entry 40423
##JCAMP-DX=Revision 4.10 
##DATA TYPE=MASS SPECTRUM
##SAMPLE DESCRIPTION=MASS SPECTROMETRY CENTER, UNIV. OF UTAH EPA-PTSEL 1460
##NAMES=HP
##CAS NAME=Chloroxuron
##MOLFORM=C15H15ClN2O2
##CAS REGISTRY NO=1982-47-4
##MP= -300
##BP= -300
##MW= 290
##$RETENTION INDEX=1921
##$CONDENSED SPECTRUM=NO
##NPOINTS= 142
##XYDATA=(XY..XY) 1 
    15        150
    17          8
    18         11
    26         16
    27         44
    28         18
    29         20
    30         15
    36         12
    37         18
    38         41
    39         83
    40         20
    41         34
    42         98
    43         87
    44        398
    45        225
    46         12
    49          3
    50         96
    51         88
    52         67
    53         37
    54          8
    55         20
    56         55
    57         43
    58          4
    61         17
    62         31
    63        123
    64         72
    65         27
    66          1
    67          1
    69          8
    70          5
    71         39
    72        999
    73        146
    74         46
    75        187
    76         52
    77         33
    78         44
    79         16
    80         24
    81         11
    83          5
    84          5
    85         40
    87         11
    88          2
    89          3
    90        118
    91         21
    92         10
    93          1
    94          2
    97          1
    99         41
   100          4
   101         25
   102         14
   103          1
   104         18
   105          4
   106         48
   107         11
   108         22
   109          5
   110          3
   111        123
   112         14
   113         45
   114          4
   115          7
   118          3
   122         18
   123          1
   125          1
   126          8
   127         62
   128         56
   129         12
   130          4
   133          5
   134         68
   135         25
   136          5
   137          6
   139         21
   140          7
   141          2
   147          9
   149          5
   152          6
   153         12
   154         49
   155         16
   156         10
   162         37
   163         18
   164          3
   165         14
   167          6
   168         16
   169          1
   175          4
   181          4
   182        143
   183         24
   184          1
   188          3
   190          5
   207          5
   209          9
   210          6
   211          4
   216         22
   217         33
   218         37
   219         22
   220         39
   221          6
   222         11
   232         13
   233          5
   234          2
   244         11
   245        794
   246         26
   247        283
   248         41
   249          3
   256          2
   289          1
   290        597
   291         59
   292        186
   293         32