##TITLE=Library Entry 70599
##JCAMP-DX=Revision 4.10 
##DATA TYPE=MASS SPECTRUM
##SAMPLE DESCRIPTION=NIST Mass Spectrometry Data Center, 1998.
##NAMES=HP
##CAS NAME=Methdilazine
##MOLFORM=C18H20N2S
##CAS REGISTRY NO=1982-37-2
##MP= -300
##BP= -300
##MW= 296
##$RETENTION INDEX=2467
##$CONDENSED SPECTRUM=NO
##NPOINTS= 222
##XYDATA=(XY..XY) 1 
    15          6
    26          1
    27         23
    29         60
    30         12
    37          1
    38          3
    39         68
    40          6
    41         89
    42        321
    43         34
    44        184
    45         41
    46          1
    47          2
    49          1
    50         19
    51         38
    52         10
    53         43
    54         25
    55        489
    56         48
    57         92
    58         30
    59          3
    60          1
    61          1
    62          7
    63         37
    64          9
    65         39
    66          7
    67         35
    68         54
    69         91
    70        169
    71         23
    72          2
    73          1
    74          9
    75         18
    76         19
    77         63
    78         19
    79          7
    80         20
    81         32
    82        517
    83        207
    84        133
    85         12
    86          3
    87          5
    88          6
    89         20
    90         10
    91          9
    92          4
    93         13
    94         39
    95         23
    96        656
    97        999
    98        823
    99         64
   101         16
   102         17
   103          8
   104          7
   105          5
   106          5
   107          4
   108         35
   109         56
   110          7
   111          4
   113         13
   114         13
   115         28
   116         12
   117          6
   118          3
   119          2
   120          7
   121         11
   122          7
   123          1
   124          2
   125          8
   126         23
   127         85
   128         57
   129          9
   130          5
   132          6
   133          3
   134         15
   135          6
   136         12
   137          6
   138         13
   139         75
   140         59
   141         12
   142          2
   143          2
   144          3
   145         12
   146         12
   148         13
   149          2
   150          8
   151         47
   152        127
   153         69
   154        162
   155         21
   156          2
   157          1
   158          8
   159         12
   160          5
   161          1
   162          2
   163          2
   164         23
   165         16
   166         93
   167        102
   168         17
   169         11
   170         16
   171         75
   172         29
   173         11
   174          4
   175          2
   176          3
   177         13
   178         58
   179        116
   180        573
   181         90
   182         11
   183         18
   184         51
   185         17
   186          8
   187          2
   188          1
   189          2
   190          3
   191          7
   192          3
   193          2
   194          1
   195          4
   196         47
   197         87
   198        640
   199        863
   200        146
   201         48
   202          7
   203          4
   204         31
   205         11
   206         10
   207          2
   208          3
   209          8
   210         27
   211         16
   212        485
   213        232
   214         52
   215         18
   216          3
   217          5
   218          6
   219          3
   220          6
   221          2
   222          7
   223         35
   224         21
   225         10
   226          2
   227          1
   232          1
   234          2
   235          2
   236         29
   237         13
   238         79
   239         18
   240         10
   241          2
   247          1
   248          1
   249          1
   250          4
   251          2
   252         28
   253         11
   254          2
   255          1
   264          5
   265          2
   266          1
   267          5
   268          2
   292          1
   293          1
   294          1
   296        711
   297        160
   298         52
   299          8
   300          1