##TITLE=Library Entry 15209
##JCAMP-DX=Revision 4.10 
##DATA TYPE=MASS SPECTRUM
##SAMPLE DESCRIPTION=Chemical Concepts
##NAMES=HP
##CAS NAME=Tetrakis(dimethylamino)vanadium
##MOLFORM=C8H24N4V
##CAS REGISTRY NO=19824-56-7
##MP= -300
##BP= -300
##MW= 227
##$RETENTION INDEX=0
##$CONDENSED SPECTRUM=NO
##NPOINTS= 133
##XYDATA=(XY..XY) 1 
    26         28
    27        152
    28        645
    29         43
    30        107
    31         11
    37          1
    38         51
    39         74
    40        227
    41        252
    42        964
    43        413
    44        999
    45        637
    46         16
    51         42
    52         10
    53          1
    54          2
    55          1
    56          4
    57          5
    58         94
    59          4
    60          1
    61          1
    62          1
    65         25
    66         23
    67         69
    68         57
    73          1
    74          4
    75          5
    76          1
    77          3
    78         65
    79         50
    80         40
    81         26
    82         10
    83          5
    88          1
    89          1
    90          5
    91          3
    92         32
    93        164
    94        171
    95         70
    96         31
    97         10
    98          5
    99          2
   102          1
   104          1
   105         15
   106         25
   107         50
   108         66
   109        102
   110        249
   111         69
   112         31
   113          3
   114          1
   115          1
   119          5
   120         46
   121        107
   122         59
   123         70
   124         40
   125         14
   126          5
   127          2
   133         12
   134         66
   135        166
   136        162
   137        245
   138        266
   139        108
   140         14
   141          4
   147          1
   148          7
   149         20
   150        105
   151         45
   152        247
   153        249
   154        254
   155         51
   156         26
   157          3
   160          1
   162         33
   163         10
   164        101
   165         53
   166        111
   167         92
   168         10
   169         33
   170          1
   174          5
   175          2
   176         25
   177         16
   178         60
   179         87
   180         50
   181        107
   182        159
   183         45
   184        109
   185          7
   194          1
   195          1
   196          1
   197          3
   198         98
   199        259
   200         27
   201          1
   211          1
   212          2
   225          2
   227        610
   228         54
   229          3