##TITLE=Library Entry 6896
##JCAMP-DX=Revision 4.10 
##DATA TYPE=MASS SPECTRUM
##SAMPLE DESCRIPTION=NIST Mass Spectrometry Data Center, 1990.
##NAMES=HP
##CAS NAME=1-Cyclopentyl-1-propanol
##MOLFORM=C8H16O
##CAS REGISTRY NO=19833-89-7
##MP= -300
##BP= -300
##MW= 128
##$RETENTION INDEX=0
##$CONDENSED SPECTRUM=NO
##NPOINTS= 30
##XYDATA=(XY..XY) 1 
    15         29
    27        184
    28        115
    29        149
    31         42
    39        199
    40         44
    41        332
    43        999
    45        967
    46         25
    51         24
    53         52
    55         98
    56        114
    57         58
    58         47
    65         14
    67         62
    69        224
    71        150
    77         15
    79         16
    81         36
    83         24
    87        921
    88         51
    95         20
    99         97
   109         30