##TITLE=Library Entry 49125
##JCAMP-DX=Revision 4.10 
##DATA TYPE=MASS SPECTRUM
##SAMPLE DESCRIPTION=Div. of Experiment Therapeutics WRAIR, WRAMC, Washingto
n DC 20307
##NAMES=HP
##CAS NAME=6,7-Dichloro-3-[2-pyridyl]-2-quinoxalinol
##MOLFORM=C13H7Cl2N3O
##CAS REGISTRY NO=19836-03-4
##MP= -300
##BP= -300
##MW= 291
##$RETENTION INDEX=0
##$CONDENSED SPECTRUM=NO
##NPOINTS= 149
##XYDATA=(XY..XY) 1 
    41          9
    44          2
    47         10
    48          1
    49         27
    50         83
    51        268
    52        492
    53         76
    54          6
    60          9
    61         50
    62         60
    63         70
    64         62
    65         16
    66          6
    67          7
    68          0
    71          6
    72         32
    73         41
    74         51
    75         46
    76         55
    77         35
    78        618
    79        999
    80         56
    81          1
    82          2
    83         18
    84         22
    85         17
    86         24
    87         47
    88        119
    89         19
    90         15
    91         13
    92          4
    93          1
    94          2
    95          2
    96          8
    97         43
    98         56
    99         29
   100         30
   101         10
   102          2
   103          7
   105        656
   106         44
   107         32
   108          9
   109         42
   110         12
   111         13
   112          6
   113         10
   114         12
   115          6
   116          3
   117          3
   118          6
   119          6
   120          1
   121          2
   122         21
   123         11
   124         25
   125          6
   126          6
   131         28
   132         17
   133         31
   134         12
   135          4
   136          4
   137          2
   138          3
   139          4
   140          1
   141          1
   142          2
   143          0
   144          3
   146         11
   147          4
   148          3
   149         33
   150          7
   151         13
   152          2
   153          1
   158        109
   159         10
   160         68
   161          4
   162         14
   163          1
   165          6
   166          9
   167          2
   170          1
   172          1
   174          2
   176          1
   184          3
   185          4
   186          3
   187          4
   191          2
   192          5
   193         30
   194          4
   200          2
   201          3
   202          2
   211          0
   212          2
   213          2
   214          0
   221          1
   227          7
   228         10
   229          4
   230          3
   235         12
   236          9
   237         12
   238          6
   239          4
   249          5
   251          3
   256          2
   263        423
   264         65
   265        275
   266         34
   267         42
   268          5
   291        165
   292         69
   293        108
   294         41
   295         15
   296          6