##TITLE=Library Entry 64571
##JCAMP-DX=Revision 4.10 
##DATA TYPE=MASS SPECTRUM
##SAMPLE DESCRIPTION=Japan AIST/NIMC Database- Spectrum MS-IW-7312
##NAMES=HP
##CAS NAME=1-Benzyl-3-(p-methoxyphenyl)-2,4-dioxoaziridino(2,3-c)pyrrolidine
##MOLFORM=C18H16N2O3
##CAS REGISTRY NO=19839-15-7
##MP= -300
##BP= -300
##MW= 308
##$RETENTION INDEX=0
##$CONDENSED SPECTRUM=NO
##NPOINTS= 96
##XYDATA=(XY..XY) 1 
    26          2
    27          5
    28         13
    29          1
    30          1
    31          1
    38          1
    39          8
    40         14
    41          5
    43          1
    44          3
    45          1
    50          3
    51         11
    52          6
    53          3
    54          5
    55          1
    57          1
    62          1
    63          7
    64          5
    65         35
    66          2
    68         19
    69          1
    71          1
    74          1
    75          1
    76          5
    77         19
    78         13
    79          4
    80          3
    81          1
    82          2
    83          1
    89          7
    90          7
    91        999
    92         89
    93          3
    95          2
   102          2
   103         14
   104         17
   105          9
   106         15
   107          9
   108          4
   116          1
   117          2
   118          2
   119          2
   120          2
   121          2
   122          2
   123          4
   129          2
   130          8
   131          4
   132          4
   133          8
   134         33
   135          6
   146          3
   147          1
   149         15
   150          2
   154          1
   158          5
   159          2
   160          7
   161          1
   162          2
   174          1
   175          7
   176          1
   188         12
   189          5
   202          1
   203         33
   204          5
   205          2
   217          2
   230          5
   231          1
   251          1
   279          1
   280          2
   291          3
   308        386
   309         80
   310          9
   311          1