##TITLE=Library Entry 87248
##JCAMP-DX=Revision 4.10 
##DATA TYPE=MASS SPECTRUM
##SAMPLE DESCRIPTION=Albert Lebedev, Moscow State University, Russia
##NAMES=HP
##CAS NAME=2-Pyrrolidin-1-yl-bicyclo[3.3.1]nonan-9-ol
##MOLFORM=C13H23NO
##CAS REGISTRY NO=19835-68-8
##MP= -300
##BP= -300
##MW= 209
##$RETENTION INDEX=0
##$CONDENSED SPECTRUM=NO
##NPOINTS= 155
##XYDATA=(XY..XY) 1 
    33          8
    35         33
    36        128
    38         54
    39         77
    41        270
    42         89
    43         81
    44         18
    45          4
    46          0
    48          0
    49          0
    50          3
    51         10
    52          9
    53         47
    54         59
    55        112
    56         38
    57         41
    58          5
    60          1
    61          2
    63          5
    65         21
    67         88
    68         55
    69        107
    70        230
    71         98
    72         33
    73          2
    75          4
    77         38
    78         15
    79         58
    80         22
    81         39
    82         23
    84        391
    85         15
    87          0
    88          0
    89          1
    91         29
    92          6
    93         29
    94         17
    95         25
    96         94
    97        157
    98         22
    99         21
   100          5
   101          1
   102          1
   103          2
   104          2
   105          8
   106          5
   107          6
   108         23
   110        999
   111         72
   112          7
   113          8
   114          1
   115          2
   116          0
   117          2
   118          2
   119          4
   120          6
   121         12
   122          9
   123          6
   124          9
   125          2
   126          7
   127          1
   128          1
   129          0
   130          0
   131          0
   132          1
   133          1
   134          4
   135          2
   136          9
   137          4
   138         11
   139          2
   140          2
   141          0
   142          0
   143          0
   144          0
   145          0
   146          1
   147          1
   148          3
   149          2
   150          3
   151          1
   152          3
   153          1
   154          1
   155          0
   156          0
   157          0
   158          0
   160          1
   161          0
   162          3
   163          1
   164          2
   165          1
   166          1
   167          0
   168          0
   169          0
   170          0
   171          0
   172          0
   174          0
   176          0
   178          1
   179          0
   180          3
   181          4
   182          0
   183          0
   184          0
   185          0
   186          0
   187          0
   188          0
   189          0
   190          5
   192         38
   193          6
   194          1
   195          0
   196          0
   197          0
   199          0
   204          0
   205          0
   206          1
   208         12
   209         61
   210          9
   211          1
   212          0