##TITLE=Library Entry 38713
##JCAMP-DX=Revision 4.10 
##DATA TYPE=MASS SPECTRUM
##SAMPLE DESCRIPTION=A.A.Kutin, Moscow, Russia
##NAMES=HP
##CAS NAME=Pyrazole-3-carboxylic acid, 5-nitro-
##MOLFORM=C4H3N3O4
##CAS REGISTRY NO=198348-89-9
##MP= -300
##BP= -300
##MW= 157
##$RETENTION INDEX=0
##$CONDENSED SPECTRUM=NO
##NPOINTS= 81
##XYDATA=(XY..XY) 1 
    35         13
    36         82
    37        195
    38        283
    39        747
    40         97
    41        144
    42        107
    43         52
    44        181
    45        773
    46        289
    47          8
    48          3
    49          6
    50         51
    51        108
    52        151
    53        625
    54        127
    55         94
    56         27
    57         11
    58          0
    60         12
    61          3
    62          3
    63          8
    64         23
    65         88
    66        683
    67        138
    68         67
    69         33
    71        999
    72         36
    73         15
    75          4
    77         12
    78         16
    79         15
    80         28
    81         14
    82         28
    83         39
    84          6
    91          5
    92          6
    93          3
    94         95
    95         62
    96         11
    97         33
    98          6
    99          8
   101          0
   105          7
   109         22
   111         11
   112         10
   113        175
   114          8
   115          2
   120          7
   121          2
   123         34
   124          2
   126          0
   127        104
   128         11
   130          0
   139         11
   140         53
   141         27
   142          0
   149          3
   155          3
   156          0
   157        546
   158         36
   159          7