##TITLE=Library Entry 4913
##JCAMP-DX=Revision 4.10 
##DATA TYPE=MASS SPECTRUM
##SAMPLE DESCRIPTION=D.HENNEBERG, MAX-PLANCK INSTITUTE, MULHEIM, WEST GERMAN
Y
##NAMES=HP
##CAS NAME=4-Penten-2-ynylamine, N,N,4-trimethyl-
##MOLFORM=C8H13N
##CAS REGISTRY NO=19837-34-4
##MP= -300
##BP= -300
##MW= 123
##$RETENTION INDEX=0
##$CONDENSED SPECTRUM=NO
##NPOINTS= 85
##XYDATA=(XY..XY) 1 
    26         63
    27        173
    29         38
    30         69
    31          6
    32          1
    34          0
    36          0
    37          4
    38         20
    39        214
    40         56
    41        223
    42        999
    43        103
    44        334
    45         19
    46          1
    48          1
    49          3
    50         32
    51        144
    52        100
    53        255
    54         33
    55         79
    56         58
    57         94
    58        358
    59         12
    61          2
    62          8
    63        104
    64         52
    65        125
    66         53
    67        168
    68         37
    69          4
    70         10
    71         30
    72         24
    73          2
    74          2
    75         17
    76         11
    77        619
    78        126
    79        722
    80        313
    81        164
    82        914
    83         60
    84          4
    85          0
    86          2
    89          2
    90          6
    91         64
    92         45
    93         61
    94         95
    95         66
    96         23
    97          8
    98          1
   102          1
   103          1
   104          3
   105          7
   106         65
   107        172
   108        192
   109         15
   115          2
   116          1
   117          2
   118          4
   119          1
   120         23
   121         30
   122        771
   123        656
   124         57
   125          2