##TITLE=Library Entry 80203
##JCAMP-DX=Revision 4.10 
##DATA TYPE=MASS SPECTRUM
##SAMPLE DESCRIPTION=NIST Mass Spectrometry Data Center
##NAMES=HP
##CAS NAME=Cyanopyrazine
##MOLFORM=C5H3N3
##CAS REGISTRY NO=19847-12-2
##MP= -300
##BP= -300
##MW= 105
##$RETENTION INDEX=0
##$CONDENSED SPECTRUM=NO
##NPOINTS= 33
##XYDATA=(XY..XY) 1 
    12         17
    13          6
    24         27
    25         63
    26        495
    27         87
    28         27
    36         11
    37         29
    38        132
    39         67
    40         26
    41          3
    48          5
    50         76
    51        735
    52        142
    53        229
    54          7
    62          4
    63          2
    64          9
    65          4
    66          2
    76         39
    77         84
    78        806
    79         41
    80          1
   102          1
   105        999
   106         60
   107          2