##TITLE=Library Entry 76157
##JCAMP-DX=Revision 4.10 
##DATA TYPE=MASS SPECTRUM
##SAMPLE DESCRIPTION=Exported from NIST MS Search
##NAMES=HP
##CAS NAME=Benzene, 1-isocyano-4-nitro-
##MOLFORM=C7H4N2O2
##CAS REGISTRY NO=1984-23-2
##MP= -300
##BP= -300
##MW= 148
##$RETENTION INDEX=0
##$CONDENSED SPECTRUM=NO
##NPOINTS= 16
##XYDATA=(XY..XY) 1 
    50        410
    51        480
    52         50
    74        190
    75        690
    76        390
    77         40
    90        270
    91         30
   102        999
   103        120
   104         10
   118        270
   119         30
   148        920
   149         80