##TITLE=Library Entry 48751
##JCAMP-DX=Revision 4.10 
##DATA TYPE=MASS SPECTRUM
##SAMPLE DESCRIPTION=NIST Mass Spectrometry Data Center, 1990.
##NAMES=HP
##CAS NAME=1,4-Cyclohexadiene, 1-ethyl-
##MOLFORM=C8H12
##CAS REGISTRY NO=19841-74-8
##MP= -300
##BP= -300
##MW= 108
##$RETENTION INDEX=900
##$CONDENSED SPECTRUM=NO
##NPOINTS= 54
##XYDATA=(XY..XY) 1 
    14          2
    15         23
    18          1
    26         26
    27        156
    28         11
    29         59
    30          2
    37         10
    38         33
    39        222
    40         29
    41         73
    42          4
    43          3
    44          1
    45          5
    50         71
    51        149
    52         54
    53         63
    54         15
    55          7
    61          6
    62         20
    63         43
    64         12
    65         88
    66         43
    67         18
    68          2
    73          3
    74         16
    75         10
    76          2
    77        476
    78        248
    79        999
    80         83
    81          5
    86          2
    89          9
    91        228
    92         32
    93        146
    94         12
   102          2
   103          7
   104          2
   105         10
   106          6
   107          2
   108        219
   109         20