##TITLE=Library Entry 79437
##JCAMP-DX=Revision 4.10 
##DATA TYPE=MASS SPECTRUM
##SAMPLE DESCRIPTION=Chemical Concepts
##NAMES=HP
##CAS NAME=2-Buten-1-one, 2-methyl-1-phenyl-
##MOLFORM=C11H12O
##CAS REGISTRY NO=19847-64-4
##MP= -300
##BP= -300
##MW= 160
##$RETENTION INDEX=0
##$CONDENSED SPECTRUM=NO
##NPOINTS= 84
##XYDATA=(XY..XY) 1 
    26          6
    27         70
    28         14
    29         69
    37          2
    38          7
    39         65
    40          4
    41         11
    42          6
    43         80
    44          3
    45          4
    49          2
    50         51
    51        189
    52         20
    53         38
    54         17
    55        167
    56         13
    57          7
    58         28
    59          5
    62          5
    63         14
    64          4
    65          9
    66          3
    67          4
    69          4
    70          2
    71          3
    72          3
    73         60
    74         22
    75         21
    76         29
    77        595
    78         53
    79          9
    80          4
    81          2
    82          6
    83        114
    84          6
    85          2
    86          2
    87          2
    89          6
    91         27
    92          3
    93          2
    95          3
   102          4
   103          8
   104          6
   105        999
   106         83
   107          6
   115         29
   116         13
   117         79
   118         10
   119          3
   127         14
   128          9
   129         12
   130          4
   131         44
   132        174
   133         20
   141         10
   142          6
   143         12
   144         11
   145        206
   146         24
   147          4
   158          5
   159        153
   160        351
   161         39
   162          4