##TITLE=Library Entry 15518
##JCAMP-DX=Revision 4.10 
##DATA TYPE=MASS SPECTRUM
##SAMPLE DESCRIPTION=V.KUBELKA INST. OF CHEM. TECH., PRAGUE, CZECHOSLOVAKIA
##NAMES=HP
##CAS NAME=2H-Azepin-2-one, hexahydro-7-methyl-
##MOLFORM=C7H13NO
##CAS REGISTRY NO=1985-48-4
##MP= -300
##BP= -300
##MW= 127
##$RETENTION INDEX=0
##$CONDENSED SPECTRUM=NO
##NPOINTS= 62
##XYDATA=(XY..XY) 1 
    14          6
    15         44
    17         11
    18         50
    26         25
    27        137
    28        151
    29         69
    30         50
    31          6
    36         12
    37          6
    38         12
    39        112
    40         31
    41        219
    42        156
    43         81
    44        999
    45         38
    46          6
    50         10
    51         12
    52         10
    53         25
    54         25
    55        292
    56        127
    57         44
    58          9
    59          9
    60          6
    65          6
    66          6
    67         84
    68         19
    69         62
    70         37
    71          6
    72          6
    79          6
    80          6
    81         13
    82         13
    83         25
    84        106
    85        201
    86         19
    94          6
    95          9
    96          6
    97          6
    98         13
    99         19
   100          6
   110          6
   112        144
   113         16
   125          6
   126          9
   127        197
   128         31