##TITLE=Library Entry 99049
##JCAMP-DX=Revision 4.10 
##DATA TYPE=MASS SPECTRUM
##SAMPLE DESCRIPTION=STANDARD OIL CO., WHITING, IND, USA
##NAMES=HP
##CAS NAME=Benzene, (1,1-dimethylbutyl)-
##MOLFORM=C12H18
##CAS REGISTRY NO=1985-57-5
##MP= -300
##BP= -300
##MW= 162
##$RETENTION INDEX=1168
##$CONDENSED SPECTRUM=NO
##NPOINTS= 69
##XYDATA=(XY..XY) 1 
    15         31
    16          1
    25          1
    26         17
    27        134
    28         68
    29         71
    30          8
    31          3
    37          2
    38          5
    39         99
    40          8
    41        236
    42         11
    43         37
    44         11
    50         16
    51         54
    52         14
    53         16
    54          2
    55         14
    56          5
    57          4
    58          3
    62          3
    63         14
    64          6
    65         26
    66          6
    67          2
    69          8
    70          4
    71          4
    72          0
    74          2
    75          4
    76          6
    77         67
    78         28
    79         65
    80          3
    89          6
    91        379
    92         29
    93          2
   101          1
   102          6
   103         33
   104          8
   105        105
   106          9
   115         19
   116          7
   117         18
   118         24
   119        999
   120         92
   121          3
   128          4
   129          3
   130          2
   131          4
   133          0
   147          6
   148          1
   162         84
   163         10