##TITLE=Library Entry 28121
##JCAMP-DX=Revision 4.10 
##DATA TYPE=MASS SPECTRUM
##SAMPLE DESCRIPTION=J.E. WILKINSON S-CUBED, SAN DIEGO, CA.
##NAMES=HP
##CAS NAME=Thiirane, (methoxymethyl)-
##MOLFORM=C4H8OS
##CAS REGISTRY NO=19858-14-1
##MP= -300
##BP= -300
##MW= 104
##$RETENTION INDEX=0
##$CONDENSED SPECTRUM=NO
##NPOINTS= 25
##XYDATA=(XY..XY) 1 
    41         24
    42         27
    43        280
    45        292
    46        111
    47         49
    48          2
    49          0
    55          0
    56          0
    57         11
    58        999
    59         85
    60          6
    61          4
    69          4
    71         22
    72          4
    73         57
    74          2
    75          1
    76         14
   104        284
   105         12
   106         10