##TITLE=Library Entry 8406
##JCAMP-DX=Revision 4.10 
##DATA TYPE=MASS SPECTRUM
##SAMPLE DESCRIPTION=A.A.Kutin, Moscow, Russia
##NAMES=HP
##CAS NAME=Pyrimidine-2,4,6-triamine, 5-nitro-, 1,3-dioxide
##MOLFORM=C4H6N6O4
##CAS REGISTRY NO=19867-41-5
##MP= -300
##BP= -300
##MW= 202
##$RETENTION INDEX=0
##$CONDENSED SPECTRUM=NO
##NPOINTS= 117
##XYDATA=(XY..XY) 1 
    33         36
    34         12
    36         14
    38         40
    39         83
    40        274
    41        128
    42        327
    43        999
    44        379
    45         32
    46         64
    47         14
    48          4
    50          3
    51         13
    52         45
    53        137
    54         77
    55        112
    56         24
    57         19
    59        211
    60         22
    61          3
    62          1
    63          5
    64         11
    66        286
    67        676
    68        474
    69        177
    70         91
    71         48
    72          5
    73         14
    74         10
    75          6
    76          7
    77          9
    78          2
    79          5
    80         20
    81         28
    82         69
    83         26
    84         33
    85         19
    86         35
    87         16
    88          0
    90         24
    91         49
    92         11
    93          7
    95         77
    96         71
    97         19
    98         26
    99         12
   100         12
   101         14
   102         16
   105          5
   106          0
   108         18
   109         91
   110         76
   111         56
   112         46
   113         30
   114          8
   119          5
   120          6
   122         96
   123         32
   124          6
   125          5
   126         10
   128         11
   129         11
   130          3
   134          1
   135          3
   136          1
   137         19
   138         47
   139         17
   140         48
   142         27
   144         81
   145         10
   146          1
   148          1
   152          3
   153          4
   154         14
   155         42
   156          5
   162          0
   168          5
   169         17
   170        127
   171         11
   177          0
   183          4
   184          9
   186        516
   187         31
   188          2
   191          0
   199          3
   200         11
   202        581
   203         33
   204          5
   205          1