##TITLE=Library Entry 60165
##JCAMP-DX=Revision 4.10 
##DATA TYPE=MASS SPECTRUM
##SAMPLE DESCRIPTION=A.A.Kutin, Moscow, Russia
##NAMES=HP
##CAS NAME=Benzenamine, N-[(3-nitrophenyl)methylene]-, N-oxide
##MOLFORM=C13H10N2O3
##CAS REGISTRY NO=19865-57-7
##MP= -300
##BP= -300
##MW= 242
##$RETENTION INDEX=0
##$CONDENSED SPECTRUM=NO
##NPOINTS= 100
##XYDATA=(XY..XY) 1 
    33          1
    34          1
    37          1
    38         10
    39         58
    40         36
    41         22
    42          2
    43          4
    44          9
    46          2
    50         41
    51        120
    52         17
    53          4
    54          0
    55          6
    56          1
    57          5
    61          2
    62         11
    63         61
    64        120
    65         68
    66         19
    67          2
    68          0
    69          3
    70          4
    71          3
    74          9
    75         17
    76         48
    77        198
    78         18
    79          2
    81          1
    83          4
    84          5
    85          1
    86          2
    87          3
    88          3
    89         20
    91        999
    92         76
    93         17
    94         66
    95          4
    97          1
    98          1
    99          1
   100          0
   101          0
   102          3
   103          9
   104         39
   105         12
   106          1
   107          8
   112          0
   113          2
   115          9
   116          1
   119          1
   122          0
   126          3
   127          4
   128          3
   129          0
   135          5
   139          6
   140          4
   141          2
   149          4
   150         10
   151         11
   152         12
   153          5
   154          3
   163          1
   165          6
   166         12
   167         14
   168          3
   177          2
   178          8
   179         12
   180          6
   181          0
   194          1
   195          4
   196          2
   225         17
   226         42
   227          6
   241          7
   242         81
   243         12
   244          0