##TITLE=Library Entry 25871
##JCAMP-DX=Revision 4.10 
##DATA TYPE=MASS SPECTRUM
##SAMPLE DESCRIPTION=NIST Mass Spectrometry Data Center
##NAMES=HP
##CAS NAME=2-Methyl-6-methyleneoct-7-en-4-one
##MOLFORM=C10H16O
##CAS REGISTRY NO=19860-68-5
##MP= -300
##BP= -300
##MW= 152
##$RETENTION INDEX=1084
##$CONDENSED SPECTRUM=NO
##NPOINTS= 30
##XYDATA=(XY..XY) 1 
    27         27
    29         53
    30          2
    34          1
    38          6
    39        104
    40         22
    41        318
    42         29
    43        107
    51         18
    52         15
    53         19
    55         24
    56          7
    57        999
    58         40
    63          6
    65         46
    66         24
    67        141
    68         37
    69         21
    85        631
    86         37
    95         44
    96         16
   109         12
   152         85
   153         11