##TITLE=Library Entry 60218
##JCAMP-DX=Revision 4.10 
##DATA TYPE=MASS SPECTRUM
##SAMPLE DESCRIPTION=Exported from NIST MS Search
##NAMES=HP
##CAS NAME=Benzenamine, N-[(4-methylphenyl)methylene]-, N-oxide
##MOLFORM=C14H13NO
##CAS REGISTRY NO=19865-55-5
##MP= -300
##BP= -300
##MW= 211
##$RETENTION INDEX=0
##$CONDENSED SPECTRUM=NO
##NPOINTS= 65
##XYDATA=(XY..XY) 1 
    38         20
    39        115
    40         20
    41         37
    50         57
    51        193
    52         69
    53         23
    62         20
    63         66
    64        178
    65        129
    66         23
    74         23
    75         17
    76         28
    77        317
    78         95
    79         17
    89         37
    90         28
    91        999
    92        121
    93          8
    94         28
   102         23
   103         28
   104         40
   105         23
   106         11
   107          8
   108          8
   115         20
   116         23
   117         17
   118         28
   119        181
   120         23
   134          8
   135          8
   139          8
   140          8
   141          8
   142          8
   143          8
   165         28
   166         20
   167         40
   168         40
   169         14
   178          8
   179          8
   180         23
   181          8
   182        103
   183         63
   184         11
   192          8
   193          8
   194         95
   195         69
   196          5
   210        172
   211        195
   212         28