##TITLE=Library Entry 82172
##JCAMP-DX=Revision 4.10 
##DATA TYPE=MASS SPECTRUM
##SAMPLE DESCRIPTION=V.A. KOPTYUG, ATLAS OF MS OF ORG. CMPDS., ED. 2
##NAMES=HP
##CAS NAME=2-Phenacyl-4,6-diphenylpyrimidine
##MOLFORM=C24H18N2O
##CAS REGISTRY NO=19867-28-8
##MP= -300
##BP= -300
##MW= 350
##$RETENTION INDEX=0
##$CONDENSED SPECTRUM=NO
##NPOINTS= 70
##XYDATA=(XY..XY) 1 
    74         14
    75         15
    76         54
    77        539
    78         50
    79          4
    87          4
    88          4
    89         10
    90          3
    91         18
   101         10
   102        125
   103         46
   104         70
   105        999
   106        101
   107          7
   114          4
   115         39
   116         18
   122          4
   128         31
   129          9
   140          9
   141          7
   142          4
   143         78
   144          9
   151          4
   152          3
   153          7
   160         11
   161         54
   176          3
   177          3
   178          7
   189          4
   190          4
   191          7
   203          6
   204         23
   205         13
   206          7
   216          3
   217          7
   218          7
   219          1
   231          3
   232          6
   243          3
   244          6
   245         23
   246         11
   272          4
   273        148
   274         32
   275         46
   321        281
   322        664
   323        164
   324         21
   331          4
   334          9
   335         35
   336          9
   349        140
   350        359
   351        101
   352         15