##TITLE=Library Entry 82056
##JCAMP-DX=Revision 4.10 
##DATA TYPE=MASS SPECTRUM
##SAMPLE DESCRIPTION=A.Pleshkova, Nesmeyanov Inst.Org.Elem.Cpds, Moscow
##NAMES=HP
##CAS NAME=Bis(trifluoromethyl)phosphino-dimethylarsine
##MOLFORM=C4H6AsF6P
##CAS REGISTRY NO=19863-20-8
##MP= -300
##BP= -300
##MW= 274
##$RETENTION INDEX=0
##$CONDENSED SPECTRUM=NO
##NPOINTS= 22
##XYDATA=(XY..XY) 1 
    31         44
    32          1
    50         31
    69        153
    70          2
    89        161
    90         51
    91          1
   101         44
   102          1
   103        325
   104          7
   105        999
   106         23
   109        195
   110          2
   124         86
   125          2
   131        161
   132          4
   274        328
   275         15