##TITLE=Library Entry 73455
##JCAMP-DX=Revision 4.10 
##DATA TYPE=MASS SPECTRUM
##SAMPLE DESCRIPTION=Exported from NIST MS Search
##NAMES=HP
##CAS NAME=Bicyclo[3.3.1]nonan-9-ol, 2-(4-morpholinyl)-, (endo,anti)-
##MOLFORM=C13H23NO2
##CAS REGISTRY NO=19877-74-8
##MP= -300
##BP= -300
##MW= 225
##$RETENTION INDEX=0
##$CONDENSED SPECTRUM=NO
##NPOINTS= 44
##XYDATA=(XY..XY) 1 
    39         91
    40         26
    41        304
    42        152
    43         60
    44         63
    45         32
    77         63
    78         19
    79        108
    80         39
    81         73
    82         50
    83         69
    84         32
    85         21
    86        152
    87        276
    88         63
    91         54
    92         13
    93         63
    94         30
    95         41
    96         30
    97         19
    98         58
   100        999
   101         73
   120         41
   124         21
   126        947
   127         91
   128         15
   129         26
   137         13
   138         21
   139         13
   140         13
   142         17
   180         10
   224         30
   225        191
   226         30