##TITLE=Library Entry 72925
##JCAMP-DX=Revision 4.10 
##DATA TYPE=MASS SPECTRUM
##SAMPLE DESCRIPTION=Chemical Concepts
##NAMES=HP
##CAS NAME=5-Hydroxy-hex-2-enoic acid, methyl ester
##MOLFORM=C7H12O3
##CAS REGISTRY NO=19870-59-8
##MP= -300
##BP= -300
##MW= 144
##$RETENTION INDEX=0
##$CONDENSED SPECTRUM=NO
##NPOINTS= 71
##XYDATA=(XY..XY) 1 
    26          6
    27         39
    28         25
    29         26
    30          3
    31         21
    33          2
    38         13
    39        114
    40         47
    41        137
    42         28
    43        105
    44         18
    45        660
    46         10
    47         13
    48          1
    49          1
    50          3
    51          3
    52          4
    53          2
    54         10
    55          3
    56         27
    57          4
    58         11
    59         47
    60          2
    61          7
    62          1
    63          1
    64          1
    65          3
    66          3
    67         13
    68        485
    69        594
    70         25
    71         91
    72          6
    73          5
    74          2
    75          1
    77          1
    80          1
    81          4
    82          1
    83          2
    84          2
    85         25
    86          2
    87          4
    95          8
    97         46
    98          2
    99          4
   100        999
   101         38
   102          2
   111          8
   112          3
   113         62
   114          4
   115          3
   126          1
   127          6
   128          0
   129          4
   143          0