##TITLE=Library Entry 84457
##JCAMP-DX=Revision 4.10 
##DATA TYPE=MASS SPECTRUM
##SAMPLE DESCRIPTION=A.A.Kutin, Moscow, Russia
##NAMES=HP
##CAS NAME=Phenol, 4-heptyl-
##MOLFORM=C13H20O
##CAS REGISTRY NO=1987-50-4
##MP= -300
##BP= -300
##MW= 192
##$RETENTION INDEX=1671
##$CONDENSED SPECTRUM=NO
##NPOINTS= 150
##XYDATA=(XY..XY) 1 
    33          0
    34          0
    35          3
    36          2
    37          1
    38          3
    39         38
    40          8
    41         55
    42          6
    43         38
    44          3
    45          1
    47          8
    48          3
    49          3
    50          5
    51         16
    52          9
    53         18
    54          2
    55         24
    56          3
    57          5
    58          0
    59          0
    60          0
    61          0
    62          1
    63          6
    64          2
    65         17
    66          4
    67          3
    68          1
    69          3
    70          1
    71          2
    73          3
    74          1
    75          1
    77         92
    78         23
    79         16
    80          2
    81          3
    82          3
    83         25
    84          2
    85         17
    86          0
    87          3
    88          0
    89          3
    90          2
    91         20
    92          3
    93          4
    94         15
    95          3
    96          2
    97          1
    98          0
    99          0
   100          0
   101          0
   102          1
   103          6
   104          1
   105          8
   107        999
   108         95
   109          7
   110          0
   111          0
   112          0
   113          0
   114          0
   115          3
   117          2
   118          1
   119          4
   120         15
   121          7
   122          2
   123          1
   124          0
   125          0
   126          0
   127          0
   128          0
   129          0
   130          0
   131          2
   132          1
   133          4
   134          1
   135          1
   136          0
   137          0
   138          0
   139          0
   140          0
   141          0
   142          0
   143          0
   144          0
   145          0
   146          0
   147          1
   148          0
   149          3
   150          0
   151          0
   152          0
   153          0
   154          0
   155          0
   157          0
   158          0
   159          0
   160          0
   161          0
   162          0
   163          0
   164          0
   165          0
   167          0
   169          0
   170          0
   171          0
   173          0
   174          0
   175          0
   176          0
   177          0
   179          0
   180          0
   181          0
   183          0
   184          0
   185          0
   186          0
   188          0
   189          0
   190          1
   192        116
   193         15
   194          1
   195          0