##TITLE=Library Entry 83959
##JCAMP-DX=Revision 4.10 
##DATA TYPE=MASS SPECTRUM
##SAMPLE DESCRIPTION=Exported from NIST MS Search
##NAMES=HP
##CAS NAME=Urea, N-methyl-N'-(4-methylphenyl)-
##MOLFORM=C9H12N2O
##CAS REGISTRY NO=19873-46-2
##MP= -300
##BP= -300
##MW= 164
##$RETENTION INDEX=0
##$CONDENSED SPECTRUM=NO
##NPOINTS= 23
##XYDATA=(XY..XY) 1 
    15        100
    27         50
    29         30
    30         80
    39         90
    40         20
    41         30
    44         50
    50         40
    51         90
    52         70
    53         50
    58        100
    65         70
    77        150
    78         70
    79        120
    80         40
    91         50
   106        749
   107        999
   108        110
   164        440