##TITLE=Library Entry 48866
##JCAMP-DX=Revision 4.10 
##DATA TYPE=MASS SPECTRUM
##SAMPLE DESCRIPTION=E.GIRAUDI, CENT. RECHERCHE, ROURE BERTRAND DUPONT, GRAS
SE, FR.
##NAMES=HP
##CAS NAME=(E,E)-1,3,5-Undecatriene
##MOLFORM=C11H18
##CAS REGISTRY NO=19883-29-5
##MP= -300
##BP= -300
##MW= 150
##$RETENTION INDEX=1181
##$CONDENSED SPECTRUM=NO
##NPOINTS= 54
##XYDATA=(XY..XY) 1 
    38          1
    39        149
    40         33
    41        227
    42          7
    43         17
    44          4
    50          5
    51         29
    52         17
    53         42
    54         14
    55         37
    56          1
    57          5
    58          0
    62          0
    63          7
    64          0
    65         80
    66        105
    67        112
    68         10
    69          2
    77        406
    78        156
    79        999
    80        629
    81         59
    82          3
    83          0
    89          0
    91        301
    92         20
    93        220
    94         35
    95          6
    96         13
    97          0
   103          2
   104          0
   105         10
   106          1
   107         13
   108          2
   109          2
   115          0
   117          0
   119          1
   121          4
   135          0
   148          3
   150        254
   151         17