##TITLE=Library Entry 9820
##JCAMP-DX=Revision 4.10 
##DATA TYPE=MASS SPECTRUM
##SAMPLE DESCRIPTION=Chemical Concepts
##NAMES=HP
##CAS NAME=Butanoic acid, 2-ethyl-2-methyl-
##MOLFORM=C7H14O2
##CAS REGISTRY NO=19889-37-3
##MP= -300
##BP= -300
##MW= 130
##$RETENTION INDEX=0
##$CONDENSED SPECTRUM=NO
##NPOINTS= 68
##XYDATA=(XY..XY) 1 
    26         12
    27        177
    28         11
    29        214
    30          5
    31         13
    37          1
    38          4
    39         95
    40         34
    41        225
    42         17
    43        999
    44         31
    45         88
    46          2
    47          1
    49          0
    50          4
    51         10
    52          3
    53         26
    54          9
    55        141
    56         19
    57        158
    58          6
    59         26
    60          1
    61          0
    62          0
    63          0
    65          2
    66          1
    67          6
    68          2
    69         48
    70          5
    71          4
    72          1
    73         27
    74          8
    75          0
    77          0
    79          0
    81          1
    82          5
    83         11
    84         23
    85        813
    86         54
    87         82
    88         13
    89          0
    95          0
    97          4
    99          1
   100          4
   101         46
   102        124
   103          7
   104          0
   105          0
   113          0
   114          0
   115         13
   116          1
   131          1