##TITLE=Library Entry 85767
##JCAMP-DX=Revision 4.10 
##DATA TYPE=MASS SPECTRUM
##SAMPLE DESCRIPTION=NIST Mass Spectrometry Data Center, 2010
##NAMES=HP
##CAS NAME=(1R,3E,7E,11R)-1,5,5,8-Tetramethyl-12-oxabicyclo[9.1.0]dodeca-3,7
-diene
##MOLFORM=C15H24O
##CAS REGISTRY NO=19888-34-7
##MP= -300
##BP= -300
##MW= 220
##$RETENTION INDEX=1606
##$CONDENSED SPECTRUM=NO
##NPOINTS= 119
##XYDATA=(XY..XY) 1 
    26          2
    27         56
    28          8
    29         56
    30          1
    31          2
    37          1
    38          4
    39        176
    40         48
    41        440
    42         44
    43        679
    44         21
    45         15
    46          1
    49          1
    50          9
    51         47
    52         25
    53        241
    54         43
    55        415
    56         36
    57         51
    58          8
    62          3
    63         14
    64          3
    65        109
    66         38
    67        841
    68        399
    69        305
    70         29
    71         62
    72          6
    75          2
    76          2
    77        206
    78         41
    79        294
    80         87
    81        379
    82        368
    83        140
    84         34
    85         41
    86          2
    89          3
    91        204
    92         43
    93        413
    94        126
    95        398
    96        840
    97        106
    98          4
   102          3
   103         13
   104          7
   105        192
   106         45
   107        176
   108         50
   109        999
   110        222
   111        194
   112         10
   113          3
   115         14
   116          4
   117         14
   118          6
   119         76
   120        127
   121        113
   122         52
   123        353
   124         41
   125         25
   126          2
   127          3
   128          5
   129          6
   130          3
   131         25
   133         22
   134         22
   135         33
   136         19
   137        111
   138        782
   139         86
   140          9
   144          3
   145         20
   146          9
   147         43
   148          7
   149         19
   150         35
   151         17
   152         14
   153          3
   159         14
   160          4
   162         15
   163          7
   165          2
   179         25
   180          3
   187         11
   188          2
   191          7
   192          2
   205         17
   220         17
   221          4