##TITLE=Library Entry 65978
##JCAMP-DX=Revision 4.10 
##DATA TYPE=MASS SPECTRUM
##SAMPLE DESCRIPTION=Exported from NIST MS Search
##NAMES=HP
##CAS NAME=p-Menth-2-en-7-ol, cis-
##MOLFORM=C10H18O
##CAS REGISTRY NO=19898-86-3
##MP= -300
##BP= -300
##MW= 154
##$RETENTION INDEX=1847
##$CONDENSED SPECTRUM=NO
##NPOINTS= 66
##XYDATA=(XY..XY) 1 
    26          6
    27        139
    28         26
    29         84
    31         97
    38          5
    39        145
    40         21
    41        350
    42         25
    43        283
    44         11
    45          6
    50         10
    51         48
    52         23
    53        104
    54         23
    55        234
    56         21
    57        169
    58          8
    63         13
    65         59
    66         40
    67        915
    68         69
    69        169
    70         32
    71         10
    75          7
    77        300
    78         89
    79        450
    80        172
    81        550
    82         90
    83         50
    84         13
    89         11
    91        191
    92         85
    93        999
    94        180
    95         75
    96         15
    97         10
   103          5
   105         21
   106          5
   107         80
   108         99
   109         27
   110         15
   111        115
   112         12
   119          7
   121        367
   122         47
   123        300
   124         32
   135          5
   136        170
   137         20
   154        160
   155         18