##TITLE=Library Entry 64777
##JCAMP-DX=Revision 4.10 
##DATA TYPE=MASS SPECTRUM
##SAMPLE DESCRIPTION=Div. of Experiment Therapeutics WRAIR, WRAMC, Washingto
n DC 20307
##NAMES=HP
##CAS NAME=11-Benzoyl-3-methoxy-4a,5,8a,9,10,12-hexahydro-6(11H)-azepino[3,4
,5-k,l]dibenzofuran-6-one
##MOLFORM=C23H23NO3
##CAS REGISTRY NO=198988-04-4
##MP= -300
##BP= -300
##MW= 361
##$RETENTION INDEX=0
##$CONDENSED SPECTRUM=NO
##NPOINTS= 232
##XYDATA=(XY..XY) 1 
    42         97
    43         30
    44          5
    45          5
    47          1
    49          2
    50         10
    51         52
    52         16
    53         31
    55         77
    56          8
    57          7
    59          1
    60          0
    62          5
    63         41
    65        207
    66         13
    67          6
    68          6
    69          8
    70          3
    71          5
    74          3
    75         11
    76          5
    77        102
    78         33
    79         23
    80          6
    81          9
    82          7
    83          4
    84          3
    85          0
    86          3
    87          5
    89         57
    91        999
    92        108
    93         11
    94          4
    95          3
    97          5
    99          3
   100          0
   101         12
   102         29
   103         35
   104         34
   105         22
   106         16
   107         23
   108         10
   109          2
   111          1
   113          9
   114          3
   115        152
   116         33
   117         21
   118         46
   119         22
   120         26
   121         14
   122          6
   123          1
   124          0
   126          4
   127         73
   128        122
   129         44
   130         16
   131         27
   132         52
   133         53
   134         14
   135          1
   136          2
   137         49
   139         33
   141        132
   142          3
   143         22
   144         33
   145         25
   146         20
   147          7
   148          6
   150         36
   152         53
   153         65
   154         10
   155         56
   156          7
   157         48
   158          8
   159         61
   161         63
   162         66
   164        101
   165         28
   166          6
   167         12
   168         37
   169         25
   170         33
   171         55
   172         26
   174        275
   175         39
   176          8
   177          2
   178          3
   179          2
   181         66
   182         39
   183         40
   184         29
   185         69
   186         38
   187         35
   188         11
   189          8
   190          2
   191          1
   193          9
   194          0
   195         12
   196          7
   197         28
   198         31
   199        136
   200         43
   201         25
   202          9
   203          2
   204          0
   205          1
   206          1
   208          1
   209         24
   210         16
   211         32
   212         17
   213         38
   214         55
   215         17
   216          3
   217          1
   221          0
   222          3
   223          3
   224         14
   225         24
   226          5
   227         58
   228         66
   229         22
   230          4
   231          0
   233          0
   236          0
   237          0
   238          6
   239          1
   240         18
   241         43
   242        381
   243         67
   244          8
   245          1
   247          0
   250          1
   251          0
   252          5
   253          1
   254         33
   255         18
   256          5
   257          1
   259          0
   262          0
   263          6
   264          1
   265          1
   266          2
   268          7
   269         21
   270        200
   271         34
   272          3
   273          1
   274          0
   276          5
   278          2
   280          4
   283          6
   284         36
   285          5
   286          1
   288          3
   289          2
   290         10
   291         15
   292        118
   293         22
   294          3
   302          2
   304          7
   305          2
   306          3
   314          0
   316         21
   317          1
   318         15
   330          3
   331          0
   332         10
   333          5
   334          1
   344          9
   345          0
   346          7
   347          0
   358          1
   360        544
   361        853
   362        185
   363         29
   364          1