##TITLE=Library Entry 10230
##JCAMP-DX=Revision 4.10 
##DATA TYPE=MASS SPECTRUM
##SAMPLE DESCRIPTION=C.R.ENZELL SWEDISH TOBACCO CO., STOCKHOLM, SWEDEN
##NAMES=HP
##CAS NAME=Lycophyll
##MOLFORM=C40H56O2
##CAS REGISTRY NO=19891-75-9
##MP= -300
##BP= -300
##MW= 568
##$RETENTION INDEX=0
##$CONDENSED SPECTRUM=NO
##NPOINTS= 517
##XYDATA=(XY..XY) 1 
    12          1
    13          1
    14          4
    15         11
    16          4
    17          8
    18         31
    19          2
    24          2
    25          6
    26         26
    27         64
    28         52
    29        178
    30          8
    31         17
    32          3
    34          1
    36          3
    37         11
    38         19
    39        123
    40         21
    41        378
    42         22
    43        999
    44         42
    45         23
    46          3
    48          2
    49          8
    50         45
    51         76
    52         33
    53         90
    54         15
    55        304
    56         24
    57        159
    58         10
    59          7
    60          6
    61          9
    62         18
    63         50
    64         13
    65         83
    66         18
    67        169
    68         25
    69        347
    70         26
    71         45
    72          4
    73         10
    74         15
    75         12
    76         11
    77        188
    78         67
    79        243
    80         51
    81        392
    82         39
    83         76
    84         21
    85         47
    86          7
    87          6
    88          4
    89         23
    90         13
    91        809
    92        157
    93        462
    94         59
    95        283
    96         28
    97         45
    98         13
    99         11
   100          4
   101          5
   102         13
   103         64
   104         30
   105        594
   106        333
   107        404
   108         53
   109        186
   110         21
   111         19
   112          5
   113          6
   114          4
   115         83
   116         48
   117        131
   118         34
   119        462
   120         86
   121        236
   122         31
   123         10
   124         19
   125          7
   126         30
   127        107
   128        162
   129         86
   130        209
   131         88
   132        352
   133         62
   134         97
   135         15
   136         20
   137          8
   138         16
   139          8
   140         90
   141        124
   142        295
   143        114
   144        117
   145        452
   146         90
   147        147
   148         23
   149         27
   150          8
   151         26
   152         27
   153         52
   154         39
   155        131
   156        138
   157        373
   158        102
   159        238
   160         48
   161         74
   162         13
   163         16
   164          9
   165         64
   166         43
   167         71
   168         52
   169        204
   170         93
   171        238
   172         67
   173        145
   174         30
   175         50
   176        112
   177        157
   178         30
   179         74
   180         48
   181        100
   182         66
   183        224
   184         69
   185        174
   186         50
   187         71
   188         16
   189         20
   190         12
   191         29
   192         33
   193         83
   194         62
   195        143
   196         71
   197        209
   198         78
   199        133
   200         32
   201         29
   202         14
   203         22
   204         15
   205         28
   206         38
   207        100
   208         59
   209        207
   210         69
   211        145
   212         43
   213         46
   214         14
   215         17
   216         13
   217         24
   218         16
   219         45
   220         36
   221         93
   222         45
   223        102
   224         38
   225         55
   226         16
   227         17
   228          9
   229         15
   230         15
   231         25
   232         17
   233         44
   234         25
   235         71
   236         27
   237         62
   238         20
   239         27
   240         10
   241         15
   242         10
   243         16
   244         12
   245         23
   246         17
   247         45
   248         21
   249         55
   250         21
   251         45
   252         15
   253         20
   254          9
   255         14
   256          9
   257         20
   258         13
   259         64
   260         22
   261         48
   262         20
   263         44
   264         18
   265         25
   266         10
   267         16
   268          8
   269         18
   270         13
   271         49
   272         18
   273         26
   274         13
   275         40
   276         19
   277         43
   278         14
   279         15
   280          6
   281         10
   282          7
   283         26
   284          2
   285         78
   286         22
   287         20
   288         10
   289         19
   290          9
   291         21
   292         16
   293         11
   294          5
   295          8
   296          8
   297         22
   298         12
   299         14
   300          9
   301         12
   302          6
   303         11
   304          6
   305          9
   306          6
   307          9
   308          5
   309         14
   310          7
   311         13
   312          6
   313         10
   314          5
   315         10
   316          6
   317         12
   318          6
   319          8
   320          4
   321          7
   322          5
   323          8
   324         19
   325          8
   326         10
   327          5
   328         12
   329          7
   330         10
   331          5
   332          7
   333          4
   334          7
   335          8
   336         13
   337          8
   338          6
   339          5
   340          7
   341          5
   342         10
   343          8
   344          7
   345          4
   346          6
   347          4
   348         15
   349          9
   350         10
   351          5
   352          4
   353          3
   354          5
   355          7
   356          7
   357          4
   358          8
   359          7
   360          9
   361         15
   362         10
   363          6
   364          6
   365          4
   366          3
   367          3
   368          8
   369          5
   370          8
   371          5
   372          3
   373          6
   374          3
   375         14
   376          7
   377         59
   378         19
   379          6
   380          3
   381          3
   382          4
   383          6
   384          5
   385          5
   386          3
   387          3
   388          2
   389          4
   390          3
   391         20
   392          8
   393          4
   394          6
   395          5
   396          4
   397         10
   398          8
   399          7
   400          4
   401          4
   402          5
   403          6
   404          5
   405          3
   406          2
   407          2
   408          5
   409          4
   410         29
   411         12
   412          7
   413          6
   414          4
   415         13
   416          5
   417          5
   418          3
   419          2
   420          1
   421          2
   422          2
   423          4
   424          4
   425          3
   426          2
   427          3
   428          5
   429          4
   430          2
   431          2
   432          1
   433          1
   434          1
   435          1
   436          2
   437          1
   438          1
   439          2
   440          1
   441          4
   442          3
   443          3
   444          5
   445          3
   446         21
   447          9
   448          4
   449          3
   450          1
   451          2
   452          1
   453          1
   454          1
   455          1
   456          2
   457          1
   458          4
   459          2
   460         25
   461         11
   462        250
   463         87
   464         23
   465         11
   466          5
   467          6
   468          4
   469          5
   470          3
   471          2
   472          3
   473          3
   474          9
   475          5
   476         81
   477         28
   478          9
   479          3
   480          2
   481          6
   482          8
   483         40
   484         17
   485          9
   486          4
   487          3
   488          4
   489         10
   490          6
   491          3
   492          1
   493          1
   495          1
   497          1
   498          1
   500          1
   502          1
   509          1
   510          1
   511          1
   517          1
   519          1
   521          1
   522          1
   523          1
   524          1
   532          1
   533          1
   534          2
   535          2
   536          2
   537          2
   538          2
   539          1
   540          1
   546          1
   547          1
   548          4
   549          2
   550         16
   551          9
   552         46
   553         20
   554         10
   555          4
   556          2
   557          1
   562          1
   563          1
   564          6
   565          4
   566         52
   567         26
   568        354