##TITLE=Library Entry 68423
##JCAMP-DX=Revision 4.10 
##DATA TYPE=MASS SPECTRUM
##SAMPLE DESCRIPTION=D.HENNEBERG, MAX-PLANCK INSTITUTE, MULHEIM, WEST GERMAN
Y
##NAMES=HP
##CAS NAME=Longifolenaldehyde
##MOLFORM=C15H24O
##CAS REGISTRY NO=19890-84-7
##MP= -300
##BP= -300
##MW= 220
##$RETENTION INDEX=1631
##$CONDENSED SPECTRUM=NO
##NPOINTS= 157
##XYDATA=(XY..XY) 1 
    26         42
    27         54
    28        110
    29        164
    30          3
    32          7
    37          3
    38          2
    39         62
    40         22
    41        611
    42         39
    43        334
    44          6
    45          7
    49          2
    50          6
    51         12
    52          8
    53        120
    54         35
    55        606
    56         84
    57        132
    58         15
    59         47
    63          2
    64          2
    65         53
    66         78
    67        641
    68        102
    69        540
    70        105
    71        120
    72         16
    73          5
    75          5
    77        191
    78         47
    79        530
    80        196
    81        863
    82        389
    83        248
    84        241
    85         55
    86          4
    87          2
    89          4
    90          3
    91        366
    92         97
    93        636
    94        293
    95        999
    96        171
    97        328
    98         70
    99         11
   100          3
   101          2
   102          3
   103         20
   104         26
   105        322
   106        163
   107        718
   108        427
   109        939
   110        336
   111        121
   112         28
   113          9
   114          2
   115         16
   116          8
   117         63
   118         47
   119        243
   120        157
   121        402
   122        169
   123        190
   124         63
   125         31
   126          7
   127          9
   128          4
   129         15
   130         12
   131        160
   132         66
   133        266
   134        123
   135        541
   136        207
   137        449
   138        108
   139         31
   140          5
   141          5
   142          4
   143         12
   144          9
   145         96
   146         86
   147        150
   148         59
   149        363
   150        175
   151         99
   152         25
   153         54
   154         12
   155          7
   157          7
   158          5
   159        167
   160         43
   161        113
   162        104
   163        292
   164         98
   165         22
   166          6
   167          1
   171          6
   172          4
   173         37
   174         31
   175         90
   176        184
   177        179
   178         47
   179         20
   186          7
   187        266
   188         47
   189        117
   190         24
   191         68
   192         35
   193          6
   200          2
   201          2
   202        102
   203         23
   204          7
   205        478
   206         76
   207          6
   218          4
   219          3
   220        365
   221         53
   222          5