##TITLE=Library Entry 49001
##JCAMP-DX=Revision 4.10 
##DATA TYPE=MASS SPECTRUM
##SAMPLE DESCRIPTION=NIST Mass Spectrometry Data Center
##NAMES=HP
##CAS NAME=(-)-Myrtenol
##MOLFORM=C10H16O
##CAS REGISTRY NO=19894-97-4
##MP= -300
##BP= -300
##MW= 152
##$RETENTION INDEX=1213
##$CONDENSED SPECTRUM=NO
##NPOINTS= 100
##XYDATA=(XY..XY) 1 
    15          3
    19          1
    26          4
    27         64
    28          8
    29         48
    30          2
    31         44
    37          2
    38          9
    39        147
    40         24
    41        197
    42         18
    43        107
    44          5
    45          2
    49          1
    50         22
    51         72
    52         31
    53        103
    54         19
    55        116
    56         15
    57         17
    58          4
    59         20
    60          3
    61          2
    62          7
    63         26
    64          8
    65         86
    66         40
    67        141
    68         32
    69         46
    70         15
    71          4
    72          1
    73          1
    74          5
    75          4
    77        255
    78         76
    79        999
    80         95
    81         90
    82         23
    83         26
    84          3
    85         23
    86          2
    87          1
    89          8
    91        544
    92        100
    93        209
    94         36
    95         62
    96         31
    97          6
    98          8
    99          1
   101          1
   102          5
   103         34
   104         14
   105        121
   106         60
   107        155
   108        352
   109         86
   110         13
   111          3
   115         18
   116          5
   117         36
   118          6
   119        165
   120         21
   121         84
   122         11
   123         10
   124          2
   128          1
   129          1
   131          2
   132          1
   133          5
   134         11
   135         14
   136          2
   137          9
   138          1
   149          1
   150          1
   152         30
   153          3