##TITLE=Library Entry 7902
##JCAMP-DX=Revision 4.10 
##DATA TYPE=MASS SPECTRUM
##SAMPLE DESCRIPTION=RADIAN CORP
##NAMES=HP
##CAS NAME=Cholest-5-en-3-ol (3.beta.)-, tetradecanoate
##MOLFORM=C41H72O2
##CAS REGISTRY NO=1989-52-2
##MP= -300
##BP= -300
##MW= 596
##$RETENTION INDEX=0
##$CONDENSED SPECTRUM=NO
##NPOINTS= 225
##XYDATA=(XY..XY) 1 
    14          2
    16          9
    17         13
    18         44
    26          5
    27         60
    28         27
    29        148
    30          6
    31          4
    36          4
    38          3
    39         59
    40         15
    41        442
    42        100
    43        999
    44        158
    45         27
    50          3
    51          7
    52          4
    53         46
    54         31
    55        492
    56        117
    57        701
    58         36
    59         11
    60        145
    61         31
    63          2
    64          4
    65         23
    66         14
    67        244
    68         57
    69        359
    70         87
    71        363
    72         23
    73        164
    74         16
    75          2
    77         70
    78         26
    79        226
    80         42
    81        508
    82         75
    83        242
    84         56
    85        129
    86         13
    87         36
    88          7
    89          5
    91        287
    92         75
    93        306
    94         81
    95        404
    96         56
    97        164
    98         53
    99         28
   100          9
   101         20
   102          7
   103         24
   104         29
   105        382
   106        114
   107        315
   108        103
   109        229
   110         37
   111         85
   112         18
   113         17
   114         10
   115         60
   116         26
   117        139
   118         73
   119        218
   120        188
   121        236
   122         57
   123         93
   124         18
   125         31
   126          8
   127         21
   128         54
   129        152
   130         50
   131        196
   132         52
   133        228
   134         63
   135        169
   136         35
   137         38
   138         10
   139         13
   140          3
   141         35
   142         41
   143        194
   144         73
   145        398
   146        130
   147        409
   148         98
   149        104
   150         16
   151         25
   152         10
   153         14
   154          8
   155         31
   156         20
   157        104
   158         78
   159        191
   160        114
   161        138
   162         36
   163         64
   164         12
   165         22
   166          9
   167          9
   168          7
   169         17
   170          7
   171         57
   172         24
   173         66
   174         31
   175         42
   176         11
   177         19
   178          6
   179         14
   180          2
   181          8
   183         15
   184          4
   185         67
   186         19
   187         28
   188          7
   189         14
   190          3
   191         19
   192          7
   193         19
   194          3
   195          4
   197         18
   198          8
   199         51
   200         22
   201         32
   202          7
   203          8
   204          3
   205         24
   206         22
   207         12
   209          1
   211         45
   212         17
   213        104
   214         33
   215         29
   216          9
   217          8
   218          3
   219         11
   220          2
   225          2
   226          2
   227         14
   228         34
   229         39
   230          8
   231          5
   233          3
   239          7
   241         10
   242          2
   243          5
   245         16
   246         20
   247        113
   248         25
   249          4
   253          7
   254          3
   255         89
   256         22
   257          6
   258          3
   259         14
   260         92
   261         25
   262          4
   274          9
   275          4
   283         10
   284          2
   326         14
   327          3
   353         74
   354         28
   355          1
   366          4
   367          2
   368        193
   369        305
   370        156
   371         27