##TITLE=Library Entry 65979
##JCAMP-DX=Revision 4.10 
##DATA TYPE=MASS SPECTRUM
##SAMPLE DESCRIPTION=Exported from NIST MS Search
##NAMES=HP
##CAS NAME=p-Menth-2-en-7-ol, trans-
##MOLFORM=C10H18O
##CAS REGISTRY NO=19898-87-4
##MP= -300
##BP= -300
##MW= 154
##$RETENTION INDEX=1261
##$CONDENSED SPECTRUM=NO
##NPOINTS= 66
##XYDATA=(XY..XY) 1 
    26          6
    27        125
    28         20
    29         81
    31         93
    39        133
    40         19
    41        324
    42         20
    43        277
    44          9
    45          7
    50         11
    51         44
    52         26
    53         94
    54         23
    55        243
    56         23
    57        169
    58          9
    59          6
    63         11
    65         53
    66         33
    67        842
    68         66
    69        163
    70         33
    71         11
    75          6
    77        281
    78         85
    79        430
    80        188
    81        500
    82         81
    83         50
    84         12
    89         10
    91        187
    92         81
    93        999
    94        163
    95         78
    96         17
    97         11
   105         22
   106          7
   107         90
   108        106
   109         26
   110         14
   111        103
   112          9
   119          6
   121        412
   122         50
   123        240
   124         24
   135          6
   136        172
   137         21
   139          5
   154        178
   155         19