##TITLE=Library Entry 18513
##JCAMP-DX=Revision 4.10 
##DATA TYPE=MASS SPECTRUM
##SAMPLE DESCRIPTION=S.HAYASHI HIROSHIMA UNIVERSITY, JAPAN
##NAMES=HP
##CAS NAME=5-Benzofuranacetic acid, 6-ethenyl-2,4,5,6,7,7a-hexahydro-7a-hydr
oxy-3,6-dimethyl-.alpha.-methylene-2-oxo-, methyl ester
##MOLFORM=C16H20O5
##CAS REGISTRY NO=19892-18-3
##MP= -300
##BP= -300
##MW= 292
##$RETENTION INDEX=0
##$CONDENSED SPECTRUM=NO
##NPOINTS= 157
##XYDATA=(XY..XY) 1 
    26         38
    27        805
    28        474
    29        188
    30         17
    31         87
    32         46
    37         17
    38        108
    39        897
    40        291
    41        955
    42        123
    43        710
    44        475
    45        219
    47         46
    48         18
    49         18
    50        278
    51        850
    52        435
    53        999
    54        175
    55        662
    56         41
    57        100
    58         46
    59        845
    60         18
    61         18
    62        154
    63        454
    64        217
    65        945
    66        345
    67        945
    68        178
    69        364
    70         43
    71        118
    72         25
    73         17
    74         54
    75         87
    76         87
    77        915
    78        340
    79        600
    80        103
    81        288
    82         90
    83        165
    84         10
    85        106
    86         54
    87        117
    88         15
    89         15
    90         67
    91        975
    92        302
    93        315
    94         72
    95        527
    96         77
    97         36
    98         15
    99         10
   100         10
   101         10
   102         59
   103        206
   104         90
   105        475
   106        139
   107        149
   108         72
   109         49
   110         15
   111         10
   112          5
   113         20
   114         10
   115        410
   116        141
   117        276
   118        645
   119        308
   120         79
   121         76
   122        165
   123         87
   124         92
   125         33
   126         12
   127         98
   128        366
   129        266
   130         41
   131        162
   132        142
   133        123
   134        128
   135         46
   136          5
   137         10
   139         20
   141        116
   142         92
   143        200
   144         92
   145        100
   146         36
   147        188
   148         36
   149         28
   150         11
   151         42
   152         23
   153         30
   154         15
   155         38
   156         12
   157         92
   158        115
   159        221
   160         10
   161         75
   162         69
   163         15
   169         36
   170         12
   171        160
   172         59
   173         41
   174         12
   175        490
   179         33
   184         15
   185         21
   186         38
   187         41
   188         28
   189          6
   213          7
   214         31
   215         23
   218          6
   231          7
   246         51
   247          8
   259          6
   261          1
   272          1
   274         16
   275          2