##TITLE=Library Entry 10197
##JCAMP-DX=Revision 4.10 
##DATA TYPE=MASS SPECTRUM
##SAMPLE DESCRIPTION=S.HAYASHI HIROSHIMA UNIVERSITY, JAPAN
##NAMES=HP
##CAS NAME=5-Benzofuranacetic acid, 6-ethenyl-2,4,5,6,7,7a-hexahydro-3,6-dim
ethyl-.alpha.-methylene-2-oxo-, methyl ester
##MOLFORM=C16H20O4
##CAS REGISTRY NO=19892-19-4
##MP= -300
##BP= -300
##MW= 276
##$RETENTION INDEX=0
##$CONDENSED SPECTRUM=NO
##NPOINTS= 201
##XYDATA=(XY..XY) 1 
    15        128
    17         26
    18         93
    26         26
    27        346
    28        140
    29        280
    30         22
    31        151
    32         13
    39        493
    40        111
    41        728
    42         88
    43        999
    44         75
    45        142
    50         49
    51        195
    52        111
    53        595
    54        137
    55        431
    56         57
    57        124
    58        115
    59        364
    60         22
    61          8
    62         13
    63         93
    64         80
    65        311
    66         93
    67        377
    68        226
    69        364
    70         62
    71        195
    72         26
    73         31
    74         53
    75         31
    76         17
    77        535
    78        142
    79        413
    80        111
    81        377
    82        200
    83        155
    84         66
    85        111
    86         26
    87         57
    88          8
    89         40
    90         13
    91        866
    92        200
    93        493
    94        124
    95        364
    96        111
    97        128
    98         57
    99         88
   100         22
   101         22
   102         22
   103         97
   104         53
   105        431
   106        106
   107        346
   108        142
   109        284
   110        208
   111        115
   112         93
   113         62
   114         22
   115        124
   116         53
   117        115
   118         53
   119        360
   120        333
   121        488
   122        133
   123        177
   124         88
   125         84
   126         53
   127         57
   128         88
   129         88
   130         35
   131        137
   132         75
   133        213
   134         88
   135        186
   136         93
   137        120
   138         44
   139         44
   140         26
   141         44
   142         35
   143         80
   144         35
   145        124
   146         48
   147        220
   148        288
   149        260
   150         75
   151        120
   152         75
   153         62
   154         22
   155         31
   156         22
   157         53
   158         31
   159        160
   160         75
   161        155
   162         88
   163        111
   164        133
   165        120
   166         44
   167         31
   168         13
   169         22
   170         17
   171         80
   172         31
   173         80
   174         40
   175        120
   176        350
   177        213
   178         49
   179        155
   180         44
   181         22
   183         22
   185         31
   186         22
   187         71
   188         53
   189         97
   190         44
   191         44
   192         31
   193         57
   194         13
   195         13
   196          4
   197         13
   198         31
   199         88
   200         31
   201         53
   202         80
   203         80
   204         44
   205         35
   206         22
   207         26
   208         48
   209         26
   214         26
   215         44
   216         97
   217         88
   218         40
   219         26
   220         35
   221         22
   222         13
   223         17
   224         13
   225         13
   226         13
   227         13
   228         13
   229         13
   230         13
   231         13
   232         13
   233         31
   243         13
   244        120
   245         66
   275          8
   276        112
   277         22