##TITLE=Library Entry 14081
##JCAMP-DX=Revision 4.10 
##DATA TYPE=MASS SPECTRUM
##SAMPLE DESCRIPTION=G.SCHULZ SCHERING AG, BERLIN, E.GERMANY.
##NAMES=HP
##CAS NAME=Androst-7-en-6-one, 2,3,14,17-tetrahydroxy-, (2.beta.,3.beta.,5.b
eta.,17.beta.)-
##MOLFORM=C19H28O5
##CAS REGISTRY NO=19892-42-3
##MP= -300
##BP= -300
##MW= 336
##$RETENTION INDEX=0
##$CONDENSED SPECTRUM=NO
##NPOINTS= 107
##XYDATA=(XY..XY) 1 
    39         50
    41        270
    42        175
    43        999
    44         90
    45        157
    53         75
    55        188
    57        100
    60         10
    61         62
    65         25
    67         60
    69         46
    70         46
    71         80
    72         30
    73         20
    77         70
    79        110
    81         85
    83         11
    85         42
    88         30
    91        188
    92         10
    93         83
    94         16
    95         58
    97         20
   103         10
   105        130
   106         10
   107         60
   109         33
   115         34
   117         50
   118         19
   119         82
   120         18
   121        100
   122         18
   123         20
   128         36
   129         50
   131         56
   133         50
   134         20
   135         38
   136         10
   137         17
   141         20
   142         10
   143         39
   144         20
   145         70
   146         18
   147         80
   148         11
   149         50
   155         30
   157         32
   158         10
   159         48
   161         75
   162         28
   171         35
   172         11
   173         47
   174         11
   175         48
   183         10
   185         30
   187         36
   189         13
   190         15
   197         11
   199         20
   201         25
   211         11
   213         45
   214         10
   215         21
   223         10
   229         12
   230         18
   231        180
   232         40
   243         10
   249        400
   250         75
   257         28
   263         18
   267         38
   275         20
   280         20
   285        103
   286         13
   290         20
   300         20
   303         26
   308        110
   309         14
   318        225
   319         44
   320         19
   336         25