##TITLE=Library Entry 51095
##JCAMP-DX=Revision 4.10 
##DATA TYPE=MASS SPECTRUM
##SAMPLE DESCRIPTION=Chemical Concepts
##NAMES=HP
##CAS NAME=Geranyl acetate, 2-oxo-
##MOLFORM=C12H20O3
##CAS REGISTRY NO=199008-29-2
##MP= -300
##BP= -300
##MW= 212
##$RETENTION INDEX=0
##$CONDENSED SPECTRUM=NO
##NPOINTS= 100
##XYDATA=(XY..XY) 1 
    25          2
    26         12
    27        124
    28         21
    29         79
    30          7
    31         12
    32          2
    38          6
    39        140
    40         31
    41        562
    42         60
    43        748
    44         17
    45          6
    50          5
    51         18
    52          7
    53         84
    54         34
    55        205
    56         22
    57         20
    58          4
    59         12
    61          6
    63          5
    65         16
    66         14
    67        247
    68         67
    69        710
    70        145
    71         40
    72         10
    73         28
    74          2
    77         19
    78          5
    79         29
    80         13
    81         62
    82        999
    83        147
    84         36
    85          8
    86          2
    87          9
    88        235
    89         12
    90          2
    91         21
    92         10
    93         30
    94         11
    95         29
    96          8
    97         11
    98          2
   100          2
   101         16
   102          2
   103          3
   105         10
   106          6
   107         11
   108         13
   109         38
   110         15
   111         32
   112          3
   113          2
   114          4
   117          2
   119         21
   121         41
   122          5
   123          7
   124          6
   126          2
   127          4
   129          2
   130        142
   131         14
   134         25
   135          5
   136          2
   137         11
   138          2
   139         32
   140          1
   143          2
   150          2
   151          3
   152         52
   153          6
   169          5
   194          2
   212          2