##TITLE=Library Entry 100465
##JCAMP-DX=Revision 4.10 
##DATA TYPE=MASS SPECTRUM
##SAMPLE DESCRIPTION=Chemical Concepts
##NAMES=HP
##CAS NAME=Cyclopentanol, 3,3,4-trimethyl-4-p-tolyl-, (R,R)-(+)-
##MOLFORM=C15H22O
##CAS REGISTRY NO=19902-38-6
##MP= -300
##BP= -300
##MW= 218
##$RETENTION INDEX=0
##$CONDENSED SPECTRUM=NO
##NPOINTS= 140
##XYDATA=(XY..XY) 1 
    26         46
    27        198
    29        254
    30         29
    31         35
    36         73
    37         39
    38         25
    39        264
    40         55
    41        601
    42         92
    43        267
    44        158
    45         79
    50         41
    51         92
    52         40
    53        131
    54         42
    55        252
    56        152
    57        306
    58         31
    59         64
    60         79
    61         37
    63         47
    64         43
    65        135
    66         48
    67        117
    68         99
    69        217
    70        105
    71        374
    72         49
    73         49
    74         31
    75         38
    76         87
    77        171
    78         58
    79        127
    80         42
    81         99
    82         82
    83        135
    84         75
    85        308
    86         84
    87         31
    89         56
    91        359
    92        179
    93        128
    94         39
    95         67
    96         50
    97         77
    98         35
    99         55
   101         40
   102         69
   103         65
   104         80
   105        368
   106         77
   107         36
   108         31
   109         46
   110         54
   111         33
   112         79
   113         59
   115        279
   116         89
   117        357
   118        124
   119        999
   120        314
   121         78
   122         36
   123         41
   125         48
   126         35
   127         60
   128        141
   129        254
   130         86
   131        112
   132        703
   133        329
   134         91
   135         37
   136         36
   137         56
   138         28
   139         36
   140         33
   141        109
   142         90
   143        146
   144        160
   145        182
   146         40
   147        795
   148        116
   154         49
   155         62
   156         37
   157        164
   158         59
   159         60
   160         33
   161        319
   162        398
   163         81
   165         36
   167         40
   169         33
   170         42
   171         37
   173         36
   176         43
   178         35
   185        123
   186         39
   192         44
   199         33
   200        150
   201         49
   202          4
   203        138
   204         43
   205          4
   217         39
   218        356
   219         68
   220         18