##TITLE=Library Entry 66279
##JCAMP-DX=Revision 4.10 
##DATA TYPE=MASS SPECTRUM
##SAMPLE DESCRIPTION=Mark Whitten, Florida Museum of Natural History, U. of
 Florida
##NAMES=HP
##CAS NAME=Santalol, cis,.alpha.-
##MOLFORM=C15H24O
##CAS REGISTRY NO=19903-72-1
##MP= -300
##BP= -300
##MW= 220
##$RETENTION INDEX=0
##$CONDENSED SPECTRUM=NO
##NPOINTS= 113
##XYDATA=(XY..XY) 1 
    41        678
    43        540
    44         24
    45         22
    50         13
    51         65
    52         30
    53        184
    54         30
    55        287
    56         34
    57         59
    58          9
    59          4
    63         17
    64          8
    65        129
    66         52
    67        190
    68         55
    69        151
    70         29
    71         42
    72          7
    77        349
    78         75
    79        411
    80         58
    81        113
    82         36
    83         40
    84         63
    85         11
    89          8
    91        487
    92        116
    93        999
    94        907
    95        298
    96         44
    97         27
    98         10
   102          5
   103         39
   104         18
   105        258
   106         86
   107        381
   108        126
   109        102
   110         33
   111         21
   112          4
   115         26
   116          7
   117         40
   118         20
   119        203
   120         94
   121        296
   122        222
   123         59
   124         18
   125         15
   128          8
   129         10
   130          4
   131         53
   132         61
   133         72
   134         41
   135         56
   136         19
   137         24
   138          9
   143          6
   145         45
   146         34
   147         48
   148         24
   149         19
   150          9
   151         37
   152          9
   153         16
   154          5
   157          4
   158          4
   159         49
   160         23
   161         52
   162         36
   163         36
   164          9
   165          5
   173         18
   174         17
   175          8
   177         10
   179         16
   187         85
   188         14
   189         43
   190          8
   191         16
   192          6
   202        111
   203         26
   204          3
   205         17
   220         16
   221          2
   222          0