##TITLE=Library Entry 14638
##JCAMP-DX=Revision 4.10 
##DATA TYPE=MASS SPECTRUM
##SAMPLE DESCRIPTION=H. Fales, LC, NHLBI, NIH, Bethesda, MD 20892
##NAMES=HP
##CAS NAME=Estra-5(10)-en-3-one-17-ol, acetate
##MOLFORM=C20H28O3
##CAS REGISTRY NO=19906-32-2
##MP= -300
##BP= -300
##MW= 316
##$RETENTION INDEX=0
##$CONDENSED SPECTRUM=NO
##NPOINTS= 182
##XYDATA=(XY..XY) 1 
    41        138
    42         45
    43        999
    44         35
    45         15
    47          6
    49         25
    51         22
    52         10
    53         57
    54         17
    55        154
    56         13
    57         34
    61          3
    63          6
    65         51
    66         19
    67         94
    68         18
    69         37
    70          7
    71         19
    73          2
    77        133
    78         52
    79        191
    80         34
    81        106
    82         18
    83         26
    84         23
    85         13
    86         13
    89          3
    91        293
    92         51
    93        156
    94         79
    95         80
    96         20
    97        122
    98         17
    99          3
   101          3
   103         30
   104         34
   105        200
   106         79
   107        101
   108         45
   109         57
   110        223
   111         41
   112          3
   115         47
   116         19
   117         92
   118         44
   119        120
   120         66
   121         62
   122         28
   123         74
   124         34
   125          3
   127         11
   128         32
   129         63
   130         30
   131        152
   132         50
   133        146
   134         77
   135         71
   136         23
   137         17
   139          3
   141         28
   142         24
   143         67
   144         58
   145        135
   146        151
   147        262
   148        105
   149         49
   150         10
   151         14
   152         11
   153          8
   154          3
   155         26
   156         22
   157         72
   158         44
   159        137
   160        147
   161         71
   162         53
   163         36
   164          9
   165         29
   166          3
   167          8
   168          3
   169         25
   170         19
   171         62
   172         35
   173         65
   174         34
   175         28
   176          9
   177          4
   181         20
   182          6
   183         65
   184         23
   185         84
   186         63
   187         39
   188         17
   189         13
   191          3
   195         24
   196         15
   197         71
   198         60
   199        132
   200         47
   201         38
   202         22
   203         16
   204          2
   205          3
   208          7
   209         14
   210         13
   211         15
   212         13
   213         62
   214         41
   215        103
   216         24
   217         20
   218          8
   220         31
   221          4
   223         44
   224          7
   227         43
   228         42
   229         21
   230         20
   231         20
   232          4
   237         10
   238         23
   239          8
   241        259
   242         50
   243          3
   245          4
   246         26
   247          3
   255         44
   256        334
   257         92
   258         27
   259         37
   260         15
   273         17
   274         42
   275          7
   287         19
   288          3
   298          3
   301         17
   316        506
   317        111
   318         18