##TITLE=Library Entry 77593
##JCAMP-DX=Revision 4.10 
##DATA TYPE=MASS SPECTRUM
##SAMPLE DESCRIPTION=Exported from NIST MS Search
##NAMES=HP
##CAS NAME=2-Oxazolidinone, 5-methyl-4-phenyl-, trans-
##MOLFORM=C10H11NO2
##CAS REGISTRY NO=19901-85-0
##MP= -300
##BP= -300
##MW= 177
##$RETENTION INDEX=0
##$CONDENSED SPECTRUM=NO
##NPOINTS= 32
##XYDATA=(XY..XY) 1 
    39         50
    43         50
    44         30
    45         50
    50         70
    51        200
    52         70
    56         40
    57         70
    63         50
    64         20
    65         40
    76         30
    77        310
    78        250
    79         60
    89         70
    90         30
    91         90
    92         10
   103         40
   104        999
   105        930
   106        100
   117         30
   118         20
   119         20
   132         80
   133        950
   134        100
   177        110
   178         20