##TITLE=Library Entry 68534
##JCAMP-DX=Revision 4.10 
##DATA TYPE=MASS SPECTRUM
##SAMPLE DESCRIPTION=NIST Mass Spectrometry Data Center, 2010
##NAMES=HP
##CAS NAME=.tau.-Muurolol
##MOLFORM=C15H26O
##CAS REGISTRY NO=19912-62-0
##MP= -300
##BP= -300
##MW= 222
##$RETENTION INDEX=1642
##$CONDENSED SPECTRUM=NO
##NPOINTS= 149
##XYDATA=(XY..XY) 1 
    26          1
    27         46
    28          4
    29         59
    30          2
    31         12
    38          2
    39        102
    40         22
    41        373
    42         31
    43        799
    44         20
    45         35
    46          1
    49          1
    50          4
    51         29
    52         16
    53        124
    54         17
    55        268
    56         39
    57         62
    58        230
    59         95
    60          5
    61          1
    62          2
    63         11
    64          5
    65         81
    66         28
    67        198
    68         65
    69        320
    70         44
    71        372
    72         29
    73          5
    74          1
    75          2
    76          3
    77        233
    78         52
    79        454
    80        100
    81        366
    82         67
    83         50
    84         17
    85         24
    86          3
    87          1
    88          1
    89          6
    90          2
    91        256
    92        100
    93        371
    94        303
    95        999
    96        123
    97         43
    98          7
    99          5
   100          1
   102          4
   103         24
   104         13
   105        440
   106        106
   107        159
   108        150
   109        407
   110         64
   111         50
   112          8
   113         16
   114          2
   115         29
   116         10
   117         35
   118         24
   119        401
   120        100
   121        880
   122        118
   123        104
   124         16
   125         12
   126         10
   127         54
   128         16
   129         14
   130          6
   131         22
   132          6
   133        115
   134        100
   135         89
   136         43
   137         95
   138         24
   139         68
   140          8
   141          3
   144          2
   145         21
   146          7
   147         48
   148         64
   149         76
   150         30
   151         53
   152         61
   153         14
   154          5
   159          7
   160         18
   161        700
   162        114
   163         16
   164        262
   165         39
   166          9
   167          2
   173          1
   175          9
   176         10
   177          4
   178          3
   179        144
   180         20
   181          1
   187          1
   189         96
   190         16
   191          4
   193          1
   203          1
   204        521
   205         85
   206          7
   207         19
   208          3
   222         46
   223          8
   224          1