##TITLE=Library Entry 12285
##JCAMP-DX=Revision 4.10 
##DATA TYPE=MASS SPECTRUM
##SAMPLE DESCRIPTION=NIST Mass Spectrometry Data Center
##NAMES=HP
##CAS NAME=(2R,2'S,5R,5'S)-2,5'-Dimethyl-5-(prop-1-en-2-yl)-5'-vinylhexahydr
o-[2,2'-bifuran]-3(2H)-one
##MOLFORM=C15H22O3
##CAS REGISTRY NO=199115-09-8
##MP= -300
##BP= -300
##MW= 250
##$RETENTION INDEX=1533
##$CONDENSED SPECTRUM=NO
##NPOINTS= 133
##XYDATA=(XY..XY) 1 
    26          2
    27         38
    28          9
    29         29
    30          1
    31          6
    37          2
    38          4
    39        110
    40         39
    41        276
    42         40
    43        999
    44         28
    45         13
    49          1
    50          8
    51         24
    52         15
    53        155
    54         16
    55        550
    56         38
    57         11
    58          3
    59          2
    61          2
    62          8
    63         17
    64          3
    65         58
    66         21
    67        283
    68        260
    69        417
    70         64
    71         46
    72         15
    74          6
    75          9
    76          4
    77         98
    78         12
    79         69
    80         18
    81        169
    82         25
    83        119
    84         18
    85         93
    86         13
    87          8
    88          4
    89         10
    90          3
    91        108
    92         12
    93        612
    94         59
    95         74
    96         32
    97        442
    98         47
    99         10
   100          2
   102          6
   103         43
   104         10
   105         17
   106          3
   107         17
   108          9
   109         48
   110         23
   111        688
   112         67
   113         16
   114          9
   115         26
   116          5
   117         10
   118          4
   119         10
   120          2
   121          9
   122         21
   123         18
   124          5
   125         59
   126         11
   127          6
   128          6
   129          2
   130          1
   131         21
   132          2
   134          2
   137          9
   138          9
   139         66
   140        730
   141         64
   142          7
   143         13
   144          2
   145          8
   146          4
   151          2
   152          2
   153          7
   154          1
   155          3
   157          2
   159         21
   160          3
   161          5
   162          1
   164          1
   165          2
   166          2
   167          8
   168          1
   172          1
   174         21
   175          9
   176          1
   187          6
   188          2
   189          1
   202          8
   204          2
   223          1
   235          4