##TITLE=Library Entry 49210
##JCAMP-DX=Revision 4.10 
##DATA TYPE=MASS SPECTRUM
##SAMPLE DESCRIPTION=Dennis Rohrbaugh, CBDCOM/ERDEC, Edgewood, MD
##NAMES=HP
##CAS NAME=O-Ethyl methylethylphosphinate
##MOLFORM=C5H13O2P
##CAS REGISTRY NO=19929-33-0
##MP= -300
##BP= -300
##MW= 136
##$RETENTION INDEX=0
##$CONDENSED SPECTRUM=NO
##NPOINTS= 30
##XYDATA=(XY..XY) 1 
    45         78
    47        289
    48         57
    49         80
    51         15
    59         14
    61         18
    62         58
    63        272
    64        185
    65        350
    77         40
    78         25
    79        999
    80        378
    81         64
    89         24
    91        332
    92        300
    93        385
    94         19
   106         27
   107        110
   108        422
   109        211
   110         14
   121         34
   135         25
   136        103
   137         11