##TITLE=Library Entry 873
##JCAMP-DX=Revision 4.10 
##DATA TYPE=MASS SPECTRUM
##SAMPLE DESCRIPTION=NIST Mass Spectrometry Data Center, 1994
##NAMES=HP
##CAS NAME=2-Fluoro-5-(trifluoromethyl)benzylamine
##MOLFORM=C8H7F4N
##CAS REGISTRY NO=199296-61-2
##MP= -300
##BP= -300
##MW= 193
##$RETENTION INDEX=0
##$CONDENSED SPECTRUM=NO
##NPOINTS= 114
##XYDATA=(XY..XY) 1 
    16          6
    17          6
    18          7
    20          4
    26          0
    28        749
    29        544
    30        999
    31         29
    32          1
    37         14
    38         22
    39         20
    41          2
    44          4
    46          4
    48         29
    49          7
    50         70
    51         65
    52         21
    54          5
    56         16
    57         57
    58          3
    61         18
    62         29
    63         45
    64          6
    65          3
    68         34
    69        115
    70         19
    71         12
    72          5
    73          9
    74         40
    75        128
    76         24
    77         25
    78          7
    79          5
    80         10
    81         31
    82          5
    83          6
    85         10
    87         46
    88         11
    89          4
    92          9
    93         32
    94         43
    95         75
    96         33
    97         25
    98          5
    99         24
   100         12
   101         22
   102         15
   103          5
   104          8
   105          9
   106          7
   107         40
   108          8
   111          2
   112         10
   113         26
   114         24
   117          8
   118          4
   119          7
   120          7
   121          3
   122         25
   123         23
   124        313
   125         88
   126         27
   127         99
   128          8
   132          6
   134          4
   137         19
   138          5
   143         43
   144         29
   145        237
   146         28
   150          4
   151          4
   152         38
   153          7
   154         18
   156          8
   157          6
   158          3
   163         24
   164          9
   165          3
   170         32
   172         84
   173        182
   174        138
   175         17
   176          9
   177         83
   178          6
   190         35
   192        499
   193        167
   194         13