##TITLE=Library Entry 82796
##JCAMP-DX=Revision 4.10 
##DATA TYPE=MASS SPECTRUM
##SAMPLE DESCRIPTION=R.E.ARDREY HOME OFFICE, RES. EST., ALDERMASTON, BERKS.,
 U.K.
##NAMES=HP
##CAS NAME=Phosphetane, 1-ethoxy-2,2,3,4,4-pentamethyl-, 1-oxide
##MOLFORM=C10H21O2P
##CAS REGISTRY NO=19935-96-7
##MP= -300
##BP= -300
##MW= 204
##$RETENTION INDEX=0
##$CONDENSED SPECTRUM=NO
##NPOINTS= 58
##XYDATA=(XY..XY) 1 
    27         60
    29        120
    39         70
    40         40
    41        320
    42        200
    43        130
    47         70
    55        420
    57        130
    59        840
    65        280
    69        270
    70        190
    71         40
    79         20
    80         30
    81         50
    83         50
    89         40
    90         60
    93        150
    94         40
    95         40
    96         40
    97        890
   105        210
   106        999
   107        100
   108         80
   109         20
   110         30
   111         50
   112        220
   113         30
   117         20
   118         20
   119         20
   120         30
   122         30
   133         40
   134        450
   135         60
   136        200
   141         20
   143         30
   145         10
   147         10
   148         70
   159         30
   160         20
   161        160
   162         40
   163         20
   175         40
   189        750
   203         60
   204        200