##TITLE=Library Entry 48356
##JCAMP-DX=Revision 4.10 
##DATA TYPE=MASS SPECTRUM
##SAMPLE DESCRIPTION=A.A.Kutin, Moscow, Russia
##NAMES=HP
##CAS NAME=2(3H)-Benzoxazolone, 6-chloro-
##MOLFORM=C7H4ClNO2
##CAS REGISTRY NO=19932-84-4
##MP= -300
##BP= -300
##MW= 169
##$RETENTION INDEX=0
##$CONDENSED SPECTRUM=NO
##NPOINTS= 87
##XYDATA=(XY..XY) 1 
    33         14
    35         47
    36         82
    37        253
    38        324
    39        247
    40         72
    41         20
    42         13
    43         36
    44         37
    45         21
    47         39
    49        259
    50        501
    51        515
    52        269
    53         70
    54         17
    55          8
    56         55
    58         14
    60        133
    61        171
    62        249
    63        339
    64         45
    65         25
    66          5
    67          2
    68          1
    71         47
    72         35
    73         66
    74         41
    75        112
    76        227
    78        999
    79         70
    80          6
    81          0
    85         84
    86         48
    87         50
    88         24
    89         37
    90         83
    91         12
    92          0
    95          2
    97         30
    98         64
    99         12
   100         19
   101          1
   102          0
   104          4
   106         31
   107          2
   109          0
   110          2
   113        560
   114         56
   115        138
   116          8
   117          0
   121          0
   125        174
   127         60
   128          2
   134         14
   135         10
   136          0
   140         28
   141          9
   142          8
   143          2
   147          1
   148          3
   149          1
   167          8
   168        174
   169        566
   170         99
   171        169
   172         13
   173          1