##TITLE=Library Entry 40405
##JCAMP-DX=Revision 4.10 
##DATA TYPE=MASS SPECTRUM
##SAMPLE DESCRIPTION=J. SHAW, BORRISTON RESEARCH, ROCKVILLE, MD, USA
##NAMES=HP
##CAS NAME=Metoxuron
##MOLFORM=C10H13ClN2O2
##CAS REGISTRY NO=19937-59-8
##MP= -300
##BP= -300
##MW= 228
##$RETENTION INDEX=1819
##$CONDENSED SPECTRUM=NO
##NPOINTS= 154
##XYDATA=(XY..XY) 1 
    12          1
    13          1
    15        223
    16         15
    26          6
    27         22
    28         62
    29         25
    30         12
    31          3
    32          2
    35          2
    36          2
    37          3
    38          7
    39         15
    40          6
    41         31
    42         67
    43         47
    44         98
    45        101
    46          6
    47          3
    48          1
    49          2
    50         11
    51         27
    52         30
    53         21
    54          3
    55         18
    56         34
    57         26
    58         16
    59          2
    60          7
    61         17
    62         15
    63         29
    64          9
    65         12
    66          3
    67          3
    68          2
    69          4
    72        999
    73         56
    74          9
    75         10
    76         25
    77         12
    78         32
    79         17
    80         40
    81          5
    82          2
    83         12
    84          6
    85          7
    86         12
    87         22
    88          8
    89          6
    90          9
    91          6
    92          3
    93          3
    94          1
    95          1
    96          4
    97          9
    98          7
    99          9
   100          5
   101          2
   103          1
   104          2
   106         42
   107          4
   108          1
   109          3
   110          2
   111          5
   112         15
   113          6
   114         14
   115         27
   116          4
   117          1
   118          1
   119          1
   120          4
   121          2
   122          2
   124          5
   125          5
   126          6
   127          2
   128          6
   129          6
   130          2
   131          2
   132          1
   133          2
   134          1
   135          2
   140         31
   141          4
   142         19
   143         20
   144          6
   145          4
   146          1
   147          2
   149          9
   150          2
   153          1
   155         11
   156         36
   157          9
   158         26
   159          3
   160          5
   161          4
   162          3
   163          2
   164          2
   168         60
   170         32
   171          3
   172          7
   175          3
   176          2
   177          7
   178          1
   180          2
   181          1
   183        180
   185         74
   186          5
   187          1
   192         11
   193          1
   194          1
   196          2
   197          1
   211          2
   213          4
   214          1
   215          1
   228        231
   230         96
   231          6