##TITLE=Library Entry 68401
##JCAMP-DX=Revision 4.10 
##DATA TYPE=MASS SPECTRUM
##SAMPLE DESCRIPTION=NIST Mass Spectrometry Data Center
##NAMES=HP
##CAS NAME=Kolavelool
##MOLFORM=C20H34O
##CAS REGISTRY NO=19941-81-2
##MP= -300
##BP= -300
##MW= 290
##$RETENTION INDEX=2079
##$CONDENSED SPECTRUM=NO
##NPOINTS= 111
##XYDATA=(XY..XY) 1 
    27         18
    29         34
    39         36
    41        209
    42         17
    43        233
    45          8
    51          8
    53         82
    54         13
    55        331
    56         20
    57         52
    58         12
    65         48
    66         14
    67        226
    68         43
    69        249
    70         41
    71        377
    77        126
    78         24
    79        248
    80         51
    81        364
    82         69
    83        114
    84         15
    91        245
    92         42
    93        366
    94         68
    95        999
    96        140
    97         80
    99          7
   103         20
   105        373
   106        219
   107        726
   108        186
   109        353
   110         44
   111         61
   115         23
   116          9
   117         34
   118         22
   119        296
   120        345
   121        492
   122        200
   123        184
   124         26
   125         25
   128         13
   130         11
   131         70
   132        180
   133        182
   134        124
   135        198
   136         89
   137         32
   138         17
   139         15
   143          7
   145        111
   146         26
   147        144
   148         48
   149         81
   150         18
   151         12
   158          8
   159        104
   160         24
   161        138
   162         47
   163         34
   164          7
   173        101
   174         22
   175        215
   176         41
   177         33
   178          6
   187        100
   188         27
   189        578
   190        242
   191        268
   192         43
   201         22
   202         19
   203         27
   204         38
   215         27
   216         13
   217         17
   229         56
   230         12
   243         99
   244         25
   245         12
   257        209
   258         42
   263          4
   272         76
   273         18