##TITLE=Library Entry 6617
##JCAMP-DX=Revision 4.10 
##DATA TYPE=MASS SPECTRUM
##SAMPLE DESCRIPTION=NIST Mass Spectrometry Data Center
##NAMES=HP
##CAS NAME=5-Amino-3,4-dimethyl-isoxazole
##MOLFORM=C5H8N2O
##CAS REGISTRY NO=19947-75-2
##MP= -300
##BP= -300
##MW= 112
##$RETENTION INDEX=0
##$CONDENSED SPECTRUM=NO
##NPOINTS= 61
##XYDATA=(XY..XY) 1 
    15          8
    16          2
    17          1
    25          2
    26         35
    27         84
    29         45
    30         16
    31          1
    36          1
    37         16
    38         30
    39         79
    40         45
    41        109
    42        758
    43        999
    44        292
    45         21
    46          1
    49          5
    50         24
    51         56
    52        114
    53        119
    54        172
    55        164
    56         16
    57         67
    58          3
    62          2
    63          6
    64         10
    65         10
    66         58
    67         60
    68        200
    69         28
    70         54
    71         68
    72          3
    73          1
    76          1
    78          1
    79          2
    80         14
    81         15
    82          8
    83         43
    84         50
    85          6
    93          1
    94          1
    95         17
    96         80
    97         23
    98          1
   111         12
   112        387
   113         28
   114          5