##TITLE=Library Entry 68886
##JCAMP-DX=Revision 4.10 
##DATA TYPE=MASS SPECTRUM
##SAMPLE DESCRIPTION=NIST Mass Spectrometry Data Center
##NAMES=HP
##CAS NAME=Kolavenol acetate
##MOLFORM=C22H36O2
##CAS REGISTRY NO=19941-84-5
##MP= -300
##BP= -300
##MW= 332
##$RETENTION INDEX=2412
##$CONDENSED SPECTRUM=NO
##NPOINTS= 96
##XYDATA=(XY..XY) 1 
    27         19
    39         45
    41        307
    43        565
    44         20
    52          9
    53        113
    55        379
    56         28
    57         92
    65         74
    66         24
    67        275
    68         93
    69        376
    70         31
    77        143
    78         28
    79        293
    80         66
    81        431
    82         99
    83        183
    84         54
    85         47
    91        266
    92         48
    93        393
    94         76
    95        999
    96        200
    97        135
   103         20
   105        537
   106        449
   107        839
   108        227
   109        354
   110         63
   111        107
   117         28
   118         35
   119        460
   120        897
   121        528
   122        209
   123        252
   131         76
   132        258
   133        231
   134        172
   135        182
   136         63
   138         46
   139         24
   140         11
   145        145
   146         27
   147        149
   149         64
   159        136
   160         25
   161        126
   162         49
   163         25
   173        104
   174         23
   175        142
   176         22
   177         32
   187         92
   188         25
   189        964
   190        213
   191        123
   201         16
   202         13
   203         21
   215         16
   216         12
   217         21
   218          7
   229         24
   230          9
   243         48
   244         11
   250         17
   257        171
   258         36
   264         25
   272         86
   273         21
   317         11
   332         62
   333         17
   334          3