##TITLE=Library Entry 2421
##JCAMP-DX=Revision 4.10 
##DATA TYPE=MASS SPECTRUM
##SAMPLE DESCRIPTION=D.HENNEBERG, MAX-PLANCK INSTITUTE, MULHEIM, WEST GERMAN
Y
##NAMES=HP
##CAS NAME=Thiocyanic acid, octyl ester
##MOLFORM=C9H17NS
##CAS REGISTRY NO=19942-78-0
##MP= -300
##BP= -300
##MW= 171
##$RETENTION INDEX=0
##$CONDENSED SPECTRUM=NO
##NPOINTS= 116
##XYDATA=(XY..XY) 1 
    26         40
    27        265
    28         84
    29        486
    30         13
    31          9
    32          9
    33          3
    34          5
    35          3
    37          1
    38          1
    39        115
    40         35
    41        999
    42        434
    43        942
    44         32
    45         41
    46         17
    47         51
    48          5
    49          3
    50          6
    51          5
    52          7
    53         43
    54         97
    55        825
    56        583
    57        469
    58         21
    59         40
    60         85
    61         33
    62         14
    63          6
    64          1
    65          7
    66          7
    67         63
    68        156
    69        435
    70        349
    71        202
    72         42
    73         11
    74          9
    75          9
    76          4
    77          4
    78          2
    79         11
    80          4
    81         22
    82         73
    83        294
    84        150
    85         16
    86         23
    87        205
    88         41
    89         24
    90          4
    91          6
    92          3
    93          4
    94         10
    95         12
    96         47
    97         30
    98          4
    99          3
   100         34
   101        307
   102         30
   103         16
   104          1
   105          1
   106          4
   107          3
   108          5
   109          3
   110         85
   111         20
   112         54
   113          6
   114         50
   115        113
   116         12
   117          8
   122          1
   123          1
   124         55
   125          5
   126          1
   127          0
   128         31
   129         43
   130          6
   131          2
   135          6
   137          7
   138         27
   139          4
   140          0
   142         24
   143         26
   144        177
   145         19
   146         34
   147          3
   148          2
   154          0
   156          5
   170          2