##TITLE=Library Entry 78622
##JCAMP-DX=Revision 4.10 
##DATA TYPE=MASS SPECTRUM
##SAMPLE DESCRIPTION=Chemical Concepts
##NAMES=HP
##CAS NAME=N-[5-(p-Tolyl)-1,3,4-thiadiazol-2-yl)benzamide
##MOLFORM=C16H13N3OS
##CAS REGISTRY NO=19948-85-7
##MP= -300
##BP= -300
##MW= 295
##$RETENTION INDEX=0
##$CONDENSED SPECTRUM=NO
##NPOINTS= 80
##XYDATA=(XY..XY) 1 
    34         14
    35         21
    36         63
    37         25
    38         65
    39        111
    40         73
    41         49
    42         29
    43         49
    44         68
    45         23
    46          6
    47          8
    50        156
    51        218
    52         25
    53         19
    54         10
    55         29
    57         44
    58          8
    59         10
    60         12
    61         12
    62         24
    63         48
    64         23
    65         61
    67         12
    69         57
    70         15
    71         16
    72          9
    73         21
    74         73
    75         46
    76        124
    77        527
    78         36
    81          9
    82          9
    83          9
    84          8
    86          7
    87          7
    89         58
    90         41
    91        108
    93         11
    95          6
   102         39
   103         44
   105        999
   106         58
   107          7
   112          7
   115          7
   116         24
   117         23
   118         48
   119         24
   121          6
   122          9
   131          9
   132         11
   134         56
   135         79
   136         13
   148          6
   149          7
   171          9
   191         33
   208          7
   266          6
   267         20
   293          9
   294         28
   295         58
   296         11