##TITLE=Library Entry 34366
##JCAMP-DX=Revision 4.10 
##DATA TYPE=MASS SPECTRUM
##SAMPLE DESCRIPTION=Exported from NIST MS Search
##NAMES=HP
##CAS NAME=2,6,10-Dodecatrienoic acid, 3,7,11-trimethyl-, ethyl ester, (E,E)
-
##MOLFORM=C17H28O2
##CAS REGISTRY NO=19954-66-6
##MP= -300
##BP= -300
##MW= 264
##$RETENTION INDEX=0
##$CONDENSED SPECTRUM=NO
##NPOINTS= 77
##XYDATA=(XY..XY) 1 
    41        607
    42         36
    43        183
    44         13
    45          5
    53        107
    54         40
    55        138
    56         11
    57         40
    58         18
    59          9
    67        134
    68         67
    69        999
    70         45
    71         27
    79         63
    80         21
    81        473
    82        214
    83         71
    84          9
    85         18
    91         45
    92          9
    93         98
    94          9
    95        130
    96         18
   100        104
   101          9
   105         36
   106          9
   107         89
   108         27
   109        134
   110         13
   111         18
   119         12
   120         15
   121        223
   122         45
   123         71
   124          9
   125         12
   128        420
   129         24
   135         40
   136         50
   137        101
   138          9
   139         18
   141        205
   142          9
   147         36
   148          9
   149         45
   150          9
   151          9
   154         27
   175         27
   176         18
   177          9
   179          9
   190         18
   191         30
   193          9
   195         18
   203         27
   218         34
   219         73
   220         13
   221         36
   249          9
   264         54
   265          9