##TITLE=Library Entry 86406
##JCAMP-DX=Revision 4.10 
##DATA TYPE=MASS SPECTRUM
##SAMPLE DESCRIPTION=Exported from NIST MS Search
##NAMES=HP
##CAS NAME=1-Naphthaleneacetic acid, 1.alpha.,2,3,4,4a,5,6,7,8,8a-decahydro-
2.alpha.-hydroxy-2,5,5,8a.beta.-tetramethyl-, methyl ester, acetate, (-)-
##MOLFORM=C19H32O4
##CAS REGISTRY NO=19954-81-5
##MP= -300
##BP= -300
##MW= 324
##$RETENTION INDEX=0
##$CONDENSED SPECTRUM=NO
##NPOINTS= 80
##XYDATA=(XY..XY) 1 
   107        332
   108        129
   109        999
   110        148
   111         49
   116         42
   117         59
   118         32
   119        446
   120        178
   121        483
   122        235
   123        404
   124        550
   125         64
   127         17
   128         24
   129         14
   130         14
   131         29
   132         14
   133        223
   134         84
   135        166
   136        183
   137        662
   138         62
   139         24
   140        272
   141        111
   142         29
   143         14
   144         19
   147         19
   148        163
   149         19
   150        106
   151         19
   152         34
   153        228
   154         37
   155          9
   161         84
   163        158
   165         14
   166         14
   167        173
   168          9
   169          5
   173         17
   174         24
   175        416
   176         81
   177        129
   178         17
   179        233
   180         44
   181         34
   182         17
   189         94
   190        528
   191         19
   192         94
   193        136
   194         19
   195        240
   196         79
   197         39
   198         24
   215          9
   216         59
   217         12
   218          9
   219         64
   232         29
   233         44
   249        441
   250         67
   264        342
   265         64