##TITLE=Library Entry 10960
##JCAMP-DX=Revision 4.10 
##DATA TYPE=MASS SPECTRUM
##SAMPLE DESCRIPTION=NIST Mass Spectrometry Data Center, 2009
##NAMES=HP
##CAS NAME=(3-Phenyloxiran-2-yl)methyl acetate
##MOLFORM=C11H12O3
##CAS REGISTRY NO=19950-78-8
##MP= -300
##BP= -300
##MW= 192
##$RETENTION INDEX=0
##$CONDENSED SPECTRUM=NO
##NPOINTS= 81
##XYDATA=(XY..XY) 1 
    14          2
    15         16
    26          3
    27         26
    28          2
    29         14
    30          2
    31          3
    37          3
    38         13
    39         65
    40         10
    41         11
    42         26
    43        999
    44         28
    45          4
    49          2
    50         51
    51        146
    52         31
    53         10
    54          1
    55          8
    58          1
    60          2
    61          8
    62         39
    63        134
    64         53
    65         98
    66          7
    71          3
    73          9
    74         18
    75         17
    76         18
    77        321
    78         76
    79        320
    80         21
    81          1
    85          6
    86        145
    87         16
    89        417
    90        435
    91        431
    92         42
    93          7
    94          1
    98          1
   101          5
   102         14
   103        108
   104        128
   105        688
   106         70
   107        845
   108         68
   109          4
   113          1
   115         28
   116          8
   117          4
   118         12
   119         25
   120         67
   121         13
   122          1
   131         64
   132         28
   133        229
   134         33
   135          2
   147          3
   149        644
   150         69
   151          6
   176          2
   192          1