##TITLE=Library Entry 23437
##JCAMP-DX=Revision 4.10 
##DATA TYPE=MASS SPECTRUM
##SAMPLE DESCRIPTION=A.A.Kutin, Moscow, Russia
##NAMES=HP
##CAS NAME=Carbamic acid, N-(4-chlorophenyl)-, heptyl ester
##MOLFORM=C14H20ClNO2
##CAS REGISTRY NO=199530-81-9
##MP= -300
##BP= -300
##MW= 269
##$RETENTION INDEX=0
##$CONDENSED SPECTRUM=NO
##NPOINTS= 130
##XYDATA=(XY..XY) 1 
    33          6
    34          4
    35          8
    36         31
    37         16
    39        236
    41        838
    43        805
    44         51
    45         21
    47          3
    49          8
    50         25
    51         21
    52         16
    53         31
    55        285
    57        999
    58         33
    59          4
    60          2
    61          9
    62         25
    63         63
    64         32
    65         32
    66          7
    67         12
    68         10
    69         43
    70         32
    71         14
    73         38
    74         11
    75         45
    76         11
    77          8
    78          4
    79          3
    80          2
    81          3
    83          8
    84          2
    85          3
    86          1
    87          3
    88          3
    90         54
    91         26
    92         16
    93         11
    94          1
    95          0
    97         10
    99         92
   100         14
   101         24
   102          3
   103          0
   104          1
   105          1
   106          2
   107          2
   108          3
   111         28
   112          3
   113          8
   114          1
   115          1
   116          0
   117          0
   118          2
   119          4
   120          2
   121          0
   122          0
   125         39
   127        464
   128         48
   129        118
   130          8
   132          5
   133          1
   135          1
   136          0
   137          1
   138          1
   140         21
   142          8
   143          3
   144          0
   150          0
   151          0
   153         46
   154         50
   155         15
   156         16
   157          1
   165          0
   166          1
   167          0
   168         15
   171        143
   172         32
   173         43
   174          8
   175          0
   180          0
   182         10
   183          1
   184          4
   185          0
   196          9
   197          1
   198          3
   199          0
   208          0
   210          1
   211          0
   212          0
   221          0
   223          0
   224          0
   235          0
   250          0
   269         99
   270          9
   271         41
   272          3
   273          0