##TITLE=Library Entry 30951
##JCAMP-DX=Revision 4.10 
##DATA TYPE=MASS SPECTRUM
##SAMPLE DESCRIPTION=Div. of Experiment Therapeutics WRAIR, WRAMC, Washingto
n DC 20307
##NAMES=HP
##CAS NAME=1,1-Diethyl-3-[2-thiazolyl]thiourea
##MOLFORM=C8H13N3S2
##CAS REGISTRY NO=19958-76-0
##MP= -300
##BP= -300
##MW= 215
##$RETENTION INDEX=0
##$CONDENSED SPECTRUM=NO
##NPOINTS= 88
##XYDATA=(XY..XY) 1 
    42        245
    44        712
    45        211
    46         40
    47         30
    49          7
    51          2
    53          6
    54        208
    55         42
    56        117
    58        662
    60        999
    61         29
    62         25
    64         15
    65          4
    68         67
    70         91
    72        912
    73         60
    74         26
    76         21
    81         10
    85        372
    86        193
    88        560
    90         42
    91          1
    92          2
    93          2
    95         15
    96          1
    97          7
    99        123
   100         41
   101         56
   102         37
   104         20
   106          1
   107          1
   108          1
   110          2
   111        115
   113        103
   114         26
   116        415
   117         41
   118         42
   119          2
   120          3
   123          3
   126        175
   127         70
   129          8
   130          3
   131          6
   138          9
   143        706
   145        184
   146          9
   147          5
   150          4
   152          2
   154         64
   155         45
   156          3
   157          1
   165          1
   168          7
   169          1
   170          7
   171          1
   173         10
   174          1
   180          6
   182        502
   183         10
   184         21
   186         15
   188          6
   198          9
   212          3
   214         24
   215        707
   216         70
   217         34
   218          2