##TITLE=Library Entry 86504
##JCAMP-DX=Revision 4.10 
##DATA TYPE=MASS SPECTRUM
##SAMPLE DESCRIPTION=Darrick Lee, Cayman Chemical, Ann Arbor, MI
##NAMES=HP
##CAS NAME=1-(4-Fluorobenzyl) piperazine
##MOLFORM=C11H15FN2
##CAS REGISTRY NO=199672-06-5
##MP= -300
##BP= -300
##MW= 194
##$RETENTION INDEX=0
##$CONDENSED SPECTRUM=NO
##NPOINTS= 105
##XYDATA=(XY..XY) 1 
    40          3
    41         24
    42         69
    43         22
    44         17
    45          3
    49          1
    50          6
    51          9
    52          4
    54         19
    55         21
    56        208
    57         67
    58         37
    59         13
    60          1
    61          1
    62          8
    63         23
    64          3
    65          2
    66          1
    67          1
    68          5
    69          5
    70         10
    71          9
    72          3
    73          1
    74          3
    75         11
    76          2
    77          2
    78          1
    80          2
    81         14
    83        133
    84         11
    85         86
    86          7
    87          2
    89         17
    90          3
    91          1
    92          1
    93          1
    94          3
    95          7
    96          5
    97          2
    99          7
   100          1
   101          3
   102          1
   103          3
   104          1
   105          2
   107         33
   109        999
   110         77
   111          3
   115          1
   116          1
   117          1
   118          2
   119          2
   120          1
   121          4
   122         24
   123          7
   124          3
   133          2
   134          2
   135          9
   136         43
   137         24
   138         52
   139          8
   140          1
   146          1
   148          4
   149         15
   150         18
   152        409
   153         40
   154          2
   162          3
   163          5
   164         37
   165         18
   166          3
   167          1
   174          1
   176          2
   177          3
   178          1
   179          5
   180          1
   191          1
   192          2
   193         17
   194        137
   195         18
   196          1