##TITLE=Library Entry 33229
##JCAMP-DX=Revision 4.10 
##DATA TYPE=MASS SPECTRUM
##SAMPLE DESCRIPTION=M.GEILEN UNIVERSITE LIBRE DE BRUXELLES, BELGIUM
##NAMES=HP
##CAS NAME=Stannane, tetracyclopentyl-
##MOLFORM=C20H36Sn
##CAS REGISTRY NO=19962-46-0
##MP= -300
##BP= -300
##MW= 396
##$RETENTION INDEX=0
##$CONDENSED SPECTRUM=NO
##NPOINTS= 172
##XYDATA=(XY..XY) 1 
    14          6
    15         23
    16          6
    17         46
    18        203
    19          9
    26         14
    27         52
    28        128
    29         63
    30         17
    31         23
    32         17
    36          3
    37          3
    38          3
    39         57
    40         20
    41        235
    42         43
    43         75
    44         34
    45         32
    46          6
    47         14
    50          3
    51          6
    52          3
    53         20
    54          9
    55        114
    56         72
    57        126
    58         37
    59          3
    60         14
    65         14
    66         17
    67        999
    68         80
    69        123
    70         11
    71         20
    72          3
    73         17
    74          3
    77          2
    78          2
    79          2
    80          3
    81          9
    82          9
    83         43
    84         69
    85         26
    86          9
    87          6
    91          3
    92          3
    93          6
    94          3
    95          6
    96          6
    97          6
    98          3
    99          6
   100          3
   101         11
   102          3
   109          2
   111          3
   112          3
   113          6
   114          3
   115          6
   116         63
   117        146
   118        150
   119        230
   120        190
   121        265
   122         23
   123         54
   124         23
   125         49
   130          3
   131          3
   132          6
   133          6
   134          3
   135          6
   143          6
   144          3
   145          9
   146          3
   147         11
   148          3
   149         14
   150          2
   151          2
   153          2
   155          3
   156          2
   157          9
   158          3
   159         11
   160          3
   161         11
   163          3
   165          2
   166          2
   167          2
   168          2
   169          2
   170          2
   181          9
   182         13
   183         34
   184         20
   185         92
   186         66
   187        420
   188        250
   189        630
   190        215
   191        720
   192         43
   193        120
   194          6
   195        120
   196          6
   251         31
   252          3
   253         23
   254         14
   255        430
   256        280
   257        740
   258        363
   259        999
   260        112
   261        140
   262         17
   263        172
   264         20
   290          2
   292          3
   293          2
   294          3
   296          2
   298          2
   300          2
   320         14
   321          9
   322          6
   323        195
   324        129
   325        315
   326        154
   327        430
   328         72
   329         66
   330         11
   331         77
   392          6
   393          3
   394          9
   395          3
   396         11
   397          3
   398          3
   400          3