##TITLE=Library Entry 77518
##JCAMP-DX=Revision 4.10 
##DATA TYPE=MASS SPECTRUM
##SAMPLE DESCRIPTION=D.HENNEBERG, MAX-PLANCK INSTITUTE, MULHEIM, WEST GERMAN
Y
##NAMES=HP
##CAS NAME=Benzene, (2,2-dimethylcyclopentyl)-
##MOLFORM=C13H18
##CAS REGISTRY NO=19960-99-7
##MP= -300
##BP= -300
##MW= 174
##$RETENTION INDEX=0
##$CONDENSED SPECTRUM=NO
##NPOINTS= 123
##XYDATA=(XY..XY) 1 
    23          3
    26         24
    27        297
    28        245
    29        241
    30          5
    31          2
    32        143
    33         11
    34          6
    36         16
    37          3
    38         13
    39        338
    40         18
    41        491
    42        104
    43         62
    44         23
    45          7
    47          5
    48         13
    49          4
    50         56
    51        216
    52         56
    53        106
    54         24
    55        463
    56         42
    57        426
    58         37
    60         11
    61         12
    62          2
    63         73
    64         49
    65        157
    66         18
    67         49
    68         31
    69        124
    70         81
    71          8
    72         14
    73         24
    74          8
    75         27
    76         29
    77        218
    78        235
    79         72
    80         25
    81        211
    82         36
    83         49
    84          1
    85         12
    86          0
    87         13
    88         13
    89         56
    90         27
    91        750
    92        102
    93         14
    94         14
    95         17
    96         16
    97          2
    98          5
    99          8
   100         15
   101         21
   102         54
   103        184
   104        999
   105        495
   106         47
   107          9
   109          0
   110          5
   111          8
   113         10
   114         22
   115        212
   116        137
   117        748
   118        861
   119        161
   120         19
   121         12
   124          2
   125          4
   126          3
   127         29
   128         66
   129         53
   130         27
   131        211
   132         25
   133          3
   134          1
   135          3
   138          2
   139          5
   141         19
   142          8
   143         13
   144          8
   145        295
   146         54
   147          0
   153          2
   154          2
   156          2
   157          7
   159         95
   160         13
   162          3
   173         13
   174        456
   175         70