##TITLE=Library Entry 61144
##JCAMP-DX=Revision 4.10 
##DATA TYPE=MASS SPECTRUM
##SAMPLE DESCRIPTION=A.A.Kutin, Moscow, Russia
##NAMES=HP
##CAS NAME=Dispiro[2.0.2.1]heptane-1-carboxylic acid, 1-methyl-, methyl este
r
##MOLFORM=C10H14O2
##CAS REGISTRY NO=199783-50-1
##MP= -300
##BP= -300
##MW= 166
##$RETENTION INDEX=0
##$CONDENSED SPECTRUM=NO
##NPOINTS= 94
##XYDATA=(XY..XY) 1 
    37         16
    38         63
    39        578
    40        223
    41        426
    42         31
    43        165
    44         12
    45         94
    46          3
    49          6
    50         77
    51        183
    52        109
    53        218
    54         37
    55        136
    56         12
    57         21
    58         18
    59        206
    60          6
    61          8
    62         21
    63         70
    64         28
    65        262
    66        139
    67        172
    68         21
    69         67
    70          6
    71         13
    72          5
    73         17
    74          9
    75          6
    77        317
    78         92
    79        465
    80         66
    81         37
    82         15
    83         21
    84          2
    85          7
    87          4
    88         16
    89          7
    91        999
    92        155
    93         92
    94         18
    95         98
    96         16
    97         41
    98          7
    99          2
   101         11
   103         29
   105        270
   106        298
   107        748
   108         98
   109         46
   110         34
   111         18
   112          2
   113          0
   115          2
   117          1
   118          4
   119         78
   120         10
   121         13
   122         12
   123        162
   124         17
   125         11
   126          5
   132          0
   133         37
   134         29
   135         86
   136         13
   137         24
   138         45
   139          4
   151        243
   152         26
   153          2
   165         60
   166          7
   167          0