##TITLE=Library Entry 14697
##JCAMP-DX=Revision 4.10 
##DATA TYPE=MASS SPECTRUM
##SAMPLE DESCRIPTION=V.A.Korolev, Moscow, Russia
##NAMES=HP
##CAS NAME=8-Bromo-1,3-dimethyl-7-(3-oxobutan-2-yl)purine-2,6-dione
##MOLFORM=C11H13BrN4O3
##CAS REGISTRY NO=19977-32-3
##MP= -300
##BP= -300
##MW= 328
##$RETENTION INDEX=0
##$CONDENSED SPECTRUM=NO
##NPOINTS= 63
##XYDATA=(XY..XY) 1 
    38         14
    39         41
    40         38
    41         56
    42        208
    43        999
    44         23
    50          3
    51         14
    52         30
    53         34
    54         41
    55         16
    56         62
    57         10
    58         12
    64          4
    65          5
    66         23
    67         90
    68         22
    69          6
    70          9
    77          9
    78         11
    79         22
    80         30
    81         12
    82          3
    91          4
    93         14
    94         17
    95         22
   106          4
   107          3
   108          2
   120          4
   122         10
   123          4
   157          3
   165          2
   206          3
   207         21
   208          3
   234         12
   235          3
   241          4
   243          4
   249         23
   250          4
   258          5
   260          5
   285         64
   286         19
   287         64
   288         19
   313          3
   315          3
   328        415
   329         58
   330        413
   331         57
   332          6