##TITLE=Library Entry 82027
##JCAMP-DX=Revision 4.10 
##DATA TYPE=MASS SPECTRUM
##SAMPLE DESCRIPTION=NIST Mass Spectrometry Data Center, 2010
##NAMES=HP
##CAS NAME=4-Methylbenzylamine, N-pentafluoropropionyl-
##MOLFORM=C11H10F5NO
##CAS REGISTRY NO=1998-95-4
##MP= -300
##BP= -300
##MW= 267
##$RETENTION INDEX=0
##$CONDENSED SPECTRUM=NO
##NPOINTS= 138
##XYDATA=(XY..XY) 1 
    15          1
    26          2
    27         19
    28         29
    29          3
    30          1
    31          7
    37          2
    38          8
    39         58
    40          6
    41         13
    42          2
    43         21
    44         15
    46          1
    47          1
    50         34
    51         90
    52         35
    53         25
    54          3
    55          2
    56          4
    57          1
    61          4
    62         18
    63         61
    64         17
    65        100
    66         11
    67          2
    69         88
    70          1
    71          1
    74         28
    75         11
    76         16
    77        238
    78        115
    79        281
    80         20
    81          4
    83          1
    85          1
    86          4
    87          5
    88          3
    89         52
    90         24
    91        215
    92         39
    93        101
    94          8
    95          1
    96          1
    98          3
   100         22
   101          4
   102         21
   103        153
   104        272
   105        999
   106         90
   107        156
   108         12
   109          9
   110          1
   114          1
   115          6
   116         10
   117         11
   118         22
   119        212
   120         27
   121         32
   122          4
   123          3
   126          1
   127          6
   128          6
   129          1
   130         14
   131          4
   132         37
   133         46
   134          5
   135         14
   136          2
   140          4
   141          6
   142          1
   146         33
   147         35
   148         82
   149         10
   150          2
   151          2
   153          2
   154          3
   155          8
   156          1
   160          2
   163          2
   164          2
   165          2
   166          1
   171          1
   174          1
   175          3
   176          6
   177          3
   178          5
   179          1
   180          7
   181          1
   182          1
   190          1
   191          1
   198          6
   199          1
   204          2
   214          1
   225          1
   232          5
   233          1
   239          1
   248          1
   249          1
   250          2
   252        585
   253         64
   254          4
   265          2
   266         46
   267        614
   268         77
   269          6