##TITLE=Library Entry 13214
##JCAMP-DX=Revision 4.10 
##DATA TYPE=MASS SPECTRUM
##SAMPLE DESCRIPTION=Japan AIST/NIMC Database- Spectrum MS-NW-7951
##NAMES=HP
##CAS NAME=.alpha.,.alpha.'-Dihydroxy-m-diisopropylbenzene
##MOLFORM=C12H18O2
##CAS REGISTRY NO=1999-85-5
##MP= -300
##BP= -300
##MW= 194
##$RETENTION INDEX=0
##$CONDENSED SPECTRUM=NO
##NPOINTS= 117
##XYDATA=(XY..XY) 1 
    15         24
    17          1
    18          4
    27         17
    28          2
    29         17
    31         60
    38          3
    39         44
    40          5
    41         75
    42          3
    43        999
    44         23
    45          9
    46          4
    50         18
    51         53
    52         11
    53          9
    54          1
    55          5
    57         12
    58          7
    59        541
    60         24
    61          4
    62          6
    63         21
    64          9
    65         32
    66          6
    67         21
    69          2
    70          1
    71          1
    72          2
    73          8
    74         23
    75         12
    76         13
    77         81
    78         18
    79         19
    80          4
    81          4
    82        100
    83          2
    86          1
    87          3
    88          1
    89         12
    90          6
    91        126
    92         11
    93          9
    94          1
    95          2
   101          4
   102         10
   103         21
   104          5
   105         31
   106          3
   107          3
   114          1
   115         49
   116         12
   117         39
   118         32
   119        236
   120         29
   121        127
   122         10
   123          1
   126          2
   127          8
   128         29
   129         11
   130          2
   131          8
   132          2
   133         64
   134          9
   135          9
   136          2
   137          1
   139          2
   141          8
   142          6
   143         23
   144          3
   145          7
   146          2
   147          7
   148          1
   149          2
   157          3
   158         59
   159         12
   160          3
   161        269
   162         34
   163         39
   164          6
   165          2
   175          4
   176          8
   177         39
   178          7
   179        868
   180        108
   181          9
   193          8
   194        108
   195         14
   196          2