##TITLE=Library Entry 71676
##JCAMP-DX=Revision 4.10 
##DATA TYPE=MASS SPECTRUM
##SAMPLE DESCRIPTION=Div. of Experiment Therapeutics WRAIR, WRAMC, Washingto
n DC 20307
##NAMES=HP
##CAS NAME=Dibenzofuran-2-ethanol
##MOLFORM=C14H12O2
##CAS REGISTRY NO=199990-45-9
##MP= -300
##BP= -300
##MW= 212
##$RETENTION INDEX=0
##$CONDENSED SPECTRUM=NO
##NPOINTS= 70
##XYDATA=(XY..XY) 1 
    41        265
    42        220
    43        162
    44        228
    45         20
    47          3
    49         32
    50         20
    51         68
    53         51
    55        145
    56        155
    57        100
    60         18
    61         12
    62         32
    63        113
    64          8
    65         17
    67         21
    69        412
    71         15
    73          9
    74         31
    75         22
    76          6
    77         20
    78          7
    79          3
    81          4
    82         17
    83          6
    84        290
    85        165
    86         53
    87         46
    88          7
    89         70
    92         21
    96         11
    98        999
    99         42
   101          4
   102          3
   106         54
   110          7
   112         97
   113         57
   114          6
   115         21
   125          9
   126          3
   127         13
   137         21
   139        395
   140         39
   141         10
   152          9
   166          5
   167        236
   169         87
   181         13
   183          3
   184          7
   193          5
   195        854
   196         81
   197         65
   212        689
   213         68