##TITLE=Library Entry 31527
##JCAMP-DX=Revision 4.10 
##DATA TYPE=MASS SPECTRUM
##SAMPLE DESCRIPTION=Humboldt-Universitat zu Berlin, Department of Chemistry
, Analytical Group
##NAMES=HP
##CAS NAME=1,4-Bis[2-[2-(2-chloroethoxy)ethoxy]ethoxy]benzene
##MOLFORM=C18H28Cl2O6
##CAS REGISTRY NO=199984-37-7
##MP= -300
##BP= -300
##MW= 410
##$RETENTION INDEX=0
##$CONDENSED SPECTRUM=NO
##NPOINTS= 150
##XYDATA=(XY..XY) 1 
    12          2
    14          5
    15         35
    16          6
    17         16
    18         52
    19         21
    25          1
    26         20
    27        301
    28         92
    29         74
    30         10
    31         50
    32          1
    35          2
    36          7
    37          2
    38          8
    39         43
    40          4
    41         28
    42         12
    43        117
    44         40
    45        685
    46         17
    47          2
    49          8
    50         12
    51         15
    52         21
    53         45
    54         30
    55         29
    56          5
    57         20
    58          5
    59         13
    60          3
    61          4
    63        999
    64         66
    65        381
    66         21
    67          8
    68          4
    69         10
    70          5
    71         13
    72          4
    73         26
    74          2
    75          5
    76         16
    77         13
    78          6
    79         22
    80         23
    81         73
    82         48
    83          7
    84          2
    85          3
    86          3
    87         12
    88          1
    89          5
    91         36
    92         11
    93         63
    94         14
    95         23
    96          3
    97          4
    98          1
    99          3
   101          2
   102          1
   103          1
   104          1
   105          5
   107        478
   108         45
   109        196
   110        304
   111         35
   112          5
   113          6
   114          1
   115          7
   117          4
   119          8
   120          9
   121         15
   122          5
   123         13
   124          2
   125          3
   126          1
   127          4
   129          2
   131          3
   133          3
   134          1
   135         14
   136         19
   137         21
   138          3
   139          1
   145          1
   147          2
   149         10
   151        269
   152         20
   153         88
   154         10
   155          1
   161          1
   162          1
   163          4
   164          1
   165          2
   166          1
   167          2
   171          1
   172          1
   175          3
   177          1
   179          1
   180          2
   181          1
   191          0
   193          1
   195          1
   219          0
   224          0
   240          0
   260         22
   261          3
   262          6
   263          1
   374          0
   376          0
   410         29
   411          5
   412         19
   413          3
   414          3
   415          0