##TITLE=Library Entry 36662
##JCAMP-DX=Revision 4.10 
##DATA TYPE=MASS SPECTRUM
##SAMPLE DESCRIPTION=A.Pleshkova, Nesmeyanov Inst.Org.Elem.Cpds, Moscow
##NAMES=HP
##CAS NAME=1,3,5,6-Tetrakis(trifluoromethyl)cyclohex-1-ene
##MOLFORM=C10H6F12
##CAS REGISTRY NO=199939-08-7
##MP= -300
##BP= -300
##MW= 354
##$RETENTION INDEX=0
##$CONDENSED SPECTRUM=NO
##NPOINTS= 28
##XYDATA=(XY..XY) 1 
    51         51
    69        999
    70         11
    75         82
   119         54
   120          4
   145        152
   146         12
   163         51
   164          4
   195        757
   196         68
   197          3
   213         76
   214          7
   245         53
   246          5
   263        206
   264         21
   265          1
   283        253
   284         26
   285          1
   313         54
   314          6
   333        154
   334         17
   335          1