##TITLE=Library Entry 1300
##JCAMP-DX=Revision 4.10 
##DATA TYPE=MASS SPECTRUM
##SAMPLE DESCRIPTION=Japan AIST/NIMC Database- Spectrum MS-NW-2158
##NAMES=HP
##CAS NAME=Glycyl-dl-methionine
##MOLFORM=C7H14N2O3S
##CAS REGISTRY NO=1999-34-4
##MP= -300
##BP= -300
##MW= 206
##$RETENTION INDEX=0
##$CONDENSED SPECTRUM=NO
##NPOINTS= 172
##XYDATA=(XY..XY) 1 
    12          5
    13          4
    14         14
    15         40
    16         10
    17         33
    18        148
    20          2
    24          2
    25          5
    26         46
    27        143
    28        280
    29         89
    30        999
    31         48
    32         10
    33          9
    34         15
    35         45
    36          6
    37          9
    38         14
    39         65
    40         33
    41        132
    42         68
    43         42
    44        182
    45        169
    46         70
    47        270
    48        205
    49         26
    50         13
    51         13
    52         28
    53         27
    54         75
    55         68
    56        211
    57        142
    58         18
    59         39
    60         11
    61        374
    62         95
    63         20
    64          9
    65          6
    66         12
    67         36
    68         42
    69         27
    70         13
    71          9
    72          9
    73         22
    74         54
    75        107
    76          9
    77          8
    78          3
    79          6
    80          8
    81          6
    82         14
    83         28
    84         36
    85         87
    86         60
    87         37
    88         44
    89          6
    90          3
    91          2
    92          4
    93         10
    94         12
    95         13
    96         13
    97         20
    98         12
    99         87
   100         22
   101         26
   102         25
   103         11
   104         57
   105          6
   106          5
   107          2
   108          3
   109          3
   110         10
   111         14
   112         17
   113         29
   114        787
   115         71
   116         21
   117          5
   118          2
   119          1
   120          3
   121          1
   122          6
   123          5
   124          9
   125          5
   126         10
   127        153
   128         12
   129         14
   130          9
   131         27
   132        291
   133         20
   134          9
   135          2
   136          6
   137          2
   138          7
   139          8
   140         41
   141         11
   142          4
   143         13
   144          5
   145         60
   146          5
   147          5
   148          6
   149          7
   150         18
   151          3
   152          3
   153          3
   154          1
   155          1
   156          2
   157          3
   158         11
   159         11
   160         10
   161          3
   162          6
   163          1
   165          1
   166          1
   168          1
   169          1
   170          3
   171          8
   172          2
   173          2
   174          1
   175          8
   176         22
   177          3
   178          2
   179          1
   184          1
   186          5
   187          1
   188        161
   189         17
   190          9
   191          4
   206         45
   207          5
   208          3