##TITLE=Library Entry 15969
##JCAMP-DX=Revision 4.10 
##DATA TYPE=MASS SPECTRUM
##SAMPLE DESCRIPTION=Japan AIST/NIMC Database- Spectrum MS-NW- 482
##NAMES=HP
##CAS NAME=dl-Alanyl-dl-phenylalanine
##MOLFORM=C12H16N2O3
##CAS REGISTRY NO=1999-45-7
##MP= -300
##BP= -300
##MW= 236
##$RETENTION INDEX=0
##$CONDENSED SPECTRUM=NO
##NPOINTS= 91
##XYDATA=(XY..XY) 1 
    15          5
    17          2
    18          7
    26          1
    27         13
    28         22
    29          7
    30          6
    38          2
    39         14
    40          3
    41          9
    42         26
    43         17
    44        999
    45         31
    46          2
    50          5
    51         14
    52          5
    53          2
    54          2
    55          6
    56          6
    57          8
    58          4
    62          2
    63          9
    64          3
    65         30
    66          3
    69          2
    70          5
    71         13
    72          2
    73          2
    74         14
    75          2
    76          2
    77         22
    78          9
    79          9
    83          2
    89          8
    90          6
    91        247
    92         39
    93          5
    97          2
    99         63
   100          4
   101          2
   102          4
   103         18
   104         12
   105          8
   106          1
   107          4
   109          2
   116          2
   117          6
   118          9
   119         11
   120         55
   121          6
   126          2
   127         26
   128          7
   129          2
   130          2
   131          9
   132          5
   145          2
   146          6
   147          9
   148          8
   149          3
   160          2
   169          2
   175         23
   176          4
   190          2
   191          2
   192          9
   193         51
   194          8
   212          2
   219         74
   220         11
   236          2
   237          6