##TITLE=Library Entry 4481
##JCAMP-DX=Revision 4.10 
##DATA TYPE=MASS SPECTRUM
##SAMPLE DESCRIPTION=Div. of Experiment Therapeutics WRAIR, WRAMC, Washingto
n DC 20307
##NAMES=HP
##CAS NAME=Benzenesulfonamide, 4-(3-chloro-1,4-naphthoquinon-2-ylamino)-N-th
iazol-2-yl-
##MOLFORM=C19H12ClN3O4S2
##CAS REGISTRY NO=19992-57-5
##MP= -300
##BP= -300
##MW= 445
##$RETENTION INDEX=0
##$CONDENSED SPECTRUM=NO
##NPOINTS= 35
##XYDATA=(XY..XY) 1 
    41        610
    42        999
    43        220
    44         60
    45        166
    47         39
    49         27
    50         87
    51         15
    55        178
    65        154
    71        302
    72        421
    75         21
    76        180
    77         95
    84         17
    86         12
    99         90
   105         68
   135         41
   163         22
   190         91
   191         43
   219         77
   247        119
   282        107
   283         40
   298        149
   300         38
   346         66
   381        285
   383         97
   445         97
   447         31