##TITLE=Library Entry 94495
##JCAMP-DX=Revision 4.10 
##DATA TYPE=MASS SPECTRUM
##SAMPLE DESCRIPTION=D.HENNEBERG, MAX-PLANCK INSTITUTE, MULHEIM, WEST GERMAN
Y
##NAMES=HP
##CAS NAME=Naphthalene, 1-(2-propenyloxy)-
##MOLFORM=C13H12O
##CAS REGISTRY NO=20009-25-0
##MP= -300
##BP= -300
##MW= 184
##$RETENTION INDEX=0
##$CONDENSED SPECTRUM=NO
##NPOINTS= 104
##XYDATA=(XY..XY) 1 
    27         10
    28         30
    29          7
    30          0
    32          2
    37          2
    38          4
    39         79
    40          8
    41        118
    42          9
    43         24
    44          3
    45          0
    49          0
    50          5
    51          9
    52          2
    53          1
    54          0
    55          1
    56          5
    57          5
    58          1
    62          3
    63         30
    64          4
    65         33
    66          2
    70          4
    71          9
    72          0
    73          0
    74          2
    75         11
    76          5
    77         24
    78          3
    79          0
    86          0
    87          4
    88         13
    89         71
    90          7
    91          3
    92          2
    93          2
    94          0
   100          5
   101         13
   102          4
   103          0
   104          0
   105          0
   106          0
   112          0
   113         12
   114         39
   115        999
   116        119
   117          6
   118          2
   125          0
   126         22
   127         57
   128         22
   129          9
   130          5
   131          0
   132          0
   133          0
   139         22
   140          1
   141         13
   142          8
   143        698
   144        120
   145          9
   146          0
   151          1
   152          6
   153         10
   154          5
   155         19
   156         10
   157          6
   158          0
   163          0
   164          0
   165         10
   166          7
   167          8
   168          4
   169         31
   170          4
   171          0
   179          0
   181         39
   182          5
   183         27
   184        603
   185         87
   186          7
   187          0