##TITLE=Library Entry 15861
##JCAMP-DX=Revision 4.10 
##DATA TYPE=MASS SPECTRUM
##SAMPLE DESCRIPTION=J.A.ELVIDGE UNIV. OF SURREY, GUILDFORD, SURREY, UK
##NAMES=HP
##CAS NAME=Ethanimidamide, 2,2'-iminobis[N-hydroxy-
##MOLFORM=C4H11N5O2
##CAS REGISTRY NO=20004-00-6
##MP= -300
##BP= -300
##MW= 161
##$RETENTION INDEX=0
##$CONDENSED SPECTRUM=NO
##NPOINTS= 22
##XYDATA=(XY..XY) 1 
    41        148
    42         90
    43        333
    44        999
    45        110
    57        146
    69        185
    73        110
    74        146
    83         66
    84        700
    85         60
    88         73
   100         74
   102        148
   110         55
   115         58
   127         88
   144        483
   145         30
   161          4
   162          0