##TITLE=Library Entry 90334
##JCAMP-DX=Revision 4.10 
##DATA TYPE=MASS SPECTRUM
##SAMPLE DESCRIPTION=RADIAN CORP
##NAMES=HP
##CAS NAME=Silane, dichloromethyl[3-[1,2,2,2-tetrafluoro-1-(trifluoromethyl)
ethoxy]propyl]-
##MOLFORM=C7H9Cl2F7OSi
##CAS REGISTRY NO=20006-68-2
##MP= -300
##BP= -300
##MW= 340
##$RETENTION INDEX=0
##$CONDENSED SPECTRUM=NO
##NPOINTS= 117
##XYDATA=(XY..XY) 1 
    15          2
    26          1
    27         10
    28          4
    29          9
    31          2
    33         10
    39         35
    40         12
    41         81
    42        117
    43         18
    45          1
    47         15
    50          6
    51          4
    53          6
    55          7
    57         12
    58          4
    59          6
    61          3
    63        194
    64         20
    65         79
    66          7
    67         10
    69        251
    70          3
    76          9
    77         47
    78         45
    79         46
    80         16
    81         23
    82          3
    83          8
    85          4
    87          2
    89          3
    90          2
    91          8
    92         12
    93          4
    94          4
    95          5
    96         15
    97        183
    98         54
    99         76
   100         74
   101         30
   102          6
   103         11
   105          7
   107          3
   109         22
   110          2
   111         11
   112         50
   113        999
   114         97
   115        691
   116         49
   117        214
   118         14
   119        115
   120          5
   121         21
   122          3
   123         49
   124          5
   125         28
   126          5
   127         10
   128          8
   129          3
   130          2
   131         11
   132          4
   133          4
   135         40
   137         13
   139         15
   140          2
   141         97
   142          8
   143         62
   144          5
   145         13
   147        363
   148         11
   149         19
   150         66
   151          4
   155         18
   156          2
   157         14
   159         32
   160          2
   161         20
   163         20
   165          5
   167          1
   169         11
   171          6
   180          1
   199         12
   213          2
   233         17
   235         11
   237          1
   283         16
   285         11
   287          1
   325          6
   327          4