##TITLE=Library Entry 83590
##JCAMP-DX=Revision 4.10 
##DATA TYPE=MASS SPECTRUM
##SAMPLE DESCRIPTION=NIST Mass Spectrometry Data Center
##NAMES=HP
##CAS NAME=2,2,2-Trichloro-1-phenylethanol
##MOLFORM=C8H7Cl3O
##CAS REGISTRY NO=2000-43-3
##MP= -300
##BP= -300
##MW= 224
##$RETENTION INDEX=0
##$CONDENSED SPECTRUM=NO
##NPOINTS= 103
##XYDATA=(XY..XY) 1 
    12          2
    13          1
    14          3
    15          2
    16          1
    17          1
    18          2
    26         14
    27         45
    28          9
    29         57
    30          1
    32          1
    35         17
    36         17
    37         23
    38         38
    39         88
    40          7
    41          4
    42          3
    43          4
    44         21
    47         29
    48         18
    49         29
    50        139
    51        241
    52         50
    53         29
    55          4
    59          2
    60          4
    61         18
    62         43
    63         76
    64         14
    65         18
    66          3
    67          1
    68          5
    69          2
    72          3
    73         21
    74         46
    75         39
    77        496
    78        109
    79        826
    80         52
    82         31
    83         13
    84         23
    85         16
    86         12
    87          9
    89         77
    90         26
    91         12
    92          1
    93          1
    94          2
    95          1
    96          2
    97          7
    98          4
    99         19
   100          4
   101         19
   102         21
   103          2
   105         69
   107        999
   108         78
   109          7
   110          4
   111          4
   112         13
   113          2
   114          6
   117         28
   119         28
   121         11
   123          5
   125        115
   126         10
   127         37
   128          3
   135          1
   136          6
   137          9
   138          2
   139          3
   153         21
   154          3
   155          6
   159          3
   161          3
   170          1
   172          7
   173          1
   174          5
   224          1