##TITLE=Library Entry 100524
##JCAMP-DX=Revision 4.10 
##DATA TYPE=MASS SPECTRUM
##SAMPLE DESCRIPTION=Exported from NIST MS Search
##NAMES=HP
##CAS NAME=Cyclopenine
##MOLFORM=C17H14N2O3
##CAS REGISTRY NO=20007-87-8
##MP= -300
##BP= -300
##MW= 294
##$RETENTION INDEX=0
##$CONDENSED SPECTRUM=NO
##NPOINTS= 60
##XYDATA=(XY..XY) 1 
    41         65
    42        731
    43         49
    50        136
    51        167
    52        105
    56         70
    57        164
    62         49
    63        268
    64        310
    65        120
    75         49
    76        160
    77        277
    78         72
    79        129
    89        341
    90        602
    91        454
    92        498
   103         75
   104         98
   105        211
   107        117
   116         35
   117         25
   118        376
   119        999
   120        152
   131        164
   132         94
   133         49
   146        329
   147        214
   152         30
   153         58
   154         28
   159        138
   160        152
   161        750
   162        112
   163         44
   165         51
   174         51
   180        160
   181         47
   187         94
   188        221
   189         44
   190        247
   191         30
   208         68
   209         44
   236        355
   237        376
   238         84
   294        677
   295        167
   296         42