##TITLE=Library Entry 34430
##JCAMP-DX=Revision 4.10 
##DATA TYPE=MASS SPECTRUM
##SAMPLE DESCRIPTION=NIST Mass Spectrometry Data Center
##NAMES=HP
##CAS NAME=p-Camphorene
##MOLFORM=C20H32
##CAS REGISTRY NO=20016-72-2
##MP= -300
##BP= -300
##MW= 272
##$RETENTION INDEX=1995
##$CONDENSED SPECTRUM=NO
##NPOINTS= 95
##XYDATA=(XY..XY) 1 
    27         10
    29         14
    39         44
    40          8
    41        489
    42         17
    43         51
    51         11
    52          6
    53         64
    54          8
    55         88
    56          7
    57         18
    65         40
    66         14
    67        179
    68         22
    69        999
    70         52
    71          6
    77        102
    78         26
    79        169
    80         41
    81        107
    82         40
    83         35
    91        240
    92         68
    93        442
    94         53
    95         98
    96          9
    97         11
   102          3
   103         14
   104         16
   105        161
   106         43
   107        152
   108         50
   109        205
   110         21
   111          9
   115         14
   116          8
   117         56
   118         16
   119        148
   120         36
   121        108
   122         88
   123         46
   124          5
   128          8
   129          7
   131         42
   132         16
   133        127
   134         35
   135         53
   136         14
   137          6
   145         26
   146          9
   147         82
   148         24
   149         15
   159         36
   160         14
   161         68
   162         20
   163         11
   173         21
   175         13
   176          4
   187         41
   188         16
   189         19
   190          8
   201         26
   202         12
   203         70
   204         13
   215          8
   216          8
   229        118
   230         24
   231          7
   243          4
   257         28
   258          6
   272         77
   273         19