##TITLE=Library Entry 34417
##JCAMP-DX=Revision 4.10 
##DATA TYPE=MASS SPECTRUM
##SAMPLE DESCRIPTION=NIST Mass Spectrometry Data Center
##NAMES=HP
##CAS NAME=m-Camphorene
##MOLFORM=C20H32
##CAS REGISTRY NO=20016-73-3
##MP= -300
##BP= -300
##MW= 272
##$RETENTION INDEX=1960
##$CONDENSED SPECTRUM=NO
##NPOINTS= 111
##XYDATA=(XY..XY) 1 
    27         12
    29         14
    39         36
    40          9
    41        472
    42         18
    43         47
    51         11
    52          8
    53         61
    54          7
    55         85
    56          8
    57         12
    63          3
    65         35
    66         14
    67        157
    68         18
    69        999
    70         54
    71          6
    77         96
    78         25
    79        148
    80         25
    81         91
    82         23
    83         28
    84          3
    85          5
    89          2
    91        262
    92         62
    93        175
    94         29
    95         91
    96          9
    97          8
   102          1
   103         14
   104         17
   105        182
   106         42
   107        140
   108         66
   109        183
   110         19
   111         11
   112          1
   115         18
   116          8
   117         57
   118         23
   119        231
   120         45
   121        133
   122         35
   123         22
   124          2
   128          6
   129          8
   130          5
   131         48
   132         18
   133        109
   134         54
   135         56
   136         14
   137          4
   143          4
   145         33
   146         11
   147         85
   148         38
   149         14
   150          4
   159         42
   160         13
   161         76
   162         18
   163         10
   164          2
   173         19
   174          6
   175         14
   176          6
   177          2
   187         45
   188         14
   189         18
   190          8
   201         20
   202         11
   203         68
   204         19
   205          2
   215          9
   216         10
   217          3
   228          2
   229         93
   230         16
   231          3
   243          4
   257         27
   258          7
   259          1
   272         80
   273         16
   274          3