##TITLE=Library Entry 44897
##JCAMP-DX=Revision 4.10 
##DATA TYPE=MASS SPECTRUM
##SAMPLE DESCRIPTION=A.A.Kutin, Moscow, Russia
##NAMES=HP
##CAS NAME=Pyridine, 4-(2-amino-1,3,4-thiadiazol-5-yl)-
##MOLFORM=C7H6N4S
##CAS REGISTRY NO=2002-04-2
##MP= -300
##BP= -300
##MW= 178
##$RETENTION INDEX=0
##$CONDENSED SPECTRUM=NO
##NPOINTS= 114
##XYDATA=(XY..XY) 1 
    33         11
    34          5
    36          8
    37         39
    38         42
    39         21
    40         16
    41         34
    42         41
    43         20
    44         16
    45         72
    46         15
    47         83
    49         36
    50        149
    51        359
    52         53
    53         14
    54          4
    55          1
    56          3
    57          9
    58         16
    60        219
    61         28
    62         60
    63        101
    64        105
    65         17
    66          5
    67          4
    69        111
    70         15
    71          8
    74        999
    75         47
    76         87
    77         67
    78        251
    79         35
    81         15
    82         17
    83          9
    84          3
    85          1
    86          1
    87          1
    89         21
    90          5
    91         31
    92         26
    93         23
    94         14
    95         26
    96         10
    97          2
    98          0
   100          1
   101          0
   103         12
   104         68
   105        243
   106         18
   107          2
   108          5
   109         21
   110          2
   111          1
   112          0
   113          0
   114          0
   115          0
   116          0
   117          1
   119         48
   120          7
   122        190
   123         16
   124          8
   125          0
   126          0
   127          0
   128          1
   129          0
   130          0
   131          0
   132          0
   133          0
   134          0
   135          7
   136         40
   137          3
   138          2
   139          0
   140          0
   144          0
   145          0
   146          0
   149          1
   150          1
   151          0
   154          0
   160          0
   162          0
   163          0
   169          0
   171          0
   173          0
   178        917
   179         89
   180         43
   181          3
   182          0