##TITLE=Library Entry 47734
##JCAMP-DX=Revision 4.10 
##DATA TYPE=MASS SPECTRUM
##SAMPLE DESCRIPTION=NIST Mass Spectrometry Data Center, 1994
##NAMES=HP
##CAS NAME=2-Bromo-4-methyl-6-nitrophenol
##MOLFORM=C7H6BrNO3
##CAS REGISTRY NO=20039-91-2
##MP= -300
##BP= -300
##MW= 231
##$RETENTION INDEX=0
##$CONDENSED SPECTRUM=NO
##NPOINTS= 101
##XYDATA=(XY..XY) 1 
    14          9
    15         11
    17          8
    18         13
    26         26
    27         89
    29         27
    30        185
    31         10
    37         57
    38         85
    39        198
    40         27
    41         17
    42         10
    43         38
    44         10
    45         15
    46         28
    48          7
    49         45
    50        354
    51        852
    52        203
    53        340
    54         23
    55         22
    60          8
    61         56
    62        100
    63        110
    64         47
    65        174
    66        115
    67         26
    73         28
    74         99
    75        138
    76        145
    77        999
    78        557
    79         89
    80         14
    85          8
    86         14
    87         12
    88          8
    89          8
    90         38
    91         26
    92         10
    93         34
    94        158
    95         16
   104         12
   105        150
   106        141
   107         56
   108          6
   116         17
   117         21
   119         15
   121         34
   122         22
   131         26
   133         25
   135        129
   136         12
   143         10
   145         34
   147         26
   152         38
   155         20
   156         19
   157         69
   158         19
   159         47
   160          8
   173         87
   174         10
   175         89
   183         59
   184         87
   185         78
   186        102
   187         32
   188         16
   201         89
   202         13
   203         99
   204          8
   213         13
   214         23
   215         18
   216         21
   217          8
   231        929
   232         88
   233        916
   234         78
   235         11