##TITLE=Library Entry 8237
##JCAMP-DX=Revision 4.10 
##DATA TYPE=MASS SPECTRUM
##SAMPLE DESCRIPTION=Exported from NIST MS Search
##NAMES=HP
##CAS NAME=.alpha.-d-Xylofuranose, 1,2-O-(1-methylethylidene)-
##MOLFORM=C8H14O5
##CAS REGISTRY NO=20031-21-4
##MP= -300
##BP= -300
##MW= 190
##$RETENTION INDEX=0
##$CONDENSED SPECTRUM=NO
##NPOINTS= 25
##XYDATA=(XY..XY) 1 
    39        180
    41        270
    42        140
    43        999
    44         70
    55        300
    56        280
    57        160
    59        999
    60        100
    61         90
    68         50
    69         90
    71        260
    73        430
    74        380
    85        659
    86         50
   100         50
   101        120
   115         90
   127        340
   159        240
   175        999
   176         80