##TITLE=Library Entry 17218
##JCAMP-DX=Revision 4.10 
##DATA TYPE=MASS SPECTRUM
##SAMPLE DESCRIPTION=F. TURECEK,HEYROVSKY INST PHYS CHEM & ELECTROCHEM,PRAGU
E,CZECH
##NAMES=HP
##CAS NAME=6-Deoxy-D-mannono-4-lactone
##MOLFORM=C6H10O5
##CAS REGISTRY NO=20031-16-7
##MP= -300
##BP= -300
##MW= 162
##$RETENTION INDEX=0
##$CONDENSED SPECTRUM=NO
##NPOINTS= 85
##XYDATA=(XY..XY) 1 
    12          6
    13          5
    14         48
    15        219
    25          8
    26         65
    27        254
    28        119
    29        381
    30        120
    31        251
    35          5
    36         25
    37         14
    38         22
    39        167
    40         27
    41        248
    42        210
    43        571
    44        229
    45        999
    46         25
    47         22
    50         19
    51         32
    52         13
    53         26
    54        105
    55        145
    56        116
    57        150
    58        198
    59         54
    60        444
    61        302
    62         11
    63         34
    64         21
    65         16
    66          8
    67         25
    68         12
    69        117
    70         54
    71        619
    72        651
    73        429
    74         78
    75         19
    76         57
    77         27
    78         14
    79         15
    80          8
    81         32
    82         24
    83         48
    84         19
    85         25
    86          5
    87        127
    88         19
    89         13
    90         22
    91         35
    95         16
    96         10
    97         20
    98         12
    99          8
   100        286
   101         29
   102          6
   105         31
   106          5
   115         50
   116         35
   117         11
   118         92
   119         21
   144         35
   145          5
   162         11
   163          1