##TITLE=Library Entry 85360
##JCAMP-DX=Revision 4.10 
##DATA TYPE=MASS SPECTRUM
##SAMPLE DESCRIPTION=A.Pleshkova, Nesmeyanov Inst.Org.Elem.Cpds, Moscow
##NAMES=HP
##CAS NAME=4-(3-Methylpyridin-2-ylcarbamoyl)butyric acid
##MOLFORM=C11H14N2O3
##CAS REGISTRY NO=200417-39-6
##MP= -300
##BP= -300
##MW= 222
##$RETENTION INDEX=0
##$CONDENSED SPECTRUM=NO
##NPOINTS= 61
##XYDATA=(XY..XY) 1 
    50         39
    51         68
    52         88
    53         98
    54         42
    55        178
    56         39
    57         61
    60         23
    63         37
    64         78
    65        119
    66         44
    67         25
    68         35
    69         66
    70         50
    71         26
    78         40
    79         59
    80        184
    81         93
    82         11
    91        145
    92        205
    93        228
    94         30
    95         12
   105         59
   106         29
   107        147
   108        999
   109        119
   110         10
   118         18
   119         86
   120         41
   121        118
   122         21
   132         30
   133         72
   134        153
   135        312
   136         29
   145         34
   146          7
   147         34
   148        109
   149         70
   150         24
   161         23
   162          8
   163         79
   164          6
   175         13
   176        400
   177         47
   204         42
   205          8
   222         39
   223          3