##TITLE=Library Entry 22277
##JCAMP-DX=Revision 4.10 
##DATA TYPE=MASS SPECTRUM
##SAMPLE DESCRIPTION=NIST Mass Spectrometry Data Center, 1990.
##NAMES=HP
##CAS NAME=4-Penten-2-ol, 4-methyl-
##MOLFORM=C6H12O
##CAS REGISTRY NO=2004-67-3
##MP= -300
##BP= -300
##MW= 100
##$RETENTION INDEX=757
##$CONDENSED SPECTRUM=NO
##NPOINTS= 43
##XYDATA=(XY..XY) 1 
    14         12
    15         68
    16          1
    18         11
    19         39
    26         34
    27        244
    28        154
    29        256
    30          1
    31         35
    32         23
    37         19
    38         50
    39        368
    40        124
    41        697
    42         66
    43        254
    44         19
    45        944
    46         24
    50         33
    51         41
    52         14
    53         63
    54         36
    55        198
    56        999
    57        322
    58         23
    62          4
    65         21
    67         95
    68          9
    69          8
    79         12
    81         10
    82         23
    83          9
    84          8
    85         39
   100         10