##TITLE=Library Entry 31998
##JCAMP-DX=Revision 4.10 
##DATA TYPE=MASS SPECTRUM
##SAMPLE DESCRIPTION=Exported from NIST MS Search
##NAMES=HP
##CAS NAME=3-Penten-1-yne, (E)-
##MOLFORM=C5H6
##CAS REGISTRY NO=2004-69-5
##MP= -300
##BP= -300
##MW= 66
##$RETENTION INDEX=0
##$CONDENSED SPECTRUM=NO
##NPOINTS= 37
##XYDATA=(XY..XY) 1 
    12         19
    13         14
    14         11
    15         28
    16          1
    24          8
    25         20
    26         53
    27        111
    28          6
    29          1
    31         95
    32         18
    33          6
    34          1
    36         23
    37        126
    38        202
    39        697
    40        459
    41         16
    42          1
    48          7
    49         34
    50         99
    51        114
    52          6
    53          1
    60         25
    61         92
    62        119
    63        187
    64         44
    65        487
    66        999
    67         55
    68          1