##TITLE=Library Entry 16361
##JCAMP-DX=Revision 4.10 
##DATA TYPE=MASS SPECTRUM
##SAMPLE DESCRIPTION=A.A.Kutin, Moscow, Russia
##NAMES=HP
##CAS NAME=Asparagine, N-dl-alanyl-, l-
##MOLFORM=C7H13N3O4
##CAS REGISTRY NO=20051-99-4
##MP= -300
##BP= -300
##MW= 203
##$RETENTION INDEX=0
##$CONDENSED SPECTRUM=NO
##NPOINTS= 115
##XYDATA=(XY..XY) 1 
    33          1
    34          3
    36         12
    37          0
    38          5
    39          9
    40         95
    41         43
    42        121
    43        123
    44        999
    45         45
    46          7
    47          1
    50          0
    51          2
    52          3
    53          5
    54         15
    55         83
    56         39
    57         26
    59         72
    60         12
    61          1
    63          1
    65          4
    66          0
    67          3
    68         11
    69         25
    70         96
    71         40
    72         97
    73         13
    74          1
    77          4
    79          8
    80          4
    81          8
    82         10
    83         11
    84         23
    85         16
    86         13
    87         50
    88         13
    89          2
    90          2
    91         29
    92          3
    93          1
    94          0
    96         16
    97         35
    98         25
    99         47
   100         12
   101          1
   105          2
   106          0
   107          5
   108          7
   109          2
   110          1
   111          4
   112         15
   113         22
   114         11
   115         11
   116          0
   117          0
   118          0
   121          0
   122          0
   124         21
   125         15
   126         14
   127         14
   128          2
   129          1
   130          0
   133          0
   134          5
   135          2
   136          0
   138          2
   140         63
   141         18
   142         28
   143          7
   144          1
   145          0
   148          0
   149          1
   152          0
   153          2
   154          0
   155          0
   156          0
   157          7
   158          0
   160          8
   161          0
   167         10
   168        124
   169         16
   170          2
   171          5
   178          2
   179          0
   185         61
   186         17
   187          1
   188          1