##TITLE=Library Entry 83754
##JCAMP-DX=Revision 4.10 
##DATA TYPE=MASS SPECTRUM
##SAMPLE DESCRIPTION=V.A.KOPTYUG, ATLAS OF MASS SPECTRA OF ORGANIC COMPOUNDS
##NAMES=HP
##CAS NAME=Phenol, 2-undecyl-
##MOLFORM=C17H28O
##CAS REGISTRY NO=20056-71-7
##MP= -300
##BP= -300
##MW= 248
##$RETENTION INDEX=0
##$CONDENSED SPECTRUM=NO
##NPOINTS= 79
##XYDATA=(XY..XY) 1 
    39         75
    40         27
    41        161
    42         45
    43        116
    45          6
    50         10
    51         20
    52         14
    53         25
    54         17
    55         90
    56         50
    57         58
    58          7
    63         10
    65         14
    66         10
    67         25
    68         12
    69         42
    70         35
    71         18
    77        104
    78         30
    79         74
    80         17
    81         19
    82         13
    83         20
    84         11
    85         10
    89          9
    90         11
    91        352
    92         15
    93         12
    94         60
    95         25
    96         17
    97         13
    98          7
   102          5
   103         17
   104          7
   105         15
   106          5
   107        999
   108        260
   109         43
   110          7
   111          8
   115         16
   116          5
   117          9
   118         10
   119         15
   120         49
   121         69
   122         28
   123          6
   131         45
   132         17
   133         28
   134         12
   135         16
   136          8
   137          6
   140          8
   147          6
   148          5
   149         10
   150          6
   206          6
   246         10
   247          4
   248        209
   249         57
   250          7