##TITLE=Library Entry 3179
##JCAMP-DX=Revision 4.10 
##DATA TYPE=MASS SPECTRUM
##SAMPLE DESCRIPTION=Chuck Anderson, Aldrich Chemical Co.
##NAMES=HP
##CAS NAME=cis-7-Dodecen-1-ol
##MOLFORM=C12H24O
##CAS REGISTRY NO=20056-92-2
##MP= -300
##BP= -300
##MW= 184
##$RETENTION INDEX=1463
##$CONDENSED SPECTRUM=NO
##NPOINTS= 70
##XYDATA=(XY..XY) 1 
    15         10
    18          6
    19         10
    20          7
    26         12
    27        323
    28         71
    29        361
    30         13
    31        314
    32          4
    36          5
    38          6
    39        264
    40         45
    41        999
    42        135
    43        285
    44         34
    45         26
    50          1
    51         10
    52         10
    53         96
    54        302
    55        463
    56         86
    57         85
    58          6
    65         25
    66         81
    67        642
    68        336
    69        238
    70         55
    71         38
    72          6
    73          4
    77         18
    78          6
    79         60
    80         38
    81        399
    82        269
    83         62
    84         12
    85         14
    91          6
    93         12
    94          9
    95        272
    96        185
    97         38
    98         10
    99          5
   107          2
   108          3
   109        128
   110        105
   111         12
   112          1
   122          2
   123         44
   124         32
   125          4
   137         18
   138         34
   139          2
   166         30
   167          3