##TITLE=Library Entry 1975
##JCAMP-DX=Revision 4.10 
##DATA TYPE=MASS SPECTRUM
##SAMPLE DESCRIPTION=Exported from NIST MS Search
##NAMES=HP
##CAS NAME=Spirohexan-5-one
##MOLFORM=C6H8O
##CAS REGISTRY NO=20061-22-7
##MP= -300
##BP= -300
##MW= 96
##$RETENTION INDEX=0
##$CONDENSED SPECTRUM=NO
##NPOINTS= 32
##XYDATA=(XY..XY) 1 
    39        969
    40        999
    41        260
    42        300
    43         56
    44         36
    49         24
    50        104
    51        120
    52         60
    53        663
    54        140
    55         60
    56         22
    57         16
    60          2
    61         10
    62         20
    63         20
    65         40
    66         46
    67        949
    68        669
    69        100
    70         16
    79         16
    81        380
    82         18
    83         16
    95         40
    96         60
    97         10