##TITLE=Library Entry 1313
##JCAMP-DX=Revision 4.10 
##DATA TYPE=MASS SPECTRUM
##SAMPLE DESCRIPTION=Japan AIST/NIMC Database- Spectrum MS-IW-3315
##NAMES=HP
##CAS NAME=Benzene, 1,1'-(1,2-ethenediyl)bis[2,4,6-trinitro-
##MOLFORM=C14H6N6O12
##CAS REGISTRY NO=20062-22-0
##MP= -300
##BP= -300
##MW= 450
##$RETENTION INDEX=0
##$CONDENSED SPECTRUM=NO
##NPOINTS= 259
##XYDATA=(XY..XY) 1 
    12          2
    14          2
    16          7
    26          4
    27         15
    28        108
    29         29
    30        999
    31          6
    32          4
    37          9
    38         25
    39         25
    40          5
    41          9
    42          9
    43         16
    44        291
    45         11
    46         61
    47          9
    48          3
    49          3
    50         66
    51         37
    52         19
    53         60
    54         13
    55         17
    56          6
    57         17
    58          1
    60          3
    61         33
    62        158
    63        146
    64         63
    65         88
    66         46
    67         36
    68         27
    69         62
    70          6
    71         11
    72          2
    73         22
    74        416
    75        441
    76        139
    77         78
    78         24
    79         26
    80         19
    81         34
    82          6
    83          9
    84          3
    85         14
    86        108
    87        163
    88        106
    89         55
    90        108
    91        187
    92         65
    93         65
    94         15
    95          9
    96          5
    97          9
    98         85
    99         79
   100         49
   101         22
   102         21
   103        158
   104         57
   105         19
   106         11
   107         30
   108          8
   109         13
   110         52
   111         76
   112         47
   113         12
   114         10
   115         10
   116         43
   117         17
   118         13
   119        816
   120        318
   121        392
   122         71
   123         57
   124         42
   125         16
   126         12
   127         10
   128          6
   129          3
   130          5
   131          4
   132          9
   133         34
   134         43
   135         60
   136         40
   137         52
   138         19
   139         11
   140          6
   141          3
   142          2
   143          3
   144          7
   145          3
   146         14
   147         16
   148        181
   149        134
   150         61
   151         53
   152         43
   153          7
   154          3
   155          2
   156          1
   157          1
   158          5
   159          6
   160          7
   161        134
   162         63
   163         34
   164         30
   165        670
   166         59
   167        757
   168         62
   169         10
   170          7
   171          4
   172          2
   173         18
   174         55
   175         25
   176         10
   177         18
   178         40
   179         33
   180         16
   181          7
   182          5
   183          7
   184          2
   186          2
   187          1
   188          3
   189         11
   190          9
   191         11
   192          9
   193         19
   194        215
   195         38
   196          7
   197         21
   198          5
   199          1
   201          1
   202          4
   203         24
   204          6
   205          4
   206          5
   207          8
   208         16
   209         82
   210         51
   211          7
   212          2
   213          8
   214          1
   217          1
   218          3
   219          6
   220          3
   221          4
   222          3
   223          6
   224         78
   225         89
   226         16
   227          3
   233          1
   234          2
   235          9
   236          4
   237          5
   238         10
   239          2
   240        136
   241         26
   242          4
   248          1
   249         12
   250          4
   251          2
   252          2
   253          3
   254          2
   255          1
   265          8
   266          3
   267          2
   268          2
   269          3
   270          4
   271          2
   278          1
   281          9
   282          2
   283          4
   284          2
   294          2
   295         38
   296          9
   297          2
   298          1
   299          2
   300          2
   310          1
   311          6
   312          2
   314          3
   315          2
   316          2
   329          2
   330          2
   341         11
   342          5
   343          1
   345          3
   346          2
   357          6
   358          2
   359          3
   360          3
   362          1
   371          4
   372          1
   387         72
   388         15
   389          3
   390          1
   392          1
   420          1