##TITLE=Library Entry 19647
##JCAMP-DX=Revision 4.10 
##DATA TYPE=MASS SPECTRUM
##SAMPLE DESCRIPTION=D.HENNEBERG, MAX-PLANCK INSTITUTE, MULHEIM, WEST GERMAN
Y
##NAMES=HP
##CAS NAME=2-Decene, (E)-
##MOLFORM=C10H20
##CAS REGISTRY NO=20063-97-2
##MP= -300
##BP= -300
##MW= 140
##$RETENTION INDEX=997
##$CONDENSED SPECTRUM=NO
##NPOINTS= 53
##XYDATA=(XY..XY) 1 
    23          0
    24          1
    26         10
    27        265
    29        402
    30         11
    36          2
    37          8
    38          6
    39        206
    40         25
    41        637
    42        351
    43        847
    44         21
    49          1
    50          5
    51         14
    52          7
    53         76
    54         97
    55        999
    56        830
    57        218
    58          9
    63          2
    65         11
    66          8
    67         69
    68         62
    69        462
    70        406
    71         57
    72          1
    77          5
    79          5
    80          0
    81         13
    82         27
    83        118
    84        140
    85         38
    91          1
    95          1
    96         10
    97        104
    98         46
    99          2
   110          2
   111         39
   112         20
   140        118
   141         12