##TITLE=Library Entry 18649
##JCAMP-DX=Revision 4.10 
##DATA TYPE=MASS SPECTRUM
##SAMPLE DESCRIPTION=Exported from NIST MS Search
##NAMES=HP
##CAS NAME=Spiro[3.3]heptane-2,6-dione
##MOLFORM=C7H8O2
##CAS REGISTRY NO=20061-23-8
##MP= -300
##BP= -300
##MW= 124
##$RETENTION INDEX=0
##$CONDENSED SPECTRUM=NO
##NPOINTS= 32
##XYDATA=(XY..XY) 1 
    41        117
    42        440
    43         80
    49         20
    50         60
    51         80
    52         44
    53        242
    54        999
    55         60
    57         20
    61         10
    62         10
    63         10
    65         14
    66         20
    67        145
    68         80
    69         20
    77         12
    79         10
    81         10
    82        383
    83         36
    95         60
    96        246
    97         20
    99         14
   107         22
   109         10
   124         34
   125         20