##TITLE=Library Entry 40256
##JCAMP-DX=Revision 4.10 
##DATA TYPE=MASS SPECTRUM
##SAMPLE DESCRIPTION=B.WEBSTER ICI PHARMACEUTICALS DIVISION. ALDERLEY PARK C
HESHIRE
##NAMES=HP
##CAS NAME=4-Methylpropranolol
##MOLFORM=C17H23NO2
##CAS REGISTRY NO=2007-69-4
##MP= -300
##BP= -300
##MW= 273
##$RETENTION INDEX=0
##$CONDENSED SPECTRUM=NO
##NPOINTS= 33
##XYDATA=(XY..XY) 1 
    39         21
    41         63
    42         38
    43        100
    44         46
    56        108
    57         42
    58         33
    60         29
    70         29
    71         25
    72        999
    73         67
    74         29
   100         38
   102         42
   115        146
   116         13
   127         25
   128         58
   129         67
   141         21
   142         25
   157         54
   158        163
   159         29
   171          8
   197          8
   200          8
   229         21
   258         21
   273         46
   274          8