##TITLE=Library Entry 63901
##JCAMP-DX=Revision 4.10 
##DATA TYPE=MASS SPECTRUM
##SAMPLE DESCRIPTION=G. Lange, Inst. Org. Chem., Univ. Wurzburg, Germany
##NAMES=HP
##CAS NAME=5,8-Ethano-1H-[1,2,4]triazolo[1,2-a]pyridazine-1,3(2H)-dione, 5,6
,7,8-tetrahydro-2-methyl-5,8-diphenyl-
##MOLFORM=C21H21N3O2
##CAS REGISTRY NO=200716-31-0
##MP= -300
##BP= -300
##MW= 347
##$RETENTION INDEX=0
##$CONDENSED SPECTRUM=NO
##NPOINTS= 81
##XYDATA=(XY..XY) 1 
    39         15
    41         16
    51         23
    53          9
    55         18
    56          9
    57          9
    58         13
    63          5
    65         24
    67         12
    76         11
    77        103
    78         39
    79         25
    80         20
    81         13
    82         18
    83          6
    89         12
    90          7
    91        999
    92         76
    93          5
   101          8
   102         24
   103        109
   104         53
   105         29
   108          5
   109          9
   115        184
   116         80
   117        168
   118         12
   127         29
   128         89
   129        157
   130         72
   131         17
   135          8
   141         79
   142         26
   143         43
   144          6
   152         18
   153         28
   154         32
   155        139
   156         31
   157         23
   158          7
   165          9
   167         25
   178          7
   185          6
   189          5
   191         21
   192          8
   202         18
   203         19
   204         15
   205         20
   215         22
   216         15
   217         27
   218          9
   228          7
   229          5
   230         38
   231         26
   232        733
   233        718
   234        128
   235         12
   236          7
   238         55
   239         37
   240          6
   347         46
   348         10