##TITLE=Library Entry 83226
##JCAMP-DX=Revision 4.10 
##DATA TYPE=MASS SPECTRUM
##SAMPLE DESCRIPTION=NIST Mass Spectrometry Data Center, 1994
##NAMES=HP
##CAS NAME=Diethyl p-aminobenzylphosphonate
##MOLFORM=C11H18NO3P
##CAS REGISTRY NO=20074-79-7
##MP= -300
##BP= -300
##MW= 243
##$RETENTION INDEX=0
##$CONDENSED SPECTRUM=NO
##NPOINTS= 74
##XYDATA=(XY..XY) 1 
     4          0
    14          0
    15          2
    18          0
    26          3
    27         22
    28         17
    29         37
    30          5
    31          2
    39          8
    40          1
    41          3
    42          2
    43          4
    44          0
    45          3
    47          3
    50          3
    51         13
    52         12
    53         11
    54          5
    55          0
    62          1
    63          5
    64          2
    65         14
    66          4
    67          3
    68          0
    75          0
    77         67
    78         33
    79         33
    80         10
    81         23
    82          2
    83          1
    89          5
    90          1
    91          8
    92          2
    93          4
    94          5
   102          0
   104         25
   106        999
   107         83
   108          4
   109          9
   119          1
   120         11
   121          2
   122          7
   123          1
   132          6
   133          4
   134          4
   150          1
   168         11
   169          2
   182          0
   186         10
   187          1
   197          0
   200          7
   214         10
   215          6
   216          0
   228          1
   243        163
   244         21
   245          2