##TITLE=Library Entry 66744
##JCAMP-DX=Revision 4.10 
##DATA TYPE=MASS SPECTRUM
##SAMPLE DESCRIPTION=A.A.Kutin, Moscow, Russia
##NAMES=HP
##CAS NAME=Propanedinitrile, 2-(4-chloro-5H-1,2,3-dithiazol-5-ylidene)-
##MOLFORM=C5ClN3S2
##CAS REGISTRY NO=200711-26-8
##MP= -300
##BP= -300
##MW= 201
##$RETENTION INDEX=0
##$CONDENSED SPECTRUM=NO
##NPOINTS= 58
##XYDATA=(XY..XY) 1 
    33        246
    34         32
    35         61
    36         61
    38        233
    40        129
    41          8
    42          9
    44        139
    46        190
    47         31
    48         31
    50         70
    51          3
    56         64
    58        114
    59          3
    60          2
    61         20
    64        482
    66         33
    67         65
    68         44
    70        351
    71         14
    72         13
    76        206
    78         30
    79         26
    82        180
    84         14
    86          2
    88         10
    90          9
    91         31
    93        999
    95        422
    96         24
    97         16
    99         17
   101         20
   102         42
   105        151
   108        219
   111          9
   120         18
   125          6
   127          1
   140        285
   141         17
   142         18
   155         13
   157          3
   166          5
   198          1
   201        737
   203        327
   205         15