##TITLE=Library Entry 77328
##JCAMP-DX=Revision 4.10 
##DATA TYPE=MASS SPECTRUM
##SAMPLE DESCRIPTION=D.HENNEBERG, MAX-PLANCK INSTITUTE, MULHEIM, WEST GERMAN
Y
##NAMES=HP
##CAS NAME=Benzene, 1,1'-(1,2-cyclobutanediyl)bis-, trans-
##MOLFORM=C16H16
##CAS REGISTRY NO=20071-09-4
##MP= -300
##BP= -300
##MW= 208
##$RETENTION INDEX=1720
##$CONDENSED SPECTRUM=NO
##NPOINTS= 107
##XYDATA=(XY..XY) 1 
    25          0
    26          1
    27          8
    29          0
    34          4
    38          2
    39         20
    40          1
    41          2
    42          0
    45          0
    49          0
    50          9
    51         33
    52         11
    53          3
    54          0
    55          0
    56          0
    57          3
    58          2
    59          3
    60          0
    61          0
    62          2
    63         13
    64          3
    65         12
    66          0
    68          0
    69          0
    71          0
    73          0
    74          3
    75          5
    76         20
    77         47
    78         73
    79          6
    80          0
    82          1
    83          0
    85          0
    86          0
    87          2
    88          5
    89         30
    90          3
    91         18
    92          1
    95          0
    98          0
    99          1
   100          2
   101          4
   102         23
   103         79
   104        999
   105         86
   106          3
   113          0
   114          0
   115         12
   116          2
   117          6
   118          0
   125          0
   126          1
   127          3
   128          5
   129          3
   130          0
   131          0
   139          1
   141          0
   149          0
   150          1
   151          2
   152          4
   153          1
   162          0
   163          1
   164          0
   165         10
   166          1
   167          0
   173          0
   174          0
   175          1
   176          3
   177          3
   178         17
   179         15
   180          8
   181          1
   189          1
   190          0
   191          0
   192          0
   200          0
   201          0
   202          1
   203          0
   204          0
   206          0
   208          6
   209          1