##TITLE=Library Entry 80454
##JCAMP-DX=Revision 4.10 
##DATA TYPE=MASS SPECTRUM
##SAMPLE DESCRIPTION=NIST Mass Spectrometry Data Center, 2010
##NAMES=HP
##CAS NAME=(1R,4aS,8aR)-1-Isopropyl-4,7-dimethyl-1,2,4a,5,6,8a-hexahydronaph
thalene
##MOLFORM=C15H24
##CAS REGISTRY NO=20085-19-2
##MP= -300
##BP= -300
##MW= 204
##$RETENTION INDEX=1482
##$CONDENSED SPECTRUM=NO
##NPOINTS= 90
##XYDATA=(XY..XY) 1 
    27         20
    29         20
    30          1
    38          1
    39         55
    40          9
    41        153
    42          9
    44          2
    50          4
    51         26
    52         11
    53         65
    54          6
    55         99
    56         11
    57         14
    63         13
    64          7
    65         63
    66         14
    67         61
    68         11
    70          6
    74          2
    75          3
    76          4
    77        176
    78         42
    79        189
    80         39
    81        163
    88          1
    89          8
    90          2
    91        308
    92        102
    93        419
    94        528
    95        105
    96          9
   101          1
   102          7
   103         36
   104         22
   105        999
   106        192
   107        128
   108         85
   110         15
   115         69
   116         27
   117         79
   118         26
   119        298
   120        106
   121        172
   122         60
   123         46
   124          5
   127         13
   128         45
   129         44
   130         19
   131         59
   132         27
   133        138
   134         75
   135         38
   136         36
   141         12
   143         12
   144          9
   145         48
   146         14
   147         84
   148         60
   149         29
   150          6
   154          1
   160         27
   161        385
   162         61
   175         19
   176          6
   189         76
   190         12
   204        258
   205         42
   206          3