##TITLE=Library Entry 35396
##JCAMP-DX=Revision 4.10 
##DATA TYPE=MASS SPECTRUM
##SAMPLE DESCRIPTION=Exported from NIST MS Search
##NAMES=HP
##CAS NAME=2,6,10-Dodecatrienoic acid, 3,7,11-trimethyl-, ethyl ester, (Z,Z)
-
##MOLFORM=C17H28O2
##CAS REGISTRY NO=20085-73-8
##MP= -300
##BP= -300
##MW= 264
##$RETENTION INDEX=0
##$CONDENSED SPECTRUM=NO
##NPOINTS= 80
##XYDATA=(XY..XY) 1 
    41        427
    42         52
    43        417
    44         16
    45         13
    51         21
    52        198
    53         63
    54        219
    55         21
    56         42
    57         21
    58         16
    67        219
    68         94
    69        999
    70         39
    71         31
    79         63
    80         31
    81        469
    82        219
    83         94
    84         17
    85         21
    91        104
    92         13
    93        128
    94         24
    95        143
    96         21
    97         17
    98         39
    99         21
   100         63
   105         58
   106         15
   107        169
   108         31
   109        208
   110         23
   111         34
   120         21
   121        267
   122         31
   123         75
   124         16
   125         16
   128        281
   129         18
   133         31
   134         10
   135         31
   136         33
   137         83
   138         15
   139         15
   141         21
   142         10
   147         57
   148         10
   149         94
   150         21
   151         31
   152          4
   153         10
   175         21
   176         10
   179          5
   190          6
   191         17
   195         10
   203          8
   218          6
   219        125
   221         36
   234         10
   249         10
   264         52
   265         10