##TITLE=Library Entry 52659
##JCAMP-DX=Revision 4.10 
##DATA TYPE=MASS SPECTRUM
##SAMPLE DESCRIPTION=Exported from NIST MS Search
##NAMES=HP
##CAS NAME=Olean-12-ene-3,16,21,22,28-pentol, 21-(2-methyl-2-butenoate), [3.
beta.,16.alpha.,21.beta.(Z),22.alpha.]-
##MOLFORM=C35H56O6
##CAS REGISTRY NO=20089-98-9
##MP= -300
##BP= -300
##MW= 572
##$RETENTION INDEX=0
##$CONDENSED SPECTRUM=NO
##NPOINTS= 269
##XYDATA=(XY..XY) 1 
    50         81
    51        103
    52         55
    53        257
    54         73
    55        875
    56        154
    57        270
    58         42
    59        137
    60         51
    65         81
    66         34
    67        360
    68         94
    69        926
    70        107
    71        128
    72         51
    73         55
    74         30
    77        248
    78         73
    79        313
    80        111
    81        768
    82        206
    83        999
    84        206
    85        351
    86         42
    87          8
    91        351
    92         94
    93        459
    94        120
    95        570
    96        120
    97        206
    98         85
    99         85
   100        450
   101        124
   102         21
   103         55
   104         42
   105        721
   106        150
   107        484
   108        141
   109        356
   110         85
   111        128
   112         34
   113         17
   114          8
   115         85
   116         51
   117        145
   118         94
   119        450
   120        206
   121        429
   122        206
   123        266
   124         55
   125         81
   126         25
   127         42
   128         85
   129        137
   130         77
   131        416
   132        429
   133        394
   134        145
   135        502
   136        145
   137        201
   138         51
   139        150
   140         34
   141         77
   142         85
   143        201
   144        150
   145        321
   146        141
   147        347
   148        163
   149        206
   150        248
   151         81
   152         42
   153         81
   154         34
   155        180
   156         90
   157        330
   158        103
   159        287
   160        309
   161        223
   162        103
   163        128
   164         47
   165         77
   166         34
   167         51
   168         34
   169        103
   170         60
   171        244
   172         98
   173        248
   174         94
   175        304
   176         77
   177         94
   178         42
   179         77
   180         25
   181         55
   182         25
   183        141
   184         77
   185        304
   186        128
   187        321
   188        107
   189        309
   190        351
   191        150
   192         38
   193         51
   194         25
   195         60
   196         38
   197        557
   198        549
   199        248
   200         94
   201        261
   202        163
   203        283
   204        154
   205        107
   206         51
   207        630
   208        201
   209         64
   210         34
   211         77
   212         34
   213         94
   214         55
   215        824
   217        304
   218         94
   219        103
   220         94
   221        103
   222         34
   223         34
   224         12
   225         34
   226         12
   227         47
   228         77
   229         85
   230         42
   231         73
   232         77
   233        124
   234        103
   235         51
   236         12
   237         34
   238         12
   239         42
   240         12
   242         17
   243         34
   244         12
   245         21
   246        180
   247         98
   248         34
   249         34
   250         12
   251         47
   252         17
   253         47
   254         17
   255         47
   256         12
   257         17
   264        652
   265        150
   266         12
   267          8
   268          8
   269         17
   270          8
   271         25
   272          8
   281          8
   282          8
   283         21
   284          8
   285          8
   286          8
   297        304
   298         73
   299         17
   300          8
   301          8
   315         38
   316         17
   317          8
   318          8
   319         25
   346        133
   347         42
   348         21
   364          8
   365         25
   366         25
   367          8
   368          8
   369         17
   370          8
   395         47
   396         17
   405         38
   406         51
   407         34
   408         30
   409         47
   410         30
   421         42
   422         42
   423         55
   424         98
   425         42
   436         34
   437         17
   438         12
   439         30
   440         30
   441         21
   442         30
   454         77
   455         25
   470          8
   471          8
   472         42
   473         12
   505         13
   506         22
   507          9
   536          5
   537          3
   539         12
   540          5
   554          5
   555          3
   572         15
   573          5