##TITLE=Library Entry 59173
##JCAMP-DX=Revision 4.10 
##DATA TYPE=MASS SPECTRUM
##SAMPLE DESCRIPTION=LAC, NIDDK, NIH, Bethesda, MD 20892
##NAMES=HP
##CAS NAME=2-O-p-toluenesulfonylarabinose
##MOLFORM=C12H16O7S
##CAS REGISTRY NO=200807-14-3
##MP= -300
##BP= -300
##MW= 304
##$RETENTION INDEX=0
##$CONDENSED SPECTRUM=NO
##NPOINTS= 216
##XYDATA=(XY..XY) 1 
    41        193
    42        202
    43        549
    44        346
    45        470
    46         82
    47         56
    48         20
    49         29
    50         74
    51         98
    52         47
    53         85
    54         48
    55        187
    56         78
    57        411
    58        108
    59         92
    60        144
    61        116
    62         28
    63         79
    64         43
    65        277
    66         32
    67         69
    68        126
    69        186
    70         37
    71        153
    72         35
    73        293
    74         39
    75         27
    76         51
    77        123
    78         30
    79         74
    80         22
    81         39
    82         18
    83         39
    84         38
    85        246
    86         63
    87         32
    88         10
    89        134
    90         59
    91        999
    92        295
    93         39
    94          4
    95          1
    96          0
    97          1
    98          4
    99          3
   100          8
   101         62
   102         18
   103        213
   104         21
   105         84
   106         20
   107         85
   108         65
   109         20
   110         12
   111         20
   112         12
   113         19
   114         52
   115         37
   116         12
   117         30
   118          5
   119         16
   120          8
   121         30
   122         49
   123        134
   124         65
   125         18
   126         12
   127          9
   128          5
   129         13
   131        290
   132         27
   133         13
   134          7
   135         22
   136         11
   137         13
   138         10
   139         60
   140         19
   141          9
   142          4
   143         47
   144          6
   145          7
   146          2
   147          6
   148          4
   149         36
   150         10
   151          7
   152         11
   153          7
   155        515
   156         69
   157         47
   158          6
   159          7
   160          1
   161          7
   162          5
   163          6
   164          7
   165          5
   166          2
   167          7
   168          2
   169          2
   170          1
   171          3
   172         64
   173         44
   174         13
   175         10
   176          5
   177          2
   178          3
   179          2
   180          3
   181          5
   182          9
   183          2
   184          1
   185          4
   186          3
   187          1
   188          1
   189          2
   190          5
   191          5
   192          6
   193          2
   194          1
   195          1
   196          1
   197          2
   198          5
   199          3
   200          1
   201          1
   202          1
   203          1
   204          7
   205          2
   206          1
   207          1
   209          1
   210          3
   211          2
   212          1
   213          6
   214          6
   215          2
   216          1
   217          1
   218          1
   219          2
   220          1
   221          1
   222          1
   224          1
   225          1
   227         87
   228         11
   229          5
   230          1
   231          1
   237          1
   238          8
   239          6
   240         18
   241          2
   242          1
   243          1
   244          1
   246        179
   247         29
   248         17
   249          2
   251         15
   252          2
   253          3
   255          6
   256          5
   257          3
   262          2
   263          1
   266          1
   267          1
   268         18
   269          5
   270          1
   273         11
   274          1
   286          1
   287          3
   304          1