##TITLE=Library Entry 13698
##JCAMP-DX=Revision 4.10 
##DATA TYPE=MASS SPECTRUM
##SAMPLE DESCRIPTION=Humboldt-Universitat zu Berlin, Department of Chemistry
, Analytical Group
##NAMES=HP
##CAS NAME=N-Acetyl-4-(4-fluorophenyl)-3-morpholinopyrrol-2-carboxylic acid,
 methyl ester
##MOLFORM=C18H19FN2O4
##CAS REGISTRY NO=200862-89-1
##MP= -300
##BP= -300
##MW= 346
##$RETENTION INDEX=0
##$CONDENSED SPECTRUM=NO
##NPOINTS= 266
##XYDATA=(XY..XY) 1 
    12          6
    13          5
    14         29
    15        347
    16         19
    17         62
    18        250
    19          8
    20          5
    25          3
    26         20
    27        100
    28        220
    29        134
    30         25
    31         47
    32         14
    33          5
    37          3
    38          6
    39         36
    40         19
    41         67
    42        120
    43        999
    44         69
    45        365
    46         10
    50         12
    51         19
    52         18
    53         11
    54         39
    55         32
    56         30
    57         66
    58         13
    59         47
    60          6
    61          5
    62         10
    63         21
    64         12
    65         13
    66         17
    67         12
    68         13
    69         16
    70         32
    71         15
    72         11
    73          6
    74         21
    75         49
    76         15
    77         12
    78          8
    79         11
    80         13
    81         26
    82         14
    83         29
    84         29
    85         10
    86         12
    87         12
    88          8
    89          8
    90          4
    91          7
    92          8
    93         18
    94         43
    95         64
    96         18
    97          6
    98          8
    99         37
   100         30
   101         36
   102          8
   103          5
   104          6
   105         15
   106         31
   107         51
   108         22
   109         24
   110          5
   111          8
   112         12
   113         15
   114          8
   115         11
   116          5
   117          6
   118         14
   119         35
   120        180
   121         50
   122         18
   123          9
   124          6
   125         20
   126        140
   127         35
   128         10
   129          7
   130          7
   131         74
   132        118
   133        268
   134         63
   135         22
   136          5
   137          3
   138          7
   139         16
   140         31
   141          9
   142          4
   143          3
   144         12
   145         86
   146        142
   147         54
   148         22
   149          9
   150          4
   151          4
   152         10
   153          6
   154          6
   155          3
   156          6
   157         29
   158        294
   159        142
   160         87
   161         31
   162         15
   163          3
   164          3
   165          6
   166         10
   167         11
   168          6
   169          5
   170          8
   171         30
   172         64
   173         48
   174         48
   175         12
   176          7
   177          2
   179          5
   181          5
   182          3
   183         10
   184         23
   185        160
   186        226
   187        210
   188         55
   189         18
   190          5
   192          2
   193          3
   194          7
   195         16
   196          5
   197          7
   198         16
   199         59
   200         53
   201        113
   202         29
   203          8
   204          2
   205          2
   207          1
   209          1
   210          3
   211          9
   212         23
   213        665
   214        390
   215        250
   216         43
   217         12
   218          5
   219          2
   223          5
   224          3
   225         17
   226         12
   227         70
   228         72
   229         38
   230          8
   231          9
   232          4
   233         31
   234          7
   235          1
   239          5
   241        154
   242         40
   243        164
   244         36
   245        511
   246         80
   247         26
   248          4
   251          1
   253         14
   254         10
   255          7
   256          2
   257         19
   258          5
   259         60
   260        291
   261         77
   262         10
   263          1
   269         10
   270          3
   271         63
   272         87
   273        265
   274         45
   275          9
   276          1
   283          2
   285         33
   286         27
   287        165
   288         30
   289         70
   290         10
   291          1
   301          1
   302         14
   303         35
   304        170
   305         31
   306          3
   307          0
   313          5
   315         47
   316          9
   317          2
   318          0
   327          1
   328          4
   329          1
   331          1
   332          2
   333          1
   344          1
   346        331
   347         71
   348          9
   349          1