##TITLE=Library Entry 19327
##JCAMP-DX=Revision 4.10 
##DATA TYPE=MASS SPECTRUM
##SAMPLE DESCRIPTION=Japan AIST/NIMC Database- Spectrum MS-NW-3056
##NAMES=HP
##CAS NAME=1-Hexanol, 6-chloro-
##MOLFORM=C6H13ClO
##CAS REGISTRY NO=2009-83-8
##MP= -300
##BP= -300
##MW= 136
##$RETENTION INDEX=0
##$CONDENSED SPECTRUM=NO
##NPOINTS= 89
##XYDATA=(XY..XY) 1 
    14          2
    15         13
    16          1
    18          2
    26         18
    27        216
    28         49
    29        175
    30          8
    31        479
    32          5
    33          3
    35          2
    36         12
    37          4
    38         11
    39        166
    40         36
    41        755
    42        665
    43        240
    44         51
    45         45
    46          2
    47          2
    48          1
    49         41
    50          8
    51         14
    52          5
    53         58
    54        229
    55        999
    56        430
    57        141
    58         10
    59          7
    61          5
    62         18
    63         56
    64          6
    65         18
    66          5
    67        396
    68         65
    69        754
    70        104
    71         12
    72          9
    73          6
    75         22
    76         59
    77         26
    78         20
    79         10
    80         18
    81         64
    82        413
    83        151
    84          9
    85          4
    86          3
    88          2
    89         11
    90        385
    91         32
    92        123
    93          9
    97          2
    98         13
    99          6
   100          3
   101          1
   103          4
   104          4
   105          7
   106          3
   107          2
   108          1
   116          2
   117          4
   118         22
   119          4
   120          8
   121          1
   134          1
   135          3
   136          1
   137          1