##TITLE=Library Entry 78373
##JCAMP-DX=Revision 4.10 
##DATA TYPE=MASS SPECTRUM
##SAMPLE DESCRIPTION=K.P.ZELLER CHEM.INST., UNIV., TUBINGEN, GERMANY, F.R.G.
##NAMES=HP
##CAS NAME=1,3-Butanedione, 2-diazo-1-phenyl-
##MOLFORM=C10H8N2O2
##CAS REGISTRY NO=2009-96-3
##MP= -300
##BP= -300
##MW= 188
##$RETENTION INDEX=0
##$CONDENSED SPECTRUM=NO
##NPOINTS= 35
##XYDATA=(XY..XY) 1 
    43        670
    44         70
    50        150
    51        360
    52         40
    61         20
    62         60
    63        140
    64         20
    74         60
    75         40
    76         40
    77        740
    78        110
    89        130
    90        250
    91         40
   103         70
   104         40
   105        999
   106         80
   115        160
   116        140
   117         20
   118        330
   119         30
   131         20
   132        150
   133         20
   147         20
   159         10
   160        360
   161         60
   162         40
   188         20