##TITLE=Library Entry 9692
##JCAMP-DX=Revision 4.10 
##DATA TYPE=MASS SPECTRUM
##SAMPLE DESCRIPTION=K.P.ZELLER CHEM.INST., UNIV., TUBINGEN, GERMANY, F.R.G.
##NAMES=HP
##CAS NAME=Butanoic acid, 2-diazo-3-oxo-, ethyl ester
##MOLFORM=C6H8N2O3
##CAS REGISTRY NO=2009-97-4
##MP= -300
##BP= -300
##MW= 156
##$RETENTION INDEX=0
##$CONDENSED SPECTRUM=NO
##NPOINTS= 22
##XYDATA=(XY..XY) 1 
    41         60
    42         60
    43        999
    44        110
    45         80
    53         50
    54         50
    55        140
    56        120
    69         50
    72        160
    73         30
    83        440
    84        110
    99         40
   100        150
   111         90
   123         40
   128        200
   129         20
   156        260
   157         30