##TITLE=Library Entry 30499
##JCAMP-DX=Revision 4.10 
##DATA TYPE=MASS SPECTRUM
##SAMPLE DESCRIPTION=A.A.Kutin, Moscow, Russia
##NAMES=HP
##CAS NAME=Butanoic acid, 4,4,4,-trichloro-2-methyl-, methyl ester
##MOLFORM=C6H9Cl3O2
##CAS REGISTRY NO=20101-83-1
##MP= -300
##BP= -300
##MW= 218
##$RETENTION INDEX=0
##$CONDENSED SPECTRUM=NO
##NPOINTS= 127
##XYDATA=(XY..XY) 1 
    35          6
    36         13
    37         12
    38         21
    39         98
    40         14
    41        131
    42         41
    43         42
    44          5
    45         24
    47         12
    48          4
    49         33
    50         44
    51        187
    52         23
    53        179
    54         15
    55        107
    56        131
    57         47
    59        999
    60         50
    61        133
    63        801
    64         27
    65        242
    66          5
    67          2
    69        100
    70          6
    71          5
    72          9
    73         71
    74          7
    75         26
    76          6
    77         17
    78          1
    79         15
    80          0
    81          4
    82         17
    83         58
    84         17
    85         63
    87        299
    88        150
    89        724
    90         50
    91        211
    92         16
    93          9
    94          5
    95         26
    96        114
    97         38
    98         73
    99         20
   100         15
   101        228
   102         15
   103         47
   104          3
   105         23
   106          5
   107          9
   109        140
   110          6
   111        106
   112          5
   113         28
   115         12
   117         72
   119        952
   120         54
   121        324
   122         69
   123        972
   124        131
   125        604
   126         89
   127        105
   128         25
   129          2
   130          5
   131          9
   132          3
   133          2
   134          0
   136          3
   138          2
   139          6
   141          4
   142          2
   143          3
   145          2
   147        722
   148         52
   149        247
   150         21
   151         61
   152         12
   153         39
   154          6
   155         15
   156          1
   157          4
   159         29
   160          2
   161         26
   162          1
   163          9
   167          2
   183        236
   184         19
   185        146
   187        416
   188         28
   189        385
   190         21
   191        123
   192          8
   193         13
   219          3
   221          3