##TITLE=Library Entry 13959
##JCAMP-DX=Revision 4.10 
##DATA TYPE=MASS SPECTRUM
##SAMPLE DESCRIPTION=A.A.Kutin, Moscow, Russia
##NAMES=HP
##CAS NAME=Difurazano[3,4-b:3'4'-E]pyrazine, 4,8-di(2-oxopropyl)-
##MOLFORM=C10H10N6O4
##CAS REGISTRY NO=201025-13-0
##MP= -300
##BP= -300
##MW= 278
##$RETENTION INDEX=0
##$CONDENSED SPECTRUM=NO
##NPOINTS= 162
##XYDATA=(XY..XY) 1 
    33          0
    34          0
    36          0
    37          1
    38          9
    39         31
    40         37
    41         43
    43        999
    44         22
    45          2
    46          0
    50          1
    51          3
    52         12
    53         19
    54         15
    55         17
    56         10
    57         44
    58          4
    59          0
    60          0
    62          0
    63          0
    64          2
    65          5
    66         29
    67         18
    68          8
    69          7
    70          4
    71          2
    72          0
    73          0
    74          0
    75          0
    76          0
    77          2
    78          6
    79          3
    80          4
    81          6
    82          4
    83          4
    84          2
    85          0
    86          0
    90          0
    91          1
    92          2
    93          5
    94         13
    95          3
    96          6
    97          3
    98          1
    99          0
   100          0
   104          0
   105          0
   106          2
   107          3
   108          4
   109         19
   110          2
   111          1
   112          0
   113          0
   114          0
   117          0
   118          2
   119          2
   120          2
   121          1
   122          1
   123         12
   124          3
   125          7
   126          0
   131          0
   132          0
   133          3
   134          4
   135          8
   136          3
   137          3
   138          2
   139          0
   140          1
   141          3
   142          0
   143          0
   144          0
   145          0
   146          1
   147          1
   148          3
   149          1
   150          1
   151          1
   152          0
   159          0
   160          0
   161          0
   162          1
   163          1
   164          6
   165          7
   166          1
   167          0
   171          0
   175          1
   176          1
   177          2
   178          1
   179          3
   180          0
   189          0
   190          0
   191          0
   192          1
   193          6
   194         11
   195          1
   196          0
   197          0
   203          0
   204          2
   205          0
   206          7
   207          5
   208          0
   217          0
   218          0
   219          2
   220          0
   221          1
   222          0
   228          0
   229          0
   231          0
   232          0
   233          0
   235         76
   236         12
   237          1
   238          0
   246          0
   248         46
   249          6
   250          0
   260          0
   261          0
   262          0
   263          5
   264          0
   275          0
   276          0
   278         72
   279          8
   280          1