##TITLE=Library Entry 18491
##JCAMP-DX=Revision 4.10 
##DATA TYPE=MASS SPECTRUM
##SAMPLE DESCRIPTION=A.A.Kutin, Moscow, Russia
##NAMES=HP
##CAS NAME=Tetrazolo[1,5-a]pyrimidine, 6-(3-hydroxy-2-oxopropyl)-
##MOLFORM=C7H7N5O2
##CAS REGISTRY NO=201053-52-3
##MP= -300
##BP= -300
##MW= 193
##$RETENTION INDEX=0
##$CONDENSED SPECTRUM=NO
##NPOINTS= 104
##XYDATA=(XY..XY) 1 
    38         19
    39        585
    40         29
    41        151
    42        189
    43        316
    44         78
    45         42
    46         19
    47          1
    49         10
    50         55
    51        136
    52        406
    53        999
    54        153
    55        138
    56         21
    57        105
    58         26
    59        169
    60         22
    61          5
    62          7
    63         20
    64         50
    65         49
    66         41
    67         27
    68         24
    69         46
    70         14
    71         15
    72          2
    73         23
    74          3
    75          4
    76          9
    77         62
    78         44
    79        618
    80        386
    81        111
    82         32
    83         12
    84          7
    85         36
    86          5
    87          6
    88          4
    90          1
    91         11
    92         21
    93         21
    94          9
    95          9
    96          7
    97         13
    98         10
    99          6
   100          1
   101          8
   103          1
   104          0
   105          7
   106        143
   107        363
   108        141
   109         17
   110          3
   111          9
   112          3
   113          5
   115          1
   118          5
   119          7
   120          5
   121          9
   122          4
   123          6
   124          1
   125          2
   126         24
   127          8
   128          2
   132          0
   133          5
   134        229
   135         62
   136         11
   137          3
   138          1
   140          1
   141          0
   150          2
   151          1
   162         15
   163          3
   164          0
   165         12
   166          7
   193        170
   194         13
   195          0