##TITLE=Library Entry 68250
##JCAMP-DX=Revision 4.10 
##DATA TYPE=MASS SPECTRUM
##SAMPLE DESCRIPTION=H.Maurer, J.Chromatogr.,530,307(1990)
##NAMES=HP
##CAS NAME=(1-Cyanocyclohexyl) carbamate
##MOLFORM=C8H12N2O2
##CAS REGISTRY NO=20102-09-4
##MP= -300
##BP= -300
##MW= 168
##$RETENTION INDEX=0
##$CONDENSED SPECTRUM=NO
##NPOINTS= 62
##XYDATA=(XY..XY) 1 
    51        228
    52        522
    53        269
    54        586
    55        243
    56        496
    57         63
    59         11
    60         30
    61         30
    62         41
    63        198
    64         49
    65        317
    66        183
    67        728
    68        466
    69        112
    70         78
    71         15
    74         52
    75         22
    76         37
    77        422
    78        474
    79        418
    80        675
    81        772
    82        164
    83         93
    84          7
    89         34
    90         19
    91        843
    92        108
    93        172
    94        209
    95        999
    96        373
    97         49
    98         30
   102        101
   103         93
   104         34
   105        198
   106        429
   107         82
   108         11
   109        246
   110         34
   115          4
   118         52
   119         11
   120         49
   121         49
   122        183
   123        127
   124        646
   125         63
   136         11
   138         15
   142         11