##TITLE=Library Entry 81421
##JCAMP-DX=Revision 4.10 
##DATA TYPE=MASS SPECTRUM
##SAMPLE DESCRIPTION=H. Fales, LC, NHLBI, NIH, Bethesda, MD 20892
##NAMES=HP
##CAS NAME=1-Propanol, 2-[2-(benzoyloxy)propoxy]-, benzoate
##MOLFORM=C20H22O5
##CAS REGISTRY NO=20109-39-1
##MP= -300
##BP= -300
##MW= 342
##$RETENTION INDEX=0
##$CONDENSED SPECTRUM=NO
##NPOINTS= 112
##XYDATA=(XY..XY) 1 
    41         42
    42         27
    43         39
    45         53
    47          3
    49         15
    50         24
    51         85
    52          5
    53          1
    55          3
    57         15
    58         45
    59         95
    60          3
    61          1
    62          0
    63          2
    64          0
    65          1
    66          1
    69          2
    71          4
    72         21
    73          3
    74          6
    75          7
    77        320
    78         14
    79         10
    81          0
    83          0
    84         11
    85          0
    86          8
    87         23
    88          0
    89          4
    91         10
    92          6
    93          0
    94          0
    95          0
    98          5
    99          0
   100          2
   101         10
   103         35
   105        999
   106         71
   107          4
   111          1
   113          1
   114          2
   116         24
   117          1
   118          5
   120         19
   121          2
   122         56
   123         82
   124          5
   129          0
   130          1
   131          2
   132          3
   133          1
   135         12
   136          8
   137          0
   139          3
   141          2
   144          3
   145          0
   147          4
   148          5
   149         13
   150          4
   152          1
   153          0
   154          0
   156          0
   157          0
   159          0
   161          1
   163        596
   164         64
   165          6
   166          0
   176          5
   177          0
   178          2
   179          2
   180          0
   181          4
   185          1
   193          9
   194         53
   195          4
   197          1
   199          0
   207         62
   208          9
   209          1
   220         13
   221          2
   223          0
   225          0
   227          0
   228          0
   242          0
   343          0