##TITLE=Library Entry 19376
##JCAMP-DX=Revision 4.10 
##DATA TYPE=MASS SPECTRUM
##SAMPLE DESCRIPTION=FOOD RESEARCH REPORT 118, K.E. MURRAY & COLLEAGUES, DIV
. OF FOOD RESEARCH, CSIRO, AUSTRALIA
##NAMES=HP
##CAS NAME=3-Octen-1-ol, (E)-
##MOLFORM=C8H16O
##CAS REGISTRY NO=20125-85-3
##MP= -300
##BP= -300
##MW= 128
##$RETENTION INDEX=1066
##$CONDENSED SPECTRUM=NO
##NPOINTS= 70
##XYDATA=(XY..XY) 1 
    26         20
    27        255
    28         87
    29        182
    30         11
    31        200
    32          2
    37          5
    38         16
    39        291
    40         45
    41        527
    42        116
    43        182
    44        173
    45         15
    50         18
    51         42
    52         24
    53        124
    54        227
    55        999
    56        200
    57        125
    58         13
    62          4
    63         13
    64          4
    65         35
    66         45
    67        273
    68        327
    69        160
    70         56
    71         33
    72          7
    77         33
    78         16
    79         55
    80         11
    81        345
    82        147
    83         29
    84         24
    85         15
    86          5
    91         24
    92          4
    93          9
    94          4
    95         80
    96         15
    97         29
    98         11
    99          5
   100          7
   102          2
   104          2
   105          4
   106          4
   107          2
   108          4
   109          5
   110        124
   111         13
   118          2
   122          2
   124          4
   126          2
   128          7