##TITLE=Library Entry 12454
##JCAMP-DX=Revision 4.10 
##DATA TYPE=MASS SPECTRUM
##SAMPLE DESCRIPTION=Asinex Ltd, Moscow, Russia
##NAMES=HP
##CAS NAME=N-(2,2,2-Trichloro-1-(4-chloro-phenylsulfanyl)-ethyl)-acetamide
##MOLFORM=C10H9Cl4NOS
##CAS REGISTRY NO=201299-78-7
##MP= -300
##BP= -300
##MW= 331
##$RETENTION INDEX=0
##$CONDENSED SPECTRUM=NO
##NPOINTS= 187
##XYDATA=(XY..XY) 1 
    32         87
    34          3
    35          8
    36         35
    37          6
    38         19
    39         18
    40         35
    41         16
    43        999
    44         56
    45         28
    46          4
    47          9
    48         11
    49         11
    50         20
    51         14
    52          2
    53          5
    54          6
    55          6
    56          3
    57         12
    58         14
    59          3
    60         18
    61          8
    62         14
    63         37
    64         14
    65         15
    66          4
    67          4
    68          4
    69         40
    70          8
    71          7
    72          7
    73         28
    74         16
    75         41
    76         26
    77         12
    78         10
    79          8
    80          4
    81         13
    82         29
    83         24
    84         12
    85         18
    86          5
    87          4
    88          1
    89          1
    90          2
    91          4
    92          4
    93          5
    94          3
    95          5
    96          2
    97          5
    99         42
   100         18
   101         17
   102          8
   103          4
   104          3
   105          7
   106          7
   107         21
   108        164
   109         79
   110         47
   111        147
   112         34
   113         95
   114         10
   115         16
   116          3
   117          5
   118          6
   119          7
   120          3
   121          4
   122          1
   123          4
   124          3
   125          2
   126          2
   127          2
   128          2
   129          2
   130          2
   132          1
   133          2
   134          1
   135          2
   136          3
   137          4
   138          5
   139          2
   140          3
   141          4
   142         15
   143        158
   144        675
   145        127
   146        752
   147         57
   148        495
   149         28
   150        155
   151          9
   152         19
   153         18
   154          3
   155         21
   156          6
   157          8
   158          2
   159          4
   160          1
   161          2
   167          3
   168          6
   169          1
   170          3
   172         31
   174         18
   175          3
   176          2
   178          4
   180          4
   181          0
   182          6
   183         14
   184          4
   185          7
   186          7
   188        204
   189         15
   190        185
   191         18
   192         58
   193          9
   194          8
   195          3
   202          4
   203          1
   204          3
   205          1
   206          2
   214          3
   216          2
   218         13
   219          3
   220          9
   221          3
   222          1
   225          1
   226          2
   253          2
   254         28
   255          5
   256         28
   257          4
   258         11
   259          6
   260          9
   261          4
   262          5
   263          1
   264          1
   281          1
   282          0
   295          0
   297          2
   331         35
   332          7
   333         45
   334          7
   335         22
   336          3
   337          6