##TITLE=Library Entry 6384
##JCAMP-DX=Revision 4.10 
##DATA TYPE=MASS SPECTRUM
##SAMPLE DESCRIPTION=NIST Mass Spectrometry Data Center, 1994
##NAMES=HP
##CAS NAME=2-Pentane isothiocyanate
##MOLFORM=C6H11NS
##CAS REGISTRY NO=201224-94-4
##MP= -300
##BP= -300
##MW= 129
##$RETENTION INDEX=0
##$CONDENSED SPECTRUM=NO
##NPOINTS= 66
##XYDATA=(XY..XY) 1 
     4          1
    14          6
    15         31
    16          1
    26         37
    27        297
    28         75
    29        206
    30          5
    32         20
    33          3
    34          2
    37          8
    38         22
    39        210
    40         41
    41        343
    42        137
    43        999
    44         50
    45         21
    46          3
    47          2
    50          9
    51         16
    52         12
    53         28
    54         22
    55        215
    56         14
    57         15
    58         45
    59         85
    60         97
    61          7
    62          6
    63          2
    64          2
    65          3
    67          4
    68          4
    69         18
    70        181
    71        167
    72         97
    73          5
    74          5
    82          1
    83          2
    84         13
    85          1
    86        288
    87         19
    88         14
    96          9
    98          3
    99          1
   100         11
   101          2
   114         29
   115          2
   116          2
   129        327
   130         26
   131         15
   132          1