##TITLE=Library Entry 55649
##JCAMP-DX=Revision 4.10 
##DATA TYPE=MASS SPECTRUM
##SAMPLE DESCRIPTION=NIST Mass Spectrometry Data Center
##NAMES=HP
##CAS NAME=Ethyl 3-dimethylaminopropanoate
##MOLFORM=C9H19NO2
##CAS REGISTRY NO=20120-21-2
##MP= -300
##BP= -300
##MW= 173
##$RETENTION INDEX=0
##$CONDENSED SPECTRUM=NO
##NPOINTS= 65
##XYDATA=(XY..XY) 1 
    12          1
    14          8
    15         38
    16          1
    18         29
    19          2
    24          1
    26         36
    27        227
    28        254
    29        326
    30        218
    38          2
    39         10
    40         10
    41         51
    42        324
    43         40
    44         92
    45          9
    46          1
    52          2
    53          4
    54         26
    55         66
    56        163
    57         52
    58        181
    59         25
    60          2
    67          1
    68          5
    69          5
    70         28
    71         16
    72         85
    73         55
    82          3
    84         63
    86        999
    87         62
    88         54
    89          3
    98         10
    99          3
   100          9
   101         15
   102          2
   112          5
   114          1
   116          9
   126          2
   127          1
   128          7
   130         41
   131          4
   142          2
   144         23
   145          2
   158        132
   159         13
   160          1
   172          7
   173         35
   174          4