##TITLE=Library Entry 35622
##JCAMP-DX=Revision 4.10 
##DATA TYPE=MASS SPECTRUM
##SAMPLE DESCRIPTION=V.G.Zaikin,TIPS,Russian Acad.Sci.Moscow
##NAMES=HP
##CAS NAME=Cyclopropanecarboxylic acid, benzyl ester
##MOLFORM=C11H12O2
##CAS REGISTRY NO=20121-75-9
##MP= -300
##BP= -300
##MW= 176
##$RETENTION INDEX=0
##$CONDENSED SPECTRUM=NO
##NPOINTS= 50
##XYDATA=(XY..XY) 1 
    26         31
    27         82
    28         13
    29         49
    36          6
    37         21
    38         63
    39        425
    40         59
    41        515
    42         49
    43         12
    44         29
    45          6
    49          7
    50         59
    51        145
    52         35
    53         13
    55         35
    61          7
    62         18
    63         65
    64         25
    65        189
    66         15
    68         15
    69        999
    70         79
    71         18
    74         11
    75          9
    76          7
    77        119
    78         39
    79        129
    80          8
    89         55
    90        149
    91        779
    92         59
   104        175
   105         52
   106          9
   107        115
   108         19
   121          8
   131         12
   176        185
   177         25