##TITLE=Library Entry 39304
##JCAMP-DX=Revision 4.10 
##DATA TYPE=MASS SPECTRUM
##SAMPLE DESCRIPTION=Philip Morris R&D
##NAMES=HP
##CAS NAME=3-Cyclohexen-1-ol, 4-methyl-1-(1-methylethyl)-, (R)-
##MOLFORM=C10H18O
##CAS REGISTRY NO=20126-76-5
##MP= -300
##BP= -300
##MW= 154
##$RETENTION INDEX=1182
##$CONDENSED SPECTRUM=NO
##NPOINTS= 95
##XYDATA=(XY..XY) 1 
    36          3
    37          0
    38          3
    39         69
    40         19
    41        185
    42         22
    43        450
    44         16
    45         13
    46          1
    47          0
    49          0
    50          4
    51         19
    52          8
    53         71
    54          9
    55        213
    56         10
    57         21
    58         29
    59         12
    60          0
    61          0
    62          1
    63          5
    64          2
    65         25
    66          8
    67        132
    68        126
    69        215
    70         44
    71        999
    72         47
    73          3
    75          0
    77         75
    78         11
    79         39
    80          7
    81         79
    82         32
    83         90
    84         20
    85         13
    86        233
    87         19
    88          0
    89          1
    91         82
    92         72
    93        399
    94         35
    95         51
    96          8
    97         12
    98         15
    99          3
   100          0
   102          0
   103          2
   104          0
   105         11
   106          1
   107         12
   108          2
   109          9
   110         47
   111        480
   112         37
   113          2
   115          1
   117          3
   119         18
   120          1
   121         34
   122          3
   123          2
   124          0
   125         26
   126          3
   134          4
   135          1
   136        132
   137         19
   138          0
   139         21
   140          1
   152          0
   153          0
   154        153
   155         17
   156          1