##TITLE=Library Entry 14163
##JCAMP-DX=Revision 4.10 
##DATA TYPE=MASS SPECTRUM
##SAMPLE DESCRIPTION=Chemical Concepts
##NAMES=HP
##CAS NAME=Hexaacetoxybenzene
##MOLFORM=C18H18O12
##CAS REGISTRY NO=20129-65-1
##MP= -300
##BP= -300
##MW= 426
##$RETENTION INDEX=0
##$CONDENSED SPECTRUM=NO
##NPOINTS= 90
##XYDATA=(XY..XY) 1 
    25         14
    26         17
    27         50
    28         58
    29         67
    39         38
    40         23
    42        262
    43        999
    44        156
    49          8
    53         12
    79         12
    91         10
    93         14
    94          9
   105         11
   107         12
   109         24
   110         17
   111         33
   112         19
   113         14
   115         27
   117          8
   119          8
   121         12
   123         16
   124         11
   125         20
   126         11
   127         50
   129         44
   130          9
   133          7
   135         11
   137         12
   138         11
   139         13
   140          9
   141         11
   143         14
   144         10
   145          9
   147          8
   151          8
   152          8
   153          8
   155         32
   157         16
   158         15
   167          8
   171         13
   172         16
   173         94
   174        141
   175         12
   183          9
   185         13
   199         13
   200         17
   201          9
   211          8
   213          9
   215         41
   216        246
   217         23
   228         10
   229          8
   236         14
   239         10
   242         11
   256         16
   257         31
   258        373
   259         44
   260         10
   282         16
   284          8
   300        196
   301         29
   302          9
   324         13
   327         11
   342        149
   343         25
   355         13
   368         11
   384         37
   426         10