##TITLE=Library Entry 6383
##JCAMP-DX=Revision 4.10 
##DATA TYPE=MASS SPECTRUM
##SAMPLE DESCRIPTION=NIST Mass Spectrometry Data Center, 1994
##NAMES=HP
##CAS NAME=3-Pentane isothiocyanate
##MOLFORM=C6H11NS
##CAS REGISTRY NO=201224-89-7
##MP= -300
##BP= -300
##MW= 129
##$RETENTION INDEX=0
##$CONDENSED SPECTRUM=NO
##NPOINTS= 58
##XYDATA=(XY..XY) 1 
    14          4
    15         20
    26         39
    27        241
    28         65
    29        211
    30          6
    32         18
    37         10
    38         27
    39        243
    40         47
    41        615
    42        116
    43        999
    44         52
    45         32
    46          4
    47          2
    50          9
    51         17
    52         12
    53         29
    54         20
    55        202
    56         18
    57         12
    58         41
    59         51
    60         31
    61          4
    62          4
    63          3
    64          2
    66          2
    67          8
    68          4
    69          2
    70        218
    71        182
    72        288
    73         14
    74         13
    82          2
    83          3
    84         11
    85          9
    86         37
    87          3
    96          6
    98          6
   100        186
   101         13
   102          9
   114         22
   129        450
   130         32
   131         22