##TITLE=Library Entry 78662
##JCAMP-DX=Revision 4.10 
##DATA TYPE=MASS SPECTRUM
##SAMPLE DESCRIPTION=A.A.Kutin, Moscow, Russia
##NAMES=HP
##CAS NAME=Propanenitrile, 3-oxo-2-(4-chloro-5H-1,2,3-dithiazol-5-ylidene)-2
-phenyl-
##MOLFORM=C11H5ClN2OS2
##CAS REGISTRY NO=201299-03-8
##MP= -300
##BP= -300
##MW= 280
##$RETENTION INDEX=0
##$CONDENSED SPECTRUM=NO
##NPOINTS= 106
##XYDATA=(XY..XY) 1 
    33         13
    34          6
    36         14
    38         49
    39         31
    42         35
    43         15
    44         19
    45         20
    46         18
    48          4
    51        554
    53          6
    54          1
    55          3
    56          3
    57          5
    58          8
    60          3
    61          7
    62         10
    64         82
    65          6
    66          6
    67          7
    70         53
    72          4
    73          8
    74         40
    77        958
    80          2
    82         30
    83          4
    84          3
    85          3
    86          3
    87          8
    88          7
    89          0
    90          1
    91          2
    93         22
    94         12
    95          4
    96          1
    97          2
    99         25
   100          5
   101          9
   102          6
   105        999
   108          7
   109         24
   110          7
   111          3
   113         15
   114          6
   115          2
   116          1
   117          0
   119          0
   121          0
   122          0
   125          3
   126          5
   127          3
   128          0
   130          1
   131          0
   134          0
   135          2
   137          0
   138          0
   139          2
   140          2
   141          2
   146          2
   152          0
   153          0
   154          0
   158          1
   159          3
   160          0
   165          0
   170          0
   171          1
   175          0
   184          1
   185          3
   186          0
   201          1
   203          4
   205          1
   213          0
   216          1
   242          1
   245        368
   246         48
   247         30
   248          3
   249          0
   278          1
   280        162
   282         85
   283          9
   285          0