##TITLE=Library Entry 87841
##JCAMP-DX=Revision 4.10 
##DATA TYPE=MASS SPECTRUM
##SAMPLE DESCRIPTION=Chemical Concepts
##NAMES=HP
##CAS NAME=N-(4-Acetylphenyl)-2-thiophenecarboxamide
##MOLFORM=C13H11NO2S
##CAS REGISTRY NO=201351-83-9
##MP= -300
##BP= -300
##MW= 245
##$RETENTION INDEX=0
##$CONDENSED SPECTRUM=NO
##NPOINTS= 48
##XYDATA=(XY..XY) 1 
    33          3
    39        277
    41          6
    43         72
    45         20
    50         21
    51         12
    52          9
    53          8
    55          2
    57         17
    58          5
    63         45
    64         20
    65         11
    66          2
    69          4
    71          2
    74          6
    75          4
    77         19
    78          5
    79          6
    83         98
    84          5
    85          4
    87          1
    88          2
    90         17
    91         14
    92          7
   106          6
   111        999
   113         40
   119         12
   120          6
   121          9
   134          2
   146          4
   172          2
   173          2
   202          5
   230         23
   231          3
   237          2
   245        231
   246         29
   247         10