##TITLE=Library Entry 73338
##JCAMP-DX=Revision 4.10 
##DATA TYPE=MASS SPECTRUM
##SAMPLE DESCRIPTION=Patti Price, Georgia Bureau of Investigation, Decatur,
 Georgia
##NAMES=HP
##CAS NAME=Meclocycline
##MOLFORM=C22H21ClN2O8
##CAS REGISTRY NO=2013-58-3
##MP= -300
##BP= -300
##MW= 476
##$RETENTION INDEX=0
##$CONDENSED SPECTRUM=NO
##NPOINTS= 294
##XYDATA=(XY..XY) 1 
    36         38
    38         15
    39         11
    40          7
    41         22
    42        135
    43         47
    44        187
    45         29
    46         82
    51         16
    53         22
    54         10
    55         67
    56         43
    57         82
    58        200
    63         26
    66         12
    67         21
    68         50
    69        116
    70        123
    71        124
    72        129
    73         12
    74         17
    75         23
    76         11
    77         24
    78         11
    79         15
    81         14
    82        117
    83         27
    84         92
    85         84
    86         42
    87         43
    88         14
    89         44
    90          7
    91         17
    92         10
    94         19
    95         24
    96         25
    97         32
    98        374
    99         68
   100        999
   101         70
   102         25
   103          8
   105          6
   108         16
   109         11
   110         19
   111         21
   112         15
   113         42
   114         42
   115        196
   116         37
   117         13
   121          7
   123         51
   124         45
   125         47
   126        111
   127         74
   128         91
   129         42
   130          9
   131         10
   132          5
   135         10
   136         16
   137         21
   138         22
   139         50
   140         30
   141         19
   142         14
   143         27
   144         60
   145         24
   146          6
   147          7
   148          8
   149         77
   150         43
   151         94
   152        182
   153        109
   154         41
   155         39
   156         15
   157         10
   158          5
   159          6
   160         22
   161         34
   162         25
   163         36
   164         20
   165         49
   166         34
   167         22
   168         62
   169         68
   170        149
   171         52
   172         23
   173         28
   174         15
   176         15
   177         13
   178         61
   179         45
   180         58
   181         61
   182         33
   183         16
   184         20
   185         10
   186         10
   187         12
   189         24
   190         18
   191         26
   192         15
   193         20
   194         51
   195         46
   196         50
   197         32
   198         31
   199         31
   200         18
   201         18
   202         11
   205         47
   206        213
   207        143
   208        152
   209         50
   210         36
   211         29
   212         25
   213         48
   215         18
   216          9
   218         15
   219         21
   220         22
   221         27
   222         15
   223         19
   224         37
   225         22
   230         28
   231         26
   232         14
   233        153
   234        112
   235        203
   236         78
   237         50
   238         21
   239          9
   240          4
   241         13
   242          7
   243         14
   244         16
   246         24
   247         34
   249         20
   252          7
   255         12
   256          8
   259         19
   260         16
   261         16
   262         23
   263         62
   264         20
   265         34
   266         12
   267          9
   269         16
   271         18
   272         29
   273         37
   274         21
   275         22
   276         24
   277         10
   278         15
   280          6
   283          8
   288         35
   289         22
   290         39
   291         21
   292         15
   293          9
   296          5
   297          7
   299         17
   300         21
   301         21
   302         18
   303         14
   305        169
   306         31
   307         57
   308         11
   313          8
   314         12
   315         10
   317         12
   318         16
   319          7
   322          4
   323          5
   326          6
   327          5
   328         18
   329         11
   330         12
   333          8
   334         14
   340         11
   341         13
   342         18
   343         11
   344         15
   346         14
   347         11
   352         12
   354          9
   355          9
   356          8
   357         16
   358          7
   359          9
   361          6
   362         61
   363         93
   364         36
   365         35
   366          6
   368         18
   369         19
   370         29
   372         10
   374         13
   379          4
   380          7
   381          4
   385         14
   386         12
   387         14
   396         13
   397         13
   398         38
   399          9
   400         12
   405          5
   412          7
   413          8
   414         21
   415         28
   416         21
   417         12
   423          5
   431          7
   433         27
   434          5
   435          7
   441         25
   442         38
   443         15
   444         15
   458         30
   459         51
   460         25
   461         19
   476        106
   477         28
   478         34
   479          7