##TITLE=Library Entry 39612
##JCAMP-DX=Revision 4.10 
##DATA TYPE=MASS SPECTRUM
##SAMPLE DESCRIPTION=Chemical Concepts
##NAMES=HP
##CAS NAME=D-(-)-Norvaline
##MOLFORM=C5H11NO2
##CAS REGISTRY NO=2013-12-9
##MP= -300
##BP= -300
##MW= 117
##$RETENTION INDEX=0
##$CONDENSED SPECTRUM=NO
##NPOINTS= 87
##XYDATA=(XY..XY) 1 
    25          0
    26         21
    27        130
    28        245
    29        110
    30        982
    31         12
    33          0
    34          0
    35          0
    36          0
    37          7
    38         13
    39         75
    41         78
    42        105
    43        102
    44        119
    45         49
    46         80
    47          2
    49          1
    50          6
    51          4
    52          7
    53         11
    54         19
    55         74
    56         66
    57         47
    58          1
    59          1
    60          0
    61          0
    62          0
    63          0
    64          0
    65          1
    66          0
    67          1
    68          4
    69          3
    70         19
    71          4
    72        999
    73         47
    74        282
    75         19
    76          2
    77          1
    78          0
    79          0
    80          0
    81          1
    82          1
    83          0
    84          1
    85          0
    86          1
    87          0
    88          2
    89          0
    91          0
    92          0
    93          0
    95          0
    96          0
    97          0
    98          0
    99          0
   100          0
   101          0
   102          0
   105          0
   106          0
   107          0
   108          0
   109          0
   111          0
   112          0
   113          0
   114          0
   115          0
   116          0
   117          0
   118          3
   119          0