##TITLE=Library Entry 80359
##JCAMP-DX=Revision 4.10 
##DATA TYPE=MASS SPECTRUM
##SAMPLE DESCRIPTION=K. Kirk, LBC, NIDDK, NIH, Bethesda, MD 20892
##NAMES=HP
##CAS NAME=Phenylacrylic acid, 2-benzoylamino-4'-benzyloxy-3'-methoxy-
##MOLFORM=C24H21NO5
##CAS REGISTRY NO=201405-93-8
##MP= -300
##BP= -300
##MW= 403
##$RETENTION INDEX=0
##$CONDENSED SPECTRUM=NO
##NPOINTS= 145
##XYDATA=(XY..XY) 1 
    41         41
    42         13
    43         59
    44         26
    45         64
    46         33
    48          6
    50         24
    51         72
    52         11
    53         12
    54          2
    55         35
    56         12
    57         30
    58          2
    59          8
    60         15
    61          5
    62          6
    63         18
    64         17
    65         71
    66          7
    67          9
    68          9
    69         24
    70         11
    71         16
    72          4
    73         20
    74          7
    75         11
    76         28
    77        348
    78         38
    79         14
    80         13
    81         17
    82         20
    83         24
    84         10
    85          9
    87          6
    89         16
    91        614
    92         48
    93          5
    94          6
    95         13
    96          9
    97         14
    98          8
    99          5
   100          2
   101          2
   102          2
   103          2
   105        999
   106         81
   107         13
   108          7
   109         12
   110          6
   111         19
   112          6
   113          5
   115          4
   121          8
   122         18
   123         11
   124         10
   125         11
   126          3
   127          2
   128          2
   129          9
   133          2
   134          2
   135          2
   136          2
   137         20
   138          2
   139          5
   140          6
   141          3
   143          3
   148          5
   149         12
   150          5
   151         10
   152          8
   153          5
   154          3
   155         26
   156          3
   164          7
   165         11
   166          5
   167          5
   168          2
   169         10
   170          5
   171         26
   172          2
   179          2
   180         20
   181          6
   182          7
   183          4
   185          5
   192          1
   199          2
   200          6
   206         19
   207          4
   208          5
   213          4
   216          8
   226          8
   227          4
   245         11
   256         11
   261          6
   284          2
   286         12
   287          2
   290          4
   297          9
   306          8
   310         29
   311         13
   312         21
   313         74
   314         18
   330         39
   331          9
   369          2
   375          2
   377          2
   401         31
   402          8
   403         98
   404         30
   405          6