##TITLE=Library Entry 19500
##JCAMP-DX=Revision 4.10 
##DATA TYPE=MASS SPECTRUM
##SAMPLE DESCRIPTION=CONTINENTAL OIL CO., PONCA CITY, OKLA, USA
##NAMES=HP
##CAS NAME=Cyclohexanone, 2-isopropyl-2,5-dimethyl-
##MOLFORM=C11H20O
##CAS REGISTRY NO=20144-44-9
##MP= -300
##BP= -300
##MW= 168
##$RETENTION INDEX=1306
##$CONDENSED SPECTRUM=NO
##NPOINTS= 123
##XYDATA=(XY..XY) 1 
    13          2
    14         23
    15        119
    16          6
    17          9
    18         30
    19          1
    24          0
    25          2
    26         27
    27        512
    28        165
    29        337
    30          8
    31          5
    32          3
    36          1
    37          9
    38         22
    39        449
    40         86
    41        958
    42        170
    43        479
    44         21
    45          6
    46          1
    47          1
    49          2
    50         14
    51         42
    52         23
    53        148
    54         55
    55        999
    56        194
    57         95
    58          7
    59          5
    62          3
    63          9
    64          4
    65         30
    66         14
    67         93
    68         32
    69        676
    70        175
    71         52
    72         13
    73          2
    74          2
    75          3
    77         35
    78         11
    79         41
    80         12
    81        118
    82         69
    83        243
    84        255
    85         36
    86          5
    89          2
    90          2
    91         35
    92          6
    93         37
    94         10
    95         46
    96         42
    97        454
    98         78
    99         11
   100          3
   102          1
   103          3
   104          1
   105         10
   106          5
   107         73
   108         20
   109        179
   110         31
   111        143
   112         26
   113         10
   114          1
   115          2
   116          1
   117          2
   118          1
   119          3
   120          2
   121         11
   122          8
   123         13
   124        346
   125        125
   126        818
   127         70
   128          5
   133          4
   134          1
   135         50
   136          5
   137          5
   138          1
   139         12
   140          3
   148          1
   149          1
   150         40
   151          5
   152          2
   153        127
   154         14
   155          1
   166          1
   167          1
   168         69
   169          8
   170          0