##TITLE=Library Entry 65118
##JCAMP-DX=Revision 4.10 
##DATA TYPE=MASS SPECTRUM
##SAMPLE DESCRIPTION=V.A.KOPTYUG, ATLAS OF MASS SPECTRA OF ORGANIC COMPOUNDS
##NAMES=HP
##CAS NAME=1-Benzylcyclopentanol-1
##MOLFORM=C12H16O
##CAS REGISTRY NO=2015-57-8
##MP= -300
##BP= -300
##MW= 176
##$RETENTION INDEX=0
##$CONDENSED SPECTRUM=NO
##NPOINTS= 29
##XYDATA=(XY..XY) 1 
    55         60
    56         10
    57         80
    63         20
    64         10
    65         70
    67        210
    68         10
    77         20
    78         10
    79         10
    84         20
    85        559
    86         30
    89         10
    90         10
    91        280
    92        999
    93         70
   105         30
   115         20
   116         10
   117         10
   129         30
   130         10
   133         10
   134         10
   147         20
   176         10