##TITLE=Library Entry 31370
##JCAMP-DX=Revision 4.10 
##DATA TYPE=MASS SPECTRUM
##SAMPLE DESCRIPTION=NIST Mass Spectrometry Data Center
##NAMES=HP
##CAS NAME=2,4-Dithiapentane 2,2-dioxide
##MOLFORM=C3H8O2S2
##CAS REGISTRY NO=20163-71-7
##MP= -300
##BP= -300
##MW= 140
##$RETENTION INDEX=1204
##$CONDENSED SPECTRUM=NO
##NPOINTS= 23
##XYDATA=(XY..XY) 1 
    27         25
    33          2
    34          2
    35         60
    37          2
    44          6
    45        108
    46         66
    47         24
    48         17
    49          4
    58         11
    59         30
    60         19
    61        999
    62         31
    63         77
    64         11
    65          7
    79         15
   140        160
   141          7
   142         13