##TITLE=Library Entry 107665
##JCAMP-DX=Revision 4.10 
##DATA TYPE=MASS SPECTRUM
##SAMPLE DESCRIPTION=Div. of Experiment Therapeutics WRAIR, WRAMC, Washingto
n DC 20307
##NAMES=HP
##CAS NAME=4-Bromo 5-[4-[4-fluorophenyl]piperazin-1-yl]veratrole
##MOLFORM=C18H20BrFN2O2
##CAS REGISTRY NO=20169-07-7
##MP= -300
##BP= -300
##MW= 394
##$RETENTION INDEX=0
##$CONDENSED SPECTRUM=NO
##NPOINTS= 175
##XYDATA=(XY..XY) 1 
    41         24
    42         86
    43          8
    50         26
    51         43
    52         21
    53         23
    54         33
    55         24
    56         74
    57         12
    62          9
    63         27
    64         19
    65         36
    66         17
    67          8
    68         10
    69          8
    70          3
    75         58
    76         22
    77         57
    78         36
    79         53
    80         11
    81          7
    82          7
    83         18
    89         12
    90         26
    91         40
    92         28
    93         35
    94         30
    95        225
    96         29
    97          7
   102          9
   103         26
   104         18
   105         16
   106         65
   107         31
   108         24
   109        129
   110         13
   116          6
   117         13
   118         17
   119         22
   120         46
   121         81
   122        500
   123        999
   124         97
   125          7
   128          5
   129          7
   130         13
   131         11
   132         18
   133         16
   134         23
   135         40
   136         34
   137         43
   138         49
   139          5
   143          9
   145          9
   146         19
   147         17
   148         32
   149         10
   150        429
   151        104
   152         11
   156         10
   157         86
   159         16
   160         39
   161         28
   162         23
   163         13
   164         79
   165         78
   166         11
   169          5
   170          6
   171          8
   172         11
   173          6
   174          9
   175         14
   176         29
   177         31
   178         40
   179         18
   182          6
   183          2
   184         27
   185         35
   186         15
   187         22
   188          6
   189          3
   190         12
   191         25
   192        110
   193         13
   194          7
   197         62
   198         64
   199         50
   200         85
   201         21
   202         71
   203          5
   204          6
   213          9
   214          6
   215         12
   216          2
   217          7
   226         21
   228        220
   229        143
   230        200
   231        129
   232         14
   241          3
   242         49
   243        357
   244        169
   245        356
   246        118
   247         11
   256          6
   257         36
   258         14
   259         28
   260         11
   270        172
   271         31
   272        161
   273         24
   283          2
   284         23
   285         13
   286          5
   287         29
   288          2
   299         19
   300          8
   314         20
   315        218
   316         42
   335          8
   338          2
   350         77
   351         17
   352         32
   353          6
   354          5
   379         76
   380         13
   381         71
   382         11
   393         26
   394        915
   395        211
   396        915
   397        209
   398         20