##TITLE=Library Entry 935
##JCAMP-DX=Revision 4.10 
##DATA TYPE=MASS SPECTRUM
##SAMPLE DESCRIPTION=Japan AIST/NIMC Database- Spectrum MS-NW-3942
##NAMES=HP
##CAS NAME=1-Decanamine
##MOLFORM=C10H23N
##CAS REGISTRY NO=2016-57-1
##MP= -300
##BP= -300
##MW= 157
##$RETENTION INDEX=1255
##$CONDENSED SPECTRUM=NO
##NPOINTS= 55
##XYDATA=(XY..XY) 1 
    15          2
    26          1
    27         25
    28         19
    29         37
    30        999
    31         18
    32          3
    39         16
    40          3
    41         65
    42         20
    43         44
    44         45
    45         64
    46          1
    51          1
    53          5
    54          7
    55         40
    56         24
    57         12
    58          5
    59         15
    67          3
    68          4
    69         22
    70         12
    71          3
    72         13
    73          5
    81          1
    82          6
    83         11
    84          7
    85          1
    86         36
    87          4
    96          4
    97          8
    98          4
   100         15
   101          2
   110          3
   111          3
   112          2
   114          6
   115          1
   124          1
   128          5
   140          2
   142          2
   156          5
   157          9
   158          1