##TITLE=Library Entry 934
##JCAMP-DX=Revision 4.10 
##DATA TYPE=MASS SPECTRUM
##SAMPLE DESCRIPTION=NIST Mass Spectrometry Data Center, 1994
##NAMES=HP
##CAS NAME=1-Tetradecanamine
##MOLFORM=C14H31N
##CAS REGISTRY NO=2016-42-4
##MP= -300
##BP= -300
##MW= 213
##$RETENTION INDEX=1639
##$CONDENSED SPECTRUM=NO
##NPOINTS= 79
##XYDATA=(XY..XY) 1 
     4          0
    15          2
    18         55
    27         41
    28         32
    29         98
    30        999
    31         21
    32          3
    39         25
    41        141
    42         34
    43        122
    44        140
    45         70
    46          2
    51          1
    52          1
    53          9
    54         10
    55         84
    56         44
    57         38
    58          7
    59         20
    60          1
    65          2
    66          1
    67         10
    68          7
    69         44
    70         16
    71         10
    72         19
    73          8
    77          1
    79          2
    80          0
    81          4
    82          7
    83         22
    84          8
    85          0
    86         49
    87          7
    95          1
    96          3
    97         17
    98          5
   100         29
   101          3
   110          2
   111          8
   112          4
   114         14
   115          1
   124          1
   125          4
   126          3
   128         11
   129          1
   138          0
   139          1
   140          1
   142         14
   143          2
   156         12
   157          2
   168          2
   170          9
   171          1
   184          9
   185          1
   196          1
   198          8
   212         11
   213         18
   214          2
   215          0