##TITLE=Library Entry 46552
##JCAMP-DX=Revision 4.10 
##DATA TYPE=MASS SPECTRUM
##SAMPLE DESCRIPTION=E. DE HOFFMANN, LAB. MASS SPECTROM., UNIV. LOUVAIN, BEL
G
##NAMES=HP
##CAS NAME=1-Chloro-2-methyl-1-(N-methyl-N-phenylamino)-1,3-butadiene
##MOLFORM=C12H14ClN
##CAS REGISTRY NO=201679-81-4
##MP= -300
##BP= -300
##MW= 207
##$RETENTION INDEX=0
##$CONDENSED SPECTRUM=NO
##NPOINTS= 89
##XYDATA=(XY..XY) 1 
    35         38
    36         66
    37         28
    38         81
    39        528
    40         82
    41        231
    42        402
    43         81
    44         30
    47         61
    49         82
    50        179
    51        791
    52        128
    53        513
    54        130
    55        355
    56         59
    57         22
    58         13
    61         14
    62         23
    63         86
    64         55
    65        157
    66         53
    67         48
    68         32
    69         50
    70         15
    71         32
    72         84
    73         31
    74         31
    75         63
    76        246
    77        999
    78        205
    79         65
    80         26
    81         12
    82         40
    83        138
    84        209
    85         98
    86        195
    87         26
    88         23
    89         95
    90         35
    91        296
    92         15
    93         14
    94         38
    95         63
   101         16
   102         26
   103         73
   104        271
   105         71
   106         58
   107         49
   114         11
   115        106
   116        101
   117        361
   118         81
   119         14
   127         31
   128         80
   129         85
   130        202
   131        415
   132        169
   140         12
   141         19
   142         23
   143         21
   144         51
   145         33
   156         21
   157         72
   171         14
   172         55
   192         27
   207         43
   208         15
   209         15