##TITLE=Library Entry 60274
##JCAMP-DX=Revision 4.10 
##DATA TYPE=MASS SPECTRUM
##SAMPLE DESCRIPTION=Leung Pu, NIH, Bethesda, Maryland, U.S.
##NAMES=HP
##CAS NAME=N,N-Dimethylformamide dibenzylacetal
##MOLFORM=C17H21NO2
##CAS REGISTRY NO=2016-04-8
##MP= -300
##BP= -300
##MW= 271
##$RETENTION INDEX=0
##$CONDENSED SPECTRUM=NO
##NPOINTS= 125
##XYDATA=(XY..XY) 1 
    42        123
    43         27
    44        144
    45         14
    46          7
    48          0
    49          9
    50         71
    51        154
    52         40
    53         33
    54          3
    55          8
    56         10
    57         11
    58         98
    59          3
    60          1
    61          8
    62         22
    63         59
    64         15
    65        140
    66          9
    67          1
    68          2
    69          3
    70          3
    72         46
    73         56
    74         23
    75          9
    77        240
    78         46
    79        250
    80         22
    81          3
    82          1
    83          2
    84          4
    85          4
    86          5
    87          2
    89         64
    90         75
    91        999
    92        135
    93          7
    95          0
    97          2
    98          1
    99          1
   101         31
   102          3
   103          1
   105         37
   107        158
   108        166
   109         11
   110          0
   111          1
   114          1
   115          1
   116          2
   117          1
   118          2
   119          3
   120          2
   121          7
   122          3
   125          1
   126          8
   127          0
   128          3
   129          6
   130          1
   131          3
   132          7
   133          4
   134         44
   135         29
   136         39
   137          4
   139          1
   141          0
   144          2
   146          1
   148          1
   149          1
   150          1
   151          7
   152          2
   153          1
   155          1
   158          0
   162          1
   164         99
   165         12
   166          1
   167          4
   168          1
   170         10
   171          1
   172          0
   174          5
   175          1
   178          2
   179          2
   180         20
   181        106
   182         15
   183          1
   194          1
   195          1
   196          2
   197          7
   198          2
   212          3
   213          2
   218          3
   226          6
   227         30
   228          4
   271          8
   272          1