##TITLE=Library Entry 83523
##JCAMP-DX=Revision 4.10 
##DATA TYPE=MASS SPECTRUM
##SAMPLE DESCRIPTION=A.A.Kutin, Moscow, Russia
##NAMES=HP
##CAS NAME=Pyridazine-3,5-dicarbonitrile, 1,6-dihydro-1-(4-methoxyphenyl)-4-
methyl-6-oxo-
##MOLFORM=C14H10N4O2
##CAS REGISTRY NO=201735-33-3
##MP= -300
##BP= -300
##MW= 266
##$RETENTION INDEX=0
##$CONDENSED SPECTRUM=NO
##NPOINTS= 71
##XYDATA=(XY..XY) 1 
    34          0
    37         15
    38         30
    39         77
    40         43
    41          4
    42          3
    43        133
    44         21
    45          9
    50         94
    51         70
    52        172
    53          6
    54          4
    55         17
    56          1
    57          2
    59          1
    63        223
    64        288
    65         23
    66         12
    68          0
    69          6
    71         10
    75          7
    76        206
    77        787
    78        174
    79         20
    80        101
    81         10
    87          0
    88          1
    89         14
    90          9
    91          2
    92        422
    93          3
    99          1
   100          2
   105          0
   106          5
   107        999
   108         30
   109          7
   111         11
   119          9
   121        453
   122         35
   123          5
   124          1
   126          5
   133          1
   135         24
   142          1
   149          2
   171          0
   178          0
   182          0
   185          4
   187         12
   220          0
   222          1
   226          0
   251          4
   255          1
   257          0
   266        297
   267         37