##TITLE=Library Entry 48210
##JCAMP-DX=Revision 4.10 
##DATA TYPE=MASS SPECTRUM
##SAMPLE DESCRIPTION=Div. of Experiment Therapeutics WRAIR, WRAMC, Washingto
n DC 20307
##NAMES=HP
##CAS NAME=3-[3-Pyridyl]-2-oxazolidinone
##MOLFORM=C8H8N2O2
##CAS REGISTRY NO=201792-72-5
##MP= -300
##BP= -300
##MW= 164
##$RETENTION INDEX=0
##$CONDENSED SPECTRUM=NO
##NPOINTS= 48
##XYDATA=(XY..XY) 1 
    42        111
    43         11
    45         25
    47         11
    49         25
    50        127
    51        484
    52        144
    53         37
    54          7
    56          8
    57          1
    60         10
    62         24
    63         11
    64        132
    65        126
    66         41
    67         13
    68          1
    70          0
    74          0
    75          9
    76         27
    78        999
    79         47
    80          4
    83          0
    84          7
    86          3
    88          1
    89          1
    90          3
    92         96
    93          9
    94          0
   100          0
   105        547
   106         37
   107          1
   116          1
   117          0
   119        142
   121          1
   163         11
   164        313
   165         28
   166          2