##TITLE=Library Entry 31110
##JCAMP-DX=Revision 4.10 
##DATA TYPE=MASS SPECTRUM
##SAMPLE DESCRIPTION=Div. of Experiment Therapeutics WRAIR, WRAMC, Washingto
n DC 20307
##NAMES=HP
##CAS NAME=3-[4-Bromo-.alpha.,.alpha.,.alpha.-trifluoro-m-tolyl]-5-methylrho
danine
##MOLFORM=C11H7BrF3NOS2
##CAS REGISTRY NO=20174-58-7
##MP= -300
##BP= -300
##MW= 369
##$RETENTION INDEX=0
##$CONDENSED SPECTRUM=NO
##NPOINTS= 133
##XYDATA=(XY..XY) 1 
    43         85
    45        185
    47         33
    49         13
    50         37
    51          5
    53          6
    55        127
    56         80
    57         40
    58         60
    59        295
    60        999
    61         60
    62         81
    63         64
    64        440
    66         38
    69        156
    70         41
    71         22
    74         80
    75        148
    76         92
    77         27
    81         44
    82         34
    83         29
    84         11
    86         10
    87         29
    88        295
    89         26
    91          7
    92         25
    93         45
    94         64
    95          7
    99         58
   100         43
   101         23
   103         25
   105          6
   106         44
   107         15
   108         75
   112          6
   113         17
   114        391
   115          8
   116         28
   117         14
   118         23
   119         24
   120         55
   123         16
   124         23
   125        135
   126         21
   131         79
   132         68
   133         97
   135          9
   138         70
   139         54
   143        169
   144        572
   145         59
   150         30
   151         48
   152         14
   157         47
   158        127
   159          6
   160          6
   168          6
   170        207
   171         33
   175         15
   176         26
   182         79
   183          7
   186         14
   202        247
   203         64
   204         25
   223        134
   225        140
   228         43
   230        148
   231         32
   232         31
   233         26
   234         26
   235         29
   237         18
   239         28
   247          7
   249         65
   250        233
   251        234
   252        231
   253        183
   255         20
   257          9
   262         52
   264         71
   265        100
   266         40
   267         92
   272         25
   274         27
   281        699
   282        138
   283        704
   284        121
   285         61
   309         64
   311         68
   313         36
   315         22
   340         25
   342         35
   350         33
   352         41
   353         23
   355         30
   368         16
   369        773
   370        195
   371        777
   372        110
   373         69