##TITLE=Library Entry 1550
##JCAMP-DX=Revision 4.10 
##DATA TYPE=MASS SPECTRUM
##SAMPLE DESCRIPTION=Exported from NIST MS Search
##NAMES=HP
##CAS NAME=1-Propyne, 1,3,3,3-tetrafluoro-
##MOLFORM=C3F4
##CAS REGISTRY NO=20174-11-2
##MP= -300
##BP= -300
##MW= 112
##$RETENTION INDEX=0
##$CONDENSED SPECTRUM=NO
##NPOINTS= 16
##XYDATA=(XY..XY) 1 
    12         80
    19         27
    24         97
    31        999
    36        110
    43        130
    50         50
    55         80
    56          4
    69        200
    74        150
    75          3
    93        360
    94          9
   112         82
   113          2