##TITLE=Library Entry 48116
##JCAMP-DX=Revision 4.10 
##DATA TYPE=MASS SPECTRUM
##SAMPLE DESCRIPTION=Exported from NIST MS Search
##NAMES=HP
##CAS NAME=Tricyclo[4.2.2.0(2,5)]dec-9-ene-7,8-dicarboxylic anhydride, 3-cya
no-
##MOLFORM=C13H11NO3
##CAS REGISTRY NO=20185-26-6
##MP= -300
##BP= -300
##MW= 229
##$RETENTION INDEX=0
##$CONDENSED SPECTRUM=NO
##NPOINTS= 80
##XYDATA=(XY..XY) 1 
    40         25
    41         30
    42         55
    43         12
    44         70
    45          5
    49         20
    50        145
    51        275
    52        300
    53         75
    54         20
    55          7
    56         12
    57         27
    58         25
    61         12
    62         22
    63         25
    64         30
    65         55
    66         20
    67         12
    68         12
    69         12
    73         12
    74         50
    75         45
    76         70
    77        187
    78        999
    79        137
    80         25
    81         20
    89         25
    90         12
    91        100
    92         12
    93         12
    94         20
    95         20
    98         12
   101          7
   102         50
   103        125
   104        200
   105         25
   106         20
   107         12
   108         25
   110         12
   111         25
   112         30
   113         12
   114         12
   115         62
   116         55
   117         45
   118         20
   121         20
   127         12
   128         37
   129         67
   130        195
   131        100
   132         25
   140         20
   141         20
   142         30
   143         12
   153         25
   154         27
   155         25
   156         75
   157         95
   158         25
   202         30
   203         12
   229         25
   230          7