##TITLE=Library Entry 79734
##JCAMP-DX=Revision 4.10 
##DATA TYPE=MASS SPECTRUM
##SAMPLE DESCRIPTION=Exported from NIST MS Search
##NAMES=HP
##CAS NAME=Carbamic acid, benzoylmethyldithio-, methyl ester
##MOLFORM=C10H11NOS2
##CAS REGISTRY NO=20184-96-7
##MP= -300
##BP= -300
##MW= 225
##$RETENTION INDEX=0
##$CONDENSED SPECTRUM=NO
##NPOINTS= 25
##XYDATA=(XY..XY) 1 
    41         22
    45         28
    47         37
    50         62
    51        200
    72         28
    73         28
    74         85
    75         22
    76         28
    77        599
    78         42
    79         28
    88        114
    91         40
   105        999
   106         60
   119          8
   120         51
   121         71
   178         14
   197         34
   225        514
   226         85
   227         42