##TITLE=Library Entry 17442
##JCAMP-DX=Revision 4.10 
##DATA TYPE=MASS SPECTRUM
##SAMPLE DESCRIPTION=James Little,Eastman Chem.Co.,Kingsport,TN
##NAMES=HP
##CAS NAME=Hydrazinecarbodithioic acid, 1-methyl-, methyl ester
##MOLFORM=C3H8N2S2
##CAS REGISTRY NO=20184-94-5
##MP= -300
##BP= -300
##MW= 136
##$RETENTION INDEX=0
##$CONDENSED SPECTRUM=NO
##NPOINTS= 33
##XYDATA=(XY..XY) 1 
    28         18
    29         17
    30         99
    33         19
    42        123
    43         14
    44        114
    45        999
    46        164
    57        162
    58         49
    59        114
    60        116
    61         69
    64         58
    72        195
    73        308
    74        140
    76        140
    77        110
    79         79
    88         79
    89        179
    91        797
    92         70
    93        157
    94         26
   119        131
   120         12
   121         17
   136        520
   137         36
   138         47