##TITLE=Library Entry 61263
##JCAMP-DX=Revision 4.10 
##DATA TYPE=MASS SPECTRUM
##SAMPLE DESCRIPTION=NIST Mass Spectrometry Data Center
##NAMES=HP
##CAS NAME=L-Leucine, N-[(phenylmethoxy)carbonyl]-
##MOLFORM=C14H19NO4
##CAS REGISTRY NO=2018-66-8
##MP= -300
##BP= -300
##MW= 265
##$RETENTION INDEX=0
##$CONDENSED SPECTRUM=NO
##NPOINTS= 118
##XYDATA=(XY..XY) 1 
    15         15
    16          1
    18          1
    26         14
    27        122
    28         79
    29        135
    30         18
    31         15
    36          2
    37         12
    38         28
    39        175
    40         27
    41        273
    42         74
    43        550
    44         51
    45         17
    46          3
    49          7
    50         73
    51        141
    52         42
    53         51
    54         14
    55         42
    56         20
    57        215
    58         10
    59          5
    60          2
    61          8
    62         20
    63         47
    64         13
    65        109
    66          9
    67          9
    68         13
    69         28
    70         92
    71         11
    72          5
    73         35
    74         49
    75         12
    76         10
    77        274
    78         57
    79        415
    80         42
    81          8
    82          5
    83         26
    84         13
    85         42
    86         21
    87         19
    88         12
    89         59
    90         52
    91        999
    92         87
    93          4
    95          3
    96          6
    97          2
    98          2
    99         12
   100          2
   101        212
   102          9
   103          3
   104          3
   105         25
   106          7
   107        319
   108        644
   109         50
   110          5
   111          1
   112         49
   113         14
   114         13
   115          2
   116          1
   117          1
   118          2
   119          2
   120          6
   121          2
   128          3
   129          1
   130         36
   131          3
   132          4
   133          1
   135          1
   138          1
   139          1
   148          6
   149          1
   151          1
   156          1
   158          1
   160          1
   162          1
   164          1
   165          1
   174          4
   175          1
   176         88
   177         12
   209          1
   220         11
   221          1
   265          4