##TITLE=Library Entry 33030
##JCAMP-DX=Revision 4.10 
##DATA TYPE=MASS SPECTRUM
##SAMPLE DESCRIPTION=Japan AIST/NIMC Database- Spectrum MS-NW-4604
##NAMES=HP
##CAS NAME=3-Nonyne
##MOLFORM=C9H16
##CAS REGISTRY NO=20184-89-8
##MP= -300
##BP= -300
##MW= 124
##$RETENTION INDEX=915
##$CONDENSED SPECTRUM=NO
##NPOINTS= 72
##XYDATA=(XY..XY) 1 
    14          1
    15          8
    26         11
    27        148
    28          9
    29        226
    30          5
    37          4
    38         14
    39        200
    40         68
    41        535
    42         85
    43         62
    44          4
    45          2
    49          2
    50         20
    51         52
    52         38
    53        219
    54         71
    55        288
    56         49
    57         66
    58          3
    60          1
    61          2
    62          8
    63         20
    64          5
    65         72
    66         51
    67        999
    68        376
    69        118
    70         19
    71          9
    72          1
    73          1
    74          3
    75          2
    76          1
    77         50
    78         10
    79        101
    80         28
    81        374
    82        199
    83         29
    84          3
    85          1
    86          1
    91         19
    92          2
    93         34
    94         15
    95        740
    96         86
    97          5
    99          1
   103          1
   105          2
   107          5
   108          1
   109        100
   110          9
   111          1
   122          1
   123         16
   124         20
   125          2