##TITLE=Library Entry 58010
##JCAMP-DX=Revision 4.10 
##DATA TYPE=MASS SPECTRUM
##SAMPLE DESCRIPTION=Institute of Organic Chemistry, Novosibirsk, USSR 1988
##NAMES=HP
##CAS NAME=Methyl 2,3,4-tri-O-methyl-.beta.-D-xylopyranoside
##MOLFORM=C9H18O5
##CAS REGISTRY NO=20188-52-7
##MP= -300
##BP= -300
##MW= 206
##$RETENTION INDEX=0
##$CONDENSED SPECTRUM=NO
##NPOINTS= 42
##XYDATA=(XY..XY) 1 
    53         18
    55         46
    56         12
    57         18
    58         96
    59         40
    60          2
    61          5
    68         12
    69         27
    71         68
    72          8
    73        379
    74         30
    75        369
    76         12
    83         24
    84          8
    85         27
    86          2
    87         15
    88        999
    89         55
    90          5
    98          5
    99         18
   100          5
   101        619
   102         30
   103          5
   105          2
   111         27
   114         12
   115         43
   116          8
   119          2
   129          2
   131          8
   143          5
   145          2
   175          5
   176         40