##TITLE=Library Entry 62379
##JCAMP-DX=Revision 4.10 
##DATA TYPE=MASS SPECTRUM
##SAMPLE DESCRIPTION=Chemical Concepts
##NAMES=HP
##CAS NAME=L-Phenylalanine, N-acetyl-
##MOLFORM=C11H13NO3
##CAS REGISTRY NO=2018-61-3
##MP= -300
##BP= -300
##MW= 207
##$RETENTION INDEX=0
##$CONDENSED SPECTRUM=NO
##NPOINTS= 108
##XYDATA=(XY..XY) 1 
    26          6
    27         39
    28         63
    29         55
    30         19
    31         19
    38          7
    39         67
    40         10
    41         60
    42         50
    43        692
    44         35
    45         49
    46         14
    50         18
    51         53
    52         14
    53          9
    54          3
    55         24
    56         26
    57         43
    59          9
    60         37
    61         26
    62          8
    63         38
    64         10
    65        116
    66          9
    67          8
    68          7
    69         17
    70         20
    71         14
    72          7
    73         18
    74        313
    75         15
    76          9
    77         67
    78         24
    79         16
    80          3
    81          9
    82          3
    83         11
    84          6
    85          8
    86          6
    87          8
    88         26
    89         33
    90         22
    91        999
    92        113
    93         22
    94          5
    95          8
    96          3
    97          8
    98          8
    99          3
   100          2
   101          3
   102         19
   103         72
   104         68
   105         14
   106          5
   107          8
   108          2
   109          4
   110          4
   111          5
   115          3
   116         11
   117         14
   118         36
   119         41
   120        219
   121         23
   122          2
   123          3
   125          3
   128          3
   129          4
   130         17
   131         31
   132          4
   139          2
   144          3
   146         24
   147        276
   148        908
   149        105
   150          9
   161          6
   162         13
   163         21
   164          5
   186          2
   189         70
   190          8
   192          2
   207         38
   208          5