##TITLE=Library Entry 48306
##JCAMP-DX=Revision 4.10 
##DATA TYPE=MASS SPECTRUM
##SAMPLE DESCRIPTION=Exported from NIST MS Search
##NAMES=HP
##CAS NAME=Bicyclo[4.2.0]octa-2,4-diene-7-carbonitrile
##MOLFORM=C9H9N
##CAS REGISTRY NO=20185-23-3
##MP= -300
##BP= -300
##MW= 131
##$RETENTION INDEX=0
##$CONDENSED SPECTRUM=NO
##NPOINTS= 60
##XYDATA=(XY..XY) 1 
    40         24
    41        127
    42         12
    43         24
    44         85
    45         12
    49         19
    50        225
    51        465
    52        490
    53        330
    54         44
    55         24
    56          7
    57         24
    61         24
    62         49
    63        134
    64         61
    65        171
    66         36
    67         12
    69          7
    70         12
    71         19
    73         12
    74         68
    75         61
    76        147
    77        392
    78        999
    79        208
    80         12
    81          7
    83         12
    85          4
    87         12
    88         12
    89         68
    90         24
    91        250
    92         36
    97          7
    99         19
   100         19
   101         24
   102         85
   103        446
   104        281
   105         44
   114          7
   115          7
   116        171
   117         12
   127          4
   128         68
   129        142
   130        784
   131        465
   132         36