##TITLE=Library Entry 59910
##JCAMP-DX=Revision 4.10 
##DATA TYPE=MASS SPECTRUM
##SAMPLE DESCRIPTION=Exported from NIST MS Search
##NAMES=HP
##CAS NAME=Acetic acid, phenylthio-, 2-phenylhydrazide
##MOLFORM=C14H14N2S
##CAS REGISTRY NO=20185-00-6
##MP= -300
##BP= -300
##MW= 242
##$RETENTION INDEX=0
##$CONDENSED SPECTRUM=NO
##NPOINTS= 45
##XYDATA=(XY..XY) 1 
    41         52
    45         74
    50         55
    51        190
    52         26
    60         26
    62         26
    63        111
    64         95
    65        621
    66         60
    75         21
    76         26
    77        291
    78         66
    79         26
    80         31
    81         21
    89         74
    90         52
    91        999
    92        365
    93        256
    94         26
   107         76
   108        174
   109         26
   110         15
   116         45
   117         45
   121         26
   123         71
   124         21
   125        105
   126         18
   133         79
   134         55
   135        108
   150         23
   151         23
   207         45
   208         66
   242        420
   243         63
   244         23