##TITLE=Library Entry 212
##JCAMP-DX=Revision 4.10 
##DATA TYPE=MASS SPECTRUM
##SAMPLE DESCRIPTION=A.Pleshkova, Nesmeyanov Inst.Org.Elem.Cpds, Moscow
##NAMES=HP
##CAS NAME=N-Chloro-2-methylaziridine, 1,2-cis
##MOLFORM=C3H6ClN
##CAS REGISTRY NO=20180-69-2
##MP= -300
##BP= -300
##MW= 91
##$RETENTION INDEX=0
##$CONDENSED SPECTRUM=NO
##NPOINTS= 26
##XYDATA=(XY..XY) 1 
    26         95
    27        199
    28        999
    29        419
    30        235
    31         34
    39         59
    40         54
    41        262
    42         57
    43         11
    54         68
    55         32
    56        486
    57         51
    58          9
    62         84
    63         24
    64         29
    65         11
    76          7
    78          2
    90          8
    91         26
    92          3
    93          8