##TITLE=Library Entry 83635
##JCAMP-DX=Revision 4.10 
##DATA TYPE=MASS SPECTRUM
##SAMPLE DESCRIPTION=Chemical Concepts
##NAMES=HP
##CAS NAME=3,3-Dimethyl-6-methylenecyclohexene
##MOLFORM=C9H14
##CAS REGISTRY NO=20185-16-4
##MP= -300
##BP= -300
##MW= 122
##$RETENTION INDEX=997
##$CONDENSED SPECTRUM=NO
##NPOINTS= 66
##XYDATA=(XY..XY) 1 
    37          3
    38         13
    39        173
    40         25
    41        116
    42          6
    43         10
    45          1
    46          0
    49          1
    50         29
    51         77
    52         35
    53         66
    54          8
    55         22
    56          2
    57          1
    58          2
    59          2
    60          0
    61          1
    62          8
    63         27
    64          6
    65         86
    66         18
    67         47
    68          5
    69          2
    73          1
    74          4
    75          6
    76          4
    77        174
    78         60
    79        506
    80         55
    81         11
    82          3
    86          1
    87          1
    89          7
    90          3
    91        455
    92         77
    93        136
    94         70
    95          8
    96          0
   101          0
   102          2
   103         21
   104          6
   105        132
   106         19
   107        999
   108         90
   109          4
   115          2
   117          1
   119          2
   121         18
   122        330
   123         32
   124          1