##TITLE=Library Entry 109648
##JCAMP-DX=Revision 4.10 
##DATA TYPE=MASS SPECTRUM
##SAMPLE DESCRIPTION=NIST Mass Spectrometry Data Center, 1994
##NAMES=HP
##CAS NAME=3-(4-Chlorophenyl)propionic acid
##MOLFORM=C9H9ClO2
##CAS REGISTRY NO=2019-34-3
##MP= -300
##BP= -300
##MW= 184
##$RETENTION INDEX=0
##$CONDENSED SPECTRUM=NO
##NPOINTS= 93
##XYDATA=(XY..XY) 1 
     4          3
    14          7
    15          5
    17          2
    18          3
    26         11
    27         65
    28         25
    29         13
    31          9
    32          1
    36          4
    37         11
    38         22
    39         66
    40          5
    41          5
    42         14
    43         15
    44          1
    45         95
    46          4
    47          3
    49         14
    50        105
    51        170
    52         25
    53         11
    54          2
    55         13
    60          5
    61         15
    62         39
    63         98
    64         13
    65         19
    68          3
    69          7
    70          3
    72          4
    73         36
    74         57
    75        117
    76         40
    77        220
    78         41
    79         37
    80          3
    84          6
    85         14
    86         11
    87         12
    88          3
    89        143
    90         40
    91         12
    97          7
    98          8
    99         46
   100          7
   101         52
   102         58
   103        184
   104         33
   105         14
   106          7
   107        144
   108         11
   111         16
   112         53
   113         15
   114         18
   115          3
   121          3
   123          4
   125        999
   126         85
   127        332
   128         23
   131          7
   136          4
   138        276
   139         52
   140         88
   141         20
   149         20
   150          3
   165          2
   167          4
   184        259
   185         31
   186         77
   187          7