##TITLE=Library Entry 40125
##JCAMP-DX=Revision 4.10 
##DATA TYPE=MASS SPECTRUM
##SAMPLE DESCRIPTION=Japan AIST/NIMC Database- Spectrum MS-IW-6958
##NAMES=HP
##CAS NAME=2-Hydroxy-N,N-dimethyl-2-phenylacetamide
##MOLFORM=C10H13NO2
##CAS REGISTRY NO=2019-71-8
##MP= -300
##BP= -300
##MW= 179
##$RETENTION INDEX=0
##$CONDENSED SPECTRUM=NO
##NPOINTS= 85
##XYDATA=(XY..XY) 1 
    15         25
    17          7
    18         44
    26          1
    27         15
    28         19
    29         14
    30          7
    31          3
    37          1
    38          4
    39         22
    40          4
    41          4
    42         43
    43         13
    44        123
    45        341
    46         99
    47          2
    50         20
    51         73
    52         16
    53         13
    54          1
    55          2
    56         14
    57          1
    58         60
    59          2
    61          2
    62          7
    63         18
    64          5
    65          7
    66          1
    72        999
    73        434
    74        374
    75         17
    76          7
    77        249
    78         38
    79        539
    80         34
    81          2
    86          1
    87          1
    88          1
    89         24
    90         27
    91         16
    92          2
   102          9
   103          2
   104          2
   105         68
   106         16
   107        972
   108         79
   109          4
   118         20
   119          3
   120          5
   121          1
   132          1
   133          2
   134          6
   135          1
   145          3
   146          1
   149          1
   150          1
   151        268
   152         25
   153          1
   160          1
   161          2
   162          2
   163         12
   164          1
   177          1
   179         13
   180          9
   181          1