##TITLE=Library Entry 7313
##JCAMP-DX=Revision 4.10 
##DATA TYPE=MASS SPECTRUM
##SAMPLE DESCRIPTION=NIST Mass Spectrometry Data Center
##NAMES=HP
##CAS NAME=(3S,8S,9S,10R,13R,14S,17R)-17-((2R,5R)-5-Ethyl-6-methylheptan-2-y
l)-3-methoxy-10,13-dimethyl-2,3,4,7,8,9,10,11,12,13,14,15,16,17-tetradecahyd
ro-1H-cyclopenta[a]phenanthrene
##MOLFORM=C30H52O
##CAS REGISTRY NO=20194-50-7
##MP= -300
##BP= -300
##MW= 428
##$RETENTION INDEX=3277
##$CONDENSED SPECTRUM=NO
##NPOINTS= 144
##XYDATA=(XY..XY) 1 
    29        122
    41        563
    42         68
    43        999
    45         65
    53         66
    55        754
    56         86
    57        608
    67        379
    69        479
    71        721
    72         50
    77        120
    79        411
    80         68
    81        530
    82         77
    83        205
    85        304
    91        452
    92         84
    93        355
    94        103
    95        413
    97        186
    99         52
   103         43
   105        476
   106        136
   107        556
   108        118
   109        233
   110         44
   111        152
   115         66
   116         38
   117        174
   118         93
   119        519
   120        340
   121        391
   122         80
   123        175
   125         69
   128         56
   129        112
   130         65
   131        284
   132         87
   133        357
   134        106
   135        206
   136         50
   137         80
   138         60
   139         85
   141         34
   143        138
   144         70
   145        479
   146        125
   147        264
   148         66
   149        100
   151         38
   157         90
   158         89
   159        276
   160        161
   161        239
   162         48
   163        166
   171         78
   172         29
   173        154
   174         45
   175         60
   177         59
   184          9
   185         62
   186         37
   187         67
   188         22
   189         32
   192         43
   199         72
   200         31
   201         59
   202         13
   205         32
   213        240
   214         77
   215         77
   216         15
   217         29
   226          8
   227         48
   228         67
   229         51
   233         19
   241         37
   242         14
   245         40
   246         20
   247         27
   255        246
   256         57
   272         11
   273         17
   274         30
   275        124
   276         29
   286          8
   287         51
   288         29
   289         18
   290          6
   300         16
   301         17
   302         71
   303        179
   304         41
   329        146
   330         49
   354        148
   355         57
   357        122
   358         30
   367         16
   368         23
   381        268
   382         72
   383         20
   386         14
   396        569
   397        186
   398         41
   400         13
   412         16
   413        109
   414         37
   428        263
   429         72