##TITLE=Library Entry 64936
##JCAMP-DX=Revision 4.10 
##DATA TYPE=MASS SPECTRUM
##SAMPLE DESCRIPTION=A.I. Gren, Phys.-Chem. Inst., Acad. Sci. Ukraine, Odess
a, Ukraine
##NAMES=HP
##CAS NAME=1,7,13-Trioxa-4,10,16-triazacyclooctadecane, 4,10,16-tris[(4-meth
ylphenyl)sulfonyl]-
##MOLFORM=C33H45N3O9S3
##CAS REGISTRY NO=201996-38-5
##MP= -300
##BP= -300
##MW= 723
##$RETENTION INDEX=0
##$CONDENSED SPECTRUM=NO
##NPOINTS= 122
##XYDATA=(XY..XY) 1 
    50         28
    51         65
    54         21
    55         34
    56        571
    57        119
    58        115
    59         15
    62         15
    63         45
    64         71
    65        180
    69         61
    70        203
    71         64
    72         79
    74         39
    77         93
    78         24
    79         29
    80         16
    82         26
    83         23
    84         42
    85         34
    86        360
    87         65
    88         84
    89         45
    90         38
    91        999
    92        221
    93         22
    97         18
    98         98
    99         39
   100        274
   101         31
   102         24
   103         20
   104         34
   105         36
   106         21
   107         47
   108         33
   111         34
   112         81
   113         27
   114         54
   126         15
   127         28
   128         22
   129         35
   130         40
   131         19
   132         20
   139        137
   140         29
   141         41
   142         31
   143         45
   155        251
   156        142
   157         43
   158         20
   171         33
   173         33
   184         23
   185         19
   187         53
   198         81
   211         37
   212        290
   213         43
   223         28
   224         21
   226         24
   228         38
   240         30
   241         18
   242         56
   271         38
   283         85
   284         20
   285         16
   297         74
   298         20
   299         20
   313         37
   314         18
   315         27
   327         51
   328         21
   329         34
   341         38
   370         25
   371         28
   384         34
   386         25
   392         22
   412         61
   413         37
   414        224
   415         54
   416         20
   425         49
   426         16
   439         82
   440         21
   451         22
   452          5
   469         21
   470          5
   495         19
   496          5
   538         42
   539         37
   540         25
   568        680
   569        217
   570        103
   571         25