##TITLE=Library Entry 13426
##JCAMP-DX=Revision 4.10 
##DATA TYPE=MASS SPECTRUM
##SAMPLE DESCRIPTION=Y. SAINT-JALM, DEP. BIOL. CHIM., SEITA, PARIS, FR.
##NAMES=HP
##CAS NAME=1,3,7,7-Tetramethyl-9-oxo-2-oxabicyclo[4.4.0]dec-5-ene
##MOLFORM=C13H20O2
##CAS REGISTRY NO=20194-67-6
##MP= -300
##BP= -300
##MW= 208
##$RETENTION INDEX=0
##$CONDENSED SPECTRUM=NO
##NPOINTS= 24
##XYDATA=(XY..XY) 1 
    39        340
    41        620
    43        999
    53        190
    55        290
    57        180
    65        180
    67        180
    77        250
    79        290
    80        160
    81        200
    91        270
    93        160
    95        180
   105        160
   107        370
   109        840
   123        160
   124        380
   151        190
   193        910
   194        250
   208        160