##TITLE=Library Entry 17005
##JCAMP-DX=Revision 4.10 
##DATA TYPE=MASS SPECTRUM
##SAMPLE DESCRIPTION=I.Roling ET AL.J.Agr.Food Chem.,46,668(1998)
##NAMES=HP
##CAS NAME=6-Propyltetrahydro-2H-thiopyran-2-one
##MOLFORM=C8H14OS
##CAS REGISTRY NO=201991-53-9
##MP= -300
##BP= -300
##MW= 158
##$RETENTION INDEX=1344
##$CONDENSED SPECTRUM=NO
##NPOINTS= 71
##XYDATA=(XY..XY) 1 
    41        342
    42        267
    43        214
    44        210
    45        999
    46         34
    47         79
    50         19
    51         30
    52         11
    53         64
    55        767
    56         94
    57         68
    58        158
    59        199
    60        440
    61         56
    62         19
    63         11
    65         11
    67         98
    68         34
    69         75
    70        102
    71         68
    72         60
    73        192
    74         53
    75         26
    76         15
    77         34
    78         11
    79         11
    81         64
    82         49
    83         41
    84         41
    85         38
    86         53
    87        455
    88        124
    89        263
    90         11
    96         30
    97         41
    98         11
    99          8
   100          8
   101         64
   102         30
   103         30
   107          8
   115        165
   116         26
   117         30
   119         11
   121         30
   122         19
   123          8
   125         19
   130         26
   131         15
   133         49
   143          8
   145          8
   147          8
   150          8
   158        372
   159         41
   160         22