##TITLE=Library Entry 50084
##JCAMP-DX=Revision 4.10 
##DATA TYPE=MASS SPECTRUM
##SAMPLE DESCRIPTION=Exported from NIST MS Search
##NAMES=HP
##CAS NAME=2-Hexyne, 4-methyl-
##MOLFORM=C7H12
##CAS REGISTRY NO=20198-49-6
##MP= -300
##BP= -300
##MW= 96
##$RETENTION INDEX=690
##$CONDENSED SPECTRUM=NO
##NPOINTS= 72
##XYDATA=(XY..XY) 1 
    12          5
    13          7
    14         21
    15        100
    16          3
    24          1
    25          7
    26         68
    27        316
    28         43
    29        111
    30          3
    31          6
    32          1
    36          3
    37         35
    38         70
    39        490
    40        101
    41        677
    42         35
    43         14
    44          2
    45          1
    46          1
    48          1
    49         10
    50         68
    51        119
    52         57
    53        252
    54         54
    55        116
    56         43
    57          4
    58          1
    60          2
    61         17
    62         35
    63         67
    64         13
    65        192
    66        136
    67        735
    68         69
    69          8
    70          1
    72          1
    73          2
    74         10
    75          4
    76          2
    77         62
    78         13
    79        125
    80         26
    81        999
    82         66
    83          2
    84          1
    85          1
    86          1
    87          1
    89          1
    91          7
    92          1
    93          4
    94          2
    95         36
    96        188
    97         14
    98          1