##TITLE=Library Entry 78958
##JCAMP-DX=Revision 4.10 
##DATA TYPE=MASS SPECTRUM
##SAMPLE DESCRIPTION=A.A.Kutin, Moscow, Russia
##NAMES=HP
##CAS NAME=Propenamide, 2-benzoylamino-3-(4-fluorophenyl)-N-benzyl-
##MOLFORM=C23H19FN2O2
##CAS REGISTRY NO=201993-04-6
##MP= -300
##BP= -300
##MW= 374
##$RETENTION INDEX=0
##$CONDENSED SPECTRUM=NO
##NPOINTS= 81
##XYDATA=(XY..XY) 1 
    33          4
    39         34
    40         15
    41         11
    43          5
    44         12
    45          1
    47          0
    50         28
    51        121
    52         12
    53          2
    55          2
    56          3
    57         10
    61          1
    62          5
    63         13
    65         59
    66          2
    69          1
    70          1
    74          6
    75          9
    77        535
    78         35
    79         14
    81          4
    82          1
    83          8
    84          0
    86          0
    87          1
    89         16
    91        196
    92         14
    94          0
    95          2
   101          1
   105        999
   106        157
   107         53
   108         58
   109         28
   110          1
   115          2
   116          2
   117          2
   118          1
   119          1
   120          4
   121          1
   122          1
   123          5
   132          1
   134         17
   135         63
   136         33
   137          2
   147          0
   148          0
   149          0
   162          0
   163          0
   164          2
   183          0
   224          0
   239          0
   240          5
   241          1
   252          2
   253          2
   267         98
   268         33
   269         12
   270          1
   283          0
   356          1
   373          0
   374         26
   375          6