##TITLE=Library Entry 39599
##JCAMP-DX=Revision 4.10 
##DATA TYPE=MASS SPECTRUM
##SAMPLE DESCRIPTION=CARL DJERASSI DEPT OF CHEM STANFORD UNIV STANFORD CALIF
 94305
##NAMES=HP
##CAS NAME=1-Hexanamine, N-propyl-
##MOLFORM=C9H21N
##CAS REGISTRY NO=20193-23-1
##MP= -300
##BP= -300
##MW= 143
##$RETENTION INDEX=1047
##$CONDENSED SPECTRUM=NO
##NPOINTS= 23
##XYDATA=(XY..XY) 1 
    29         70
    30        600
    39         20
    41        140
    42         40
    43        310
    44        330
    55         30
    56         50
    57         10
    58         50
    59         10
    70         50
    71         10
    72        999
    73         40
    85         20
    86         10
    98         10
   112         10
   114        220
   115         10
   143         40