##TITLE=Library Entry 10986
##JCAMP-DX=Revision 4.10 
##DATA TYPE=MASS SPECTRUM
##SAMPLE DESCRIPTION=MASS SPECTRA OF ORGANIC COMPOUNDS, V. 6, B. H. KENNETT
 ET AL, DIV. OF FOOD RESEARCH, CSIRO, AUSTRALIA
##NAMES=HP
##CAS NAME=2-Cyclohexen-1-one, 3,5,5-trimethyl-4-(3-oxo-1-butenyl)-
##MOLFORM=C13H18O2
##CAS REGISTRY NO=20194-68-7
##MP= -300
##BP= -300
##MW= 206
##$RETENTION INDEX=1661
##$CONDENSED SPECTRUM=NO
##NPOINTS= 70
##XYDATA=(XY..XY) 1 
    26         10
    27         90
    29        210
    33         10
    34         30
    38         10
    39        140
    40        370
    41        110
    42         20
    43        999
    45         10
    50         20
    51         50
    52         30
    53         80
    54         10
    55         60
    56         20
    57         10
    63         20
    64         10
    65         30
    66         10
    67         30
    69         20
    77        120
    78         50
    79        100
    80         30
    81         20
    82         30
    83         20
    90         10
    91         50
    92         10
    93         20
    94         10
    95         10
    96         10
   101         10
   103         10
   105         30
   106         30
   107         90
   108        890
   109        100
   110         10
   115         10
   119         10
   121         30
   122         20
   129         10
   131         10
   133         10
   135         40
   136         10
   145         20
   148         20
   149         50
   150        180
   151         30
   163         10
   164         20
   173         10
   188         10
   189         10
   191         20
   206         20
   207         10