##TITLE=Library Entry 59838
##JCAMP-DX=Revision 4.10 
##DATA TYPE=MASS SPECTRUM
##SAMPLE DESCRIPTION=Chemical Concepts
##NAMES=HP
##CAS NAME=1-Hydroxytricyclo[4.3.0.0(4,9)]nonan-9-yl p-toluenesulfonate
##MOLFORM=C16H20O4S
##CAS REGISTRY NO=201992-83-8
##MP= -300
##BP= -300
##MW= 308
##$RETENTION INDEX=0
##$CONDENSED SPECTRUM=NO
##NPOINTS= 87
##XYDATA=(XY..XY) 1 
    37         10
    39        259
    40         38
    41        149
    42         50
    43         17
    44          3
    45         12
    46          1
    48         34
    49         11
    50         52
    51         83
    52         40
    53         70
    54         29
    55        136
    56          6
    57          8
    58          3
    59          1
    61          9
    62         28
    63        119
    65        544
    66         44
    67         61
    68         31
    69         21
    70          5
    71          4
    74          9
    75          9
    76         11
    77         85
    78         30
    79         70
    80         14
    81         16
    82         14
    83         17
    84          3
    85          3
    86          5
    87          7
    89        144
    91        999
    92         89
    93         29
    94          6
    95         15
    96          8
    97          4
   103          5
   105          7
   106          2
   107         18
   108          9
   109          6
   110          2
   111          3
   115          4
   116          1
   117          3
   118          1
   119          1
   121          5
   122          2
   123          4
   124          4
   133          1
   135          4
   136          2
   137          2
   139         15
   140          1
   141          1
   152          2
   153          6
   155        277
   156         21
   157         12
   158          1
   165          1
   172          1
   307          5
   308          1