##TITLE=Library Entry 37300
##JCAMP-DX=Revision 4.10 
##DATA TYPE=MASS SPECTRUM
##SAMPLE DESCRIPTION=Chemical Concepts
##NAMES=HP
##CAS NAME=Cyclopropane, 1,1-dibromo-2,2-diethyl-
##MOLFORM=C7H12Br2
##CAS REGISTRY NO=201987-86-2
##MP= -300
##BP= -300
##MW= 254
##$RETENTION INDEX=0
##$CONDENSED SPECTRUM=NO
##NPOINTS= 138
##XYDATA=(XY..XY) 1 
    24          2
    25          4
    26         46
    27        205
    28         20
    29        122
    30          2
    31          1
    35          1
    36          7
    37          9
    38         29
    39        250
    40         39
    41        286
    42        222
    43         43
    44          4
    45          4
    46          0
    47          0
    49          4
    50         30
    51         62
    52         25
    53        139
    54         27
    55        550
    56         32
    57         14
    58          1
    60          2
    61          5
    62          7
    63         23
    64          7
    65        149
    66         70
    67        133
    68         17
    69         51
    70        999
    71         51
    72          1
    73          1
    74          1
    75          2
    76          0
    77         26
    78          7
    79         28
    80         18
    81         29
    82         21
    83          6
    84          1
    85          0
    87          2
    91          6
    92          0
    93          8
    94          6
    95        130
    96         19
    97          0
    98          0
    99          0
   101          0
   102          0
   103          1
   104          2
   106          0
   107         18
   109          3
   111          0
   112          0
   117          4
   118          0
   119         21
   120          0
   121         14
   129          1
   130          0
   131          4
   132          1
   133         39
   134          3
   135         37
   136          1
   140          0
   143          0
   144          0
   145         31
   146         12
   147         30
   148         13
   149          2
   155          0
   160          0
   162          0
   166          0
   171          1
   172          1
   173          3
   174          4
   175          8
   176          5
   177          9
   178          0
   183          0
   184          4
   186          6
   188          1
   190          0
   197         13
   198          1
   199         21
   200          4
   201         11
   202          1
   203          0
   211          0
   212         10
   213          3
   214         16
   215          0
   216         10
   224          1
   225         30
   226          3
   227         63
   228          5
   229         32
   230          2
   254          2
   256          5
   257          1
   258          1