##TITLE=Library Entry 83609
##JCAMP-DX=Revision 4.10 
##DATA TYPE=MASS SPECTRUM
##SAMPLE DESCRIPTION=Chemical Concepts
##NAMES=HP
##CAS NAME=Benzeneacetamide, .alpha.-hydroxy-N-methyl-
##MOLFORM=C9H11NO2
##CAS REGISTRY NO=2019-72-9
##MP= -300
##BP= -300
##MW= 165
##$RETENTION INDEX=0
##$CONDENSED SPECTRUM=NO
##NPOINTS= 117
##XYDATA=(XY..XY) 1 
    25          0
    26          7
    27         40
    29         38
    30        128
    31         35
    32         26
    33          1
    35          0
    36          4
    37          7
    38         17
    39         67
    40          7
    41         10
    42         17
    43         10
    44         12
    45          1
    46          0
    48          0
    49          7
    50         76
    51        186
    52         65
    53         33
    54          2
    55          9
    56          3
    57         11
    58        211
    59         21
    60         48
    61          5
    62         16
    63         41
    64         11
    65          8
    66          2
    67          3
    68          1
    69          7
    70          2
    71          6
    73          5
    74         21
    75         17
    76         19
    77        467
    78        231
    79        873
    80         66
    81          6
    82          1
    83          4
    84          1
    85          4
    86          3
    87          2
    88          3
    89         38
    90         57
    91         19
    92          6
    93          3
    94          1
    95          3
    96          1
    97          4
    98          1
    99          1
   102          0
   103          1
   104          3
   105        109
   106         24
   107        999
   108        384
   109         29
   110          2
   111          2
   112          0
   113          1
   115          0
   116          1
   117          1
   118         12
   119          2
   120          4
   121          1
   122          3
   123          1
   124          0
   125          1
   126          0
   127          0
   129          0
   131          1
   132          1
   133          1
   134          0
   135          0
   136          0
   137        103
   138          9
   139          1
   141          1
   146          0
   147          1
   148          4
   149          1
   150          0
   163          1
   164          0
   165         57
   166         13
   167          1