##TITLE=Library Entry 45734
##JCAMP-DX=Revision 4.10 
##DATA TYPE=MASS SPECTRUM
##SAMPLE DESCRIPTION=Exported from NIST MS Search
##NAMES=HP
##CAS NAME=Octadecanoic acid, 9,10,12,13,15,16-hexamethoxy-, methyl ester
##MOLFORM=C25H50O8
##CAS REGISTRY NO=20207-67-4
##MP= -300
##BP= -300
##MW= 478
##$RETENTION INDEX=0
##$CONDENSED SPECTRUM=NO
##NPOINTS= 89
##XYDATA=(XY..XY) 1 
    14          2
    15          5
    18         22
    29         19
    41         57
    43         27
    45        286
    50          8
    53         22
    55         55
    57          2
    58          5
    59         49
    67         24
    68          2
    69         13
    70          2
    71        253
    72         16
    73        253
    74          8
    75        999
    76         11
    79         11
    81         22
    85        275
    87         11
    88         44
    89         11
    93          8
    95         27
    97         22
    99         93
   101        220
   102          8
   105          2
   107         22
   109         41
   111         60
   115         27
   117        413
   118         11
   119         11
   121         11
   123         11
   125          5
   127         44
   129         11
   131          5
   135         27
   137         27
   139          2
   141          8
   143        716
   144         41
   145         11
   147          8
   149         77
   150          5
   155         82
   156          5
   157          5
   169         16
   175        126
   176          5
   181        115
   182          5
   187         24
   201         41
   207         11
   213        352
   214         22
   219          5
   227         22
   239         55
   240          5
   245         96
   246          8
   251          5
   271        292
   272         33
   277         49
   278          5
   283         22
   303         44
   309         33
   341          5
   373          2
   405          5