##TITLE=Library Entry 38147
##JCAMP-DX=Revision 4.10 
##DATA TYPE=MASS SPECTRUM
##SAMPLE DESCRIPTION=Chemical Concepts
##NAMES=HP
##CAS NAME=1,7-Octadiene, 3-methoxy-
##MOLFORM=C9H16O
##CAS REGISTRY NO=20202-62-4
##MP= -300
##BP= -300
##MW= 140
##$RETENTION INDEX=0
##$CONDENSED SPECTRUM=NO
##NPOINTS= 61
##XYDATA=(XY..XY) 1 
    26         24
    27        215
    29         81
    30          3
    31         18
    33          3
    37          4
    38         14
    39        210
    40         25
    41        548
    42         31
    43         60
    44          1
    45         51
    46          0
    50         10
    51         19
    52         10
    53         62
    54         86
    55         69
    56         22
    57          8
    58         20
    59         19
    60          0
    62          1
    63          4
    65         15
    66         17
    67         88
    68          7
    69          8
    70          1
    71        999
    72         55
    73          3
    77         11
    78          8
    79         37
    80         28
    81         32
    82         14
    83          3
    84          6
    85          9
    86         15
    91          5
    93         25
    94          3
    95          3
    97         33
    98          7
    99          4
   105          0
   108          9
   109          3
   111         10
   112          3
   125          6