##TITLE=Library Entry 62355
##JCAMP-DX=Revision 4.10 
##DATA TYPE=MASS SPECTRUM
##SAMPLE DESCRIPTION=Exported from NIST MS Search
##NAMES=HP
##CAS NAME=Benzene, (1-butylpentyl)-
##MOLFORM=C15H24
##CAS REGISTRY NO=20216-88-0
##MP= -300
##BP= -300
##MW= 204
##$RETENTION INDEX=1437
##$CONDENSED SPECTRUM=NO
##NPOINTS= 34
##XYDATA=(XY..XY) 1 
    27         60
    28        177
    29         75
    39         68
    40         20
    41        119
    42         20
    43         96
    44         20
    51         22
    55         55
    56         40
    57         40
    65         55
    69         40
    70         20
    71         20
    77         55
    78         43
    79         20
    85         17
    91        999
    92        116
   103         40
   104         75
   105        215
   106         17
   115         35
   116         17
   117         40
   147        435
   148         58
   204        119
   205         20