##TITLE=Library Entry 15903
##JCAMP-DX=Revision 4.10 
##DATA TYPE=MASS SPECTRUM
##SAMPLE DESCRIPTION=Finnigan MAT: Toxicological Library (LIBR-TX)
##NAMES=HP
##CAS NAME=Fluoxetine, N-acetyl
##MOLFORM=C19H20F3NO2
##CAS REGISTRY NO=202122-33-6
##MP= -300
##BP= -300
##MW= 351
##$RETENTION INDEX=2250
##$CONDENSED SPECTRUM=NO
##NPOINTS= 37
##XYDATA=(XY..XY) 1 
    42         70
    43         57
    44        999
    45         30
    51          8
    63          6
    77         21
    78         23
    86        557
    87         34
    91         35
   103         26
   104         68
   105          6
   115         42
   117        215
   118         33
   132          3
   133          4
   143          3
   145          8
   146          7
   161          1
   162          6
   163          1
   175          2
   183          2
   190        459
   191         52
   192          3
   203          1
   204          0
   207          0
   232          2
   247          0
   251          5
   351          0