##TITLE=Library Entry 61624
##JCAMP-DX=Revision 4.10 
##DATA TYPE=MASS SPECTRUM
##SAMPLE DESCRIPTION=Chemical Concepts
##NAMES=HP
##CAS NAME=Benzene, (1-ethylheptyl)-
##MOLFORM=C15H24
##CAS REGISTRY NO=20216-87-9
##MP= -300
##BP= -300
##MW= 204
##$RETENTION INDEX=1460
##$CONDENSED SPECTRUM=NO
##NPOINTS= 116
##XYDATA=(XY..XY) 1 
    26          2
    27         39
    28         20
    29         50
    30          1
    31          3
    38          0
    39         25
    40          1
    41         80
    42          6
    43         36
    44          1
    45          1
    50          1
    51         11
    52          4
    53          6
    54          1
    55         27
    56          4
    57         11
    58          1
    59          0
    60          0
    62          0
    63          4
    64          1
    65         26
    66         12
    67          4
    68          0
    69          6
    70          1
    71          8
    72          0
    74          0
    75          1
    76          2
    77         32
    78         26
    79         18
    80          2
    81          1
    82          0
    83          6
    84          1
    85          1
    86          0
    89          4
    90          2
    91        999
    92         80
    93          3
    95          0
    96          0
    97          3
    98          0
    99          0
   101          0
   102          3
   103         21
   104         46
   105        162
   106         21
   107          1
   111          0
   112          0
   113          0
   115         28
   116          8
   117         32
   118         18
   119        334
   120         47
   121          3
   123          0
   125          0
   127          1
   128          4
   129          3
   130          1
   131          5
   132          3
   133         61
   134          9
   135          2
   136          0
   141          0
   142          0
   143          1
   144          0
   145          2
   146          1
   147          8
   148          2
   149          1
   153          1
   154          0
   155          0
   157          0
   159          0
   160          0
   161         21
   162          4
   167          1
   173          0
   174          2
   175        127
   176         18
   177          1
   190          0
   191          1
   204        108
   205         17
   206          1