##TITLE=Library Entry 49683
##JCAMP-DX=Revision 4.10 
##DATA TYPE=MASS SPECTRUM
##SAMPLE DESCRIPTION=Exported from NIST MS Search
##NAMES=HP
##CAS NAME=Isoindole-1,3(2H)-dione, 3a,4,7,7a-tetrahydro-2-propyl-
##MOLFORM=C11H15NO2
##CAS REGISTRY NO=2021-20-7
##MP= -300
##BP= -300
##MW= 193
##$RETENTION INDEX=0
##$CONDENSED SPECTRUM=NO
##NPOINTS= 91
##XYDATA=(XY..XY) 1 
    26         20
    27         40
    28        280
    29         50
    40         30
    41        140
    42         60
    43        110
    44         30
    45         20
    46         20
    50         40
    51         80
    52         70
    53         70
    54         70
    55         60
    56         90
    57         30
    58         60
    59         30
    60         20
    63         20
    64         20
    65         40
    66         60
    67         40
    68         40
    69         30
    70         40
    71         20
    72         20
    73         20
    74         20
    77        250
    78        180
    79        750
    80        999
    81        250
    82         30
    83         20
    84         20
    86         20
    87         30
    91         30
    92         20
    93         40
    94         40
    95         30
    96         40
    97         20
    98         30
   101         20
   103         20
   104         30
   105         60
   106         60
   107         80
   108         70
   109         30
   110         20
   111         20
   121         20
   122         60
   123         70
   124         70
   125         20
   133         30
   134         20
   135         20
   136         70
   148         40
   149         30
   150        200
   151        140
   152         20
   160         30
   161         20
   164         80
   165         60
   166         30
   167         20
   176         20
   178         40
   179         20
   189         20
   191         20
   192         30
   193        900
   194        130
   195         20