##TITLE=Library Entry 77064
##JCAMP-DX=Revision 4.10 
##DATA TYPE=MASS SPECTRUM
##SAMPLE DESCRIPTION=NIST Mass Spectrometry Data Center, 1994
##NAMES=HP
##CAS NAME=Benzenepropanoic acid, ethyl ester
##MOLFORM=C11H14O2
##CAS REGISTRY NO=2021-28-5
##MP= -300
##BP= -300
##MW= 178
##$RETENTION INDEX=1353
##$CONDENSED SPECTRUM=NO
##NPOINTS= 65
##XYDATA=(XY..XY) 1 
    14          5
    15         16
    26         20
    27        119
    28         33
    29        136
    30         10
    31          6
    32          0
    38         10
    39         65
    40          6
    41         11
    42         24
    43         30
    44          2
    45         13
    50         44
    51        140
    52         32
    53         15
    54          1
    55         12
    61          2
    62         10
    63         39
    64         12
    65         98
    66         17
    73          3
    74         11
    75         12
    76         22
    77        206
    78        140
    79        186
    80         13
    87          2
    89         24
    91        560
    92         56
    93          3
   101          3
   102         23
   103        152
   104        999
   105        404
   106          3
   107        408
   108         30
   115          2
   117          2
   118          4
   119          5
   131         18
   132         19
   133        106
   134         11
   135          1
   147          2
   149         12
   150          5
   178        268
   179         30
   180          2