##TITLE=Library Entry 70270
##JCAMP-DX=Revision 4.10 
##DATA TYPE=MASS SPECTRUM
##SAMPLE DESCRIPTION=Japan AIST/NIMC Database- Spectrum MS-NW-7139
##NAMES=HP
##CAS NAME=dl-2-.beta.-Thienyl-.alpha.-alanine
##MOLFORM=C7H9NO2S
##CAS REGISTRY NO=2021-58-1
##MP= -300
##BP= -300
##MW= 171
##$RETENTION INDEX=0
##$CONDENSED SPECTRUM=NO
##NPOINTS= 108
##XYDATA=(XY..XY) 1 
    15          6
    16          2
    17         10
    18         39
    19          2
    26          5
    27         25
    28        164
    29         14
    30         17
    31          1
    32          3
    34          1
    36          1
    37          7
    38         16
    39         64
    40          7
    41         14
    42         21
    43         30
    44         13
    45        128
    46         47
    47         11
    48          1
    49          3
    50         13
    51         21
    52          9
    53         85
    54          9
    55          7
    56          7
    57         11
    58         24
    59          9
    60          4
    61          5
    62         17
    63         39
    64          6
    65         53
    66         12
    67          8
    68          2
    69         27
    70         10
    71         15
    72          3
    73          3
    74        303
    75         11
    76          3
    77          3
    78          3
    79          1
    80         19
    81          4
    82          7
    83          5
    84         12
    85          4
    86          2
    87          1
    90          1
    91          4
    92          4
    93         25
    94          3
    95          7
    96          8
    97        999
    98        367
    99        103
   100         19
   101          4
   102          1
   105          1
   107          1
   108          9
   109         13
   110         15
   111          3
   112          3
   113          1
   121          3
   122          5
   123          5
   124         10
   125         28
   126         59
   127          6
   128          4
   134          2
   135         11
   136          6
   137          7
   138          2
   139          1
   151          1
   152          3
   153          9
   154          9
   155          1
   171         74
   172          7
   173          4