##TITLE=Library Entry 32642
##JCAMP-DX=Revision 4.10 
##DATA TYPE=MASS SPECTRUM
##SAMPLE DESCRIPTION=F. TURECEK,HEYROVSKY INST PHYS CHEM & ELECTROCHEM,PRAGU
E,CZECH
##NAMES=HP
##CAS NAME=Bicyclo[2.2.1]hept-5-ene-2,3-diol-, (exo,exo)-
##MOLFORM=C7H10O2
##CAS REGISTRY NO=20224-38-8
##MP= -300
##BP= -300
##MW= 126
##$RETENTION INDEX=0
##$CONDENSED SPECTRUM=NO
##NPOINTS= 58
##XYDATA=(XY..XY) 1 
    14         15
    15         32
    25          4
    26         35
    27        169
    28         37
    29        145
    30         22
    31        110
    32          8
    37         26
    38         65
    39        376
    40        139
    41        186
    42        103
    43         42
    44         10
    45          4
    47          6
    48          6
    49          2
    50         50
    51        100
    52         39
    53         73
    54         17
    55         51
    56          4
    60        732
    61         26
    62         24
    63         39
    64         12
    65        175
    66        966
    67        999
    68         64
    69         20
    70         25
    71          5
    73          7
    76        172
    77         43
    78        240
    79         31
    80         27
    81          6
    82          9
    90         12
    91          6
    94         42
    95          7
    96          5
   106         20
   107         13
   108          6
   126          8