##TITLE=Library Entry 3799
##JCAMP-DX=Revision 4.10 
##DATA TYPE=MASS SPECTRUM
##SAMPLE DESCRIPTION=Chemical Concepts
##NAMES=HP
##CAS NAME=9-Borabicyclo[3.3.1]nonane, 9-decyl-
##MOLFORM=C18H35B
##CAS REGISTRY NO=202259-08-3
##MP= -300
##BP= -300
##MW= 262
##$RETENTION INDEX=0
##$CONDENSED SPECTRUM=NO
##NPOINTS= 137
##XYDATA=(XY..XY) 1 
    25          3
    26         25
    27        198
    28         20
    29        313
    30          7
    36          7
    37         23
    38         32
    39        243
    40        270
    41        999
    42         91
    43        413
    44          8
    49          5
    50         28
    51        101
    52        162
    53        550
    54        149
    55        452
    56        112
    57        146
    58          4
    61          4
    62          2
    63         30
    64        100
    65        307
    66        237
    67        484
    68         96
    69        187
    70         90
    71         40
    74          5
    75          3
    76         54
    77        191
    78        173
    79        529
    80        423
    81        565
    82        134
    83        150
    84         34
    85         17
    88         12
    89         31
    90         65
    91        298
    92        357
    93        745
    94        638
    95        453
    96         66
    97         89
    98         20
    99          4
   102          3
   103          7
   104         12
   105         51
   106         46
   107        174
   108        276
   109        243
   110         89
   111         50
   112          9
   113          3
   115          2
   116          4
   117         11
   118         16
   119         63
   120        185
   121        620
   122        378
   123         95
   124         28
   125         27
   126          4
   132          4
   133          6
   134         34
   135        102
   136         45
   137         36
   138         66
   139        243
   140         48
   141          5
   147          6
   148         18
   149         38
   150         34
   151         66
   152         28
   153         33
   154          7
   160          2
   162          3
   163         15
   164         12
   165         11
   166          8
   167          6
   176          6
   177         12
   178         12
   179         10
   180          5
   181          4
   189          6
   191          6
   192          8
   193          2
   204          3
   205          9
   206         11
   207          3
   217          2
   219          5
   220          9
   221         37
   222          5
   232          3
   233         11
   234         16
   257          3
   258          3
   261         85
   262        364
   263         65
   264          7