##TITLE=Library Entry 8049
##JCAMP-DX=Revision 4.10 
##DATA TYPE=MASS SPECTRUM
##SAMPLE DESCRIPTION=Exported from NIST MS Search
##NAMES=HP
##CAS NAME=Pregn-5-ene-3,11,12,14,20-pentol, 11,12-diacetate, (3.beta.,11.al
pha.,12.beta.,14.beta.)-
##MOLFORM=C25H38O7
##CAS REGISTRY NO=20230-39-1
##MP= -300
##BP= -300
##MW= 450
##$RETENTION INDEX=0
##$CONDENSED SPECTRUM=NO
##NPOINTS= 241
##XYDATA=(XY..XY) 1 
    24         50
    25        350
    26        739
    27        759
    28        523
    29        879
    30         50
    31        384
    36        150
    37        476
    38        539
    39        699
    40        296
    41        719
    42        839
    43        999
    44        619
    45        180
    52         40
    53        164
    54         20
    55        380
    56        160
    57        519
    58        999
    59        629
    60         80
    61         24
    65         24
    67         90
    68         36
    69        200
    70         80
    71        204
    72         24
    73         36
    74         24
    76         16
    77         36
    79         50
    81        130
    82         60
    83        176
    84         56
    85        124
    91         80
    92         24
    93         60
    94         24
    95        110
    96         50
    97        180
    98        164
    99         42
   101        380
   102         36
   104         20
   105        110
   106         30
   107         60
   108         20
   109         80
   110         42
   111         90
   112         36
   113         34
   117         36
   119         60
   120         80
   121         60
   122         34
   123         70
   124         56
   125         80
   126         24
   127         24
   128         18
   129         32
   130         44
   131         60
   132         20
   133         50
   134         16
   135         36
   136         16
   137         50
   138         36
   139         34
   140         16
   141         34
   142         24
   143         50
   144         40
   145        120
   146         34
   147         60
   148         34
   149        436
   150         50
   151         30
   152         10
   153         34
   154         16
   155         52
   156         36
   157         64
   158         36
   159         50
   160         18
   161         36
   162         12
   163         42
   164         36
   165         40
   166         30
   167         30
   168         22
   169         44
   170         36
   171         56
   172         20
   173         36
   174         30
   175         44
   176         36
   177         34
   178         26
   179         34
   180         16
   181         36
   182         24
   183         50
   184         22
   185         30
   186         10
   187         32
   188         30
   189         52
   190         24
   191         26
   192         50
   193         34
   194         16
   195         30
   196         16
   197         30
   199         14
   205         36
   206         24
   207         24
   208         14
   209         24
   210         20
   211         24
   223         36
   224         16
   225         18
   235         34
   239         14
   248         14
   249         18
   250         36
   251         20
   252         14
   253         36
   259         14
   261         60
   262         22
   263         14
   266         16
   267         60
   268        256
   269        140
   270         36
   271         20
   273         14
   274         20
   275         14
   276         60
   277         24
   278         24
   279        120
   280         36
   281         14
   283         16
   284         18
   285         58
   286         60
   287         24
   293         16
   294        120
   295         60
   296         14
   297        160
   298         36
   301         20
   302         20
   303         66
   304         24
   311         60
   312        719
   313        226
   314         40
   315         96
   316         24
   321         26
   322         14
   327         14
   328        154
   329        300
   330        879
   331        236
   332         36
   335         16
   339         60
   340         16
   346         50
   347        260
   348        170
   349         34
   350         10
   354        130
   355         36
   356          8
   357         90
   358         24
   370          8
   371        290
   372         84
   373         16
   374          8
   388         80
   389         20
   390         60
   391         14
   414         34
   415         14
   432         24
   433          8
   450        160
   451         24