##TITLE=Library Entry 1441
##JCAMP-DX=Revision 4.10 
##DATA TYPE=MASS SPECTRUM
##SAMPLE DESCRIPTION=Japan AIST/NIMC Database- Spectrum MS-NW-1934
##NAMES=HP
##CAS NAME=DL-Arabinose
##MOLFORM=C5H10O5
##CAS REGISTRY NO=20235-19-2
##MP= -300
##BP= -300
##MW= 150
##$RETENTION INDEX=0
##$CONDENSED SPECTRUM=NO
##NPOINTS= 109
##XYDATA=(XY..XY) 1 
    12         12
    13         25
    14         88
    15        334
    16         11
    17        135
    18        633
    19         45
    24          7
    25         22
    26         79
    27        141
    28        207
    29        791
    30        252
    31        999
    32        346
    33         28
    36          6
    37         16
    38         24
    39         81
    40         29
    41         52
    42        273
    43        703
    44        165
    45         72
    46          9
    47         22
    49          4
    50          6
    51          6
    52          5
    53         16
    54         23
    55        135
    56         45
    57        111
    58         78
    59         14
    60        397
    61        278
    62         17
    63          2
    65          3
    66          3
    67          9
    68         47
    69         27
    70         15
    71         81
    72        185
    73        390
    74         36
    75          4
    76          2
    77          6
    78          1
    79          4
    80          4
    81          9
    82          7
    83         12
    84         23
    85         60
    86         40
    87          8
    88         11
    89          9
    90         11
    91         19
    92          2
    93          3
    94          2
    95         25
    96         37
    97          9
    98         12
    99          3
   100          3
   101         29
   102         14
   103         21
   104          3
   105          2
   107          2
   108          2
   109          4
   110          3
   111          6
   112          9
   113          2
   114         14
   115          4
   116          1
   119         20
   120          2
   121          3
   123          3
   124          2
   125          3
   126          1
   128          2
   129          3
   132          1
   133          2
   135          1
   149          1