##TITLE=Library Entry 338
##JCAMP-DX=Revision 4.10 
##DATA TYPE=MASS SPECTRUM
##SAMPLE DESCRIPTION=Japan AIST/NIMC Database- Spectrum MS-NW-7450
##NAMES=HP
##CAS NAME=Cyclohexanone, 2,6-bis[(4-azidophenyl)methylene]-
##MOLFORM=C20H16N6O
##CAS REGISTRY NO=20237-98-3
##MP= -300
##BP= -300
##MW= 356
##$RETENTION INDEX=0
##$CONDENSED SPECTRUM=NO
##NPOINTS= 260
##XYDATA=(XY..XY) 1 
    14        349
    15         10
    16         10
    17         10
    18         30
    26         30
    27         22
    28        999
    29         17
    30         10
    32         20
    37         40
    38         90
    39        469
    40         60
    41        209
    42         70
    43         40
    44         30
    49         10
    50        229
    51        409
    52        169
    53        119
    54         70
    55         50
    57         20
    58         10
    61         30
    62         99
    63        359
    64        339
    65        229
    66         99
    67         30
    68         10
    69         20
    70         30
    71         40
    73         20
    74         50
    75        179
    76        249
    77        429
    78        159
    79         60
    80         50
    81         30
    82         60
    83         30
    84         10
    86         10
    87         50
    88        139
    89        249
    90        129
    91        249
    92         90
    93         99
    94        109
    95         60
    96         20
    97         20
    98         10
    99         20
   100         50
   101        219
   102        349
   103        229
   104         99
   105         60
   106        169
   107         60
   108        139
   109         40
   110         20
   111         10
   113         50
   114        129
   115        549
   116        429
   117        149
   118         50
   119        139
   120         50
   121         90
   122         60
   123         40
   124         20
   125         20
   126         50
   127        159
   128        329
   129        199
   130        179
   131         40
   132         40
   133         20
   134         10
   135         40
   136         80
   137         60
   138         30
   139         50
   140        229
   141        129
   142        159
   143        149
   144         70
   145         30
   146         10
   147         70
   148         10
   149         30
   150         50
   151         99
   152        149
   153        139
   154        139
   155        179
   156         99
   157         40
   158         30
   159         10
   163         20
   164         50
   165        119
   166        199
   167        169
   168         80
   169         50
   170        139
   171         60
   172         10
   176         40
   177         80
   178        159
   179         90
   180        139
   181        149
   182        109
   183         60
   184         80
   185         10
   187         10
   188         20
   189         80
   190        159
   191        149
   192        129
   193        109
   194        149
   195         30
   196         60
   197         20
   198         20
   199         10
   200         20
   201         30
   202        109
   203        179
   204        189
   205        119
   206         60
   207         90
   208         80
   209         30
   210         20
   211         10
   213         20
   214         70
   215        279
   216        309
   217        189
   218        209
   219         90
   220         90
   221         50
   222         40
   223         20
   224         10
   225         10
   226         40
   227         80
   228        169
   229        179
   230        199
   231        129
   232        109
   233         80
   234         30
   235         20
   236         20
   238         10
   239         40
   240         50
   241         60
   242        169
   243        559
   244        379
   245        179
   246        149
   247         60
   248         50
   249         20
   251         20
   252         30
   253         50
   254         80
   255        139
   256        119
   257        129
   258         40
   259         40
   260         30
   261         20
   264         10
   266         20
   267         20
   268         20
   269         90
   270         99
   271        919
   272        619
   273        319
   274        509
   275        139
   276        159
   277         40
   279         10
   280         10
   281         20
   282         20
   283         20
   284         10
   285         30
   286         20
   287         10
   288         20
   289         10
   291         20
   297         30
   298         10
   299        119
   300        419
   301        149
   302         60
   303         50
   304        149
   305         50
   306         10
   308         10
   318         10
   328        969
   329        249
   330        169
   331         40
   356        189
   357         90
   358         10