##TITLE=Library Entry 29666
##JCAMP-DX=Revision 4.10 
##DATA TYPE=MASS SPECTRUM
##SAMPLE DESCRIPTION=ATLAS OF MASS SPECTRA OF ORGANIC COMPOUNDS, V. A. KOPTY
UG, ED.
##NAMES=HP
##CAS NAME=Hydrazine, 1-butyl-1-methyl-
##MOLFORM=C5H14N2
##CAS REGISTRY NO=20240-62-4
##MP= -300
##BP= -300
##MW= 102
##$RETENTION INDEX=798
##$CONDENSED SPECTRUM=NO
##NPOINTS= 22
##XYDATA=(XY..XY) 1 
    27         71
    29        111
    30        108
    31        153
    39         31
    40         78
    41         61
    42        204
    43         79
    44        105
    45         85
    46         18
    55         12
    56         16
    57         45
    58         13
    59        999
    60         32
    71         77
    72         10
   102        153
   103         10