##TITLE=Library Entry 29677
##JCAMP-DX=Revision 4.10 
##DATA TYPE=MASS SPECTRUM
##SAMPLE DESCRIPTION=ATLAS OF MASS SPECTRA OF ORGANIC COMPOUNDS, V. A. KOPTY
UG, ED.
##NAMES=HP
##CAS NAME=Hydrazine, 1-methyl-1-(2-methylpropyl)-
##MOLFORM=C5H14N2
##CAS REGISTRY NO=20240-63-5
##MP= -300
##BP= -300
##MW= 102
##$RETENTION INDEX=756
##$CONDENSED SPECTRUM=NO
##NPOINTS= 19
##XYDATA=(XY..XY) 1 
    27         41
    29         62
    30         98
    31         44
    39         37
    40         25
    41         58
    42        201
    43         61
    44         55
    45         73
    46         16
    57         22
    59        999
    60         29
    70         11
    71         25
   102        114
   103          7