##TITLE=Library Entry 49698
##JCAMP-DX=Revision 4.10 
##DATA TYPE=MASS SPECTRUM
##SAMPLE DESCRIPTION=TNO Volatile Compounds in Food - Chemical Concepts
##NAMES=HP
##CAS NAME=Furan, 2-[(ethylthio)methyl]-
##MOLFORM=C7H10OS
##CAS REGISTRY NO=2024-70-6
##MP= -300
##BP= -300
##MW= 142
##$RETENTION INDEX=1058
##$CONDENSED SPECTRUM=NO
##NPOINTS= 33
##XYDATA=(XY..XY) 1 
    27         79
    28        537
    29         15
    30          2
    34          4
    35          5
    36          2
    37          2
    39         16
    41          6
    42          5
    45         40
    46          4
    47         12
    50          3
    51         14
    52          8
    53        107
    54          3
    58          6
    59          9
    60          3
    61         11
    62          8
    71          2
    81        999
    82         34
    85          3
    89          9
   104          2
   142        133
   143          7
   144          3