##TITLE=Library Entry 7119
##JCAMP-DX=Revision 4.10 
##DATA TYPE=MASS SPECTRUM
##SAMPLE DESCRIPTION=LAC, NIDDK, NIH, Bethesda, MD 20892
##NAMES=HP
##CAS NAME=Methyl dihydroisosteviol
##MOLFORM=C21H34O3
##CAS REGISTRY NO=202577-02-4
##MP= -300
##BP= -300
##MW= 334
##$RETENTION INDEX=0
##$CONDENSED SPECTRUM=NO
##NPOINTS= 178
##XYDATA=(XY..XY) 1 
    41        950
    43        999
    44        107
    45        387
    46        107
    47         48
    48          8
    49         17
    51          7
    53        301
    55        975
    56        159
    57        164
    59        498
    60         22
    61         41
    63          5
    65        122
    67        618
    68         42
    69        443
    70         13
    71        131
    73        130
    74         33
    75         13
    77        315
    79        724
    80         39
    81        852
    82        124
    83        118
    84        104
    85         46
    86         66
    87         30
    88         56
    91        653
    93        804
    94        132
    95        552
    96         96
    97        142
    98          4
    99         35
   101        271
   103         56
   105        563
   106        156
   107        586
   108        249
   109        649
   110         98
   111         43
   112          2
   113         25
   114         59
   115         73
   116         35
   117        175
   118         18
   119        355
   120         43
   121        694
   123        886
   124         52
   125         47
   126          4
   127         37
   128         41
   129         71
   130         38
   131        232
   132         18
   133        265
   134        196
   135        224
   136         81
   137        160
   138          7
   139         46
   141         25
   142         16
   143         56
   144         18
   145        258
   147        246
   148         94
   149        132
   150         28
   151         88
   152         31
   153         20
   154          3
   155         22
   157         57
   159        312
   160         77
   161        190
   162         51
   163         55
   164         16
   165         49
   166         12
   167         48
   168         61
   169         19
   171         25
   172          7
   173         81
   174         15
   175         75
   176          3
   177         84
   178          9
   179         14
   180         75
   181         44
   182          3
   183         20
   185         27
   186          5
   187        360
   188        103
   189         32
   190         18
   191         11
   192          7
   193          8
   194          6
   195          5
   199         27
   201         87
   202         22
   203         24
   204          4
   205         45
   206          7
   213         19
   214         11
   215         29
   216         23
   217          9
   219          2
   227          5
   228          7
   229         48
   230         14
   231          8
   234          2
   241         14
   242        146
   243        117
   244         19
   256         32
   257         82
   258         15
   259         15
   260         20
   261         13
   273         23
   274        107
   275        298
   276         51
   284         43
   285          6
   287          6
   288          2
   289         30
   290          8
   301          7
   302         12
   316        301
   317         69
   318          6
   333          6
   334         22
   335          5