##TITLE=Library Entry 100630
##JCAMP-DX=Revision 4.10 
##DATA TYPE=MASS SPECTRUM
##SAMPLE DESCRIPTION=A.A.Kutin, Moscow, Russia
##NAMES=HP
##CAS NAME=1H-Benzo[b]1,4-diazepin-4-amine, 2,3-dihydro-2-methyl-
##MOLFORM=C10H13N3
##CAS REGISTRY NO=202537-10-8
##MP= -300
##BP= -300
##MW= 175
##$RETENTION INDEX=0
##$CONDENSED SPECTRUM=NO
##NPOINTS= 111
##XYDATA=(XY..XY) 1 
    33          6
    34          1
    35          0
    39        172
    41        197
    42        233
    43        317
    45        291
    47          1
    48          0
    49          1
    50         50
    51        105
    52         80
    53         34
    54         27
    55          6
    56          5
    57          6
    58         15
    60        130
    63         76
    64         51
    65        121
    66         42
    67         13
    68         29
    69         29
    70          1
    72          3
    73          4
    74         14
    75         15
    76         26
    77         68
    78         57
    79         49
    80         47
    81          8
    82          1
    83          1
    84          0
    85          0
    88         58
    89         26
    90         54
    91         60
    92        150
    93        145
    94          8
    95          2
    96          0
    98         22
    99          1
   102         17
   103         11
   104         29
   105         74
   106         48
   107         24
   108         47
   109          1
   110          0
   111          1
   112          1
   113          0
   114          2
   116         27
   117         55
   119        999
   120         44
   121          3
   122          0
   127          0
   128          2
   129          5
   130         24
   131         71
   132        132
   133        413
   134         73
   135         31
   136          2
   137          0
   138          1
   141          0
   142          4
   143         24
   144          6
   145          8
   146          7
   147         11
   148          1
   149          1
   150          0
   151          0
   153          0
   155          1
   157         75
   158         48
   159         71
   160        249
   161         25
   162          0
   172          3
   173         12
   175        823
   176         84
   177          4
   178          0
   179          0