##TITLE=Library Entry 96890
##JCAMP-DX=Revision 4.10 
##DATA TYPE=MASS SPECTRUM
##SAMPLE DESCRIPTION=H. KOBATAKE,CENT. RES. LAB.,ZERIA PHARM. LTD.,SAITAMA-K
EN,JAP.
##NAMES=HP
##CAS NAME=1,4,5,6-Tetra-O-acetyl-2,3-di-O-methylglucitol
##MOLFORM=C16H26O10
##CAS REGISTRY NO=20250-47-9
##MP= -300
##BP= -300
##MW= 378
##$RETENTION INDEX=0
##$CONDENSED SPECTRUM=NO
##NPOINTS= 14
##XYDATA=(XY..XY) 1 
    43        234
    57         45
    71         53
    85        120
    99        194
   101        193
   117        999
   127        232
   142         84
   161         79
   173         55
   187         48
   201         24
   261        192