##TITLE=Library Entry 89865
##JCAMP-DX=Revision 4.10 
##DATA TYPE=MASS SPECTRUM
##SAMPLE DESCRIPTION=A.A.Kutin, Moscow, Russia
##NAMES=HP
##CAS NAME=Heptane, 1,1,3-tribromo-1-fluoro-
##MOLFORM=C7H12Br3F
##CAS REGISTRY NO=202526-04-3
##MP= -300
##BP= -300
##MW= 352
##$RETENTION INDEX=0
##$CONDENSED SPECTRUM=NO
##NPOINTS= 147
##XYDATA=(XY..XY) 1 
    33         17
    34          2
    36          0
    37          9
    38         27
    39        382
    40         89
    41        959
    42        232
    43        297
    44         21
    45         64
    46         21
    47         24
    48          1
    49          5
    50         32
    51        114
    52         22
    53         83
    54         18
    55        278
    56         27
    57         95
    58         10
    59         98
    60          5
    61         38
    62          6
    63         11
    64          8
    65         51
    66         15
    67        112
    68         32
    69        581
    70         76
    71        103
    72         56
    73        123
    74          7
    75          8
    76          0
    77         36
    78          5
    79         22
    80         12
    81         19
    82         11
    83         42
    84         39
    85        105
    86         18
    87         30
    88          2
    89          8
    90          4
    91         53
    93        621
    94         69
    95         25
    96          4
    97         16
    98          5
    99          2
   104          1
   105         14
   106         11
   107         50
   108          9
   109         40
   110          6
   111         45
   113        999
   114         75
   115          2
   117          5
   119         45
   120          8
   121         52
   122          8
   123         14
   124         23
   125          6
   126         20
   127          2
   129          1
   131         13
   132          1
   133         38
   135         41
   137        220
   138         13
   139        198
   140          4
   141          0
   145          0
   146          0
   147         28
   148          6
   149         44
   150         24
   151        173
   152         25
   153        153
   154          6
   155          1
   161          0
   163          3
   164          4
   165          6
   166          3
   167          4
   171          3
   172          0
   173         97
   174         10
   175         91
   176          6
   185          2
   187          3
   189          9
   190          0
   191         20
   193        217
   194         21
   195        199
   196         14
   197          8
   199         17
   201          9
   205          1
   211         10
   213         22
   215         14
   217          5
   219          1
   229          1
   231          4
   233          2
   253          7
   255         19
   257          7
   273          7
   275         14
   276          0
   277          6