##TITLE=Library Entry 44549
##JCAMP-DX=Revision 4.10 
##DATA TYPE=MASS SPECTRUM
##SAMPLE DESCRIPTION=Chemical Concepts
##NAMES=HP
##CAS NAME=Octanoic acid, 8-hydroxy-, methyl ester
##MOLFORM=C9H18O3
##CAS REGISTRY NO=20257-95-8
##MP= -300
##BP= -300
##MW= 174
##$RETENTION INDEX=0
##$CONDENSED SPECTRUM=NO
##NPOINTS= 108
##XYDATA=(XY..XY) 1 
    25          2
    26         15
    27        134
    28         39
    29        154
    30          7
    31        194
    33          5
    37          1
    38          4
    39        101
    40         21
    41        336
    42         72
    43        499
    44         35
    45         96
    46          3
    47          3
    50          4
    51          9
    52          6
    53         34
    54         57
    55        494
    56         66
    57         67
    58          9
    59        159
    60         10
    61         37
    62          1
    63          3
    64          0
    65          7
    66          6
    67         77
    68        122
    69        136
    70         56
    71         26
    72         16
    73         44
    74        999
    75         97
    76          7
    77          6
    78          3
    79         18
    80         16
    81         56
    82        130
    83        150
    84         32
    85         19
    86          3
    87        453
    88         67
    89          6
    90          1
    91         18
    92          9
    93          7
    94          4
    95         34
    96        113
    97         61
    98         75
    99         13
   100          9
   101        108
   102          9
   103          4
   104          0
   105          5
   106          7
   107         14
   108          1
   109          6
   110          2
   111          9
   112          7
   113         26
   114         35
   115         26
   116          3
   117          1
   119          2
   120          5
   121          1
   123          6
   124        113
   125         41
   126          4
   127         15
   128         15
   129         11
   130          2
   131          4
   132          0
   134          0
   141         11
   142          9
   143         58
   144        123
   145         14
   146          1
   156          1