##TITLE=Library Entry 17441
##JCAMP-DX=Revision 4.10 
##DATA TYPE=MASS SPECTRUM
##SAMPLE DESCRIPTION=NIST Mass Spectrometry Data Center
##NAMES=HP
##CAS NAME=Myrtenyl methyl ether
##MOLFORM=C11H18O
##CAS REGISTRY NO=202527-57-9
##MP= -300
##BP= -300
##MW= 166
##$RETENTION INDEX=1161
##$CONDENSED SPECTRUM=NO
##NPOINTS= 81
##XYDATA=(XY..XY) 1 
    26          3
    27         50
    29         53
    30          2
    31          3
    38          8
    39        159
    40         26
    41        246
    42         14
    43        131
    45        999
    46         21
    47          3
    50         19
    51         70
    52         33
    53        104
    54         16
    55         69
    58         10
    59         12
    63         28
    64          9
    65        104
    66         30
    67        129
    68         27
    69         64
    71         31
    73         25
    74          5
    75          4
    76          5
    77        261
    78         75
    79        271
    80         48
    81         39
    82         16
    84         38
    85          9
    89          8
    90          3
    91        939
    92        250
    93        254
    94         28
    95         19
    97         41
    98          4
    99         41
   102          4
   103         39
   104         19
   105        148
   106         54
   107         39
   108         15
   109         40
   110         22
   112          9
   115         23
   116          7
   117         59
   118          9
   119        411
   120         45
   121        202
   122        321
   123         96
   124         12
   125          5
   133         11
   134         51
   135         11
   136         11
   137          6
   151          5
   166         44
   167          6