##TITLE=Library Entry 39903
##JCAMP-DX=Revision 4.10 
##DATA TYPE=MASS SPECTRUM
##SAMPLE DESCRIPTION=Japan AIST/NIMC Database- Spectrum MS-NW-6785
##NAMES=HP
##CAS NAME=(S)-(+)-2-Amino-3-methyl-1-butanol
##MOLFORM=C5H13NO
##CAS REGISTRY NO=2026-48-4
##MP= -300
##BP= -300
##MW= 103
##$RETENTION INDEX=0
##$CONDENSED SPECTRUM=NO
##NPOINTS= 64
##XYDATA=(XY..XY) 1 
    14          3
    15         32
    16          3
    26          8
    27         64
    28         55
    29         67
    30        172
    31         33
    32          7
    36          1
    37          5
    38          9
    39         70
    40         16
    41        117
    42        257
    43         83
    44         40
    45          5
    46          4
    49          1
    50          5
    51          7
    52          6
    53         20
    54         16
    55        405
    56        106
    57         87
    58         26
    59         13
    60        756
    61         22
    62          2
    63          1
    64          1
    65          2
    66          3
    67          9
    68         17
    69          9
    70        107
    71         25
    72        999
    73         53
    74          9
    75          1
    77          1
    79          1
    80          4
    81          4
    82          3
    83          5
    84         15
    85          6
    86         14
    87          1
    88          2
    99          2
   100          1
   102          3
   103          1
   104          1