##TITLE=Library Entry 48266
##JCAMP-DX=Revision 4.10 
##DATA TYPE=MASS SPECTRUM
##SAMPLE DESCRIPTION=James Little,Eastman Chem.Co.,Kingsport,TN
##NAMES=HP
##CAS NAME=2-Nitro-2-methoxypyridine
##MOLFORM=C6H6N2O3
##CAS REGISTRY NO=20265-37-6
##MP= -300
##BP= -300
##MW= 154
##$RETENTION INDEX=0
##$CONDENSED SPECTRUM=NO
##NPOINTS= 33
##XYDATA=(XY..XY) 1 
    27         49
    29         26
    30         52
    37         55
    38        183
    39        163
    45         34
    50         62
    51        272
    52         52
    53         78
    54         30
    63         18
    64        107
    65        192
    66         45
    67         26
    76         28
    77         14
    78        999
    79         86
    80         22
    81         11
    93        144
    94         15
    96         30
   108        693
   109         50
   110          4
   124         24
   154        196
   155         18
   156          2