##TITLE=Library Entry 76371
##JCAMP-DX=Revision 4.10 
##DATA TYPE=MASS SPECTRUM
##SAMPLE DESCRIPTION=V.G. Zaikin, R.S.Borisov, TIPS RAS, Moscow, Russia
##NAMES=HP
##CAS NAME=Isovaleric acid, eicosyl ester
##MOLFORM=C25H50O2
##CAS REGISTRY NO=202659-51-6
##MP= -300
##BP= -300
##MW= 382
##$RETENTION INDEX=2643
##$CONDENSED SPECTRUM=NO
##NPOINTS= 120
##XYDATA=(XY..XY) 1 
    26          6
    27         25
    28         23
    29         58
    30          2
    31          1
    39         28
    40          7
    41        168
    42         51
    43        285
    44         10
    45          4
    50          1
    51          1
    52          1
    53          9
    54         38
    55        248
    56        140
    57        443
    58         21
    59          9
    60         30
    61         32
    65          1
    66          5
    67         55
    68         73
    69        226
    70        125
    71        172
    72          9
    73          1
    77          2
    78          1
    79          6
    80          4
    81         40
    82        114
    83        271
    84         96
    85        344
    86         21
    87         46
    88          2
    91          2
    93          2
    94          2
    95         26
    96         59
    97        259
    98         63
    99         28
   100          7
   101         12
   102         93
   103        999
   104         56
   105          6
   109         11
   110         26
   111        141
   112         44
   113         19
   114          1
   115          4
   116          5
   123          6
   124         15
   125         70
   126         29
   127         11
   128          1
   129          2
   130          1
   137          3
   138         10
   139         28
   140         22
   141          7
   143          5
   151          1
   152          7
   153         16
   154         15
   155          5
   158         18
   159          1
   166          5
   167          7
   168         12
   169          3
   172          1
   180          4
   181          6
   182          8
   183          2
   194          2
   195          4
   196          7
   197          1
   209          2
   210          4
   211          1
   222          1
   223          1
   224          5
   225          1
   237          1
   238          1
   252         22
   253          4
   278          2
   280         32
   281         14
   295          1
   325         20
   326          4
   367          4