##TITLE=Library Entry 52987
##JCAMP-DX=Revision 4.10 
##DATA TYPE=MASS SPECTRUM
##SAMPLE DESCRIPTION=V.G.Zaikin, TIPS RAS, Moscow, Russia
##NAMES=HP
##CAS NAME=3-Methyl-2-butenoic acid, octadecyl ester
##MOLFORM=C23H44O2
##CAS REGISTRY NO=202659-50-5
##MP= -300
##BP= -300
##MW= 352
##$RETENTION INDEX=0
##$CONDENSED SPECTRUM=NO
##NPOINTS= 81
##XYDATA=(XY..XY) 1 
    25          7
    26         35
    27        222
    28         68
    29        448
    30         16
    31          9
    35          7
    36         19
    37         16
    38         29
    39        252
    40         49
    41        651
    42        162
    43        772
    44         72
    45         12
    49          7
    50         15
    51         25
    52         12
    53         95
    54        105
    55        763
    56        184
    57        512
    58         29
    59         25
    60          3
    63          3
    65          9
    66          7
    67         96
    68         67
    69        231
    70         89
    71        188
    72         17
    75          3
    77          9
    79         12
    81         42
    82        145
    83        999
    84         98
    85        145
    86         12
    87          3
    91          6
    93          3
    94          3
    95         23
    96         31
    97         98
    98         31
    99         38
   100        962
   101        878
   102         49
   103          7
   109          9
   110         12
   111         48
   112         17
   113         17
   123          7
   124          7
   125         19
   126          7
   127         12
   128          3
   129          1
   138          3
   139          9
   140          9
   141          3
   224          2
   252          3
   352         31
   353          5