##TITLE=Library Entry 65052
##JCAMP-DX=Revision 4.10 
##DATA TYPE=MASS SPECTRUM
##SAMPLE DESCRIPTION=A.A.Kutin, Moscow, Russia
##NAMES=HP
##CAS NAME=Benzenesulfonamide, 4-(2-thiazolylamino)-
##MOLFORM=C9H9N3O2S2
##CAS REGISTRY NO=20278-06-2
##MP= -300
##BP= -300
##MW= 255
##$RETENTION INDEX=0
##$CONDENSED SPECTRUM=NO
##NPOINTS= 109
##XYDATA=(XY..XY) 1 
    33          5
    34          6
    35          0
    36         12
    38         53
    39        326
    40        114
    41        108
    42         41
    43         45
    45        356
    47         16
    48         13
    50         27
    52        107
    53         48
    55        313
    57         57
    58         77
    59         13
    60         17
    63        136
    65        807
    66         84
    67         11
    69         28
    70         19
    71         30
    72         11
    73         19
    74         10
    75          8
    76         11
    77         13
    78          9
    80         60
    81         10
    82          5
    83          9
    84          5
    85          6
    87          1
    89          7
    91        238
    92        999
    93        155
    94          9
    95         12
    96         10
    97          8
    99         60
   100         37
   101          5
   102          0
   103          0
   104          3
   105          9
   106          5
   108        609
   109         36
   110          4
   112          8
   115          0
   117          1
   118          5
   119         19
   120          6
   121          2
   123         15
   124         13
   125          5
   127          1
   129          2
   131          6
   132          4
   133          1
   136         13
   137          2
   138          0
   139          1
   140        167
   142          6
   146          2
   147          6
   149          5
   150          1
   151          0
   152          1
   156        661
   157         61
   158         33
   159          1
   163          3
   164         12
   165          2
   166          1
   167          3
   171          2
   190         64
   191        593
   192         69
   193         29
   194          3
   195          2
   212          4
   252          2
   255         93
   256         11
   257          8