##TITLE=Library Entry 109304
##JCAMP-DX=Revision 4.10 
##DATA TYPE=MASS SPECTRUM
##SAMPLE DESCRIPTION=NIST Mass Spectrometry Data Center
##NAMES=HP
##CAS NAME=4-Fluoro-3-nitrobenzyl alcohol
##MOLFORM=C7H6FNO3
##CAS REGISTRY NO=20274-69-5
##MP= -300
##BP= -300
##MW= 171
##$RETENTION INDEX=0
##$CONDENSED SPECTRUM=NO
##NPOINTS= 129
##XYDATA=(XY..XY) 1 
    14          1
    15          1
    16          2
    17          5
    18          8
    20          1
    25          1
    26          7
    27         28
    28         19
    29         94
    30        132
    31        144
    32          2
    33          6
    36          3
    37         23
    38         31
    39        109
    40         10
    41          6
    42          4
    43          8
    44          8
    45         18
    46         50
    47          7
    48          3
    49         17
    50        171
    51        314
    52         40
    53         22
    54          4
    55         24
    56         31
    57        175
    58         14
    59         45
    60          4
    61         37
    62         69
    63        100
    64         28
    65        105
    66         11
    67          1
    68         90
    69         87
    70        121
    71         48
    72          5
    73         30
    74        127
    75        389
    76         58
    77        308
    78         28
    79          9
    80         17
    81        128
    82         54
    83         71
    84         44
    85         50
    86         23
    87         21
    88          7
    89         14
    90          8
    91          4
    92         34
    93         81
    94        215
    95        747
    96        628
    97        181
    98         15
    99          4
   100          2
   101          2
   102          1
   103          4
   104          9
   105         34
   107        683
   108        198
   109         37
   110         36
   111         12
   112         34
   113          6
   114          1
   120          3
   121          9
   122         62
   123        388
   124        686
   125        999
   126        254
   127         20
   128          2
   134          1
   136          3
   137          1
   138         15
   139         22
   140         10
   141         33
   142        145
   143         11
   144          1
   150          4
   151          2
   152         11
   153         57
   154        336
   155         77
   156          7
   157          1
   167          1
   168         60
   169         42
   170        193
   171        634
   172         51
   173          7
   174          1
   175          1