##TITLE=Library Entry 24007
##JCAMP-DX=Revision 4.10 
##DATA TYPE=MASS SPECTRUM
##SAMPLE DESCRIPTION=D.HENNEBERG, MAX-PLANCK INSTITUTE, MULHEIM, WEST GERMAN
Y
##NAMES=HP
##CAS NAME=Heptane, 2,3,5-trimethyl-
##MOLFORM=C10H22
##CAS REGISTRY NO=20278-85-7
##MP= -300
##BP= -300
##MW= 142
##$RETENTION INDEX=913
##$CONDENSED SPECTRUM=NO
##NPOINTS= 51
##XYDATA=(XY..XY) 1 
    24          0
    25          0
    26          3
    27         57
    28          7
    29        103
    30          3
    33          0
    38          1
    39         42
    40          7
    41        191
    42         33
    43        365
    44         10
    45          0
    48          0
    49          0
    50          2
    51          2
    52          1
    53         10
    54          3
    55         66
    56         62
    57        999
    58         38
    59          0
    63          0
    65          1
    66          0
    67          4
    68          3
    69         64
    70         64
    71        133
    72          7
    77          0
    78          0
    79          0
    81          0
    83          9
    84          4
    85         18
    86          1
    97          0
    98         68
    99         58
   100          4
   113          1
   142          1