##TITLE=Library Entry 67643
##JCAMP-DX=Revision 4.10 
##DATA TYPE=MASS SPECTRUM
##SAMPLE DESCRIPTION=V.G. Zaikin, TIPS RAS, Moscow, Russia
##NAMES=HP
##CAS NAME=2-Furancarboxylic acid, 2-methylpropyl ester
##MOLFORM=C9H12O3
##CAS REGISTRY NO=20279-53-2
##MP= -300
##BP= -300
##MW= 168
##$RETENTION INDEX=0
##$CONDENSED SPECTRUM=NO
##NPOINTS= 50
##XYDATA=(XY..XY) 1 
    25          6
    26         17
    27        119
    28          6
    29        145
    30          3
    31          8
    36          6
    37         65
    38        141
    39        552
    40         28
    41        208
    42         31
    43         75
    44         35
    45          9
    47          3
    49          6
    50         11
    51         26
    52         17
    53         33
    54          2
    55         18
    56        249
    57         49
    58          2
    62          2
    65          2
    66         17
    67         25
    68         31
    69          8
    73         29
    77          6
    79         15
    81          3
    84         17
    85          3
    94         11
    95        999
    96         75
    97          9
    98          3
   112        208
   113        276
   114         15
   168         13
   169          1