##TITLE=Library Entry 84242
##JCAMP-DX=Revision 4.10 
##DATA TYPE=MASS SPECTRUM
##SAMPLE DESCRIPTION=CUN 0090
##NAMES=HP
##CAS NAME=Phenethyl alcohol, p-nitro-.alpha.-phenyl-
##MOLFORM=C14H13NO3
##CAS REGISTRY NO=20273-74-9
##MP= -300
##BP= -300
##MW= 243
##$RETENTION INDEX=0
##$CONDENSED SPECTRUM=NO
##NPOINTS= 82
##XYDATA=(XY..XY) 1 
    26          4
    27         30
    28         14
    29         37
    30         79
    31          5
    38          7
    39         67
    40         10
    41         14
    42          2
    43          5
    45          2
    50         33
    51        131
    52         39
    53         35
    54          2
    55          4
    56          2
    57          3
    58          1
    62         10
    63         56
    64         32
    65         39
    66          4
    67          3
    73          1
    74          9
    75         15
    76         21
    77        522
    78        119
    79        719
    80         45
    81          3
    87          5
    88          6
    89        106
    90        223
    91         65
    92          5
   101          2
   102          6
   103          5
   105        101
   106         39
   107        999
   108         77
   109          4
   115          8
   116          1
   120         79
   121         32
   122          3
   136         12
   137        888
   138         63
   139         10
   140          2
   141          2
   150          3
   151          5
   152         11
   153          3
   163          3
   164          1
   165         12
   166          3
   167          2
   176          5
   177          3
   178         13
   179          4
   180          1
   197          2
   213          1
   225          1
   226          1
   241          1
   243          1