##TITLE=Library Entry 9809
##JCAMP-DX=Revision 4.10 
##DATA TYPE=MASS SPECTRUM
##SAMPLE DESCRIPTION=NIST Mass Spectrometry Data Center, 1990.
##NAMES=HP
##CAS NAME=Heptane, 3,4,5-trimethyl-
##MOLFORM=C10H22
##CAS REGISTRY NO=20278-89-1
##MP= -300
##BP= -300
##MW= 142
##$RETENTION INDEX=945
##$CONDENSED SPECTRUM=NO
##NPOINTS= 24
##XYDATA=(XY..XY) 1 
    27        172
    28         80
    29        330
    30          8
    32          8
    39        152
    41        567
    43        999
    44         39
    51         14
    53         49
    54         16
    55        165
    56        262
    57        542
    58         23
    65          9
    67         20
    69        244
    70         22
    71        139
    84        561
    85        813
    86         55