##TITLE=Library Entry 66965
##JCAMP-DX=Revision 4.10 
##DATA TYPE=MASS SPECTRUM
##SAMPLE DESCRIPTION=Japan AIST/NIMC Database- Spectrum MS-IW-8105
##NAMES=HP
##CAS NAME=Phenyl isobutyrate
##MOLFORM=C10H12O2
##CAS REGISTRY NO=20279-29-2
##MP= -300
##BP= -300
##MW= 164
##$RETENTION INDEX=1293
##$CONDENSED SPECTRUM=NO
##NPOINTS= 55
##XYDATA=(XY..XY) 1 
    15          2
    26          4
    27         47
    28          3
    37          3
    38         12
    39         92
    40         21
    41         82
    42         50
    43        814
    44         30
    47          1
    50          9
    51         32
    52          3
    53          4
    54          1
    55         27
    56          3
    61          1
    62          4
    63         17
    64          8
    65         84
    66         71
    67          4
    68          2
    69          5
    70        771
    71        631
    72         28
    73          2
    74          3
    75          1
    76          2
    77         75
    78          6
    79          2
    91          5
    92          2
    93         13
    94        999
    95         81
    96          5
   105          3
   107          2
   109          1
   121         10
   122          1
   135          2
   147          1
   164        285
   165         45
   166          4