##TITLE=Library Entry 35042
##JCAMP-DX=Revision 4.10 
##DATA TYPE=MASS SPECTRUM
##SAMPLE DESCRIPTION=V.G.Zaikin, TIPS, Russian Acad. Sci.
##NAMES=HP
##CAS NAME=1-Cyclohexyl-1-(4-ethylcyclohexyl)ethane
##MOLFORM=C16H30
##CAS REGISTRY NO=2027-13-6
##MP= -300
##BP= -300
##MW= 222
##$RETENTION INDEX=0
##$CONDENSED SPECTRUM=NO
##NPOINTS= 20
##XYDATA=(XY..XY) 1 
    41         60
    43        110
    55        830
    57        130
    67        260
    68        120
    69        999
    81        290
    82        330
    83        600
    95        100
    97        130
   109        130
   110        670
   111        600
   138        260
   139        150
   222         70
   223         12
   224          1