##TITLE=Library Entry 38377
##JCAMP-DX=Revision 4.10 
##DATA TYPE=MASS SPECTRUM
##SAMPLE DESCRIPTION=Chemical Concepts
##NAMES=HP
##CAS NAME=Butyric acid, crotyl ester
##MOLFORM=C8H14O2
##CAS REGISTRY NO=20279-26-9
##MP= -300
##BP= -300
##MW= 142
##$RETENTION INDEX=0
##$CONDENSED SPECTRUM=NO
##NPOINTS= 78
##XYDATA=(XY..XY) 1 
    23          0
    25          1
    26         18
    27        163
    28         21
    29        119
    30          2
    31          6
    36          0
    37          3
    38          6
    39        152
    40         13
    41        111
    42         20
    43        622
    44         20
    45          6
    47          1
    49          1
    50          9
    51         16
    52         25
    53         46
    54        109
    55        374
    56         25
    57         20
    58          1
    59          0
    60         14
    61          0
    62          0
    65          0
    66          0
    67          2
    68          0
    69          8
    70         16
    71        999
    72         48
    73         16
    74          0
    75          1
    76          0
    77          0
    78          3
    79         25
    80          2
    81          1
    82          5
    83          1
    84          0
    85          0
    86          3
    87          2
    88          4
    89         33
    90          1
    91          1
    92          0
    93          1
    95          0
    96          0
    97          0
    98          1
    99          5
   100         11
   101          1
   109          0
   111          0
   113          4
   114          5
   115          0
   127          0
   142         20
   143          2
   144          0