##TITLE=Library Entry 40225
##JCAMP-DX=Revision 4.10 
##DATA TYPE=MASS SPECTRUM
##SAMPLE DESCRIPTION=RH-31
##NAMES=HP
##CAS NAME=Bicyclo[2.2.2]octane, 1,4-difluoro-
##MOLFORM=C8H12F2
##CAS REGISTRY NO=20277-40-1
##MP= -300
##BP= -300
##MW= 146
##$RETENTION INDEX=0
##$CONDENSED SPECTRUM=NO
##NPOINTS= 108
##XYDATA=(XY..XY) 1 
    14          1
    15          2
    19          7
    20          5
    26         16
    27         97
    28         72
    29         16
    30          3
    31         11
    32         13
    33         45
    36          1
    37          6
    38         15
    39        145
    40         24
    41         75
    42         24
    43         10
    44         11
    45         20
    46         43
    47         38
    48          3
    49         10
    50         28
    51         23
    52         27
    53         72
    54        125
    55         29
    56         10
    57         55
    58         10
    59        237
    60         14
    61          8
    62          7
    63         18
    64          5
    65         71
    66         15
    67        200
    68         33
    69         37
    70         19
    71         27
    72        999
    73        138
    74        106
    75         26
    76          3
    77         89
    78         14
    79         49
    80         16
    81         41
    82        175
    83         40
    84         31
    85        106
    86         85
    87         25
    88          5
    89          3
    90         26
    91         41
    92          5
    93         24
    94          4
    95         52
    96         86
    97        354
    98        165
    99         34
   100         27
   101          8
   103         88
   104         34
   105         15
   106          7
   107          8
   108          9
   109         40
   110         12
   111        200
   112         15
   113          7
   114         13
   115         34
   116         42
   117        243
   118        112
   119         10
   123          4
   124          4
   125         17
   126        188
   127         26
   130          6
   131        237
   132         22
   133          1
   145         13
   146        807
   147         77
   148          4