##TITLE=Library Entry 8944
##JCAMP-DX=Revision 4.10 
##DATA TYPE=MASS SPECTRUM
##SAMPLE DESCRIPTION=D.HENNEBERG, MAX-PLANCK INSTITUTE, MULHEIM, WEST GERMAN
Y
##NAMES=HP
##CAS NAME=Heptane, 3,3,4-trimethyl-
##MOLFORM=C10H22
##CAS REGISTRY NO=20278-87-9
##MP= -300
##BP= -300
##MW= 142
##$RETENTION INDEX=937
##$CONDENSED SPECTRUM=NO
##NPOINTS= 45
##XYDATA=(XY..XY) 1 
    25          5
    26         15
    27        111
    28        127
    29        174
    30          4
    32          3
    35          4
    36          1
    37          3
    38          4
    39         65
    40          8
    41        225
    42         71
    43        999
    44          2
    45          2
    50          1
    51          4
    52          3
    53         14
    54          3
    55        189
    56         11
    57        420
    58         20
    66          3
    67          7
    68          0
    69         19
    70        633
    71        971
    72         50
    73          2
    83          6
    84          1
    85         27
    86          2
    95          3
    97          2
   113         30
   114          3
   127          7
   128          1