##TITLE=Library Entry 59600
##JCAMP-DX=Revision 4.10 
##DATA TYPE=MASS SPECTRUM
##SAMPLE DESCRIPTION=V.A.Korolev, Moscow, Russia
##NAMES=HP
##CAS NAME=Ethyl 5-amino-1-benzyl-1,2,3-triazole-4-carboxylate
##MOLFORM=C12H14N4O2
##CAS REGISTRY NO=20271-33-4
##MP= -300
##BP= -300
##MW= 246
##$RETENTION INDEX=0
##$CONDENSED SPECTRUM=NO
##NPOINTS= 96
##XYDATA=(XY..XY) 1 
    27         68
    28         34
    29        175
    30          2
    37          3
    38         25
    39        185
    40         66
    41        148
    42         84
    43        109
    44         31
    45         22
    50         57
    51        147
    52         47
    53         86
    54         70
    55        228
    56         80
    57         10
    58          2
    59          6
    60          5
    61          4
    62         25
    63        106
    65        456
    66         32
    67         22
    68         99
    69         61
    70         25
    71         45
    72          7
    74          9
    75         10
    76         15
    77         68
    78         23
    79         16
    82          7
    83         10
    84         31
    85         11
    86          7
    87         13
    89         86
    91        999
    92        100
    93          5
    95         11
    96         22
    99         11
   102          4
   103         15
   104         38
   105         30
   106         55
   107          3
   110          3
   116         16
   117         43
   118         28
   119          6
   127         22
   128         16
   129         14
   130          2
   131          3
   132          2
   135         16
   142          7
   143         13
   144         32
   145        115
   146         18
   155         17
   156          1
   160          8
   161          3
   162          6
   171         46
   172         10
   173          4
   174         32
   175          4
   188          8
   189          6
   190          3
   201          4
   218         17
   219          2
   246        119
   247         16
   248          1