##TITLE=Library Entry 13346
##JCAMP-DX=Revision 4.10 
##DATA TYPE=MASS SPECTRUM
##SAMPLE DESCRIPTION=Div. of Experiment Therapeutics WRAIR, WRAMC, Washingto
n DC 20307
##NAMES=HP
##CAS NAME=2-Hydroxy-1,4-naphthoquinone 4-monoisobutyroylhydrazone
##MOLFORM=C14H14N2O3
##CAS REGISTRY NO=20287-22-3
##MP= -300
##BP= -300
##MW= 258
##$RETENTION INDEX=0
##$CONDENSED SPECTRUM=NO
##NPOINTS= 45
##XYDATA=(XY..XY) 1 
    41        156
    42         14
    43        999
    44         30
    50          6
    51         30
    52          5
    55         80
    63         24
    71        452
    72         13
    74         22
    75         50
    76         73
    77         71
    83        192
    84         11
    89         30
   101         51
   102        214
   103         52
   104         42
   105         12
   111         73
   113          5
   114         35
   116         22
   129         21
   130         28
   131        161
   132         43
   141          6
   142         39
   144         12
   159         41
   160        150
   161         12
   170         91
   171         22
   187        105
   188        912
   189        103
   215         18
   258        326
   259         66