##TITLE=Library Entry 76665
##JCAMP-DX=Revision 4.10 
##DATA TYPE=MASS SPECTRUM
##SAMPLE DESCRIPTION=Asinex Ltd, Moscow, Russia
##NAMES=HP
##CAS NAME=(2-Phenyl-ethenesulfonylamino)-acetic acid
##MOLFORM=C10H11NO4S
##CAS REGISTRY NO=202805-22-9
##MP= -300
##BP= -300
##MW= 241
##$RETENTION INDEX=0
##$CONDENSED SPECTRUM=NO
##NPOINTS= 170
##XYDATA=(XY..XY) 1 
    33          2
    34          3
    39         44
    40         17
    41         37
    42         13
    43         41
    44         53
    45         69
    46          5
    48         24
    49          6
    50         73
    51        210
    52         39
    53         14
    54          7
    55         33
    56         13
    57         26
    58          4
    59          4
    60         23
    61          9
    62         16
    63         48
    64         48
    65         33
    66         24
    67         12
    68          9
    69         24
    70          8
    71         14
    72          3
    73         28
    74         33
    75         47
    76        105
    77        515
    78         49
    79         14
    80          7
    81         12
    82         11
    83         17
    84         11
    85         11
    86          4
    87         10
    88          3
    89         16
    90         14
    91         57
    92          8
    93          5
    94          5
    95          7
    96          7
    97         13
    98         33
    99          8
   100          6
   101         37
   102        288
   103        999
   104        235
   105         23
   106          4
   107          7
   108          4
   109          5
   110          5
   111          6
   112          3
   113          3
   114          2
   115         10
   116          9
   117         10
   118         14
   119         18
   120         40
   121          8
   122          7
   123          8
   124          3
   125          4
   127         34
   128         46
   129          9
   130         17
   131          9
   132         54
   133         12
   134         11
   135          8
   136          4
   137          4
   138          2
   139          5
   140          2
   141          3
   142          1
   143          2
   144          1
   145          0
   146          1
   147          1
   148          1
   149          5
   150          2
   151          4
   152          4
   153          2
   154          2
   155          1
   157          2
   158          1
   159          1
   160          1
   161          0
   162          0
   163          2
   164          3
   167        618
   168         99
   169         36
   170          5
   171          2
   172          0
   173          0
   174          0
   175          1
   177         23
   178          3
   179          1
   180          1
   181          1
   182          1
   183          2
   184          0
   185          3
   186          1
   187          0
   188          0
   189          0
   191          0
   192          0
   193          1
   194          4
   196        167
   197         21
   198          9
   199          3
   200          1
   201          0
   203          0
   205          0
   206          0
   207          1
   209          1
   210          4
   212         10
   213          3
   214          1
   241        133
   242         17
   243          8
   244          1