##TITLE=Library Entry 38342
##JCAMP-DX=Revision 4.10 
##DATA TYPE=MASS SPECTRUM
##SAMPLE DESCRIPTION=V.Zaikin,Topchiev Inst.Petrochem.Synth.,Moscow
##NAMES=HP
##CAS NAME=Butanoic acid, 2-octyl ester
##MOLFORM=C12H24O2
##CAS REGISTRY NO=20286-44-6
##MP= -300
##BP= -300
##MW= 200
##$RETENTION INDEX=1298
##$CONDENSED SPECTRUM=NO
##NPOINTS= 80
##XYDATA=(XY..XY) 1 
    25          2
    26         12
    27         91
    28         22
    29         83
    30          1
    31          2
    35          2
    36         16
    37          2
    38          5
    39         60
    40         12
    41        220
    42         80
    43        401
    44         15
    45         25
    50          4
    51          6
    52          6
    53         12
    54         11
    55        129
    56        113
    57        159
    58         16
    59          2
    60         38
    61          1
    63          2
    65          3
    66          2
    67         13
    68         16
    69         67
    70        146
    71        999
    72         42
    73         19
    77          3
    78          2
    79         11
    81          5
    82         18
    83         89
    84         53
    85          9
    86         30
    87          8
    88         53
    89        124
    90          5
    91          5
    93          3
    95          2
    97         12
    98          1
    99          4
   100          1
   102          1
   105          2
   111          3
   112        123
   113         42
   114          5
   115        140
   116         11
   117         23
   118          2
   128          1
   129         13
   130          7
   140          1
   143          1
   152          4
   154          1
   156          4
   157          2
   185          2