##TITLE=Library Entry 63804
##JCAMP-DX=Revision 4.10 
##DATA TYPE=MASS SPECTRUM
##SAMPLE DESCRIPTION=J.E. WILKINSON S-CUBED, SAN DIEGO, CA.
##NAMES=HP
##CAS NAME=7-Benzyloxyindole
##MOLFORM=C15H13NO
##CAS REGISTRY NO=20289-27-4
##MP= -300
##BP= -300
##MW= 223
##$RETENTION INDEX=0
##$CONDENSED SPECTRUM=NO
##NPOINTS= 41
##XYDATA=(XY..XY) 1 
    41         12
    44          3
    50         31
    51         86
    52         17
    53          2
    61          0
    62          6
    63         34
    64          7
    65        129
    66          4
    74          2
    75          5
    76         24
    77         72
    78         28
    79          0
    87          0
    88          0
    89         28
    90          6
    91        999
    92         77
    93          0
   102          2
   103          4
   104        141
   105         10
   115          0
   116          2
   117          0
   118          0
   132         63
   133          4
   145          1
   146          1
   222          4
   223        162
   224         23
   225          0