##TITLE=Library Entry 53325
##JCAMP-DX=Revision 4.10 
##DATA TYPE=MASS SPECTRUM
##SAMPLE DESCRIPTION=Div. of Experiment Therapeutics WRAIR, WRAMC, Washingto
n DC 20307
##NAMES=HP
##CAS NAME=2-Hydroxy-1,4-naphthoquinone, 1-cyclohexane carbonyl hydrazone
##MOLFORM=C17H18N2O3
##CAS REGISTRY NO=20287-20-1
##MP= -300
##BP= -300
##MW= 298
##$RETENTION INDEX=0
##$CONDENSED SPECTRUM=NO
##NPOINTS= 105
##XYDATA=(XY..XY) 1 
    41        351
    42         21
    43         36
    44          7
    45          2
    49          8
    50         14
    51         38
    52         13
    53         48
    54         29
    55        584
    56         28
    57          5
    59          3
    62         10
    63         24
    64          5
    65         10
    66          4
    67         29
    68          7
    69         13
    71          1
    72          2
    74          8
    75         21
    76         32
    77        104
    78         11
    79         19
    80          5
    81         34
    83        999
    84         63
    85          4
    86          6
    87          6
    88          9
    89         28
    90         18
    91          7
   101         13
   102         78
   103         75
   104         16
   105         36
   106          2
   109          4
   110         13
   111        140
   112         12
   113          7
   114         10
   115          6
   116          4
   117          6
   118          2
   126          6
   127          2
   128          4
   129          7
   130         34
   131         73
   132         15
   133          2
   142          4
   145          8
   146         11
   158          5
   159         96
   160         99
   161         15
   172          4
   173          5
   174          8
   185         15
   186          8
   187        669
   188         88
   189         19
   195          1
   198          2
   210          9
   211          2
   212          8
   215          5
   223         17
   224          7
   225          6
   226         18
   227         10
   234          2
   237          1
   241          5
   251          6
   252         24
   253          8
   269          9
   270        237
   271         42
   272          5
   297         16
   298         62
   299         14