##TITLE=Library Entry 55529
##JCAMP-DX=Revision 4.10 
##DATA TYPE=MASS SPECTRUM
##SAMPLE DESCRIPTION=Japan AIST/NIMC Database- Spectrum MS-IW-2862
##NAMES=HP
##CAS NAME=2,5-Dibutoxy-2,5-dihydrofuran
##MOLFORM=C12H22O3
##CAS REGISTRY NO=20295-23-2
##MP= -300
##BP= -300
##MW= 214
##$RETENTION INDEX=0
##$CONDENSED SPECTRUM=NO
##NPOINTS= 56
##XYDATA=(XY..XY) 1 
    26          2
    27         27
    28         11
    29        112
    30          3
    31          8
    38          1
    39         28
    40          7
    41        104
    42          9
    43         13
    44          2
    45          2
    51          1
    53          3
    54          2
    55         37
    56         33
    57        240
    58         10
    67          1
    68         67
    69          8
    70          3
    71          1
    72          1
    73         11
    81          1
    82          1
    83         39
    84         55
    85        999
    86         55
    87          6
    97          2
    99          2
   101         40
   102         17
   103          4
   111          3
   112          3
   113         20
   114          2
   129          5
   140          3
   141        600
   142         55
   143          5
   155          1
   157         19
   158          9
   159          3
   185          5
   213         21
   214          4