##TITLE=Library Entry 31214
##JCAMP-DX=Revision 4.10 
##DATA TYPE=MASS SPECTRUM
##SAMPLE DESCRIPTION=Exported from NIST MS Search
##NAMES=HP
##CAS NAME=Hexane, 1-(methylthio)-
##MOLFORM=C7H16S
##CAS REGISTRY NO=20291-60-5
##MP= -300
##BP= -300
##MW= 132
##$RETENTION INDEX=1010
##$CONDENSED SPECTRUM=NO
##NPOINTS= 95
##XYDATA=(XY..XY) 1 
     2          8
    12          4
    13          7
    14         25
    15        125
    16          4
    24          1
    25          3
    26         65
    27        634
    28        125
    29        422
    30         11
    31          1
    32          8
    33          6
    34          8
    35        102
    36          2
    37         13
    38         21
    39        309
    40         45
    41        604
    42        289
    43        440
    44         21
    45        241
    46        140
    47        251
    48        406
    49        185
    50         32
    51         28
    52          8
    53         48
    54         35
    55        404
    56        727
    57         72
    58         29
    59         62
    60         31
    61        999
    62        136
    63         55
    64          6
    65          6
    66          2
    67         17
    68          8
    69        195
    70         14
    71         12
    72          5
    73         13
    74         11
    75        128
    76         36
    77          9
    78          2
    79          2
    80          1
    81          3
    82          4
    83         52
    84        231
    85         39
    86          3
    87          8
    88          2
    89         33
    90          4
    91          2
    92          1
    93          1
    97          1
    98          1
    99          1
   100          1
   101          4
   102          1
   103         63
   104          4
   105          3
   115          1
   117        227
   118         10
   119          9
   120          1
   131         22
   132        464
   133         18
   134         12
   135          1