##TITLE=Library Entry 24112
##JCAMP-DX=Revision 4.10 
##DATA TYPE=MASS SPECTRUM
##SAMPLE DESCRIPTION=Exported from NIST MS Search
##NAMES=HP
##CAS NAME=1,2-Octadecanediol
##MOLFORM=C18H38O2
##CAS REGISTRY NO=20294-76-2
##MP= -300
##BP= -300
##MW= 286
##$RETENTION INDEX=0
##$CONDENSED SPECTRUM=NO
##NPOINTS= 79
##XYDATA=(XY..XY) 1 
    17         45
    18        196
    27         84
    28        140
    29        248
    31         19
    32         28
    39         76
    40         16
    41        583
    42        135
    43        946
    44         67
    45         32
    46          8
    53         36
    54         96
    55        769
    56        501
    57        999
    58         52
    59         35
    61         22
    66         10
    67        123
    68        130
    69        620
    70        420
    72         33
    73         35
    75         10
    77          8
    79         13
    81         77
    82        194
    83        745
    84        281
    85        318
    86         22
    91          8
    95         38
    96        107
    97        620
    98        180
    99         73
   101         10
   103          9
   109         16
   110         44
   111        304
   112        113
   113         46
   117         19
   123          8
   124         25
   125        138
   126         72
   127         26
   138         16
   139         50
   140         46
   141         18
   152         10
   153         26
   154         31
   155         14
   163          9
   167         15
   168         22
   169         10
   181          9
   182         15
   183          8
   196         10
   207         24
   224         16
   252         19
   255         41
   281         15