##TITLE=Library Entry 9940
##JCAMP-DX=Revision 4.10 
##DATA TYPE=MASS SPECTRUM
##SAMPLE DESCRIPTION=W.E. GORE, LEDERLE LAB., PEARL RIVER, NEW YORK,
##NAMES=HP
##CAS NAME=6,8-Dioxabicyclo[3.2.1]octane, 7-ethyl-5-methyl-, (1R-exo)-
##MOLFORM=C9H16O2
##CAS REGISTRY NO=20290-99-7
##MP= -300
##BP= -300
##MW= 156
##$RETENTION INDEX=0
##$CONDENSED SPECTRUM=NO
##NPOINTS= 17
##XYDATA=(XY..XY) 1 
    27        130
    29         90
    39         80
    41        120
    43        999
    55         70
    57         90
    68        150
    71         80
    72         40
    85        290
    86        110
    98        130
    99         50
   114        260
   127         40
   156         40