##TITLE=Library Entry 5885
##JCAMP-DX=Revision 4.10 
##DATA TYPE=MASS SPECTRUM
##SAMPLE DESCRIPTION=A.A.Kutin, Moscow, Russia
##NAMES=HP
##CAS NAME=Acetic acid, mercapto-, hexyl ester
##MOLFORM=C8H16O2S
##CAS REGISTRY NO=20292-01-7
##MP= -300
##BP= -300
##MW= 176
##$RETENTION INDEX=0
##$CONDENSED SPECTRUM=NO
##NPOINTS= 80
##XYDATA=(XY..XY) 1 
    33          2
    34          1
    35          1
    36          8
    38          6
    39         54
    40         28
    41        259
    42        140
    43        999
    44         39
    45         46
    46         47
    47        181
    48          7
    49          8
    50          1
    51          2
    53         12
    55        142
    56        143
    57        112
    58         59
    59          4
    60          6
    61          3
    62          0
    63          3
    64          2
    65          6
    67          7
    69         67
    70          4
    71          2
    72          1
    73          4
    74         43
    75         40
    76          3
    77          6
    79          0
    81          5
    82          5
    83         23
    84        167
    85        110
    86          6
    87          4
    88          0
    91          8
    92         95
    93         49
    94          5
    95          2
    96          0
    97          0
   101          4
   103          3
   105          3
   109          4
   110          0
   111          3
   112          0
   113          1
   115          2
   116          0
   117         28
   118          0
   119          6
   125          0
   129         27
   130          1
   133          2
   137          1
   138          4
   139          2
   147          1
   157          1
   158          0
   176          8