##TITLE=Library Entry 16951
##JCAMP-DX=Revision 4.10 
##DATA TYPE=MASS SPECTRUM
##SAMPLE DESCRIPTION=L. Cohen, LC, NIDDK, NIH, Bethesda, MD 20892
##NAMES=HP
##CAS NAME=2-Aminoimidazole-5-propionic caid
##MOLFORM=C6H9N3O2
##CAS REGISTRY NO=202913-81-3
##MP= -300
##BP= -300
##MW= 155
##$RETENTION INDEX=0
##$CONDENSED SPECTRUM=NO
##NPOINTS= 65
##XYDATA=(XY..XY) 1 
    41         48
    42        319
    43        470
    44        713
    45        999
    46        821
    47         26
    49         20
    50         50
    51        121
    52         71
    53         75
    54        152
    55        211
    56        201
    57        133
    59         80
    60         46
    61         28
    62         23
    63         45
    64         20
    65         53
    66         39
    67         47
    68         62
    69        110
    70         31
    71         24
    73         34
    74         34
    75         17
    76         18
    77        158
    78        455
    79         47
    81         69
    82         37
    83         63
    84         76
    85         18
    92         16
    93         17
    95         84
    96        482
    97         37
    98         51
    99         33
   100         16
   101         32
   106        200
   107         19
   108         28
   109        126
   110        556
   111        101
   112         16
   113         19
   115         16
   124        240
   125         21
   137         93
   138         18
   155        269
   156         18