##TITLE=Library Entry 44608
##JCAMP-DX=Revision 4.10 
##DATA TYPE=MASS SPECTRUM
##SAMPLE DESCRIPTION=G. SPITELLER, LEHR. ORG. CHEM., UNIV. BAYREUTH, BAYREUT
H, GER.
##NAMES=HP
##CAS NAME=Monomethyl pimelate
##MOLFORM=C8H14O4
##CAS REGISTRY NO=20291-40-1
##MP= -300
##BP= -300
##MW= 174
##$RETENTION INDEX=0
##$CONDENSED SPECTRUM=NO
##NPOINTS= 24
##XYDATA=(XY..XY) 1 
    39        190
    41        440
    43        570
    45        190
    55        700
    59        360
    60        180
    68        170
    69        380
    73        270
    74        999
    83        350
    87        160
    96        110
    97        190
   100         90
   101         80
   114        200
   115        270
   124        200
   125        160
   128        180
   143        220
   156         30