##TITLE=Library Entry 31130
##JCAMP-DX=Revision 4.10 
##DATA TYPE=MASS SPECTRUM
##SAMPLE DESCRIPTION=Exported from NIST MS Search
##NAMES=HP
##CAS NAME=Heptane, 1-(methylthio)-
##MOLFORM=C8H18S
##CAS REGISTRY NO=20291-61-6
##MP= -300
##BP= -300
##MW= 146
##$RETENTION INDEX=1117
##$CONDENSED SPECTRUM=NO
##NPOINTS= 83
##XYDATA=(XY..XY) 1 
     2          3
    14         17
    15         74
    16          6
    26         28
    27        576
    28        195
    29        505
    30         10
    32         24
    34          2
    35        111
    36         21
    37         11
    38         19
    39        254
    40         42
    41        734
    42        418
    43        364
    44         30
    45        143
    46         91
    47        187
    48        464
    49        209
    50         31
    51         21
    52          7
    53         46
    54         56
    55        580
    56        689
    57        302
    58         26
    59         39
    60         22
    61        999
    62        144
    63         55
    64          6
    65          5
    66          3
    67         21
    68         83
    69        333
    70        552
    71         44
    72          5
    73         10
    74         11
    75        127
    76         39
    77         11
    78          9
    79          1
    81          6
    82          1
    83         56
    84          8
    85          7
    87          7
    89         31
    90          2
    91          5
    96          1
    97         30
    98        134
    99         11
   100          3
   101          9
   103         61
   104          3
   105          5
   117         22
   131        219
   132         18
   133         10
   134          1
   145         22
   146        393
   147         42
   148         20