##TITLE=Library Entry 77545
##JCAMP-DX=Revision 4.10 
##DATA TYPE=MASS SPECTRUM
##SAMPLE DESCRIPTION=R.C. DOUGHERTY
##NAMES=HP
##CAS NAME=[4.4.2]Propella-3,8,11-triene
##MOLFORM=C12H14
##CAS REGISTRY NO=20295-17-4
##MP= -300
##BP= -300
##MW= 158
##$RETENTION INDEX=0
##$CONDENSED SPECTRUM=NO
##NPOINTS= 50
##XYDATA=(XY..XY) 1 
    27        140
    28         40
    29         35
    38         30
    39        260
    40         30
    41        120
    42         60
    43        100
    50         70
    51        220
    52        100
    53         90
    54        100
    55         20
    63        125
    64         70
    65        160
    66         40
    67        100
    75         30
    76         40
    77        280
    78        440
    79        250
    80        200
    89         50
    91        700
    92        180
   102         90
   103        240
   104        999
   105        130
   115        500
   116        250
   117        610
   118         60
   127        115
   128        510
   129        820
   130        730
   131        190
   132         50
   141         85
   142        115
   143        380
   144         60
   157         60
   158        300
   159         35