##TITLE=Library Entry 47321
##JCAMP-DX=Revision 4.10 
##DATA TYPE=MASS SPECTRUM
##SAMPLE DESCRIPTION=NIST Mass Spectrometry Data Center, 1994
##NAMES=HP
##CAS NAME=5-Methylbenzofurazan
##MOLFORM=C7H6N2O
##CAS REGISTRY NO=20304-86-3
##MP= -300
##BP= -300
##MW= 134
##$RETENTION INDEX=0
##$CONDENSED SPECTRUM=NO
##NPOINTS= 70
##XYDATA=(XY..XY) 1 
    15         22
    18          2
    25          8
    26         79
    27        229
    28         87
    29          2
    30        252
    31          8
    36          8
    37        123
    38        165
    39        256
    40         37
    41         25
    42          5
    43          5
    44          5
    48          6
    49         46
    50        272
    51        615
    52        208
    53         67
    54         28
    55          9
    56          4
    57          6
    60          7
    61         50
    62         68
    63        115
    64        103
    65         30
    66         21
    67          9
    68          9
    73         10
    74         40
    75         97
    76        196
    77        999
    78        263
    79        170
    80         24
    81          3
    82          5
    86          6
    87         12
    88         21
    89         23
    90         41
    91          9
    92          3
    94         27
    99          7
   100          5
   102        109
   103         81
   104        122
   105        436
   106         42
   107         13
   116         39
   117         41
   118          4
   132          3
   134        622
   135         52
   136          4