##TITLE=Library Entry 13721
##JCAMP-DX=Revision 4.10 
##DATA TYPE=MASS SPECTRUM
##SAMPLE DESCRIPTION=Institute of Organic Chemistry, Novosibirsk, USSR 1988
##NAMES=HP
##CAS NAME=Methyl 8-acetoxyeicosanoate
##MOLFORM=C23H44O4
##CAS REGISTRY NO=20300-88-3
##MP= -300
##BP= -300
##MW= 384
##$RETENTION INDEX=0
##$CONDENSED SPECTRUM=NO
##NPOINTS= 200
##XYDATA=(XY..XY) 1 
    41        152
    42         20
    43        999
    44          6
    45         17
    53          5
    54         40
    55        328
    56         76
    57        185
    58         39
    59         46
    60          9
    61         14
    63          5
    65         13
    67        135
    68         50
    69        260
    70         48
    71         68
    72         38
    73         32
    74        158
    75         39
    77          2
    79         22
    80          9
    81        129
    82         95
    83        252
    84         89
    85         36
    86         12
    87        192
    89          7
    91         15
    92          9
    93         10
    94         37
    95        118
    96         75
    97        223
    98        145
    99         29
   100         10
   101         13
   102         10
   105         19
   106         17
   107         13
   108         10
   109         19
   110         42
   111         86
   112         41
   113         18
   114         28
   115         52
   116         23
   118          7
   119          8
   120         10
   121         21
   122          5
   123         79
   124         37
   125         48
   126         16
   127         42
   128         23
   129         55
   130         49
   131          6
   132          4
   133         16
   134         24
   136         13
   137          9
   138         92
   139        105
   140         15
   141         65
   142         18
   143         75
   144         19
   145         17
   146         10
   147         23
   148         22
   149         22
   150          2
   152         35
   153         38
   154          6
   155         65
   156         16
   157         19
   158         22
   159         62
   160         16
   161          9
   162         17
   163         10
   164         18
   165         48
   166         24
   167          9
   168          6
   169         48
   170         47
   171         89
   172         30
   173         49
   174          5
   175          7
   176          9
   177          6
   179         10
   180         16
   181         16
   182          3
   183        250
   184         40
   185         23
   186         20
   187         86
   188         15
   192          5
   194         18
   196         11
   197         46
   198         19
   199         16
   200         23
   201         76
   202         10
   204          6
   206         10
   208         19
   209         12
   210          6
   212          8
   214          6
   215        338
   216         49
   217          7
   218          6
   220          7
   221          6
   222          7
   224         12
   225         22
   226         10
   227          9
   228         17
   229         58
   230         13
   234          7
   235          8
   236          8
   238         12
   239         11
   241         11
   242         13
   243          6
   244          5
   248         22
   249         16
   250         49
   252          4
   256          4
   257         58
   258          6
   259          4
   262          8
   263          7
   264          3
   265          8
   266          9
   269          8
   271         19
   272          2
   273          7
   274         30
   275         15
   292        265
   293        152
   294         21
   297          3
   304          3
   306         24
   309         89
   310         10
   320         11
   322          5
   324         46
   325         12
   341         43
   342         12