##TITLE=Library Entry 19880
##JCAMP-DX=Revision 4.10 
##DATA TYPE=MASS SPECTRUM
##SAMPLE DESCRIPTION=D.HENNEBERG, MAX-PLANCK INSTITUTE, MULHEIM, WEST GERMAN
Y
##NAMES=HP
##CAS NAME=4-Dodecene
##MOLFORM=C12H24
##CAS REGISTRY NO=2030-84-4
##MP= -300
##BP= -300
##MW= 168
##$RETENTION INDEX=1187
##$CONDENSED SPECTRUM=NO
##NPOINTS= 72
##XYDATA=(XY..XY) 1 
    25          1
    26          7
    27        162
    28         13
    29        238
    30          5
    31          1
    33          0
    34          0
    35          1
    36          2
    37          1
    38          4
    39        140
    40         22
    41        650
    42        234
    43        570
    44          2
    46          0
    47          0
    49          0
    50          5
    51          8
    52          8
    53         58
    54        115
    55        999
    56        685
    57        341
    58         12
    62          0
    63          2
    65         17
    66         10
    67        109
    68         60
    69        664
    70        497
    71        107
    72          4
    73          0
    75          1
    77         11
    78          3
    79         11
    80          2
    81         37
    82         54
    83        315
    84        198
    85         47
    86          3
    91          2
    93          0
    95          8
    96         22
    97        147
    98         69
    99          7
   109          0
   110          7
   111         58
   112         24
   113          1
   124          2
   125         19
   126          9
   139          4
   140          8
   168         84
   169         12