##TITLE=Library Entry 84097
##JCAMP-DX=Revision 4.10 
##DATA TYPE=MASS SPECTRUM
##SAMPLE DESCRIPTION=NIST Mass Spectrometry Data Center
##NAMES=HP
##CAS NAME=.beta.-Elemenone
##MOLFORM=C15H22O
##CAS REGISTRY NO=20303-60-0
##MP= -300
##BP= -300
##MW= 218
##$RETENTION INDEX=1597
##$CONDENSED SPECTRUM=NO
##NPOINTS= 101
##XYDATA=(XY..XY) 1 
    26          1
    27         22
    28          3
    29         19
    38          3
    39         93
    40         27
    41        177
    42         21
    43         27
    50          5
    51         28
    52         17
    53        127
    54         18
    55         61
    56          4
    57          3
    58          2
    60          2
    61          1
    62          1
    63         10
    64          3
    65         52
    67        405
    68        128
    69         48
    70          4
    71          4
    72          1
    73          1
    74          1
    75          2
    76          2
    77        139
    78         28
    79        153
    80         30
    81         39
    82         84
    83          8
    84          2
    89          3
    90          1
    91        269
    92         34
    93        314
    95         86
    96         26
    97          9
    98          1
   102          3
   103         19
   104          5
   105        166
   106         37
   107        999
   108        163
   109         73
   110         20
   111          2
   116          5
   117         39
   118          5
   119         69
   120         31
   121        737
   123         32
   129          5
   130          4
   131         13
   132         30
   133         89
   134         29
   135        734
   136        150
   137         40
   143          4
   144          2
   145         10
   147         48
   148         15
   149         55
   150        142
   151         18
   157          5
   161         41
   163          3
   175         59
   176         25
   177          5
   185         10
   189          8
   190         11
   191          3
   200          2
   203         47
   204          7
   218         27
   219          4