##TITLE=Library Entry 52692
##JCAMP-DX=Revision 4.10 
##DATA TYPE=MASS SPECTRUM
##SAMPLE DESCRIPTION=M.E.FITZGERALD ARCO CHEMICAL COMPANY, PHILADELPHIA, USA
##NAMES=HP
##CAS NAME=Cyclopentane, 1,1,3,4-tetramethyl-, trans-
##MOLFORM=C9H18
##CAS REGISTRY NO=20309-77-7
##MP= -300
##BP= -300
##MW= 126
##$RETENTION INDEX=776
##$CONDENSED SPECTRUM=NO
##NPOINTS= 86
##XYDATA=(XY..XY) 1 
    26         27
    27        361
    28         67
    29        244
    30          6
    31          0
    34          0
    35          0
    36          5
    37          8
    38         23
    39        377
    40         70
    41        734
    42        142
    43        194
    44          7
    45          2
    46          3
    47          1
    48          0
    49          1
    50         14
    51         40
    52         19
    53        116
    54         27
    55        644
    56        173
    57         56
    58          2
    61          0
    62          3
    63         10
    64          2
    65         24
    66         12
    67         72
    68         27
    69        965
    70        407
    71         67
    72         34
    73          0
    74          1
    75          1
    76          0
    77         25
    78          7
    79         21
    80          5
    81         15
    82        122
    83        999
    84        144
    85          9
    86          0
    87          0
    89          0
    90          0
    91         11
    92          1
    93          4
    94          1
    95         17
    96          2
    97          3
    98          1
    99          0
   100          0
   101          0
   102          0
   103          0
   105          0
   106          0
   107          0
   108          0
   109          5
   110         22
   111        763
   112         68
   113          4
   114          0
   125          1
   126          3
   127          0