##TITLE=Library Entry 62398
##JCAMP-DX=Revision 4.10 
##DATA TYPE=MASS SPECTRUM
##SAMPLE DESCRIPTION=Japan AIST/NIMC Database- Spectrum MS-IW-4953
##NAMES=HP
##CAS NAME=Benzenepropanoic acid, .alpha.-hydroxy-, (S)-
##MOLFORM=C9H10O3
##CAS REGISTRY NO=20312-36-1
##MP= -300
##BP= -300
##MW= 166
##$RETENTION INDEX=1545
##$CONDENSED SPECTRUM=NO
##NPOINTS= 55
##XYDATA=(XY..XY) 1 
    17          1
    18          4
    27          5
    28          3
    29          6
    38          3
    39         26
    40          2
    41          8
    43          6
    44          2
    45          5
    46          1
    50          9
    51         30
    52          6
    53          3
    55          1
    60          2
    61          1
    62          4
    63         15
    64          4
    65         78
    66          5
    74          3
    75          3
    76          3
    77         46
    78         16
    79         12
    87          1
    89         13
    90          7
    91        999
    92        100
    93          8
   102          5
   103         81
   104          9
   105          1
   107          1
   119          2
   120          8
   121         57
   122          5
   130          1
   131          4
   132          1
   147         36
   148        221
   149         21
   150          2
   166         70
   167          7