##TITLE=Library Entry 84533
##JCAMP-DX=Revision 4.10 
##DATA TYPE=MASS SPECTRUM
##SAMPLE DESCRIPTION=Japan AIST/NIMC Database- Spectrum MS-NW-3949
##NAMES=HP
##CAS NAME=4-(p-Methoxyphenylazo)-m-phenylenediamine
##MOLFORM=C13H14N4O
##CAS REGISTRY NO=20311-41-5
##MP= -300
##BP= -300
##MW= 242
##$RETENTION INDEX=0
##$CONDENSED SPECTRUM=NO
##NPOINTS= 170
##XYDATA=(XY..XY) 1 
    14          1
    15         10
    16          1
    17          1
    18          2
    26          5
    27         11
    28         37
    29          4
    30          6
    31          4
    39         30
    40          9
    41         24
    42         23
    43          9
    44          3
    45          1
    50         11
    51         22
    52         51
    53         57
    54         21
    55          7
    56          2
    57          5
    60          2
    61          3
    62          6
    63         36
    64         40
    65         21
    66         22
    67         23
    68          6
    69          9
    70          2
    71          3
    73          2
    74          3
    75          3
    76          9
    77        100
    78         32
    79         41
    80        209
    81         22
    82          3
    83          3
    84          1
    85          3
    86          1
    87          1
    88          1
    89          2
    90         29
    91         11
    92         67
    93         12
    94         19
    95         15
    96          2
    97          3
    98          2
    99          2
   100          1
   101          1
   102          2
   103          3
   104          4
   105         19
   106         26
   107        999
   108        150
   109         10
   110          2
   111          1
   113          1
   114          1
   115          5
   116          2
   117          3
   118          2
   119          4
   120         16
   121         69
   122         26
   123         51
   124          5
   125          1
   126          1
   127          6
   128          3
   129          3
   130          3
   131          2
   132          3
   133          2
   134          3
   135        197
   136         21
   137          2
   138          1
   139          1
   140          2
   141          2
   142          3
   143          8
   144          8
   145          5
   146          3
   147          2
   148          1
   149          2
   152          2
   153          3
   154          9
   155          6
   156          4
   157          2
   158          3
   159          2
   160          1
   166          1
   167          2
   168          3
   169         14
   170         10
   171         11
   172          4
   173          2
   174          3
   180          1
   181          6
   182         17
   183          9
   184          4
   185          2
   186          5
   187          2
   188          1
   189          1
   191          1
   195          1
   196          4
   197          9
   198         13
   199         41
   200          8
   201          1
   209          2
   210          2
   211          3
   212          4
   213         85
   214         50
   215          9
   216          1
   224          1
   225          3
   226          4
   227         19
   228          2
   239          2
   240         21
   241         23
   242        750
   243        130
   244         13
   245          1