##TITLE=Library Entry 10777
##JCAMP-DX=Revision 4.10 
##DATA TYPE=MASS SPECTRUM
##SAMPLE DESCRIPTION=Institute of Organic Chemistry, Novosibirsk, USSR 1988
##NAMES=HP
##CAS NAME=1,5-Di-O-acetyl-2,3,4,6-tetra-O-methyl-d-glucitol
##MOLFORM=C14H26O8
##CAS REGISTRY NO=20316-14-7
##MP= -300
##BP= -300
##MW= 322
##$RETENTION INDEX=0
##$CONDENSED SPECTRUM=NO
##NPOINTS= 64
##XYDATA=(XY..XY) 1 
    41         52
    42         19
    43        999
    44         29
    45        459
    53         13
    55         33
    56         12
    57         32
    58         37
    59         52
    69         30
    70         11
    71        199
    72         30
    73         52
    74         47
    75        109
    81         23
    82          4
    83         16
    84          5
    85         70
    86          5
    87        269
    88         87
    89        105
    97         11
    98         24
    99         56
   101        999
   102        129
   103         19
   111         11
   113        134
   114         10
   115         24
   117        639
   118         32
   119         32
   125          7
   127          6
   129        549
   130         43
   131         81
   139          6
   142          6
   143         18
   145        489
   146         32
   157          9
   161        519
   162         48
   173         16
   175          9
   203          2
   204          2
   205        209
   206         18
   213          1
   217          2
   245          1
   249          1
   263          5