##TITLE=Library Entry 37285
##JCAMP-DX=Revision 4.10 
##DATA TYPE=MASS SPECTRUM
##SAMPLE DESCRIPTION=Japan AIST/NIMC Database- Spectrum MS-IW- 685
##NAMES=HP
##CAS NAME=Cyanoacetaldehyde diethylacetal
##MOLFORM=C7H13NO2
##CAS REGISTRY NO=2032-34-0
##MP= -300
##BP= -300
##MW= 143
##$RETENTION INDEX=0
##$CONDENSED SPECTRUM=NO
##NPOINTS= 59
##XYDATA=(XY..XY) 1 
    14          3
    15         23
    18          1
    26         11
    27         82
    28         33
    29        210
    30          7
    31         52
    38          1
    39          3
    40         11
    41         27
    42        200
    43         38
    44         25
    45         75
    46          4
    47        429
    48          5
    49          1
    51          1
    52          5
    53          1
    54          7
    55          1
    56          1
    57          3
    59          9
    60          1
    61          3
    67          1
    68         46
    69         37
    70        999
    71         39
    72         21
    73          4
    75        265
    76          9
    77          1
    84          2
    86         19
    87          1
    89          2
    96          2
    97         15
    98        279
    99         22
   100          1
   103        340
   104         18
   105          2
   114          5
   115          1
   142          1
   143          1
   144          6
   145          1