##TITLE=Library Entry 42872
##JCAMP-DX=Revision 4.10 
##DATA TYPE=MASS SPECTRUM
##SAMPLE DESCRIPTION=Chemical Concepts
##NAMES=HP
##CAS NAME=Cyclopropane, 1-methylene-2-phenyl-2-trimethylsilyl-
##MOLFORM=C13H18Si
##CAS REGISTRY NO=203200-52-6
##MP= -300
##BP= -300
##MW= 202
##$RETENTION INDEX=0
##$CONDENSED SPECTRUM=NO
##NPOINTS= 101
##XYDATA=(XY..XY) 1 
    26          4
    27         15
    28          4
    29         12
    31          9
    38          2
    39         23
    41          6
    42          5
    43         74
    44         20
    45        108
    46          7
    47          4
    50         12
    51         33
    52          9
    53         18
    54          3
    55         14
    57         11
    58         22
    59        104
    60          9
    61          3
    62          5
    63         17
    64          3
    65         10
    66          4
    67          8
    69          6
    70          3
    71          5
    72         16
    73        999
    74         83
    75         45
    76         12
    77         43
    78         16
    79          6
    81          3
    83         12
    84          2
    85          6
    86          2
    87          3
    89         11
    91         29
    92         12
    93          5
    95          3
   101          5
   102         28
   103         18
   104          4
   105         34
   106          4
   107         11
   109          4
   113          2
   115         28
   116          5
   117          9
   119         11
   121         13
   126          8
   127         36
   128        131
   129         45
   130          8
   131         23
   132          4
   133          7
   135         43
   136          6
   141         10
   142          6
   143         17
   144          3
   145         32
   146          7
   147          8
   155          3
   157          2
   159        162
   160         27
   161         12
   162          3
   167          3
   169          2
   171         21
   172          4
   174          5
   183          3
   185          5
   186          4
   187         14
   188          2
   202          4