##TITLE=Library Entry 30147
##JCAMP-DX=Revision 4.10 
##DATA TYPE=MASS SPECTRUM
##SAMPLE DESCRIPTION=Japan AIST/NIMC Database- Spectrum MS-NW-5164
##NAMES=HP
##CAS NAME=2-Propanol, 1-[2-(2-methoxy-1-methylethoxy)-1-methylethoxy]-
##MOLFORM=C10H22O4
##CAS REGISTRY NO=20324-33-8
##MP= -300
##BP= -300
##MW= 206
##$RETENTION INDEX=0
##$CONDENSED SPECTRUM=NO
##NPOINTS= 63
##XYDATA=(XY..XY) 1 
    14          1
    15         29
    17          2
    18          8
    19          3
    26          4
    27         34
    28         10
    29         40
    30          2
    31        154
    32          2
    33          6
    38          1
    39         23
    40          8
    41        187
    42         72
    43         62
    44          7
    45        263
    46          7
    47          9
    55          5
    56          2
    57         47
    58         41
    59        999
    60         36
    61          4
    69          1
    71          8
    72         52
    73        376
    74         16
    75          4
    83          1
    85          7
    86          1
    87          8
    89          5
    90          1
    91          3
    99          8
   100          1
   101          7
   102          2
   103        141
   104          9
   105          1
   115          5
   116          3
   117        154
   118         10
   119          1
   129          1
   130          9
   131         13
   132          1
   143          1
   161         46
   162          4
   175          2