##TITLE=Library Entry 30171
##JCAMP-DX=Revision 4.10 
##DATA TYPE=MASS SPECTRUM
##SAMPLE DESCRIPTION=Exported from NIST MS Search
##NAMES=HP
##CAS NAME=2,5,8,11-Tetraoxatetradecan-13-ol, 4,7,10-trimethyl-
##MOLFORM=C13H28O5
##CAS REGISTRY NO=20324-34-9
##MP= -300
##BP= -300
##MW= 264
##$RETENTION INDEX=0
##$CONDENSED SPECTRUM=NO
##NPOINTS= 65
##XYDATA=(XY..XY) 1 
    15         12
    17          2
    18          9
    19          3
    27         17
    28         39
    29         40
    30          3
    31        112
    32         79
    33          3
    39         14
    40          5
    41        155
    42         72
    43         73
    44          8
    45        180
    46          5
    47          3
    55          6
    56          5
    57         70
    58         41
    59        999
    60         43
    61          4
    67          2
    71          8
    72         67
    73        501
    74         24
    75          6
    85         11
    86          2
    87         22
    88          2
    89          4
    91          4
    99         21
   100          3
   101         15
   102          2
   103         84
   104          7
   115          9
   116          9
   117        266
   118         19
   119          2
   129          2
   130         33
   131         51
   132          8
   143          4
   147          9
   149          3
   159          2
   161         62
   162          6
   176          7
   188         10
   189          3
   219         34
   220          5