##TITLE=Library Entry 29888
##JCAMP-DX=Revision 4.10 
##DATA TYPE=MASS SPECTRUM
##SAMPLE DESCRIPTION=Japan AIST/NIMC Database- Spectrum MS-NW-5287
##NAMES=HP
##CAS NAME=2-Propanol, 1-(2-methoxy-1-methylethoxy)-
##MOLFORM=C7H16O3
##CAS REGISTRY NO=20324-32-7
##MP= -300
##BP= -300
##MW= 148
##$RETENTION INDEX=981
##$CONDENSED SPECTRUM=NO
##NPOINTS= 53
##XYDATA=(XY..XY) 1 
    14          2
    15         37
    16          1
    17          1
    18          3
    26          5
    27         32
    28         16
    29         44
    30          3
    31        195
    32          4
    33         24
    37          1
    38          2
    39         27
    40          7
    41        202
    42         72
    43         73
    44          9
    45        374
    46          9
    47          3
    55          5
    56          2
    57         31
    58         51
    59        999
    60         35
    61          4
    63          1
    69          1
    71         12
    72         16
    73        292
    74         15
    75         13
    77          1
    85          4
    87          2
    89          5
    91          1
    92          2
    93          1
   101          7
   102          1
   103        272
   104         39
   105          4
   117          4
   130          2
   133          1