##TITLE=Library Entry 6703
##JCAMP-DX=Revision 4.10 
##DATA TYPE=MASS SPECTRUM
##SAMPLE DESCRIPTION=Japan AIST/NIMC Database- Spectrum MS-NW-6841
##NAMES=HP
##CAS NAME=1,3-Dioxane-4,6-dione, 2,2-dimethyl-
##MOLFORM=C6H8O4
##CAS REGISTRY NO=2033-24-1
##MP= -300
##BP= -300
##MW= 144
##$RETENTION INDEX=0
##$CONDENSED SPECTRUM=NO
##NPOINTS= 74
##XYDATA=(XY..XY) 1 
    12         13
    13         14
    14        113
    15        147
    16         15
    17          1
    18          5
    19          1
    20          1
    21          3
    22          6
    24          4
    25          9
    26         25
    27         46
    28         46
    29         28
    30          2
    31          7
    32          2
    36          4
    37         11
    38         15
    39         41
    40         12
    41         60
    42        341
    43        999
    44        436
    45         31
    46          2
    50          2
    51          3
    52          2
    53          8
    54          5
    55          5
    57          8
    58        266
    59         24
    60         17
    61         12
    65          1
    66          2
    67         23
    68          6
    69         18
    70          4
    72          8
    77          2
    79          1
    82         28
    83          6
    84          2
    85          3
    86         21
    87          3
    91          1
    98         30
    99          2
   100         15
   101          1
   108          1
   109          4
   111          1
   121          1
   123          1
   124          2
   125          1
   126         37
   127         25
   128          2
   129         13
   130          1