##TITLE=Library Entry 47695
##JCAMP-DX=Revision 4.10 
##DATA TYPE=MASS SPECTRUM
##SAMPLE DESCRIPTION=A.A.Kutin, Moscow, Russia
##NAMES=HP
##CAS NAME=Benzene, 1-phenoxy-4-(2-phenylethenylsulfonyl)-
##MOLFORM=C20H16O3S
##CAS REGISTRY NO=203309-03-9
##MP= -300
##BP= -300
##MW= 336
##$RETENTION INDEX=0
##$CONDENSED SPECTRUM=NO
##NPOINTS= 188
##XYDATA=(XY..XY) 1 
    33         37
    34          2
    35          0
    39        132
    40         22
    41         15
    43          9
    45         36
    47          2
    48          1
    51        475
    52         29
    53         14
    55         11
    57         39
    59          1
    63        107
    64         40
    65         78
    66          6
    67          1
    69          8
    70          6
    71          2
    72          0
    73          1
    74         29
    75         47
    77        999
    78         51
    79          9
    81          2
    82          1
    83          1
    84          1
    85          2
    86          3
    87          5
    89         26
    91        150
    92         20
    93          4
    94          7
    95          3
    96          3
    97          3
    98          2
    99          1
   102        163
   103        162
   105         18
   107          7
   108          2
   109          3
   110          1
   111          1
   113          7
   115        186
   116         15
   117          4
   118          7
   119          8
   121          3
   122          2
   123          7
   124          1
   125          1
   127         10
   128         32
   129         42
   130         27
   131          7
   132          1
   133          2
   134          7
   136         36
   139         55
   141        164
   142         20
   143          3
   144          2
   145          1
   147          3
   149          1
   150          1
   151          9
   152         27
   153          5
   154          1
   155          2
   157         10
   158          1
   159          2
   160          0
   161          1
   163          2
   165         40
   166         13
   167         19
   168         39
   169         21
   170         91
   171         13
   172          4
   173          1
   175         11
   176         11
   178        274
   179        133
   180         17
   181          3
   182          1
   183          2
   185        121
   186         23
   189         29
   190          3
   191          1
   193          3
   194          3
   195         14
   196          2
   197          1
   198          0
   199          0
   200          2
   201          3
   202          4
   203          1
   204          0
   208          0
   209          0
   210          1
   211          0
   213          1
   215         14
   217        656
   218         76
   219         30
   220          4
   221          0
   226          1
   227          1
   228          4
   229          2
   230          0
   232          0
   234         80
   235          9
   236          4
   237          0
   238          0
   239          1
   240          0
   241          1
   242          2
   243          2
   244          1
   246          9
   247          1
   252          2
   253          3
   255          2
   256          0
   257          3
   258          0
   259          0
   267          0
   269          5
   270          9
   272        351
   273         69
   274          6
   275          0
   283          0
   287          4
   288          0
   289          0
   304          0
   305          0
   331          0
   332          1
   333          3
   336        414
   337         82
   338         26
   339          5
   340          0