##TITLE=Library Entry 51814
##JCAMP-DX=Revision 4.10 
##DATA TYPE=MASS SPECTRUM
##SAMPLE DESCRIPTION=J.F.Casale ET AL.J.Forensic SCI,43,125,(1998)
##NAMES=HP
##CAS NAME=Propionylecgonine methyl ester
##MOLFORM=C13H21NO4
##CAS REGISTRY NO=203320-37-0
##MP= -300
##BP= -300
##MW= 255
##$RETENTION INDEX=1636
##$CONDENSED SPECTRUM=NO
##NPOINTS= 46
##XYDATA=(XY..XY) 1 
    41         58
    42        259
    43          7
    44         51
    45          7
    53         26
    54         22
    55         73
    56         40
    57        175
    58          7
    59         33
    65          7
    67         40
    68         51
    69         11
    70         22
    79         14
    80         26
    81         69
    82        999
    83        387
    84         40
    91         26
    93         22
    94        369
    95         29
    96        328
    97        113
   108         26
   110         11
   119         22
   122         51
   140         11
   150          7
   152         22
   155         14
   166         18
   168         69
   182        869
   183         88
   198         77
   224         51
   240          5
   255        109
   256         11