##TITLE=Library Entry 82358
##JCAMP-DX=Revision 4.10 
##DATA TYPE=MASS SPECTRUM
##SAMPLE DESCRIPTION=NIST Mass Spectrometry Data Center, 1994
##NAMES=HP
##CAS NAME=p-Pentylacetanilide
##MOLFORM=C13H19NO
##CAS REGISTRY NO=20330-52-3
##MP= -300
##BP= -300
##MW= 205
##$RETENTION INDEX=0
##$CONDENSED SPECTRUM=NO
##NPOINTS= 89
##XYDATA=(XY..XY) 1 
    14          2
    15         53
    16          0
    18          2
    27         61
    28         27
    29         82
    30          7
    32          0
    37          0
    38          5
    39         46
    40          7
    41         57
    42         19
    43        219
    44          5
    50          7
    51         26
    52         27
    53         13
    54          5
    55          5
    56          1
    57          4
    58          2
    61          0
    62          2
    63         14
    64          7
    65         35
    66          9
    67          4
    68          0
    69          1
    75          2
    77         80
    78         69
    79         42
    80         10
    81          1
    87          0
    88          1
    89         13
    90          9
    91         35
    92         22
    93         16
    94          4
    95          1
   101          1
   102          3
   103         10
   104         17
   105          1
   106        999
   107         98
   108          4
   115          6
   116          3
   117          8
   118         17
   119         19
   120         19
   121          2
   127          1
   128          1
   130          3
   132         18
   133          4
   134         10
   135          1
   136          0
   144          1
   145          1
   146          1
   148        168
   149         19
   150          1
   161          0
   163        113
   164         15
   165          0
   175         14
   176          2
   190          1
   205        137
   206         20
   207          1