##TITLE=Library Entry 6048
##JCAMP-DX=Revision 4.10 
##DATA TYPE=MASS SPECTRUM
##SAMPLE DESCRIPTION=NIST Mass Spectrometry Data Center
##NAMES=HP
##CAS NAME=n-Hexanesulphonylacetonitrile
##MOLFORM=C8H15NO2S
##CAS REGISTRY NO=203310-42-3
##MP= -300
##BP= -300
##MW= 189
##$RETENTION INDEX=0
##$CONDENSED SPECTRUM=NO
##NPOINTS= 73
##XYDATA=(XY..XY) 1 
    13          3
    14          6
    15         21
    18          4
    26         30
    27        289
    28        121
    29        284
    30          7
    31          3
    32          4
    33          1
    34          1
    37          2
    39        208
    40        116
    41        705
    42        221
    43        999
    44         32
    45          9
    46          3
    47          3
    48         18
    49          2
    50          6
    51         12
    52          6
    53         30
    54         35
    55        247
    56        372
    57        157
    58          6
    59          2
    60          2
    62          1
    63          8
    64          8
    65         16
    66          4
    67         17
    69        121
    70          9
    71          3
    75          1
    77          1
    78          1
    79          3
    80          2
    81         12
    82         43
    83         57
    84         62
    85        148
    86         10
    88          2
    89          1
    91          1
    94          1
    95          3
    96         19
    97          5
   104          2
   106         11
   107          1
   108          1
   109          1
   110          3
   124          2
   132          4
   146          1
   160          2