##TITLE=Library Entry 76135
##JCAMP-DX=Revision 4.10 
##DATA TYPE=MASS SPECTRUM
##SAMPLE DESCRIPTION=A.A.Kutin, Moscow, Russia
##NAMES=HP
##CAS NAME=Ethane, 2-chloro-1-(3-nitrophenylsulfonyl)-2-phenyl-
##MOLFORM=C14H12ClNO4S
##CAS REGISTRY NO=203309-02-8
##MP= -300
##BP= -300
##MW= 325
##$RETENTION INDEX=0
##$CONDENSED SPECTRUM=NO
##NPOINTS= 129
##XYDATA=(XY..XY) 1 
    35          0
    36          0
    38          1
    39          4
    40          0
    44          0
    46          3
    47          0
    48          2
    49         25
    50         45
    51         23
    52          5
    53          1
    60          0
    62         18
    63         25
    64         18
    65          8
    66          0
    67          0
    68          4
    69          7
    70          5
    72          2
    73         26
    74         69
    75        100
    76        316
    77        272
    78        130
    79         10
    81          1
    82          3
    83          1
    84          1
    85          2
    86          3
    87          5
    88         17
    89         39
    90         42
    91         76
    92         33
    93          5
    95         19
    96         13
    97          0
    98          6
    99         13
   102        999
   103        858
   104        319
   105         30
   106         10
   107          6
   108          2
   110          2
   111          4
   112          3
   113          4
   114          0
   115         16
   116          1
   117          3
   118         13
   119         22
   122        156
   123         21
   124         50
   125         40
   126         24
   127         21
   128          2
   132          0
   134          7
   137        888
   138        703
   139        413
   140        264
   141         34
   142          5
   143          4
   150          3
   151          5
   152         25
   153          7
   154          3
   155          0
   161          0
   162          0
   163          1
   165         17
   166          3
   167          3
   169         17
   170         34
   171          5
   172          3
   175          5
   176          8
   178         60
   179          9
   180          2
   184          2
   186         61
   187          3
   188          2
   189          1
   192          0
   194          0
   195          0
   206          1
   207          0
   209          0
   226          4
   241          0
   252          4
   253          1
   254          0
   269          2
   270          0
   287          2
   289         19
   290         34
   291          4
   324          0
   325          3
   327          0