##TITLE=Library Entry 66449
##JCAMP-DX=Revision 4.10 
##DATA TYPE=MASS SPECTRUM
##SAMPLE DESCRIPTION=NIST Mass Spectrometry Data Center
##NAMES=HP
##CAS NAME=3-((1S,5S,6R)-2,6-Dimethylbicyclo[3.1.1]hept-2-en-6-yl)propanal
##MOLFORM=C12H18O
##CAS REGISTRY NO=203499-08-5
##MP= -300
##BP= -300
##MW= 178
##$RETENTION INDEX=1357
##$CONDENSED SPECTRUM=NO
##NPOINTS= 70
##XYDATA=(XY..XY) 1 
    27         74
    29        125
    30          6
    39        245
    41        285
    42         35
    44         53
    46          4
    50         23
    51         78
    52         31
    53        122
    54          9
    55        218
    56         23
    57         29
    58         17
    63         22
    64          9
    65        137
    66         34
    67        189
    68         76
    69         45
    74          9
    76          9
    77        359
    78        112
    79        295
    80        178
    81        131
    82         31
    85         61
    91        487
    92        323
    93        999
    94         28
    95         85
    96          8
    97          8
   103         60
   104          9
   105        218
   106         92
   107         72
   109         17
   110         27
   111         13
   116         19
   117         60
   118         53
   119        667
   120        118
   121         58
   122         36
   123         10
   124         10
   128          7
   129         17
   130         16
   132         27
   133         13
   134        190
   135         15
   136          7
   145        167
   146         27
   147         12
   149         19
   163         12