##TITLE=Library Entry 32689
##JCAMP-DX=Revision 4.10 
##DATA TYPE=MASS SPECTRUM
##SAMPLE DESCRIPTION=NIST Mass Spectrometry Data Center, 1990.
##NAMES=HP
##CAS NAME=Cyclohexane, 1,3-dimethyl-2-methylene-, trans-
##MOLFORM=C9H16
##CAS REGISTRY NO=20348-74-7
##MP= -300
##BP= -300
##MW= 124
##$RETENTION INDEX=0
##$CONDENSED SPECTRUM=NO
##NPOINTS= 43
##XYDATA=(XY..XY) 1 
    15         21
    26         17
    27        161
    28         69
    29         73
    39        347
    40         75
    41        376
    42         59
    43         50
    50         40
    51        103
    52         51
    53        231
    54         78
    55        230
    56         27
    62         11
    63         28
    65        107
    67        999
    68        705
    69        153
    70         39
    77        129
    78         33
    79        195
    80         52
    81        464
    82        464
    83         58
    91         90
    92         12
    93         44
    95        313
    96        148
    97         11
   105         18
   107         18
   109        639
   110         57
   124        177
   125         15