##TITLE=Library Entry 33860
##JCAMP-DX=Revision 4.10 
##DATA TYPE=MASS SPECTRUM
##SAMPLE DESCRIPTION=NIST Mass Spectrometry Data Center, 1990.
##NAMES=HP
##CAS NAME=Triethyl .gamma.-phosphonocrotonate
##MOLFORM=C10H19O5P
##CAS REGISTRY NO=20345-62-4
##MP= -300
##BP= -300
##MW= 250
##$RETENTION INDEX=0
##$CONDENSED SPECTRUM=NO
##NPOINTS= 126
##XYDATA=(XY..XY) 1 
    14          7
    15         21
    18          5
    19          3
    26         36
    27        199
    28         33
    29        527
    30         24
    31         31
    38         24
    39        242
    40        136
    41        102
    42         57
    43         47
    44         17
    45         71
    46         17
    47         53
    48         10
    49          5
    53         19
    54         12
    55         59
    56         20
    57        183
    58         13
    65        144
    66         19
    68        999
    69         98
    70         11
    71         23
    73          5
    75          8
    78         14
    79         11
    80         39
    81        371
    82         43
    83         26
    84         23
    85        100
    86        127
    87         26
    91        170
    92         15
    93         35
    94         15
    95         25
    96         59
    97        104
    98         15
    99        229
   102         23
   103        121
   104         55
   105         21
   106          7
   107         14
   108          7
   109        387
   110         28
   111         26
   112         39
   113         41
   114         36
   115          6
   119         25
   120        156
   121        284
   122        148
   123         37
   124         49
   125         41
   126          6
   127        234
   128         11
   131        132
   132         12
   133          7
   134         17
   135         62
   136          7
   137         44
   138         21
   140         27
   141         42
   142         21
   148        176
   149        604
   150         70
   151         22
   152         11
   153          7
   154          7
   155        192
   156         13
   161         10
   163        113
   164          7
   165         17
   167          6
   175         40
   176        225
   177        460
   178        114
   179         17
   183         74
   184          6
   191         11
   193          9
   194          3
   195          9
   203         23
   204        234
   205        214
   206         53
   207         10
   221          5
   222         11
   223         21
   249          9
   250         75
   251         11