##TITLE=Library Entry 13118
##JCAMP-DX=Revision 4.10 
##DATA TYPE=MASS SPECTRUM
##SAMPLE DESCRIPTION=Exported from NIST MS Search
##NAMES=HP
##CAS NAME=Stigmasta-3,5-dien-7-one
##MOLFORM=C29H46O
##CAS REGISTRY NO=2034-72-2
##MP= -300
##BP= -300
##MW= 410
##$RETENTION INDEX=0
##$CONDENSED SPECTRUM=NO
##NPOINTS= 187
##XYDATA=(XY..XY) 1 
    34          8
    38          8
    39         92
    40        319
    41        615
    42        104
    43        999
    44        600
    45         31
    48         38
    50         23
    51         23
    52         15
    53         81
    54         23
    55        500
    56         85
    57        415
    58         46
    59         15
    64         69
    65         46
    66         15
    67        192
    68         58
    69        392
    70        119
    71        200
    72         15
    76         15
    77        100
    78         46
    79        173
    80         38
    81        377
    82         54
    83        131
    84         46
    85         92
    86         15
    91        278
    92         46
    93        188
    94         38
    95        131
    96         23
    97         46
    98          8
    99          8
   103         23
   104         46
   105        163
   106         46
   107        138
   108         35
   109         85
   110         15
   111         23
   112         31
   113         31
   115         42
   116         23
   117         54
   118         15
   119        110
   120         23
   121         69
   122         15
   123         31
   124          8
   125          8
   127         15
   128         38
   129         54
   130         23
   131         58
   132         92
   133         92
   134        189
   135         92
   136         35
   137         31
   138          8
   141         31
   142         15
   143         31
   144         23
   145         77
   146         38
   147         69
   148         31
   150         31
   151          8
   152          8
   153         15
   154          8
   155         23
   156          8
   157         46
   158         38
   159        179
   160         62
   161        346
   162         62
   163         23
   164          8
   165         15
   166          8
   168         15
   169         15
   170          8
   171         23
   172         23
   173        131
   174        769
   175        163
   176         23
   177          8
   178          8
   179          8
   180          8
   181          8
   182          8
   183         15
   184          8
   185         23
   186         15
   187        217
   188         38
   189         15
   193          8
   195          8
   197         15
   198          8
   199         28
   200          8
   201         23
   207          8
   209          8
   211         15
   212         15
   213         31
   214         19
   215         19
   221         15
   225         15
   226          8
   227         48
   228         35
   229         54
   230          8
   234          8
   235          8
   239          8
   240         15
   241         25
   242         23
   243         12
   247          8
   251         15
   253         15
   255         12
   267         15
   268         19
   269        169
   270         38
   280          4
   296         16
   297          4
   367          8
   368         23
   369          8
   376          8
   381         12
   382          8
   392          8
   393          8
   394         23
   395         58
   396         31
   397          8
   408         27
   409         19
   410        661
   411        209
   412         42
   413          8