##TITLE=Library Entry 25597
##JCAMP-DX=Revision 4.10 
##DATA TYPE=MASS SPECTRUM
##SAMPLE DESCRIPTION=Japan AIST/NIMC Database- Spectrum MS-NW-9058
##NAMES=HP
##CAS NAME=7-Oxononanoic acid
##MOLFORM=C9H16O3
##CAS REGISTRY NO=20356-92-7
##MP= -300
##BP= -300
##MW= 172
##$RETENTION INDEX=0
##$CONDENSED SPECTRUM=NO
##NPOINTS= 99
##XYDATA=(XY..XY) 1 
    14          1
    15          5
    17          1
    18          4
    26          8
    27        102
    28         51
    29        433
    30         10
    31         14
    32          2
    38          2
    39         49
    40          9
    41        167
    42         57
    43        234
    44         10
    45         62
    46          1
    47          1
    48          3
    49          3
    50          1
    51          3
    52          1
    53         18
    54         12
    55        304
    56         44
    57        999
    58         37
    59         20
    60         26
    61          2
    63          1
    65          2
    66          1
    67         13
    68          8
    69        590
    70         60
    71         25
    72        801
    73        312
    74         14
    75          2
    77          4
    78          1
    79         16
    80         25
    81         15
    82         13
    83        105
    84          9
    85         58
    86          7
    87          4
    91          1
    93          2
    94          4
    95          5
    96          3
    97        409
    98        125
    99         17
   100          5
   101         34
   102          2
   107          3
   108          5
   109         16
   110          7
   111          9
   112          8
   113         55
   114          6
   115         53
   116          4
   124          1
   125        555
   126        143
   127         13
   128          1
   130          5
   136          2
   137          4
   138          2
   139          1
   140          1
   143        237
   144         18
   145          2
   153          1
   154        184
   155         28
   156          3
   172         82
   173          9