##TITLE=Library Entry 61652
##JCAMP-DX=Revision 4.10 
##DATA TYPE=MASS SPECTRUM
##SAMPLE DESCRIPTION=Japan AIST/NIMC Database- Spectrum MS-NW-7297
##NAMES=HP
##CAS NAME=.beta.-Ethylphenethyl alcohol
##MOLFORM=C10H14O
##CAS REGISTRY NO=2035-94-1
##MP= -300
##BP= -300
##MW= 150
##$RETENTION INDEX=1261
##$CONDENSED SPECTRUM=NO
##NPOINTS= 84
##XYDATA=(XY..XY) 1 
    15          1
    18          1
    26          1
    27         13
    28         11
    29          6
    31         13
    32          3
    37          1
    38          4
    39         36
    40          3
    41         78
    42          3
    43         11
    44          1
    45          1
    49          1
    50         15
    51         43
    52          9
    53          9
    54          1
    55          3
    57          9
    58          4
    59          1
    61          1
    62          5
    63         19
    64          5
    65         41
    66          4
    67          1
    69          2
    70          1
    71          1
    73          1
    74          7
    75          6
    76          7
    77         80
    78         49
    79         40
    80          3
    85          1
    86          2
    87          3
    88          1
    89         15
    90          7
    91        999
    92         85
    93          8
    96          1
    98          1
   101          2
   102          9
   103         92
   104         38
   105         20
   106          2
   107          3
   113          1
   114          1
   115         33
   116          9
   117         35
   118         27
   119        462
   120        193
   121         34
   122          4
   127          1
   128          2
   129          1
   131          3
   132          4
   133          2
   148          1
   149          4
   150        144
   151         16
   152          1