##TITLE=Library Entry 96633
##JCAMP-DX=Revision 4.10 
##DATA TYPE=MASS SPECTRUM
##SAMPLE DESCRIPTION=D.HENNEBERG, MAX-PLANCK INSTITUTE, MULHEIM, WEST GERMAN
Y
##NAMES=HP
##CAS NAME=1H-Indene, 1,2-dibromo-2,3-dihydro-
##MOLFORM=C9H8Br2
##CAS REGISTRY NO=20357-79-3
##MP= -300
##BP= -300
##MW= 274
##$RETENTION INDEX=0
##$CONDENSED SPECTRUM=NO
##NPOINTS= 107
##XYDATA=(XY..XY) 1 
    27         14
    28          8
    32          1
    35          0
    36          6
    37          9
    38         23
    39         83
    40          5
    41          5
    42          0
    43          5
    44          4
    45          0
    49          4
    50         49
    51         47
    52          9
    53          2
    55          5
    56          6
    58        189
    59          0
    60          1
    61         17
    62         60
    63        125
    64         23
    65         54
    66          3
    67          0
    68          1
    69          3
    70          0
    73          4
    74         26
    75         24
    76         11
    77          6
    78          1
    79          6
    80         11
    81          6
    82         10
    84          1
    85         11
    86         21
    87         29
    88         30
    89        108
    90         10
    91          2
    93          0
    96          1
    97         23
    98         24
    99          1
   100          0
   101          0
   102          1
   103          0
   105          1
   107          0
   109          2
   110          4
   111          2
   112          1
   113         30
   114         48
   115        841
   116        999
   117         95
   118          4
   119          0
   128          0
   129          0
   130          0
   131          1
   132          1
   133          1
   143          0
   160          0
   185          0
   187          0
   193          3
   194          9
   195        530
   196         62
   197        513
   198         50
   199          2
   206          0
   209          0
   211          1
   212          0
   213          1
   226          0
   230          0
   232          0
   266          1
   268          0
   274          9
   275          2
   276         20
   277          3
   278          9
   279          1