##TITLE=Library Entry 45404
##JCAMP-DX=Revision 4.10 
##DATA TYPE=MASS SPECTRUM
##SAMPLE DESCRIPTION=Div. of Experiment Therapeutics WRAIR, WRAMC, Washingto
n DC 20307
##NAMES=HP
##CAS NAME=Benzaldehyde, 5-bromo-2-nitro-
##MOLFORM=C7H4BrNO3
##CAS REGISTRY NO=20357-20-4
##MP= -300
##BP= -300
##MW= 229
##$RETENTION INDEX=0
##$CONDENSED SPECTRUM=NO
##NPOINTS= 65
##XYDATA=(XY..XY) 1 
    43         10
    45         28
    46         38
    50        652
    51        108
    53        128
    60          3
    61        103
    63        473
    64        146
    65          9
    66          5
    74        771
    75        999
    76        454
    77         68
    78        147
    79         29
    81         27
    84         12
    85         15
    86         26
    87         17
    88         20
    90         53
    92        134
    93         12
   103         20
   104         18
   105         12
   106         18
   107         19
   117         85
   119         78
   128         12
   129         24
   130         13
   131         27
   143         53
   145         52
   146         16
   154        217
   155         30
   156        212
   157         72
   159          7
   168          7
   169         32
   171        581
   173        577
   174         23
   182        139
   184        138
   185         26
   187         39
   189         14
   199        443
   201        442
   202         23
   212         14
   214         19
   228         13
   229         39
   230         13
   231         38