##TITLE=Library Entry 37809
##JCAMP-DX=Revision 4.10 
##DATA TYPE=MASS SPECTRUM
##SAMPLE DESCRIPTION=V.Zaikin,Topchiev Inst.Petrochem.Synth.,Moscow
##NAMES=HP
##CAS NAME=Octanoic acid, 3-methylbutyl ester
##MOLFORM=C13H26O2
##CAS REGISTRY NO=2035-99-6
##MP= -300
##BP= -300
##MW= 214
##$RETENTION INDEX=1446
##$CONDENSED SPECTRUM=NO
##NPOINTS= 78
##XYDATA=(XY..XY) 1 
    26          4
    27         25
    28          7
    29         40
    30          1
    31          2
    36          3
    38          1
    39         22
    40          6
    41         97
    42         50
    43        236
    44          8
    45          7
    50          1
    51          2
    52          2
    53          8
    54          7
    55        158
    56         20
    57        173
    58          8
    59          4
    60         28
    61         11
    67         11
    68          5
    69         35
    70        999
    71        253
    72         13
    73         32
    74          4
    75          1
    79          3
    80          2
    81          3
    82          6
    83         17
    84         17
    85          9
    86          2
    87         18
    88          4
    89         10
    93          1
    96          1
    97         10
    98         14
    99          3
   100          2
   101         29
   102          2
   103          6
   109         13
   110          1
   111          2
   115         27
   116          2
   125          6
   126          1
   127        342
   128         28
   129          5
   130         11
   131          3
   143         10
   144         29
   145        125
   146         12
   157          2
   171         31
   172          4
   199          6
   214          2
   215          1