##TITLE=Library Entry 29018
##JCAMP-DX=Revision 4.10 
##DATA TYPE=MASS SPECTRUM
##SAMPLE DESCRIPTION=CARL DJERASSI DEPT OF CHEM STANFORD UNIV STANFORD CALIF
 94305
##NAMES=HP
##CAS NAME=1-Hexanamine, N-ethyl-
##MOLFORM=C8H19N
##CAS REGISTRY NO=20352-67-4
##MP= -300
##BP= -300
##MW= 129
##$RETENTION INDEX=0
##$CONDENSED SPECTRUM=NO
##NPOINTS= 17
##XYDATA=(XY..XY) 1 
    29         50
    30        210
    41         40
    42         20
    43         50
    44         60
    45         10
    56         30
    58        999
    59         40
    71         10
   112         10
   113         50
   114        100
   128         80
   129        340
   130         30