##TITLE=Library Entry 90327
##JCAMP-DX=Revision 4.10 
##DATA TYPE=MASS SPECTRUM
##SAMPLE DESCRIPTION=Institute of Organic Chemistry, Novosibirsk, USSR 1988
##NAMES=HP
##CAS NAME=(E)-1-Trichlorosilyl-2-methyldichlorosilylethylene
##MOLFORM=C3H5Cl5Si2
##CAS REGISTRY NO=20360-44-5
##MP= -300
##BP= -300
##MW= 272
##$RETENTION INDEX=0
##$CONDENSED SPECTRUM=NO
##NPOINTS= 48
##XYDATA=(XY..XY) 1 
    26         98
    63        401
    65        147
    78        178
    79        141
    80         68
    81         47
    98        147
    99         67
   100        100
   101         41
   102          8
   103        118
   104         28
   105         70
   106         29
   113        999
   114         77
   115        668
   116         48
   117        117
   123        325
   124        481
   125        270
   126        359
   127         77
   128         91
   133        108
   135        111
   137         38
   139        218
   140         31
   141        148
   142          7
   143         28
   237         31
   239         39
   241         18
   257        277
   258         80
   259        418
   260         85
   261        315
   262         59
   263        123
   272         14
   274         19
   276         10