##TITLE=Library Entry 14280
##JCAMP-DX=Revision 4.10 
##DATA TYPE=MASS SPECTRUM
##SAMPLE DESCRIPTION=V.G.Zaikin, TIPS RAS, Moscow, Russia
##NAMES=HP
##CAS NAME=1-Triisopropylsilyloxydecane
##MOLFORM=C19H42OSi
##CAS REGISTRY NO=203738-72-1
##MP= -300
##BP= -300
##MW= 314
##$RETENTION INDEX=0
##$CONDENSED SPECTRUM=NO
##NPOINTS= 144
##XYDATA=(XY..XY) 1 
    25         16
    26         45
    27        341
    28         45
    29        498
    30         19
    31        182
    36         16
    37         16
    38         19
    39        261
    40         67
    41        835
    42        189
    43        999
    44        139
    45        278
    46         19
    47         47
    50         21
    51         39
    52         18
    53         57
    54         65
    55        568
    56        204
    57        388
    58         42
    59        223
    60         42
    61        465
    62         48
    63         29
    65         16
    66          7
    67         95
    68         77
    69        338
    70        145
    71        171
    72         42
    73        135
    74         19
    75        542
    76         49
    77         45
    78          9
    79         38
    81         61
    82         79
    83        361
    84         97
    85        121
    86         29
    87        181
    88         19
    89         85
    90          9
    91         16
    93         22
    95         38
    96         32
    97        221
    98         49
    99         83
   100         13
   101        175
   102         25
   103        132
   104         18
   105         18
   107         12
   108          3
   109          9
   110         15
   111         69
   112         28
   113         53
   114         15
   115        178
   116         22
   117         28
   118          1
   119          3
   121          9
   123          9
   124          3
   125         29
   126         18
   127         27
   128          3
   129         95
   130         13
   131         45
   132          3
   133          3
   139         16
   140         16
   141         16
   143         49
   144         13
   145         21
   146          4
   149          4
   151          4
   152          7
   153          9
   154          7
   156          4
   157         51
   158          7
   167          7
   171         25
   172          9
   173          7
   185         59
   186         11
   187          4
   193          4
   194          7
   196          7
   197          4
   199          9
   201         25
   202          4
   208          4
   210          4
   215        154
   216         30
   217         18
   218         38
   219          3
   227         14
   229         96
   230         14
   231          6
   242          4
   243        300
   244         61
   245         25
   269         28
   271        935
   272        233
   273        101