##TITLE=Library Entry 25080
##JCAMP-DX=Revision 4.10 
##DATA TYPE=MASS SPECTRUM
##SAMPLE DESCRIPTION=J. M. PECHINE
##NAMES=HP
##CAS NAME=Cyclopentanol, 2-bromo-, trans-
##MOLFORM=C5H9BrO
##CAS REGISTRY NO=20377-79-1
##MP= -300
##BP= -300
##MW= 164
##$RETENTION INDEX=0
##$CONDENSED SPECTRUM=NO
##NPOINTS= 33
##XYDATA=(XY..XY) 1 
    27        139
    28         50
    29        174
    30         22
    31         44
    38         14
    39        116
    40         24
    41        184
    42         29
    43         93
    44         47
    53         22
    55        132
    56         41
    57        999
    58         76
    65         18
    67        280
    68         21
    71         45
    83         29
    84         27
    85        233
    86         14
   135         13
   136         37
   137         14
   138         36
   146         25
   148         25
   164        226
   166        221