##TITLE=Library Entry 18188
##JCAMP-DX=Revision 4.10 
##DATA TYPE=MASS SPECTRUM
##SAMPLE DESCRIPTION=Chemical Concepts
##NAMES=HP
##CAS NAME=1-Buten-3-yne, 1-chloro-, (Z)-
##MOLFORM=C4H3Cl
##CAS REGISTRY NO=20374-90-7
##MP= -300
##BP= -300
##MW= 86
##$RETENTION INDEX=0
##$CONDENSED SPECTRUM=NO
##NPOINTS= 30
##XYDATA=(XY..XY) 1 
    25          1
    26         19
    27          1
    35          6
    36         15
    37         37
    38         15
    39          3
    47         11
    48         23
    49        122
    50        344
    51        999
    52         42
    53          0
    59          1
    60         36
    61          4
    62         12
    63          1
    71          1
    72          0
    73          0
    83          2
    84         23
    85         22
    86        835
    87         40
    88        237
    89         11