##TITLE=Library Entry 67950
##JCAMP-DX=Revision 4.10 
##DATA TYPE=MASS SPECTRUM
##SAMPLE DESCRIPTION=CARL DJERASSI DEPT OF CHEM STANFORD UNIV STANFORD CALIF
 94305
##NAMES=HP
##CAS NAME=2H-Inden-2-one, octahydro-3a-methyl-, trans-
##MOLFORM=C10H16O
##CAS REGISTRY NO=20379-99-1
##MP= -300
##BP= -300
##MW= 152
##$RETENTION INDEX=0
##$CONDENSED SPECTRUM=NO
##NPOINTS= 64
##XYDATA=(XY..XY) 1 
    31         58
    32         10
    34         33
    38         25
    39        585
    40        717
    41        777
    42        101
    43        134
    44         42
    45         25
    46          8
    50         16
    51         50
    52         33
    53        185
    54        202
    55        404
    56        210
    57         58
    58          8
    59          8
    63         16
    65         58
    66         67
    67        808
    68        565
    69        303
    70        126
    71         16
    74          8
    77         75
    78         25
    79        134
    80         58
    81        747
    82        454
    83         58
    84         16
    91         42
    92         16
    93         84
    94        277
    95        999
    96        303
    97         33
    98         16
   105         16
   106          8
   107         16
   108        202
   109        606
   110        345
   111         33
   112         25
   119         42
   123         33
   124         42
   125          8
   134          8
   137         84
   152        454
   153         42
   154          8