##TITLE=Library Entry 18190
##JCAMP-DX=Revision 4.10 
##DATA TYPE=MASS SPECTRUM
##SAMPLE DESCRIPTION=A. C. BORG, UNIVERSITY OF STOCKHOLM, SWEDEN
##NAMES=HP
##CAS NAME=1-Buten-3-yne, 1-chloro-, (E)-
##MOLFORM=C4H3Cl
##CAS REGISTRY NO=20374-91-8
##MP= -300
##BP= -300
##MW= 86
##$RETENTION INDEX=0
##$CONDENSED SPECTRUM=NO
##NPOINTS= 12
##XYDATA=(XY..XY) 1 
    49         27
    50        284
    51        999
    52         55
    60         28
    62         14
    84          8
    85         21
    86        999
    87         59
    88        343
    89          7