##TITLE=Library Entry 87315
##JCAMP-DX=Revision 4.10 
##DATA TYPE=MASS SPECTRUM
##SAMPLE DESCRIPTION=W.V. BROWN, CSIRO, BLACK MOUNTAIN, CANBERRA CITY, AUSTR
ALIA
##NAMES=HP
##CAS NAME=9-Aza-1-methylbicyclo[3.3.1]nonan-3-ol
##MOLFORM=C9H17NO
##CAS REGISTRY NO=2038-40-6
##MP= -300
##BP= -300
##MW= 155
##$RETENTION INDEX=0
##$CONDENSED SPECTRUM=NO
##NPOINTS= 82
##XYDATA=(XY..XY) 1 
    38          6
    39        143
    41        314
    42        449
    43        236
    44        134
    45         44
    46          6
    50          4
    51         15
    52         13
    53         65
    54         65
    55        206
    56        143
    57        240
    58        105
    59         13
    63          4
    65         22
    66         15
    67         80
    68        152
    69         89
    70        150
    71         44
    72         42
    73          9
    75          4
    77         27
    78         11
    79         36
    80         33
    81         69
    82        265
    83        161
    84        148
    85         31
    86         29
    87          4
    89          4
    91         13
    92          6
    93         40
    94        139
    95         76
    96        662
    97        438
    98         74
    99         27
   100          4
   103          9
   106          6
   107          6
   108         96
   109         20
   110        999
   111        213
   112        280
   113        370
   114         33
   119          4
   120          4
   121          4
   122         18
   124         29
   125          6
   126        640
   127         78
   128          6
   134          4
   136         27
   137          9
   138        662
   139         71
   140         65
   141          9
   153          6
   154         56
   155        427
   156         49
   157          4