##TITLE=Library Entry 3874
##JCAMP-DX=Revision 4.10 
##DATA TYPE=MASS SPECTRUM
##SAMPLE DESCRIPTION=Exported from NIST MS Search
##NAMES=HP
##CAS NAME=Acetoacetic acid, 1,3-dithio-, S-isobutyl ester
##MOLFORM=C8H14OS2
##CAS REGISTRY NO=20383-04-4
##MP= -300
##BP= -300
##MW= 190
##$RETENTION INDEX=0
##$CONDENSED SPECTRUM=NO
##NPOINTS= 46
##XYDATA=(XY..XY) 1 
    37         51
    38         95
    39        650
    40         54
    41        999
    42        109
    43        729
    44        356
    45        568
    46        150
    47        410
    48        280
    49         92
    50         34
    51         20
    53         27
    55        130
    56        568
    57        417
    58        116
    59        592
    60         61
    61         68
    67         99
    68         27
    69         95
    70          6
    71        226
    72        171
    73        164
    74        308
    75         78
    76         24
    90        650
    91         34
    92         27
   100        489
   101        934
   102         82
   103         34
   132         65
   133        458
   134         24
   135         44
   162         24
   190         10