##TITLE=Library Entry 81031
##JCAMP-DX=Revision 4.10 
##DATA TYPE=MASS SPECTRUM
##SAMPLE DESCRIPTION=NIST Mass Spectrometry Data Center
##NAMES=HP
##CAS NAME=4-Chlorobenzyl benzoate
##MOLFORM=C14H11ClO2
##CAS REGISTRY NO=20386-93-0
##MP= -300
##BP= -300
##MW= 246
##$RETENTION INDEX=0
##$CONDENSED SPECTRUM=NO
##NPOINTS= 81
##XYDATA=(XY..XY) 1 
    27          1
    35          1
    36          2
    37          5
    38         17
    39         52
    40          5
    45          2
    50         99
    51        239
    52         17
    53          3
    60          1
    61          7
    62         22
    63         74
    64         16
    65         10
    66          1
    73         22
    74         14
    75         54
    77        376
    78         37
    79          3
    84          2
    85          5
    86          4
    87          6
    89        225
    90         53
    91          4
    96          1
    97          2
    99         44
   100          3
   101         16
   102          2
   105        999
   106         84
   107          6
   109          1
   111         28
   112          6
   113         28
   114          3
   115          5
   122          1
   125        424
   126         49
   127        147
   128         11
   133          2
   139         17
   141         49
   142          5
   143         13
   144          1
   151          1
   152          5
   165         15
   166         13
   167         16
   168          3
   193         45
   194          9
   201         32
   202          4
   203         10
   204          1
   211         14
   212          2
   228         26
   229          4
   230          9
   231          1
   244          1
   246        183
   247         29
   248         59
   249          9