##TITLE=Library Entry 5828
##JCAMP-DX=Revision 4.10 
##DATA TYPE=MASS SPECTRUM
##SAMPLE DESCRIPTION=Exported from NIST MS Search
##NAMES=HP
##CAS NAME=Acetoacetic acid, 1,3-dithio-, S-isopropyl ester
##MOLFORM=C7H12OS2
##CAS REGISTRY NO=20383-02-2
##MP= -300
##BP= -300
##MW= 176
##$RETENTION INDEX=0
##$CONDENSED SPECTRUM=NO
##NPOINTS= 43
##XYDATA=(XY..XY) 1 
    25         16
    26         66
    27        639
    28         83
    29         40
    30          6
    32         56
    33         56
    34         56
    35        160
    36         23
    38        160
    39        666
    40        140
    41        899
    42        166
    43        999
    44        499
    45        406
    46        160
    47         93
    57        100
    58        183
    59        599
    60        100
    61        426
    62         16
    63         33
    67         66
    68         10
    69         66
    70         10
    71        140
    72         93
    73         26
    74        250
    75         50
    76        626
    77         60
    78         50
    85         40
   100        160
   101         16