##TITLE=Library Entry 1311
##JCAMP-DX=Revision 4.10 
##DATA TYPE=MASS SPECTRUM
##SAMPLE DESCRIPTION=NIST Mass Spectrometry Data Center, 1994
##NAMES=HP
##CAS NAME=Benzenepropanamine
##MOLFORM=C9H13N
##CAS REGISTRY NO=2038-57-5
##MP= -300
##BP= -300
##MW= 135
##$RETENTION INDEX=1205
##$CONDENSED SPECTRUM=NO
##NPOINTS= 67
##XYDATA=(XY..XY) 1 
    14          3
    15         17
    16          3
    17         11
    18         30
    26         16
    27         66
    28        106
    29          3
    30        999
    31         28
    37          5
    38         21
    39         87
    40         11
    41         25
    42         51
    43         37
    44         31
    45          1
    50         51
    51         87
    52         23
    53          9
    54          6
    56         18
    57         10
    58          0
    61          5
    62         16
    63         43
    64          0
    65         86
    66          5
    67          1
    74         12
    75          9
    77         79
    78         51
    79         32
    80          3
    85          1
    86          2
    87          3
    89         17
    91        146
    92         47
    93          3
    98          1
   102          9
   103         38
   104         28
   105         14
   106          6
   107          0
   115         19
   117        199
   118        300
   119         29
   120          1
   130          1
   131          0
   132          3
   133          1
   134          2
   135          9
   136          1