##TITLE=Library Entry 76547
##JCAMP-DX=Revision 4.10 
##DATA TYPE=MASS SPECTRUM
##SAMPLE DESCRIPTION=NIST Mass Spectrometry Data Center, 1994
##NAMES=HP
##CAS NAME=Benzene, 1-bromo-3-ethenyl-
##MOLFORM=C8H7Br
##CAS REGISTRY NO=2039-86-3
##MP= -300
##BP= -300
##MW= 182
##$RETENTION INDEX=0
##$CONDENSED SPECTRUM=NO
##NPOINTS= 59
##XYDATA=(XY..XY) 1 
    14          0
    15          7
    25          4
    26         35
    27         85
    36          5
    37         48
    38         93
    39        106
    40          6
    49         49
    50        370
    51        552
    52         69
    53         22
    60          6
    61         41
    62         88
    63        137
    64         14
    65          5
    72          4
    73         37
    74        184
    75        210
    76        186
    77        756
    78         55
    79         14
    80          6
    81         17
    82          6
    85          8
    86         14
    87         25
    88          7
    89          3
    90          7
    91         24
    92         22
    93          3
    97          7
    98         23
    99          9
   100          3
   101         52
   102        311
   103        999
   104         90
   105          5
   117          4
   119          5
   156         17
   157          4
   158         19
   182        625
   183         64
   184        600
   185         53