##TITLE=Library Entry 8428
##JCAMP-DX=Revision 4.10 
##DATA TYPE=MASS SPECTRUM
##SAMPLE DESCRIPTION=RADIAN CORP
##NAMES=HP
##CAS NAME=1-Pentanol, 5-chloro-, acetate
##MOLFORM=C7H13ClO2
##CAS REGISTRY NO=20395-28-2
##MP= -300
##BP= -300
##MW= 164
##$RETENTION INDEX=1129
##$CONDENSED SPECTRUM=NO
##NPOINTS= 59
##XYDATA=(XY..XY) 1 
    15         18
    26          8
    27         64
    29         49
    30          3
    31         11
    37          2
    38          5
    39         77
    40         13
    41        150
    42        100
    43        999
    44         31
    45         10
    49         27
    50          4
    51         14
    52          3
    53         25
    54         10
    55        155
    56         13
    57         13
    58         17
    60          2
    61        209
    62         12
    63         20
    64          3
    65          9
    66          2
    67         78
    68        235
    69         94
    70          6
    71          5
    73        141
    74          6
    75          8
    76         10
    77          3
    78          3
    83          1
    85          3
    86          2
    87          9
    91          6
    93          2
    98         14
    99          5
   103          4
   104         68
   105          7
   106         23
   107          1
   119          2
   121          6
   123          1