##TITLE=Library Entry 97532
##JCAMP-DX=Revision 4.10 
##DATA TYPE=MASS SPECTRUM
##SAMPLE DESCRIPTION=NIST Mass Spectrometry Data Center, 1990.
##NAMES=HP
##CAS NAME=Benzene, (1-methylenepropyl)-
##MOLFORM=C10H12
##CAS REGISTRY NO=2039-93-2
##MP= -300
##BP= -300
##MW= 132
##$RETENTION INDEX=1058
##$CONDENSED SPECTRUM=NO
##NPOINTS= 60
##XYDATA=(XY..XY) 1 
    14          6
    15         25
    26         32
    27        153
    28         28
    29         33
    37         13
    38         38
    39        221
    40         14
    41         21
    50        161
    51        330
    52         73
    53         58
    54        107
    55         12
    56         12
    57         51
    61         14
    62         49
    63        134
    64         61
    65        132
    66         11
    73         13
    74         69
    75         67
    76         97
    77        386
    78        237
    79         33
    85          6
    86         10
    87         18
    88          8
    89         59
    90          6
    91        313
    92         28
    98          9
   101         16
   102        130
   103        444
   104         89
   105         36
   115        439
   116        156
   117        999
   118         95
   119          4
   126          7
   127         21
   128         36
   129         36
   130          4
   131        202
   132        623
   133         66
   134          3