##TITLE=Library Entry 97540
##JCAMP-DX=Revision 4.10 
##DATA TYPE=MASS SPECTRUM
##SAMPLE DESCRIPTION=NIST Mass Spectrometry Data Center, 1990.
##NAMES=HP
##CAS NAME=Benzene, 2-ethenyl-1,4-dimethyl-
##MOLFORM=C10H12
##CAS REGISTRY NO=2039-89-6
##MP= -300
##BP= -300
##MW= 132
##$RETENTION INDEX=1090
##$CONDENSED SPECTRUM=NO
##NPOINTS= 73
##XYDATA=(XY..XY) 1 
    14          1
    15         13
    16          3
    17          1
    18          5
    26         12
    27         74
    28          5
    29          7
    31          2
    32          1
    37          4
    38         22
    39        128
    40         19
    41         21
    49          5
    50         71
    51        156
    52         41
    53         50
    54          3
    55          4
    56          3
    57         30
    59          4
    61          8
    62         38
    63        101
    64        105
    65        120
    66          9
    73          3
    74         33
    75         27
    76         24
    77        117
    78         52
    79         36
    80          4
    85          4
    86          8
    87         11
    88          7
    89         48
    90          3
    91        314
    92         30
    97          3
    98          6
    99          3
   100          2
   101          7
   102         37
   103         52
   104         26
   105         70
   106          6
   113          6
   115        463
   116        214
   117        999
   118        100
   119          5
   126          9
   127         43
   128         77
   129         79
   130          5
   131        281
   132        666
   133         81
   134          4