##TITLE=Library Entry 1325
##JCAMP-DX=Revision 4.10 
##DATA TYPE=MASS SPECTRUM
##SAMPLE DESCRIPTION=NIST Mass Spectrometry Data Center, 1994
##NAMES=HP
##CAS NAME=3-Methoxyphenethylamine
##MOLFORM=C9H13NO
##CAS REGISTRY NO=2039-67-0
##MP= -300
##BP= -300
##MW= 151
##$RETENTION INDEX=0
##$CONDENSED SPECTRUM=NO
##NPOINTS= 78
##XYDATA=(XY..XY) 1 
     4          4
    14          2
    15         18
    16          0
    17          1
    18          2
    26          3
    27         14
    28         43
    29          0
    30        999
    31         16
    37          2
    38         13
    39         49
    40          5
    41         11
    42         11
    43          8
    44          1
    45          1
    50         20
    51         42
    52         28
    53         12
    54          3
    55          2
    58          2
    60          1
    61          2
    62         10
    63         29
    64         12
    65         42
    66          5
    67          2
    68          0
    73          0
    74          4
    75          4
    76          7
    77         56
    78         55
    79         32
    80          6
    81          1
    86          1
    87          1
    89         20
    90         14
    91         77
    92         25
    93          6
    94          1
   102          1
   103          2
   104          3
   105          3
   106          8
   107         22
   108          6
   109          1
   117          2
   118          6
   119          4
   120          1
   121         34
   122        223
   123         21
   124          1
   133          0
   134          4
   135          2
   136          0
   148          0
   149          2
   151         38
   152          4