##TITLE=Library Entry 81812
##JCAMP-DX=Revision 4.10 
##DATA TYPE=MASS SPECTRUM
##SAMPLE DESCRIPTION=Japan AIST/NIMC Database- Spectrum MS-IW-7881
##NAMES=HP
##CAS NAME=Isoxazole, 3,5-diphenyl-
##MOLFORM=C15H11NO
##CAS REGISTRY NO=2039-49-8
##MP= -300
##BP= -300
##MW= 221
##$RETENTION INDEX=0
##$CONDENSED SPECTRUM=NO
##NPOINTS= 90
##XYDATA=(XY..XY) 1 
    27          4
    28          3
    38          2
    39         13
    40          1
    41          1
    50         19
    51         86
    52          6
    53          1
    61          1
    62          6
    63         25
    64          6
    65          4
    68          1
    69          3
    70          1
    74          7
    75          9
    76         17
    77        392
    78         26
    81          4
    82         18
    83          5
    86          2
    87          3
    88          4
    89         50
    90         13
    91          2
    93          2
    94         17
    95          8
    96          1
    97          4
    98          1
    99          1
   101          1
   102         15
   103         10
   104          3
   105        999
   106         82
   107          4
   110         80
   111         13
   113          1
   114          1
   115          2
   116         33
   117          4
   118          1
   119          8
   126          1
   128          1
   130          1
   139          2
   143          3
   144        156
   145         14
   146          1
   150          1
   151          1
   152          2
   153          1
   163          4
   164          3
   165         26
   166          7
   167          1
   178          2
   180          9
   181          1
   187          2
   188          2
   189          7
   190          5
   191          6
   192          9
   193         63
   194          9
   195          1
   204          2
   220        191
   221        924
   222        153
   223         14
   224          1