##TITLE=Library Entry 97542
##JCAMP-DX=Revision 4.10 
##DATA TYPE=MASS SPECTRUM
##SAMPLE DESCRIPTION=Exported from NIST MS Search
##NAMES=HP
##CAS NAME=Benzene, 2-ethenyl-1,3-dimethyl-
##MOLFORM=C10H12
##CAS REGISTRY NO=2039-90-9
##MP= -300
##BP= -300
##MW= 132
##$RETENTION INDEX=1074
##$CONDENSED SPECTRUM=NO
##NPOINTS= 80
##XYDATA=(XY..XY) 1 
    15          4
    18          1
    26          3
    27         43
    28          5
    29          3
    37          4
    38         13
    39        108
    41         37
    42          2
    43          2
    44          2
    45          1
    49          1
    50         33
    51        111
    52         26
    53         37
    56          1
    57          6
    58         32
    59         10
    60          6
    62          6
    63         22
    64         74
    65        127
    66        129
    67         10
    68          2
    69         12
    70          1
    73          2
    74         16
    75         18
    76         13
    77         90
    78         34
    79         27
    80          3
    85          2
    86          6
    87          7
    88          3
    89         34
    90          6
    91        246
    92         32
    93          3
    94          1
    98          3
    99          1
   101          6
   102         25
   103         40
   104         22
   105         71
   106          9
   107          1
   113          3
   114          5
   115        386
   116        166
   117        999
   118         99
   119         10
   120          6
   121          1
   126          7
   127         34
   128         73
   129         73
   130         20
   131        296
   132        933
   133        111
   134          7
   135          2
   137          1