##TITLE=Library Entry 76671
##JCAMP-DX=Revision 4.10 
##DATA TYPE=MASS SPECTRUM
##SAMPLE DESCRIPTION=Japan AIST/NIMC Database- Spectrum MS-IW-2303
##NAMES=HP
##CAS NAME=Benzene, 1-bromo-2-ethenyl-
##MOLFORM=C8H7Br
##CAS REGISTRY NO=2039-88-5
##MP= -300
##BP= -300
##MW= 182
##$RETENTION INDEX=0
##$CONDENSED SPECTRUM=NO
##NPOINTS= 81
##XYDATA=(XY..XY) 1 
    26          5
    27         22
    36          1
    37         10
    38         24
    39         40
    40          1
    41          1
    43          6
    45          1
    49         13
    50        132
    51        293
    52         38
    53         12
    55          1
    57          3
    60          2
    61         13
    62         30
    63         63
    64          6
    65          3
    69          1
    73         11
    74         75
    75        115
    76        110
    77        517
    78         41
    79          8
    80          4
    81          2
    82          4
    85          2
    86          4
    87          9
    88          3
    89          5
    90          4
    91         24
    92         20
    97          2
    98         11
    99          4
   100          2
   101         53
   102        254
   103        999
   104         92
   105          8
   107          7
   108          1
   115          3
   116          1
   117          4
   118          1
   119          2
   121          1
   122          2
   128          1
   129          1
   130          1
   131          1
   133          1
   143          1
   145          1
   147          1
   155          2
   156          5
   157          4
   158          5
   159          2
   180          1
   181          8
   182        886
   183         86
   184        864
   185         84
   186          5
   187          8