##TITLE=Library Entry 67389
##JCAMP-DX=Revision 4.10 
##DATA TYPE=MASS SPECTRUM
##SAMPLE DESCRIPTION=NIST Mass Spectrometry Data Center
##NAMES=HP
##CAS NAME=8-Azabicyclo[3.2.1]octane-3,6-diol, diacetate (ester)
##MOLFORM=C12H19NO4
##CAS REGISTRY NO=20399-48-8
##MP= -300
##BP= -300
##MW= 241
##$RETENTION INDEX=1663
##$CONDENSED SPECTRUM=NO
##NPOINTS= 99
##XYDATA=(XY..XY) 1 
    27          3
    28          5
    29          3
    30          3
    39         11
    40          2
    41         30
    42        104
    43        162
    44         16
    45          2
    50          1
    51          2
    52          3
    53         15
    54         16
    55         22
    56         20
    57         25
    58         13
    59          1
    60          1
    63          1
    65          8
    66          5
    67         30
    68         23
    69         11
    70         17
    71          4
    72          5
    73          4
    74          1
    77          9
    78          6
    79         15
    80         25
    81        114
    82         90
    83         15
    84         23
    86          6
    91         13
    92          3
    93         12
    94        999
    95        622
    96        140
    97         15
    98         40
    99          6
   100          1
   104          1
   105          1
   106          8
   107         20
   108         29
   109          9
   110         37
   111          7
   112         33
   113         18
   114          2
   120         19
   121         47
   122        643
   123         59
   124          5
   127          1
   128          1
   130          2
   131          1
   132          1
   136          2
   137          1
   138         90
   139         12
   140         10
   141          3
   142          1
   152          1
   153          1
   154          4
   155         61
   156          9
   157          1
   161          1
   166          1
   180          5
   181          7
   182        167
   183         20
   184          2
   198         37
   199         22
   200          3
   241        243
   242         33
   243          4