##TITLE=Library Entry 91146
##JCAMP-DX=Revision 4.10 
##DATA TYPE=MASS SPECTRUM
##SAMPLE DESCRIPTION=Chemical Concepts
##NAMES=HP
##CAS NAME=1H-Naphtho[1,8-de]-1,2,3-triazine
##MOLFORM=C10H7N3
##CAS REGISTRY NO=204-03-5
##MP= -300
##BP= -300
##MW= 169
##$RETENTION INDEX=0
##$CONDENSED SPECTRUM=NO
##NPOINTS= 96
##XYDATA=(XY..XY) 1 
    26         32
    27        125
    29         64
    30         20
    31        144
    37         51
    38         67
    39        167
    40         40
    41        112
    42         38
    43        180
    44        132
    45         74
    46         32
    49         23
    50        106
    51         75
    52         41
    53         31
    54         14
    55         94
    56         26
    57        116
    58         19
    59         34
    60         15
    61         74
    62        188
    63        644
    64        107
    65         45
    66         27
    67         25
    68         21
    69         68
    70         54
    71         66
    72         15
    73         29
    74        115
    75         96
    76         48
    77         44
    78         17
    79         42
    80         15
    81         43
    82         26
    83         29
    85         46
    86        106
    87        129
    88        240
    89         61
    90         21
    91         40
    92         19
    93         32
    95         32
    96         19
    97         37
    98         19
    99         21
   100         15
   101         16
   105         19
   107         19
   109         32
   110         21
   111         28
   112         28
   113        471
   114        999
   115        274
   116         62
   121         17
   123         27
   126         20
   135         23
   136         18
   137         27
   138         25
   139         40
   140        957
   141        880
   142        180
   143        201
   144         34
   145         15
   149         29
   154         14
   165         28
   168         23
   169        635
   170         76