##TITLE=Library Entry 34286
##JCAMP-DX=Revision 4.10 
##DATA TYPE=MASS SPECTRUM
##SAMPLE DESCRIPTION=S.A. Rang et al., IR & MS of Unsatd. Hydrocarbons, 1977
##NAMES=HP
##CAS NAME=Cyclopentane, propyl-
##MOLFORM=C8H16
##CAS REGISTRY NO=2040-96-2
##MP= -300
##BP= -300
##MW= 112
##$RETENTION INDEX=834
##$CONDENSED SPECTRUM=NO
##NPOINTS= 54
##XYDATA=(XY..XY) 1 
    15          9
    26         17
    27        245
    28         39
    29        201
    30          6
    31          1
    37          1
    38          9
    39        263
    40         54
    41        941
    42        392
    43        251
    44         19
    45          2
    50          6
    51         18
    52         11
    53         77
    54         73
    55        549
    56        607
    57         94
    58          6
    64          2
    65         19
    66         23
    67        159
    68        725
    69        999
    70        392
    71         42
    72          2
    77         11
    78          3
    79         12
    80          3
    81         15
    82         92
    83        372
    84        263
    85         23
    86          2
    91          2
    93          1
    95          2
    96          1
    97         23
    98          2
   110          3
   111          6
   112        153
   113         13