##TITLE=Library Entry 38721
##JCAMP-DX=Revision 4.10 
##DATA TYPE=MASS SPECTRUM
##SAMPLE DESCRIPTION=B R. WEBSTER
##NAMES=HP
##CAS NAME=4-Thiazoleacetic acid, 2-(3-chloro-4-hydroxyphenyl)-
##MOLFORM=C11H8ClNO3S
##CAS REGISTRY NO=20403-74-1
##MP= -300
##BP= -300
##MW= 269
##$RETENTION INDEX=0
##$CONDENSED SPECTRUM=NO
##NPOINTS= 59
##XYDATA=(XY..XY) 1 
    38         59
    39         92
    41         36
    42         13
    43         39
    44         58
    45        745
    46         26
    47         33
    49          7
    50         19
    51         19
    52         19
    53         46
    54          9
    55         39
    56          9
    57         33
    59         19
    60         46
    61         26
    62         85
    63        137
    64         39
    69         98
    70         72
    71        999
    72        288
    73         92
    74         46
    75         39
    87         46
    88         33
    89         78
    90         52
    91         33
    98         33
    99         46
   153         58
   154        490
   155         58
   156        163
   171         19
   188         26
   189         13
   190         98
   224        118
   225        431
   226        203
   227        529
   228         65
   229         29
   247         19
   268         13
   269        588
   270         78
   271        229
   272         33
   273         13