##TITLE=Library Entry 11922
##JCAMP-DX=Revision 4.10 
##DATA TYPE=MASS SPECTRUM
##SAMPLE DESCRIPTION=Exported from NIST MS Search
##NAMES=HP
##CAS NAME=Xylopyranose, 3-deoxy-3-fluoro-, triacetate, .beta.-d-
##MOLFORM=C11H15FO7
##CAS REGISTRY NO=20409-33-0
##MP= -300
##BP= -300
##MW= 278
##$RETENTION INDEX=0
##$CONDENSED SPECTRUM=NO
##NPOINTS= 52
##XYDATA=(XY..XY) 1 
    41         20
    42         20
    43        999
    44          9
    55          5
    56          5
    57          9
    59         20
    60          9
    61         13
    68         29
    69         38
    70          4
    71          3
    72          3
    73         21
    74          1
    82         10
    84          9
    85          5
    86         33
    87          6
    88          3
    89          4
    97         38
    99         10
   100          9
   103          6
   114          8
   115         60
   116         18
   117         16
   119         16
   121          5
   127         20
   128        125
   129         11
   133          4
   139         16
   140          3
   141          3
   145          4
   148          8
   157         41
   158          4
   170         48
   171          5
   219         18
   220          3
   235         13
   236          3
   237          4