##TITLE=Library Entry 7635
##JCAMP-DX=Revision 4.10 
##DATA TYPE=MASS SPECTRUM
##SAMPLE DESCRIPTION=Mark Whitten, Florida Museum of Natural History, U. of
 Florida
##NAMES=HP
##CAS NAME=Tetradecanoic acid, dodecyl ester
##MOLFORM=C26H52O2
##CAS REGISTRY NO=2040-64-4
##MP= -300
##BP= -300
##MW= 396
##$RETENTION INDEX=2752
##$CONDENSED SPECTRUM=NO
##NPOINTS= 131
##XYDATA=(XY..XY) 1 
    41        606
    42        178
    43        999
    44         38
    45         11
    51          1
    53         27
    54         63
    55        555
    56        248
    57        740
    58         38
    59         13
    60         85
    61        185
    62          5
    63          1
    65          4
    66          8
    67         83
    68         96
    69        373
    70        201
    71        307
    72         21
    73        137
    74         19
    75          3
    77          3
    79         14
    80          6
    81         61
    82        162
    83        309
    84        167
    85        173
    86         13
    87         45
    88          6
    89         16
    91          2
    93          9
    94          4
    95         50
    96        100
    97        265
    98        128
    99         48
   100          6
   101         28
   102          8
   103         15
   107          6
   108          2
   109         24
   110         45
   111        168
   112         62
   113         26
   114          4
   115         38
   116         38
   117         10
   121          8
   122          1
   123         11
   124         20
   125         91
   126         35
   127         13
   129         93
   130         13
   131          4
   135          8
   137          6
   138         10
   139         32
   140         73
   141         10
   143         27
   144          3
   145          2
   149          4
   151          1
   152          1
   153          5
   154          2
   157         11
   158          2
   159          2
   163          1
   166          7
   168        273
   169         46
   170          3
   171         23
   172          3
   173          2
   183          2
   185         52
   186          7
   187          1
   191          5
   199         10
   200          2
   208          2
   209          5
   210          3
   211         79
   212         13
   213         41
   214          6
   226          1
   227          5
   228        159
   229        555
   230         79
   231          7
   241          6
   255          2
   269          2
   283          2
   284          7
   286          1
   297          9
   298          3
   353          4
   354          1
   396        121
   397         37
   398          6