##TITLE=Library Entry 41122
##JCAMP-DX=Revision 4.10 
##DATA TYPE=MASS SPECTRUM
##SAMPLE DESCRIPTION=Japan AIST/NIMC Database- Spectrum MS-NW-6965
##NAMES=HP
##CAS NAME=5-Thio-D-glucose
##MOLFORM=C6H12O5S
##CAS REGISTRY NO=20408-97-3
##MP= -300
##BP= -300
##MW= 196
##$RETENTION INDEX=0
##$CONDENSED SPECTRUM=NO
##NPOINTS= 141
##XYDATA=(XY..XY) 1 
    12          2
    13          3
    14         16
    15         76
    16          2
    17         17
    18         83
    19         16
    24          1
    25          3
    26         20
    27        115
    28         54
    29        216
    30         37
    31        269
    32         22
    33          8
    34         17
    35         24
    36          1
    37          4
    38          5
    39         44
    40          9
    41         81
    42        108
    43        193
    44         43
    45        148
    46         26
    47        112
    48         25
    49          7
    50          3
    51          4
    52          2
    53         14
    54         21
    55         94
    56         85
    57        316
    58         50
    59        240
    60        605
    61        191
    62         20
    63         35
    64          2
    65          3
    66          2
    67          2
    68         12
    69         74
    70         48
    71        172
    72         61
    73        999
    74         92
    75         41
    76         67
    77         98
    78          9
    79          7
    80          2
    81         10
    82          4
    83         14
    84         26
    85         80
    86         25
    87         93
    88         78
    89        193
    90         47
    91         47
    92          9
    93          3
    94          1
    95          2
    96          2
    97         34
    98         71
    99         52
   100         14
   101        162
   102         70
   103         24
   104         35
   105         37
   106          9
   107         26
   108          3
   109          5
   110          2
   111          2
   112          5
   113         22
   114         13
   115          9
   116         52
   117         14
   118         13
   119         93
   120          7
   121          7
   122          1
   123          1
   125          2
   126          4
   127         41
   128         31
   129         69
   130         28
   131         39
   132         22
   133          4
   134          1
   135          1
   137          3
   141          2
   142          9
   143          5
   144          2
   145         10
   146          1
   147        100
   148         12
   149         11
   150          2
   160         55
   161          7
   162          3
   163          1
   165         14
   166          2
   167          1
   178         51
   179          6
   180          4
   196          4