##TITLE=Library Entry 46624
##JCAMP-DX=Revision 4.10 
##DATA TYPE=MASS SPECTRUM
##SAMPLE DESCRIPTION=NIST Mass Spectrometry Data Center, 1994
##NAMES=HP
##CAS NAME=R-(-)-N,S-Dimethyl-S-phenylsulfoximine
##MOLFORM=C8H11NOS
##CAS REGISTRY NO=20414-85-1
##MP= -300
##BP= -300
##MW= 169
##$RETENTION INDEX=0
##$CONDENSED SPECTRUM=NO
##NPOINTS= 106
##XYDATA=(XY..XY) 1 
    13          4
    14         19
    15        172
    16          5
    18         11
    26          8
    27         94
    28        243
    29         22
    30         73
    32          9
    33          8
    34          9
    37         14
    38         41
    39        167
    40         10
    41          6
    42        138
    43         35
    44        104
    45        133
    46         36
    47         42
    48         32
    49         32
    50        324
    51        825
    52         64
    53         71
    54          5
    55          3
    57         11
    58         13
    59          1
    60         68
    61         74
    62         34
    63        160
    64         39
    65        159
    66         29
    67          7
    68          8
    69         63
    70         14
    71         13
    72          3
    73         16
    74         81
    75         62
    76         86
    77        999
    78        224
    79        183
    80         23
    81         32
    82         21
    83          5
    84         10
    85         15
    86          2
    89          5
    91        105
    92         36
    93         34
    94        143
    95         34
    96          2
    97        250
    98         16
    99         12
   100          6
   104         56
   105        236
   106        787
   107         71
   108         23
   109         81
   110         16
   111         19
   112         17
   113          3
   120          9
   121          9
   122          4
   123         16
   124        101
   125        371
   126        108
   127         22
   128          5
   136          4
   138         10
   140         77
   141        183
   142         18
   143          8
   154        651
   155         58
   156         36
   157          2
   168         31
   169        252
   170         29
   171         14