##TITLE=Library Entry 80539
##JCAMP-DX=Revision 4.10 
##DATA TYPE=MASS SPECTRUM
##SAMPLE DESCRIPTION=Humboldt-Universitat zu Berlin, Department of Chemistry
, Analytical Group
##NAMES=HP
##CAS NAME=2-(4-Methylphenyl)-5-phenyltetrazole
##MOLFORM=C14H12N4
##CAS REGISTRY NO=20433-19-6
##MP= -300
##BP= -300
##MW= 236
##$RETENTION INDEX=0
##$CONDENSED SPECTRUM=NO
##NPOINTS= 128
##XYDATA=(XY..XY) 1 
    14          1
    15          3
    16          1
    17          6
    18         16
    26         22
    27         64
    28         33
    29         14
    30          1
    37         11
    38         31
    39        166
    40         16
    41         62
    42          6
    43         27
    44          1
    49          4
    50         93
    51        155
    52        148
    53         35
    54         11
    55         17
    56          6
    57         19
    58          1
    60          0
    61          7
    62         22
    63         67
    64         29
    65        113
    66         13
    67          2
    68          1
    69          7
    70          4
    71          8
    72          0
    73          1
    74          8
    75         22
    76        107
    77        161
    78        288
    79         66
    80          4
    81          2
    82          1
    83          4
    84          1
    85          5
    86          3
    87          3
    88          5
    89         11
    90         12
    91         14
    92          1
    94         39
    95          5
    96          1
    97          3
    98          1
    99          2
   100          1
   101          1
   102         10
   103         85
   104        368
   105        999
   106         68
   107          5
   108         16
   109          2
   110          0
   111          2
   112          1
   113          1
   115          1
   116          0
   117          0
   119          1
   121          0
   122          1
   123          0
   124          1
   125          1
   126          1
   127          0
   128          0
   129          0
   131          1
   137          0
   139          1
   140          0
   141          0
   149          6
   150          1
   151          1
   152          1
   153          0
   163          0
   164          0
   165          3
   166          0
   167          2
   168          0
   176          0
   177          0
   178          1
   179          1
   180          1
   181          1
   182          0
   183          0
   192          0
   193          0
   205          0
   206          1
   207          9
   208        187
   209         32
   210          2
   236          0
   238          0