##TITLE=Library Entry 35187
##JCAMP-DX=Revision 4.10 
##DATA TYPE=MASS SPECTRUM
##SAMPLE DESCRIPTION=Chuck Anderson, Aldrich Chemical Co.
##NAMES=HP
##CAS NAME=1H,1H,2H,2H-Perfluorooctyl iodide
##MOLFORM=C8H4F13I
##CAS REGISTRY NO=2043-57-4
##MP= -300
##BP= -300
##MW= 474
##$RETENTION INDEX=0
##$CONDENSED SPECTRUM=NO
##NPOINTS= 118
##XYDATA=(XY..XY) 1 
    26         10
    27         72
    28         14
    31         13
    33         18
    38          2
    39         18
    45          4
    46          1
    47         69
    48          1
    50          4
    51        413
    52          4
    56          6
    57         38
    58          4
    59         64
    60          2
    62          1
    63          1
    64         16
    65        450
    66          9
    69        999
    70         12
    71          1
    81          9
    82          4
    83         10
    87          1
    88          8
    89         33
    90          5
    93         21
    95         50
    97         11
   100         66
   101          6
   106          2
   107          4
   108         31
   109         46
   110          1
   112          3
   113         27
   115         63
   116          1
   119        132
   120          3
   125          1
   127        139
   128         87
   129          1
   131        116
   132          3
   133          7
   137          3
   139         18
   141        198
   142          2
   143          2
   145         34
   146          1
   147          3
   150          2
   151          2
   153          4
   155        130
   156          2
   157         10
   159         22
   162          2
   163         16
   165          5
   169         58
   170          2
   173          3
   175          5
   177         17
   181         28
   185          2
   186          1
   187          2
   188          1
   189          7
   195         12
   203         11
   205         34
   207         16
   208          1
   213         40
   214          1
   219         12
   225          2
   227          4
   231          8
   234          1
   237          3
   239          2
   243          3
   245          3
   257         22
   258          1
   263         29
   264          1
   277         34
   278          2
   281         23
   282          1
   287          2
   295          2
   307          3
   308          2
   327        103
   328          8
   474        150
   475         11