##TITLE=Library Entry 22209
##JCAMP-DX=Revision 4.10 
##DATA TYPE=MASS SPECTRUM
##SAMPLE DESCRIPTION=NIST Mass Spectrometry Data Center, 1994
##NAMES=HP
##CAS NAME=(1R,2R)-(-)-1,2-Diaminocyclohexane
##MOLFORM=C6H14N2
##CAS REGISTRY NO=20439-47-8
##MP= -300
##BP= -300
##MW= 114
##$RETENTION INDEX=0
##$CONDENSED SPECTRUM=NO
##NPOINTS= 70
##XYDATA=(XY..XY) 1 
    12          1
    14          7
    15         64
    16          2
    17          2
    18         12
    24          1
    26         32
    27        184
    28        424
    29        148
    30        573
    31         33
    33          1
    37          6
    39        114
    40         35
    41        199
    42        304
    43        892
    44        123
    45         85
    46          3
    47          1
    50         10
    51         17
    52         19
    53         30
    54         63
    55          1
    56        999
    57         94
    58         71
    59         56
    60          3
    61          1
    62          1
    63          2
    64          2
    65          8
    66          1
    67         38
    68          1
    69        630
    70        242
    71        126
    72         77
    73          4
    75          1
    77         19
    78          5
    79         30
    80         21
    81         24
    82        122
    83         13
    84         31
    85         17
    86          6
    92          1
    93          2
    94          6
    95          1
    96        148
    97        439
    98         38
    99          2
   111          0
   114        135
   115         13