##TITLE=Library Entry 96483
##JCAMP-DX=Revision 4.10 
##DATA TYPE=MASS SPECTRUM
##SAMPLE DESCRIPTION=Chemical Concepts
##NAMES=HP
##CAS NAME=Glutamic acid, N-propionyl-, dimethyl ester
##MOLFORM=C10H17NO5
##CAS REGISTRY NO=204395-48-2
##MP= -300
##BP= -300
##MW= 231
##$RETENTION INDEX=0
##$CONDENSED SPECTRUM=NO
##NPOINTS= 111
##XYDATA=(XY..XY) 1 
    30         11
    31         20
    33         18
    37          0
    38          1
    39         20
    40          4
    41         95
    42         38
    43         36
    44         15
    45         20
    46          0
    47          0
    51          0
    52          2
    53          4
    54         33
    55         83
    56        266
    57        617
    58         35
    59         66
    60         10
    61          0
    66          3
    67          1
    68          7
    69          8
    70         10
    71         18
    72          5
    73          3
    74         35
    75          5
    76          0
    80          1
    81          0
    82         73
    83         17
    84        646
    85         63
    86         12
    87          9
    88         95
    89         14
    90          0
    94          0
    95          6
    96          1
    97          1
    98        311
    99         45
   100         23
   101         10
   102         19
   103          0
   110         26
   111         25
   112         10
   113         20
   114         59
   115         19
   116        999
   117        121
   118         16
   119          0
   125          2
   126         15
   127         22
   128          4
   129          1
   130          0
   138          0
   139          4
   140         45
   141          7
   142         63
   143         21
   144        261
   145         82
   146          9
   147          0
   154          0
   155          0
   156          0
   157          1
   158          4
   159          5
   160          2
   166          0
   167         19
   168          5
   169          0
   170          2
   171          3
   172        377
   173         99
   174         89
   175         22
   176          8
   177          0
   184          0
   198          0
   199         15
   200         16
   201          5
   202          0
   231          3
   232          7
   233          3