##TITLE=Library Entry 83112
##JCAMP-DX=Revision 4.10 
##DATA TYPE=MASS SPECTRUM
##SAMPLE DESCRIPTION=NIST Mass Spectrometry Data Center, 1994
##NAMES=HP
##CAS NAME=cis-.alpha.-Phenylcinnamamide
##MOLFORM=C15H13NO
##CAS REGISTRY NO=20432-29-5
##MP= -300
##BP= -300
##MW= 223
##$RETENTION INDEX=0
##$CONDENSED SPECTRUM=NO
##NPOINTS= 119
##XYDATA=(XY..XY) 1 
    16         17
    17         17
    18         15
    26          2
    27         38
    28         56
    37          4
    38         21
    39        110
    40          8
    44        375
    46          2
    50        120
    51        317
    52         59
    53         11
    54          2
    61         10
    62         43
    63        116
    64         15
    65         25
    66          6
    69          3
    70          2
    74         62
    75         93
    76        165
    77        191
    78         34
    79         71
    80          5
    81          3
    82          5
    84          4
    85          4
    86         22
    87         42
    88         60
    89        105
    90         36
    91         16
    92          3
    93         15
    96          3
    97          5
    98         23
    99         18
   100         12
   101         24
   102        115
   103         27
   104         11
   105          3
   106        999
   107         83
   108          3
   110          8
   111         15
   113         19
   114          7
   115         24
   116         10
   117          3
   118        567
   119         53
   120          4
   122          3
   123          3
   124          3
   125          9
   126         44
   127         27
   128         23
   129         18
   130          3
   137          7
   138          6
   139         35
   140          5
   141          2
   146         33
   147          4
   150         56
   151        115
   152        219
   153         36
   154          4
   162          3
   163         12
   164         11
   165         55
   166         11
   167         10
   174         10
   176        210
   177        165
   178        734
   179        353
   180         54
   181          6
   190          7
   191          2
   193          7
   194         22
   195          6
   196          2
   202          2
   203          8
   204         44
   205         38
   206         27
   207          7
   208          2
   220          2
   222        162
   223        440
   224         74
   225          5