##TITLE=Library Entry 59469
##JCAMP-DX=Revision 4.10 
##DATA TYPE=MASS SPECTRUM
##SAMPLE DESCRIPTION=Humboldt-Universitat zu Berlin, Department of Chemistry
, Analytical Group
##NAMES=HP
##CAS NAME=2-Phenyl-5-(4-methoxyphenyl)-tetrazol
##MOLFORM=C14H12N4O
##CAS REGISTRY NO=20433-10-7
##MP= -300
##BP= -300
##MW= 252
##$RETENTION INDEX=0
##$CONDENSED SPECTRUM=NO
##NPOINTS= 130
##XYDATA=(XY..XY) 1 
    12          2
    13          4
    14         20
    15        124
    17          0
    18          1
    24          0
    26         19
    27         53
    28         28
    29         27
    30          4
    31          3
    32          0
    37         39
    38        107
    39        180
    40         32
    41         99
    42          5
    43          2
    45          1
    50        111
    51        164
    52         73
    53         13
    54          2
    55          1
    56          0
    57          0
    61         12
    62         44
    63        214
    64        487
    65        111
    66          7
    67          1
    69          0
    73          3
    74         24
    75         39
    76         59
    77         58
    78         19
    79          5
    80          1
    81          0
    85          1
    86          4
    87          6
    88          8
    90        142
    91        999
    92         77
    93          7
    94          0
    98          0
    99          1
   100          1
   102         27
   103         61
   104         26
   105          6
   106          4
   107          1
   108          0
   112          3
   114          0
   115          0
   117          3
   118         17
   119         10
   120          1
   121          2
   125          0
   126          1
   127          2
   128          1
   129          0
   130          0
   133         90
   134         16
   135          1
   139          0
   140          0
   141          0
   147          0
   150          0
   151          2
   152          6
   153          5
   154          4
   155          1
   156          0
   158          0
   163          0
   164          0
   165          4
   166          2
   167          1
   168          0
   169          0
   179          1
   180          2
   181         20
   182          4
   183          0
   184          0
   191          0
   192          1
   193          7
   194          3
   195          4
   196          2
   197          5
   198          1
   205          2
   206          0
   207          0
   209         55
   210          8
   211          0
   224        138
   225         22
   226          2
   227          0
   238          0
   252          2
   253          2
   254          0