##TITLE=Library Entry 16937
##JCAMP-DX=Revision 4.10 
##DATA TYPE=MASS SPECTRUM
##SAMPLE DESCRIPTION=Japan AIST/NIMC Database- Spectrum MS-NW-1529
##NAMES=HP
##CAS NAME=Propanamide, 2-hydroxy-
##MOLFORM=C3H7NO2
##CAS REGISTRY NO=2043-43-8
##MP= -300
##BP= -300
##MW= 89
##$RETENTION INDEX=0
##$CONDENSED SPECTRUM=NO
##NPOINTS= 43
##XYDATA=(XY..XY) 1 
    12          1
    13          3
    14         17
    15         58
    16         28
    17         51
    18        164
    19         10
    25          5
    26         41
    27        184
    28        144
    29        136
    30         11
    31         16
    37          1
    38          2
    39          2
    40          3
    41          7
    42         31
    43        185
    44        355
    45        999
    46        189
    47          5
    51          3
    52          4
    53          5
    54          5
    55         19
    56          6
    57          1
    58          2
    59          3
    61        180
    62          5
    71          2
    72          4
    74         36
    75          1
    89         12
    90          2