##TITLE=Library Entry 20731
##JCAMP-DX=Revision 4.10 
##DATA TYPE=MASS SPECTRUM
##SAMPLE DESCRIPTION=Japan AIST/NIMC Database- Spectrum MS-NW-3068
##NAMES=HP
##CAS NAME=Cyclohexanecarboxaldehyde
##MOLFORM=C7H12O
##CAS REGISTRY NO=2043-61-0
##MP= -300
##BP= -300
##MW= 112
##$RETENTION INDEX=963
##$CONDENSED SPECTRUM=NO
##NPOINTS= 66
##XYDATA=(XY..XY) 1 
    15          6
    26         12
    27        118
    28          7
    29         87
    30          2
    31          5
    36          5
    37          4
    38         10
    39        147
    40         19
    41        483
    42         37
    43         54
    44          5
    45         15
    49          1
    50         12
    51         22
    52          9
    53         55
    54         42
    55        999
    56        104
    57        100
    58          8
    60          1
    61          1
    62          2
    63          3
    65         10
    66         33
    67         67
    68        341
    69         32
    70        204
    71         53
    72          2
    73          4
    74          1
    75          1
    77         17
    78          5
    79        101
    80         12
    81         74
    82         29
    83        593
    84         54
    85          6
    86          1
    87          1
    91          6
    92          1
    93         10
    94        175
    95         14
    96          2
    97         20
    98          2
    99          1
   110          3
   111          3
   112         74
   113          7