##TITLE=Library Entry 15354
##JCAMP-DX=Revision 4.10 
##DATA TYPE=MASS SPECTRUM
##SAMPLE DESCRIPTION=NIST Mass Spectrometry Data Center, 1994
##NAMES=HP
##CAS NAME=N,N-Dimethylacetoacetamide
##MOLFORM=C6H11NO2
##CAS REGISTRY NO=2044-64-6
##MP= -300
##BP= -300
##MW= 129
##$RETENTION INDEX=0
##$CONDENSED SPECTRUM=NO
##NPOINTS= 70
##XYDATA=(XY..XY) 1 
     5          3
     6          3
     9          3
    10          1
    12          4
    13         15
    14         55
    15        316
    16          3
    17          1
    18         81
    22          2
    25          7
    26         38
    27         96
    28        164
    29         77
    30        102
    31         30
    32          4
    35          2
    36          3
    37         10
    38         19
    39         45
    40         34
    41         95
    42        486
    43        859
    44        999
    45        497
    46         80
    47          3
    51          4
    52          8
    53         14
    54         10
    55         35
    56         48
    57         18
    58        116
    59          8
    66          3
    67          4
    69         78
    70         11
    72        375
    73         14
    82          3
    83          3
    84         25
    85        113
    86         77
    87         87
    88          5
    90          1
    92          1
    96          1
    98          2
   100          5
   101         54
   102          2
   111          5
   112         26
   114         33
   115          2
   121          1
   129        247
   130         17
   131          1