##TITLE=Library Entry 12804
##JCAMP-DX=Revision 4.10 
##DATA TYPE=MASS SPECTRUM
##SAMPLE DESCRIPTION=Japan AIST/NIMC Database- Spectrum MS-NW-4155
##NAMES=HP
##CAS NAME=Butanamide, N-(2,5-dichlorophenyl)-3-oxo-
##MOLFORM=C10H9Cl2NO2
##CAS REGISTRY NO=2044-72-6
##MP= -300
##BP= -300
##MW= 245
##$RETENTION INDEX=0
##$CONDENSED SPECTRUM=NO
##NPOINTS= 137
##XYDATA=(XY..XY) 1 
    13          2
    14         11
    15         70
    25          1
    26          8
    27         29
    28          5
    29         14
    30          1
    31         13
    32          1
    35          2
    36         11
    37         11
    38         15
    39         26
    40          5
    41         15
    42         29
    43        999
    44         22
    45          3
    47          2
    49          7
    50          6
    51          5
    52         15
    53          2
    55          8
    56          2
    57          5
    58         79
    59          3
    60          2
    61          9
    62         21
    63         50
    64         11
    65          8
    66          2
    67          4
    69         30
    70          1
    72          4
    73         28
    74         10
    75         13
    76          2
    77          3
    78          1
    80          1
    81          1
    83          4
    84         17
    85        140
    86          8
    87          3
    88          7
    89          7
    90         60
    91          9
    97          9
    98          9
    99         32
   100          6
   101         11
   102          4
   103          1
   104          3
   107          2
   109          9
   110          2
   111          8
   112          2
   113          3
   124         27
   125         24
   126         41
   127         14
   128         13
   129          3
   132          1
   133         36
   134          7
   135         25
   136          4
   137          4
   138          3
   139          2
   140          2
   141          1
   145          5
   146          1
   147          3
   151          3
   152          1
   153          1
   159          4
   160          9
   161        917
   162         74
   163        580
   164         47
   165         92
   166          7
   167          7
   168         40
   169          7
   170         12
   171          1
   174          8
   175          3
   176          5
   180          1
   182          1
   186          2
   187         17
   188          5
   189         10
   190          2
   191          2
   202          2
   203          1
   204          1
   209          1
   210        458
   211         52
   212        149
   213         16
   214          2
   230          1
   245        134
   246         14
   247         85
   248         10
   249         15
   250          2