##TITLE=Library Entry 33180
##JCAMP-DX=Revision 4.10 
##DATA TYPE=MASS SPECTRUM
##SAMPLE DESCRIPTION=Exported from NIST MS Search
##NAMES=HP
##CAS NAME=Bicyclo[4.3.1]decan-10-one
##MOLFORM=C10H16O
##CAS REGISTRY NO=20440-21-5
##MP= -300
##BP= -300
##MW= 152
##$RETENTION INDEX=0
##$CONDENSED SPECTRUM=NO
##NPOINTS= 30
##XYDATA=(XY..XY) 1 
    39        271
    41        524
    53        100
    54        526
    55        453
    66         53
    67        999
    68        360
    69         73
    70         17
    79        122
    80         48
    81        813
    82        559
    83        111
    84        351
    92         22
    93         35
    94         24
    95        320
    96        593
    97        368
    98        946
    99         77
   109        171
   110        400
   111         44
   124        100
   152        951
   153        155