##TITLE=Library Entry 16310
##JCAMP-DX=Revision 4.10 
##DATA TYPE=MASS SPECTRUM
##SAMPLE DESCRIPTION=V.G.Zaikin, TIPS, Russian Acad. Sci., Moscow
##NAMES=HP
##CAS NAME=Dinonylamine
##MOLFORM=C18H39N
##CAS REGISTRY NO=2044-21-5
##MP= -300
##BP= -300
##MW= 269
##$RETENTION INDEX=0
##$CONDENSED SPECTRUM=NO
##NPOINTS= 92
##XYDATA=(XY..XY) 1 
    29        286
    30        348
    31          3
    38         32
    39         80
    40         92
    41        388
    42        149
    43        510
    44        999
    45         44
    50          3
    51         26
    53         28
    54         30
    55        266
    56        237
    57        258
    58         80
    59          9
    67         32
    68         29
    69         96
    70        126
    71         80
    72         32
    73          6
    75          9
    77          4
    79         14
    80          4
    81         32
    82         40
    83         57
    84         88
    85         25
    86         14
    91          4
    93          4
    95         21
    96         14
    97         13
    98         54
    99          9
   100          9
   105          6
   106          3
   108          2
   109          9
   110          9
   111         11
   112         32
   113          6
   125          9
   126         24
   128          9
   138        113
   139         11
   140        106
   141         11
   142        310
   143         36
   144          9
   149         57
   152         13
   153          4
   154        206
   155         59
   156        940
   157        128
   158          9
   168         32
   169         19
   170         14
   181          9
   182         34
   183          6
   196         14
   197         17
   205          4
   210          6
   212          9
   213          2
   224          2
   226          4
   238          4
   240          4
   241          4
   254          4
   268          4
   269         11
   270          2