##TITLE=Library Entry 60257
##JCAMP-DX=Revision 4.10 
##DATA TYPE=MASS SPECTRUM
##SAMPLE DESCRIPTION=MUS59 A. Mujsce, AT&T Bell Labs., Murray Hill, N.J., US
A
##NAMES=HP
##CAS NAME=Benzenemethanol, 2-nitro-, 4-methylbenzenesulfonate (ester)
##MOLFORM=C14H13NO5S
##CAS REGISTRY NO=20444-09-1
##MP= -300
##BP= -300
##MW= 307
##$RETENTION INDEX=0
##$CONDENSED SPECTRUM=NO
##NPOINTS= 129
##XYDATA=(XY..XY) 1 
    15          3
    16          5
    17          2
    18          2
    25          1
    26          2
    27          7
    28          5
    29          3
    30          9
    33          2
    37          2
    38          6
    39         49
    40          7
    41         11
    42          3
    44          2
    45          4
    50         60
    51        133
    52         71
    53         25
    56          4
    57          3
    59          2
    60          6
    62         40
    63        150
    64         82
    65        416
    66         37
    67         12
    68          3
    69          5
    71          5
    74         34
    75         36
    76        107
    77        310
    78        513
    79        260
    80         30
    81          6
    82          3
    84          2
    85          5
    86          9
    87         13
    89        244
    90        100
    91        999
    92        322
    93         36
    94          9
    95          3
    96          3
   100          1
   104        216
   105         79
   106         16
   107         59
   108         37
   109          5
   111          4
   112          1
   115         10
   118          4
   119         12
   120          8
   121         40
   122          8
   126          1
   127          5
   128          2
   129          2
   130          2
   134         55
   135        469
   136        316
   137         26
   138          4
   139         23
   140          3
   141          2
   142          2
   143          1
   149          2
   150          2
   152        202
   153         25
   155         78
   156         13
   157          5
   160          1
   163          1
   164          1
   165         12
   166          6
   167          5
   168          3
   169          6
   170          4
   171          3
   172          5
   174          4
   178          3
   179          3
   180          4
   181          7
   182          3
   186          2
   189          2
   193          4
   194          3
   195          4
   197         22
   198          3
   209          3
   210          2
   213          3
   217          2
   230          2
   261         41
   262          8
   263          4
   282          3
   307         11
   308          2