##TITLE=Library Entry 60589
##JCAMP-DX=Revision 4.10 
##DATA TYPE=MASS SPECTRUM
##SAMPLE DESCRIPTION=R.C. DOUGHERTY
##NAMES=HP
##CAS NAME=9-Thiabicyclo[6.2.0]deca-1(8),6-diene, 9,9-dioxide
##MOLFORM=C9H12O2S
##CAS REGISTRY NO=20452-34-0
##MP= -300
##BP= -300
##MW= 184
##$RETENTION INDEX=0
##$CONDENSED SPECTRUM=NO
##NPOINTS= 38
##XYDATA=(XY..XY) 1 
    27        270
    32         50
    39        540
    40        120
    41        270
    43        100
    44        520
    48        100
    50        120
    51        270
    52        180
    53        180
    55        100
    63        140
    64        200
    65        210
    66        150
    67        130
    77        420
    78        330
    79        700
    80        130
    81         90
    91        999
    92        760
    93        200
   103        100
   105        700
   106         80
   107         80
   108         60
   119        150
   120        120
   121         50
   135         60
   136        130
   184        225
   185         20