##TITLE=Library Entry 1324
##JCAMP-DX=Revision 4.10 
##DATA TYPE=MASS SPECTRUM
##SAMPLE DESCRIPTION=NIST Mass Spectrometry Data Center
##NAMES=HP
##CAS NAME=2-(2-Methoxyphenyl)ethylamine
##MOLFORM=C9H13NO
##CAS REGISTRY NO=2045-79-6
##MP= -300
##BP= -300
##MW= 151
##$RETENTION INDEX=0
##$CONDENSED SPECTRUM=NO
##NPOINTS= 71
##XYDATA=(XY..XY) 1 
    13          1
    14          7
    15         34
    16          1
    17          4
    18          1
    19          1
    25          1
    26          7
    27         30
    28         76
    30        999
    31         14
    36          1
    37          4
    38         19
    39         62
    40          8
    41         15
    42         11
    43          9
    44          2
    45          1
    50         34
    51         69
    52         43
    53         18
    54          4
    55          3
    58          1
    61          4
    62         13
    63         39
    65         83
    66          9
    67          3
    74          7
    75          6
    77         73
    78         65
    79         32
    80          6
    81          1
    86          2
    87          2
    89         29
    91        191
    92         28
    93         13
    94          2
   102          2
   103          3
   104          3
   105          4
   107         59
   108          9
   116          1
   117          5
   118         11
   119         12
   120         11
   121         58
   122        360
   123         31
   124          1
   132          1
   134          2
   135          2
   149          1
   151         17
   152          2