##TITLE=Library Entry 16835
##JCAMP-DX=Revision 4.10 
##DATA TYPE=MASS SPECTRUM
##SAMPLE DESCRIPTION=LAC, NIDDK, NIH, Bethesda, MD 20892
##NAMES=HP
##CAS NAME=Indole[e]-4,5-epoxy-3-methoxymorphin-14-ol
##MOLFORM=C24H24N2O3
##CAS REGISTRY NO=204569-78-8
##MP= -300
##BP= -300
##MW= 388
##$RETENTION INDEX=0
##$CONDENSED SPECTRUM=NO
##NPOINTS= 170
##XYDATA=(XY..XY) 1 
    41        573
    42        737
    43        958
    44        875
    45        999
    46        381
    47         83
    48         30
    54         52
    55        354
    56        223
    57        408
    58        228
    59         41
    60        279
    61         88
    67         59
    68        188
    69        384
    70        627
    71        412
    72        148
    73        382
    74         61
    75         53
    76         45
    77        205
    78        224
    79         96
    80         40
    81        145
    82         97
    83        144
    84         24
    85         99
    86         28
    87         17
    88        138
    89         38
    90         25
    91         63
    92         38
   100         24
   101         55
   102         54
   103         48
   104         31
   114         31
   115        118
   116         48
   117         48
   118         31
   119         29
   121        120
   122         34
   123         35
   124         72
   125         31
   126         29
   127         88
   128         88
   129         90
   130        133
   131         49
   132         26
   133         40
   134         36
   135         74
   137         32
   139         26
   140         35
   141         40
   142         56
   143        113
   144        176
   145         35
   146         31
   147         34
   148         33
   153         19
   154         51
   155         39
   166         32
   167         70
   168         61
   169         48
   170        140
   171         26
   176         37
   177         33
   179        442
   180        110
   181         31
   184         37
   185        163
   186        118
   187         39
   193         26
   194        123
   196         48
   197         23
   202         53
   203         32
   204         49
   205         22
   209         91
   210         61
   211         20
   216        161
   217        125
   218         60
   219         21
   228         86
   229         46
   230        106
   231         28
   232         18
   233         34
   240         28
   241         74
   242         51
   243         24
   244         76
   245         64
   246         30
   251         35
   254         71
   255         28
   256         34
   257         29
   258         32
   259         22
   269         22
   270         66
   271         27
   272         26
   273         20
   282         35
   283         21
   284         37
   285         24
   286         35
   287         20
   288         25
   298         35
   299         23
   300         32
   301         42
   302         51
   303         39
   304         22
   312         24
   313         29
   314         55
   315         21
   316         41
   317         36
   328         22
   329         29
   330         43
   331         52
   356         19
   370         21
   371         34
   373         61
   374         22
   387         48
   388        680
   389        170
   390         31