##TITLE=Library Entry 3253
##JCAMP-DX=Revision 4.10 
##DATA TYPE=MASS SPECTRUM
##SAMPLE DESCRIPTION=Chemical Concepts
##NAMES=HP
##CAS NAME=4-Pentenoic acid, 3-methyl-, methyl ester
##MOLFORM=C7H12O2
##CAS REGISTRY NO=20459-97-6
##MP= -300
##BP= -300
##MW= 128
##$RETENTION INDEX=1140
##$CONDENSED SPECTRUM=NO
##NPOINTS= 81
##XYDATA=(XY..XY) 1 
    25          0
    27        307
    29        265
    30         11
    31         40
    33          5
    34          0
    35          0
    36          0
    37          6
    38         22
    39        373
    40         56
    41        999
    42        104
    43        250
    44         18
    45         26
    46          0
    47          0
    48          2
    49          2
    50         20
    51         46
    52         24
    53        161
    54         70
    55        644
    56         44
    57         10
    58         14
    59        377
    60          9
    61          3
    62          2
    63          4
    64          1
    65         14
    66         18
    67        125
    68        855
    69        629
    70         42
    71        163
    72         16
    73          7
    74        173
    75          7
    76          0
    77          0
    78          0
    79          1
    80          0
    81         26
    82          2
    83          2
    84          0
    85         64
    86         40
    87         13
    88          1
    89          0
    91          0
    94          0
    95         15
    96        397
    97        267
    98         19
    99          7
   100          4
   101          2
   111          2
   112          0
   113         41
   114          3
   115          0
   125          0
   126          0
   127         12
   128         26
   129          2