##TITLE=Library Entry 76799
##JCAMP-DX=Revision 4.10 
##DATA TYPE=MASS SPECTRUM
##SAMPLE DESCRIPTION=NIST Mass Spectrometry Data Center, 1990.
##NAMES=HP
##CAS NAME=Benzene, (ethenylsulfinyl)-
##MOLFORM=C8H8OS
##CAS REGISTRY NO=20451-53-0
##MP= -300
##BP= -300
##MW= 152
##$RETENTION INDEX=0
##$CONDENSED SPECTRUM=NO
##NPOINTS= 93
##XYDATA=(XY..XY) 1 
    17          1
    18          5
    25          7
    26         53
    27        165
    28         11
    29         10
    32          4
    36          3
    37         15
    38         33
    39        115
    40          6
    41          7
    43          4
    44          7
    45        119
    46          6
    47         17
    48         11
    49         25
    50        215
    51        482
    52         46
    53         52
    54          4
    55          3
    57         23
    58         60
    59        100
    60          5
    61         16
    62         22
    63         45
    64         14
    65        189
    66         47
    67         15
    68          7
    69         79
    70         12
    71         14
    72          2
    73         19
    74         72
    75         41
    76         43
    77        394
    78        480
    79         47
    80          4
    81         28
    82         26
    83         10
    84         16
    86          2
    89         11
    91        192
    92         18
    93         15
    94         24
    95         10
    96          2
    97        196
    98         13
    99          8
   101          3
   102         19
   103        110
   104        999
   105         83
   106          6
   107         10
   108         40
   109        363
   110         69
   111         19
   112          3
   119         11
   121         15
   123        157
   124         29
   125        146
   126         30
   127         11
   134         42
   135        230
   136        133
   137         26
   138          5
   152        143
   153         15
   154          8