##TITLE=Library Entry 62294
##JCAMP-DX=Revision 4.10 
##DATA TYPE=MASS SPECTRUM
##SAMPLE DESCRIPTION=Japan AIST/NIMC Database- Spectrum MS-NW-9356
##NAMES=HP
##CAS NAME=Benzenebutanenitrile
##MOLFORM=C10H11N
##CAS REGISTRY NO=2046-18-6
##MP= -300
##BP= -300
##MW= 145
##$RETENTION INDEX=1337
##$CONDENSED SPECTRUM=NO
##NPOINTS= 65
##XYDATA=(XY..XY) 1 
    26          3
    27         23
    28          9
    37          2
    38          8
    39         67
    40          7
    41         34
    42          1
    43          1
    44          1
    49          1
    50         27
    51         72
    52         18
    53          7
    54         39
    55          2
    57          3
    58          1
    61          3
    62         10
    63         36
    64          9
    65        118
    66          9
    73          1
    74          8
    75          8
    76          9
    77         65
    78         45
    79         28
    80          2
    86          2
    87          3
    88          1
    89         25
    90          9
    91        999
    92        158
    93          9
   100          1
   101          1
   102          8
   103         36
   104        216
   105        182
   106         13
   113          1
   114          1
   115         18
   116          9
   117         15
   118          3
   127          1
   128          1
   130          5
   140          2
   142          2
   143          2
   144          7
   145        238
   146         27
   147          1