##TITLE=Library Entry 98812
##JCAMP-DX=Revision 4.10 
##DATA TYPE=MASS SPECTRUM
##SAMPLE DESCRIPTION=NIST Mass Spectrometry Data Center
##NAMES=HP
##CAS NAME=Ethyl 1,3-dithiane-2-carboxylate
##MOLFORM=C7H12O2S2
##CAS REGISTRY NO=20462-00-4
##MP= -300
##BP= -300
##MW= 192
##$RETENTION INDEX=0
##$CONDENSED SPECTRUM=NO
##NPOINTS= 78
##XYDATA=(XY..XY) 1 
    13          1
    14          2
    15         18
    16          1
    18          2
    19          1
    25          1
    26         22
    27        132
    28         20
    29        178
    30          8
    31          6
    32          1
    33          3
    34          2
    35          1
    37          2
    38          5
    39         70
    41        127
    42         17
    43         21
    45        362
    46         82
    47         66
    48          5
    49          2
    53          1
    55          8
    56          1
    57          4
    58         19
    59         43
    60          5
    61          7
    63          3
    64          4
    66          2
    69          3
    71         16
    72          8
    73         62
    74         21
    75         80
    76         12
    77         35
    78          8
    79          6
    80          1
    83          1
    85         60
    86          9
    87          6
    88          1
    89          2
    91         55
    92          5
    93          4
    94          2
    99          3
   103          3
   104          3
   105          8
   106          6
   107          1
   113          1
   117          4
   119        999
   120         62
   121         84
   122          5
   123          2
   146          1
   192        147
   193         15
   194         15
   195          1