##TITLE=Library Entry 44811
##JCAMP-DX=Revision 4.10 
##DATA TYPE=MASS SPECTRUM
##SAMPLE DESCRIPTION=NIST Mass Spectrometry Data Center, 1994
##NAMES=HP
##CAS NAME=Benzenebutanoic acid, methyl ester
##MOLFORM=C11H14O2
##CAS REGISTRY NO=2046-17-5
##MP= -300
##BP= -300
##MW= 178
##$RETENTION INDEX=0
##$CONDENSED SPECTRUM=NO
##NPOINTS= 109
##XYDATA=(XY..XY) 1 
     4          4
     6          1
    10          0
    12          1
    13          3
    15        301
    16          5
    18          5
    19          0
    21          0
    24          1
    25          1
    26         19
    27        108
    28         83
    29         62
    30         14
    31         41
    32          1
    33          2
    37          6
    38         27
    39        238
    40         22
    41        102
    42         47
    43        478
    44         25
    45         16
    50         63
    51        154
    52         42
    53         16
    54          6
    55         49
    56          6
    57          6
    58         35
    59         88
    61          7
    62         27
    63         88
    64          6
    65        320
    66         19
    67          1
    68          1
    69          1
    71          1
    72          1
    74        999
    75         40
    76         24
    77        104
    78        102
    79         37
    80          2
    81          0
    85          2
    86          5
    87         20
    88          0
    89         67
    90          0
    91        824
    92         72
    93          2
    94          0
    95          0
    97          0
    98          0
    99          0
   100          0
   101          3
   102         20
   103          0
   104        712
   105        290
   106         20
   107          3
   108          0
   113          1
   115         80
   116         19
   117         67
   118         26
   119          6
   120          1
   121          2
   122          0
   127          3
   129         29
   130          3
   131          1
   133          1
   134          0
   135          1
   136          0
   144          1
   146        255
   147        213
   148         20
   149          1
   163          0
   174          0
   176          0
   178        163
   179         19
   180          2