##TITLE=Library Entry 67406
##JCAMP-DX=Revision 4.10 
##DATA TYPE=MASS SPECTRUM
##SAMPLE DESCRIPTION=Japan AIST/NIMC Database- Spectrum MS-IW- 43
##NAMES=HP
##CAS NAME=Ethyl 3-methoxy-4-methyl-6-oxo-1,6-dihydro-1-pyridazinyl carbonat
e
##MOLFORM=C9H12N2O5
##CAS REGISTRY NO=20465-28-5
##MP= -300
##BP= -300
##MW= 228
##$RETENTION INDEX=0
##$CONDENSED SPECTRUM=NO
##NPOINTS= 99
##XYDATA=(XY..XY) 1 
    14          4
    15         94
    16          9
    17          3
    18          2
    25          2
    26         10
    27         38
    28         59
    29        103
    30         69
    31         10
    32          3
    33          2
    34          5
    36          2
    37         18
    38         38
    39        282
    40        211
    41        110
    42         25
    43        156
    44         17
    45         31
    46          4
    49          2
    50         11
    51         17
    52         19
    53         30
    54         10
    55         25
    56          9
    57          7
    58         55
    59         12
    60          2
    61          2
    63          3
    64          9
    65          6
    66         53
    67         52
    68        162
    69         43
    70         18
    71          3
    73          1
    75          4
    76          2
    77          1
    79          1
    80         10
    81          5
    82          9
    83        402
    84         26
    85         23
    86          1
    89          4
    91          1
    92          2
    93          5
    94        999
    95         67
    96         34
    97          8
    98          3
    99          4
   108          1
   109          2
   110          9
   111         37
   112          5
   113          6
   115          1
   117          4
   120          1
   121          1
   122          5
   123          1
   124         11
   125          4
   126        729
   127         61
   128          8
   135          1
   139         19
   140        121
   141         14
   142          1
   149          2
   155          1
   156        543
   157         75
   158          7
   159          1
   171          3