##TITLE=Library Entry 70694
##JCAMP-DX=Revision 4.10 
##DATA TYPE=MASS SPECTRUM
##SAMPLE DESCRIPTION=Japan AIST/NIMC Database- Spectrum MS-IW-1939
##NAMES=HP
##CAS NAME=Ethyl 3-(3-ethoxy-6-oxo-1,6-dihydro-1-pyridazinyloxy)propionate
##MOLFORM=C11H16N2O5
##CAS REGISTRY NO=20465-21-8
##MP= -300
##BP= -300
##MW= 256
##$RETENTION INDEX=0
##$CONDENSED SPECTRUM=NO
##NPOINTS= 117
##XYDATA=(XY..XY) 1 
    12          1
    13          2
    14          9
    15         35
    16          2
    24          1
    25          8
    26        150
    27        272
    28        103
    29        842
    30        228
    31         65
    37          5
    38         24
    39         25
    40         20
    41         54
    42        141
    43        161
    44         40
    45        140
    46          5
    47          4
    50          1
    51          7
    52         39
    53         78
    54        381
    55        671
    56         48
    57         28
    58          6
    59        163
    60         86
    61         30
    62          1
    65          1
    66          2
    67          6
    68         22
    69         25
    70         22
    71         79
    72         20
    73        640
    74         28
    75          5
    76          1
    77          2
    78          5
    79          2
    80        270
    81         38
    82        492
    83        387
    84         55
    85          9
    86          1
    87          6
    88         26
    89         13
    90          2
    91          4
    93          1
    94          1
    95          3
    96         52
    97         22
    98        999
    99        529
   100         43
   101        480
   102         27
   103          3
   108          2
   109          2
   110         80
   111          9
   112        217
   113         20
   114          2
   116          4
   117          2
   123          1
   124         73
   125         69
   126        339
   127        126
   128         13
   129          5
   137          2
   138          4
   139         45
   140         81
   141         10
   142          1
   152         59
   153          7
   154          6
   155        104
   156         18
   157         44
   158          3
   167          1
   169          1
   171          1
   182          2
   198          1
   211         93
   212         10
   213          1
   226          2
   228          1
   256        255
   257         37
   258          5