##TITLE=Library Entry 78084
##JCAMP-DX=Revision 4.10 
##DATA TYPE=MASS SPECTRUM
##SAMPLE DESCRIPTION=NIST Mass Spectrometry Data Center
##NAMES=HP
##CAS NAME=Ethyl 1,3-dithiolane-2-carboxylate
##MOLFORM=C6H10O2S2
##CAS REGISTRY NO=20461-99-8
##MP= -300
##BP= -300
##MW= 178
##$RETENTION INDEX=0
##$CONDENSED SPECTRUM=NO
##NPOINTS= 66
##XYDATA=(XY..XY) 1 
    12          1
    13          2
    14         10
    15         31
    26         72
    27        262
    28         65
    29        278
    30         15
    32         13
    33          9
    34         10
    35         16
    37          1
    38          1
    39          3
    40          2
    41         10
    42          7
    43         16
    45        457
    46         40
    47         32
    48          3
    49          1
    53          1
    55          1
    57         19
    58         61
    59        101
    60         38
    61        204
    62          9
    63         11
    64          6
    66          5
    69          1
    71          8
    72          6
    73          4
    74          3
    76         36
    77         89
    78         14
    79          8
    86          1
    87          1
    88          1
    90          2
    91          5
    92          1
    93          1
    94          2
    99          1
   103         19
   105        999
   106         55
   107         84
   108          4
   109          2
   119          1
   122          1
   149          1
   178        111
   179         10
   180         11