##TITLE=Library Entry 55146
##JCAMP-DX=Revision 4.10 
##DATA TYPE=MASS SPECTRUM
##SAMPLE DESCRIPTION=R.G.MONTEMAYOR, UNIV. OF UTAH, SALT LAKE CITY, UTAH, US
A
##NAMES=HP
##CAS NAME=Phosphorous bromide chloride fluoride
##MOLFORM=BrClFP
##CAS REGISTRY NO=20464-11-3
##MP= -300
##BP= -300
##MW= 164
##$RETENTION INDEX=0
##$CONDENSED SPECTRUM=NO
##NPOINTS= 18
##XYDATA=(XY..XY) 1 
    19         14
    31         14
    35         78
    37         25
    50        167
    66         81
    68         19
    79        361
    81        361
    85        999
    87        333
   110         18
   112         18
   129         92
   131         92
   164        130
   166        168
   168         37