##TITLE=Library Entry 34050
##JCAMP-DX=Revision 4.10 
##DATA TYPE=MASS SPECTRUM
##SAMPLE DESCRIPTION=Exported from NIST MS Search
##NAMES=HP
##CAS NAME=2-Butenoic acid, 2-propenyl ester
##MOLFORM=C7H10O2
##CAS REGISTRY NO=20474-93-5
##MP= -300
##BP= -300
##MW= 126
##$RETENTION INDEX=0
##$CONDENSED SPECTRUM=NO
##NPOINTS= 83
##XYDATA=(XY..XY) 1 
    14          2
    15         11
    16          1
    17          4
    18         17
    19          1
    25          1
    26          9
    27         23
    28         29
    29         27
    30          4
    31         11
    32          3
    36          1
    37          7
    38         18
    39        154
    40         28
    41        297
    42         23
    43         28
    44         23
    45         14
    46          1
    47          1
    50          1
    51          2
    52          1
    53          6
    54          3
    55         13
    56          4
    57         50
    58         10
    59         92
    60          2
    61          1
    63          1
    65          2
    66          2
    67          6
    68         24
    69        999
    70         50
    71         11
    72          1
    73          2
    74          2
    75          3
    76          2
    77          3
    78          2
    79          6
    83          1
    84          6
    85          8
    86         45
    87         19
    88          1
    89          1
    91          2
    93          1
    95          2
    96          1
    97          8
    98          6
    99          3
   100          2
   101          3
   102          1
   104          2
   105          2
   107          1
   108          2
   109          2
   110          1
   111         53
   112          4
   113          2
   125          6
   126          8
   127          3