##TITLE=Library Entry 1592
##JCAMP-DX=Revision 4.10 
##DATA TYPE=MASS SPECTRUM
##SAMPLE DESCRIPTION=Japan AIST/NIMC Database- Spectrum MS-IW-2276
##NAMES=HP
##CAS NAME=Decanohydrazide
##MOLFORM=C10H22N2O
##CAS REGISTRY NO=20478-70-0
##MP= -300
##BP= -300
##MW= 186
##$RETENTION INDEX=0
##$CONDENSED SPECTRUM=NO
##NPOINTS= 98
##XYDATA=(XY..XY) 1 
    15          4
    16          1
    17          6
    18          1
    26          4
    27        105
    28         40
    29        207
    30         14
    31         88
    32        999
    33         48
    38          1
    39         74
    40         14
    41        424
    42         88
    43        833
    44         37
    45          9
    46          1
    50          1
    51          3
    52          2
    53         26
    54         18
    55        295
    56         55
    57        581
    58         30
    59         71
    60          2
    65          4
    66          2
    67         66
    68         16
    69        131
    70         23
    71        516
    72         31
    73         12
    74        419
    75         15
    76          1
    77          3
    79          7
    80          3
    81        122
    82         12
    83         42
    84         19
    85        309
    86         21
    87         66
    88          6
    91          1
    93          3
    94          2
    95        134
    96         12
    97         21
    98         14
    99          6
   100          1
   101         20
   102          1
   107          2
   108          1
   109          5
   110          2
   111          8
   112          4
   113          2
   115          9
   121          1
   123          1
   124          1
   125          2
   127          1
   129          5
   135          2
   137         30
   138          3
   139          1
   142          1
   143          4
   149          1
   153          2
   154          9
   155        607
   156         66
   157          8
   171          3
   183          5
   185         11
   186        119
   187         24
   188          2