##TITLE=Library Entry 27773
##JCAMP-DX=Revision 4.10 
##DATA TYPE=MASS SPECTRUM
##SAMPLE DESCRIPTION=MUS325 A. Mujsce, AT&T Bell Labs., Murray Hill, N.J., U
SA
##NAMES=HP
##CAS NAME=2,3-Diamino-2,3-Dimethylbutane
##MOLFORM=C6H16N2
##CAS REGISTRY NO=20485-44-3
##MP= -300
##BP= -300
##MW= 116
##$RETENTION INDEX=0
##$CONDENSED SPECTRUM=NO
##NPOINTS= 44
##XYDATA=(XY..XY) 1 
    14          2
    15         14
    16          2
    17          1
    18         25
    25          2
    26          1
    27         12
    28         20
    30         75
    31          2
    38          3
    39         44
    41        128
    42        222
    43         65
    44         15
    46          1
    47          1
    49          1
    51          2
    52          6
    53          3
    54         11
    56         15
    58        999
    59         33
    62          1
    64          2
    66          2
    67          5
    68          6
    69          4
    70         10
    71          2
    82          3
    84         88
    85         12
    86          4
   100         12
   101          6
   102          1
   116         11
   117          1