##TITLE=Library Entry 88307
##JCAMP-DX=Revision 4.10 
##DATA TYPE=MASS SPECTRUM
##SAMPLE DESCRIPTION=TNO Volatile Compounds in Food - Chemical Concepts
##NAMES=HP
##CAS NAME=5-Hepten-3-one, 2-(5-ethenyltetrahydro-5-methyl-2-furanyl)-6-meth
yl-, [2S-[2.alpha.(R*),5.alpha.]]-
##MOLFORM=C15H24O2
##CAS REGISTRY NO=20482-11-5
##MP= -300
##BP= -300
##MW= 236
##$RETENTION INDEX=1588
##$CONDENSED SPECTRUM=NO
##NPOINTS= 87
##XYDATA=(XY..XY) 1 
    26          8
    27         75
    29         60
    30          2
    31          9
    39         71
    41        376
    42         22
    43        202
    44         22
    45          7
    50          6
    51         12
    52          7
    53         68
    54         24
    55        349
    56         33
    57         69
    58          6
    59          3
    63          4
    65         19
    66          9
    67        109
    68         60
    69        398
    70         38
    71         12
    73          5
    75          7
    77         36
    78          3
    79         26
    80         10
    81         99
    82         34
    83         83
    84         12
    85          5
    91         39
    92          2
    93        542
    94         51
    95         34
    96         31
    97        204
    98         21
    99         10
   103          4
   105          6
   106          4
   107         27
   108          4
   109         19
   110         17
   111        999
   112         89
   113         10
   115          5
   117          4
   119          6
   121         10
   122          2
   123          9
   124          8
   125        106
   126         51
   127         10
   131          7
   137          6
   138          8
   139          9
   140          1
   149          2
   150          1
   151          9
   153         14
   165          6
   167         40
   168         18
   180         43
   181          6
   193         11
   221         11
   236         94
   237         15