##TITLE=Library Entry 114076
##JCAMP-DX=Revision 4.10 
##DATA TYPE=MASS SPECTRUM
##SAMPLE DESCRIPTION=R.A.HITES, INDIANA UNIV., BLOOMINGTON, IN
##NAMES=HP
##CAS NAME=1,2,3,4,4a,9,10,10a-Octahydrophenanthrene (cis)
##MOLFORM=C14H18
##CAS REGISTRY NO=20480-66-4
##MP= -300
##BP= -300
##MW= 186
##$RETENTION INDEX=0
##$CONDENSED SPECTRUM=NO
##NPOINTS= 44
##XYDATA=(XY..XY) 1 
    55         60
    56         40
    57         20
    65        110
    66         20
    74         20
    75         30
    76         40
    77        140
    78         90
    79         60
    80         30
    89         60
    91        280
    92         40
   101         20
   102         60
   103         60
   104        370
   105        130
   106         20
   115        310
   116        110
   117        200
   118         40
   126         20
   127        120
   128        500
   129        999
   130        290
   131         60
   141         80
   142         60
   143        840
   144        110
   145         20
   156         10
   157         30
   158        190
   159         20
   184         10
   186        880
   187        130
   188         10