##TITLE=Library Entry 51711
##JCAMP-DX=Revision 4.10 
##DATA TYPE=MASS SPECTRUM
##SAMPLE DESCRIPTION=A.A.Kutin, Moscow, Russia
##NAMES=HP
##CAS NAME=Imidazole-2-carboxylic acid, 1-methyl-
##MOLFORM=C5H6N2O2
##CAS REGISTRY NO=20485-43-2
##MP= -300
##BP= -300
##MW= 126
##$RETENTION INDEX=0
##$CONDENSED SPECTRUM=NO
##NPOINTS= 82
##XYDATA=(XY..XY) 1 
    33         18
    34          3
    36         50
    38        110
    39        159
    40        417
    41        287
    42        570
    44        202
    45        156
    46          4
    47          0
    48          0
    49          2
    50          8
    51         94
    52        243
    53        283
    54        703
    55        285
    56        253
    58          1
    59          0
    60          1
    61          0
    62          0
    63          2
    64          3
    66         48
    67         38
    68         19
    69         12
    70         10
    71          4
    72          7
    73          1
    74          1
    75          0
    76          2
    77          7
    79         53
    80        164
    81        623
    82        999
    83         35
    84          2
    85          1
    87          0
    89          0
    90          0
    91          1
    92          0
    93          1
    94          6
    95          3
    96          0
    97          3
    98          2
   102          0
   103          0
   104          1
   105          1
   106          6
   107         28
   108        210
   109        231
   110         11
   111          1
   112          1
   113          0
   115          0
   117          0
   118          0
   119          0
   120          1
   121          2
   122          1
   126        888
   127         44
   128          4
   129          0
   130          0