##TITLE=Library Entry 60179
##JCAMP-DX=Revision 4.10 
##DATA TYPE=MASS SPECTRUM
##SAMPLE DESCRIPTION=Japan AIST/NIMC Database- Spectrum MS-NW-7124
##NAMES=HP
##CAS NAME=Urea, (phenylmethoxy)-
##MOLFORM=C8H10N2O2
##CAS REGISTRY NO=2048-50-2
##MP= -300
##BP= -300
##MW= 166
##$RETENTION INDEX=0
##$CONDENSED SPECTRUM=NO
##NPOINTS= 53
##XYDATA=(XY..XY) 1 
    15          2
    16          7
    17         12
    18         33
    26          2
    27         10
    28          6
    29         11
    30          1
    31          6
    32          1
    37          3
    38          7
    39         34
    40          3
    41          8
    42          4
    43         23
    44         38
    45          1
    49          2
    50         22
    51         60
    52         14
    53          7
    60         11
    61          3
    62          6
    63         14
    64          5
    65         82
    66          5
    73          1
    74          7
    75          4
    76          4
    77         93
    78         17
    79         50
    80          5
    81          1
    89         13
    90         10
    91        999
    92         79
    93          3
   105         34
   106         27
   107         33
   108         39
   109          4
   123          1
   149          1