##TITLE=Library Entry 100249
##JCAMP-DX=Revision 4.10 
##DATA TYPE=MASS SPECTRUM
##SAMPLE DESCRIPTION=Chemical Concepts
##NAMES=HP
##CAS NAME=2-Butanone, 4-(2,6,6-trimethyl-1,3-cyclohexadien-1-yl)-
##MOLFORM=C13H20O
##CAS REGISTRY NO=20483-36-7
##MP= -300
##BP= -300
##MW= 192
##$RETENTION INDEX=1424
##$CONDENSED SPECTRUM=NO
##NPOINTS= 120
##XYDATA=(XY..XY) 1 
    26          3
    27         21
    29         15
    31          2
    36          3
    37          1
    38          1
    39         46
    40          8
    41         98
    42          6
    43        210
    44         10
    45         10
    46          1
    47          2
    48          1
    50          5
    51         23
    52         10
    53         42
    54          6
    55         45
    56          6
    57         24
    58          7
    59          2
    60          4
    61          2
    62          4
    63         16
    64          6
    65         44
    66         14
    67         23
    68          4
    69         26
    70          6
    71         17
    72         71
    73          5
    74          4
    75          9
    76          7
    77         98
    78         27
    79         77
    80          9
    81         21
    82          5
    83          7
    84          4
    85          4
    86          2
    87          2
    88          2
    89          6
    90          4
    91        132
    92         26
    93         60
    94          9
    95         20
    96          7
    97         10
    98          4
    99          9
   100          2
   101          4
   102          6
   103         30
   104         19
   105        124
   106         35
   107         54
   108         11
   109         12
   110          3
   111          6
   112          4
   113          5
   114          3
   115         28
   116         17
   117         36
   118         20
   119        999
   120        170
   121        458
   122         49
   123         15
   124          5
   125          5
   126          2
   127          5
   128          9
   129         11
   130          6
   131         11
   132          7
   133         34
   134        153
   135         63
   136         14
   137          6
   156          3
   157         31
   158          7
   159         33
   160          4
   161         14
   162          3
   174          7
   175          5
   176          6
   177         48
   178          7
   192        159
   193         28
   194          6