##TITLE=Library Entry 23111
##JCAMP-DX=Revision 4.10 
##DATA TYPE=MASS SPECTRUM
##SAMPLE DESCRIPTION=Exported from NIST MS Search
##NAMES=HP
##CAS NAME=Propanoic acid, 1,1-dimethylethyl ester
##MOLFORM=C7H14O2
##CAS REGISTRY NO=20487-40-5
##MP= -300
##BP= -300
##MW= 130
##$RETENTION INDEX=717
##$CONDENSED SPECTRUM=NO
##NPOINTS= 34
##XYDATA=(XY..XY) 1 
    12          1
    14         10
    15         65
    16          2
    26         26
    27        142
    28         49
    29        323
    30          8
    31         15
    32          1
    39         65
    40         11
    41        189
    42         21
    43         66
    44          2
    45          6
    54          2
    55         17
    56        111
    57        999
    58         41
    59         35
    60          1
    71          1
    72          1
    73          2
    74          2
    75         33
    76          1
   115         44
   116          3
   130          1