##TITLE=Library Entry 81012
##JCAMP-DX=Revision 4.10 
##DATA TYPE=MASS SPECTRUM
##SAMPLE DESCRIPTION=Japan AIST/NIMC Database- Spectrum MS-IW-3823
##NAMES=HP
##CAS NAME=Benzoic acid, pentyl ester
##MOLFORM=C12H16O2
##CAS REGISTRY NO=2049-96-9
##MP= -300
##BP= -300
##MW= 192
##$RETENTION INDEX=1452
##$CONDENSED SPECTRUM=NO
##NPOINTS= 63
##XYDATA=(XY..XY) 1 
    26          1
    27         22
    28          5
    29         22
    31          1
    38          2
    39         21
    40          3
    41         46
    42         69
    43         29
    44          1
    45          1
    50         23
    51         92
    52          7
    53          4
    54          2
    55         76
    56          4
    57          3
    62          1
    63          1
    65          4
    66          1
    67          2
    68          2
    69         22
    70        187
    71         10
    74          6
    75          8
    76         19
    77        392
    78         32
    79         54
    80          3
    87          2
    91          3
    92          1
    93          1
    94          2
   103          1
   104          5
   105        999
   106         88
   107          8
   118          1
   120          3
   121          3
   122        200
   123        881
   124         68
   125          6
   135         10
   136          3
   149          2
   163          6
   164          1
   168          1
   175          1
   192         23
   193          3