##TITLE=Library Entry 6239
##JCAMP-DX=Revision 4.10 
##DATA TYPE=MASS SPECTRUM
##SAMPLE DESCRIPTION=Chemical Concepts
##NAMES=HP
##CAS NAME=Phosphine, bis(1-methylethyl)-
##MOLFORM=C6H15P
##CAS REGISTRY NO=20491-53-6
##MP= -300
##BP= -300
##MW= 118
##$RETENTION INDEX=0
##$CONDENSED SPECTRUM=NO
##NPOINTS= 64
##XYDATA=(XY..XY) 1 
    27        166
    29         20
    30          0
    31          1
    33          2
    34          1
    35          9
    36          0
    37          2
    38          8
    39         72
    40          6
    41        284
    42         19
    43        999
    44         27
    45         47
    46         16
    47         47
    48         31
    49          3
    50          0
    51          0
    52          0
    53          0
    55          9
    56          7
    57         47
    58         17
    59         27
    60          2
    61         56
    62          2
    63          0
    64          0
    66          0
    67          0
    68          2
    69          5
    70          1
    71          8
    72         12
    73         20
    74         47
    75         55
    76        268
    77         34
    78          1
    80          0
    86          0
    87          0
    88          0
    89          0
    90          3
    91          0
    92          1
    93          0
   102          0
   103         30
   104          1
   117          3
   118        141
   119          9
   120          0