##TITLE=Library Entry 29924
##JCAMP-DX=Revision 4.10 
##DATA TYPE=MASS SPECTRUM
##SAMPLE DESCRIPTION=Chemical Concepts
##NAMES=HP
##CAS NAME=Propanoic acid, 3-nitro-, methyl ester
##MOLFORM=C4H7NO4
##CAS REGISTRY NO=20497-95-4
##MP= -300
##BP= -300
##MW= 133
##$RETENTION INDEX=0
##$CONDENSED SPECTRUM=NO
##NPOINTS= 80
##XYDATA=(XY..XY) 1 
    25          5
    26         74
    27        274
    28        134
    29         81
    30        171
    31         54
    33          3
    36          3
    37          1
    38          5
    39         26
    40         12
    41        132
    42         57
    43        287
    44         56
    45        154
    46         58
    50          0
    51          3
    52          1
    53          9
    54          6
    55        729
    56         68
    57         25
    58         17
    59        999
    60         32
    61          9
    64          0
    65          0
    66          0
    67          1
    68          7
    69          6
    70          4
    71          5
    72          0
    73          9
    74         23
    75          3
    76          1
    77          5
    78          0
    81          2
    82          1
    83          3
    84          2
    85         13
    86          4
    87        172
    88          8
    89          0
    90          1
    91          1
    92          0
    93          0
    94          0
    95          1
    96          0
    97          2
    98          1
    99          0
   100          3
   101         45
   102        277
   103         12
   104          4
   105          2
   106          0
   115          4
   116          0
   117          0
   118          0
   131          0
   132          2
   133          1
   134          1