##TITLE=Library Entry 87553
##JCAMP-DX=Revision 4.10 
##DATA TYPE=MASS SPECTRUM
##SAMPLE DESCRIPTION=Japan AIST/NIMC Database- Spectrum MS-NW-3687
##NAMES=HP
##CAS NAME=1,3-Diethoxybenzene
##MOLFORM=C10H14O2
##CAS REGISTRY NO=2049-73-2
##MP= -300
##BP= -300
##MW= 166
##$RETENTION INDEX=0
##$CONDENSED SPECTRUM=NO
##NPOINTS= 86
##XYDATA=(XY..XY) 1 
    15          6
    26         13
    27        107
    28          7
    29        131
    30          3
    31          1
    37          3
    38         17
    39         61
    40          8
    41         15
    42          6
    43         17
    45          2
    49          1
    50         14
    51         22
    52         23
    53         46
    54         12
    55         16
    56          1
    57          3
    61          2
    62          8
    63         42
    64         47
    65         58
    66         19
    67          9
    68         16
    69         35
    70          2
    71          3
    74          3
    75          3
    76          5
    77         25
    78          5
    79          9
    80         12
    81         90
    82        115
    83          7
    84          2
    87          1
    89          1
    90          1
    91         16
    92         21
    93         10
    94         94
    95         28
    96          3
    97          1
   103          2
   105          2
   107         11
   108          9
   109         11
   110        999
   111         69
   112          6
   114          1
   115          1
   119          3
   120          1
   121         16
   122          7
   123         42
   124          4
   133          1
   135          5
   136          4
   137         20
   138        191
   139         18
   140          1
   149          2
   151         34
   152          4
   165          8
   166        445
   167         50
   168          5