##TITLE=Library Entry 13090
##JCAMP-DX=Revision 4.10 
##DATA TYPE=MASS SPECTRUM
##SAMPLE DESCRIPTION=Japan AIST/NIMC Database- Spectrum MS-IW- 205
##NAMES=HP
##CAS NAME=Butanedioic acid, 2,3-diacetyl-, diethyl ester
##MOLFORM=C12H18O6
##CAS REGISTRY NO=2049-86-7
##MP= -300
##BP= -300
##MW= 258
##$RETENTION INDEX=0
##$CONDENSED SPECTRUM=NO
##NPOINTS= 149
##XYDATA=(XY..XY) 1 
    14          3
    15         36
    16          1
    17          6
    18         27
    19          5
    25          1
    26         12
    27         76
    28         32
    29        155
    30          6
    31         76
    32          2
    38          2
    39         11
    40          3
    41         12
    42         18
    43        999
    44         42
    45         63
    46         17
    47         22
    50          2
    51          5
    52          3
    53         25
    54         12
    55         50
    56          4
    57          2
    58          1
    60          1
    61          5
    65          1
    66          2
    67          5
    68          5
    69         40
    70          9
    71         26
    72          8
    73         14
    75          1
    77          1
    78          2
    79          3
    80          2
    81          9
    82         44
    83          5
    84          4
    85          7
    86          2
    87          7
    89          5
    93          1
    94          2
    95          9
    96         16
    97        139
    98         33
    99        459
   100         62
   101         35
   102          3
   103          1
   107          1
   109          2
   110          2
   111          6
   112          2
   113          8
   114          5
   115         40
   116          3
   117        193
   118          9
   119          2
   121          1
   122          5
   123          8
   124        167
   125         83
   126         10
   127        813
   128        146
   129         14
   130          2
   131          1
   137          3
   138          8
   139         79
   140         11
   141         89
   142         39
   143         57
   144         13
   145        326
   146         22
   147          3
   148          5
   149          1
   150          4
   151         22
   152          2
   153          2
   154          1
   155          3
   157          2
   165          9
   166        267
   167        437
   168         42
   169         71
   170         95
   171         78
   172          8
   173        827
   174        151
   175         16
   176          1
   182          3
   183          2
   184          2
   185         43
   186          5
   187          1
   194         28
   195          6
   196          1
   197         22
   198        273
   199         30
   200          4
   210          1
   211          1
   212         49
   213         82
   214          9
   215         27
   216         36
   217          4
   240         16
   241          9
   242          1
   258          5
   259          3