##TITLE=Library Entry 29148
##JCAMP-DX=Revision 4.10 
##DATA TYPE=MASS SPECTRUM
##SAMPLE DESCRIPTION=Humboldt-Universitat zu Berlin, Department of Chemistry
, Analytical Group
##NAMES=HP
##CAS NAME=5-Hydroxy-1-isopropyl-6,6-dimethyl-5-phenyl-piperidin-2-one
##MOLFORM=C16H23NO2
##CAS REGISTRY NO=204915-05-9
##MP= -300
##BP= -300
##MW= 261
##$RETENTION INDEX=0
##$CONDENSED SPECTRUM=NO
##NPOINTS= 161
##XYDATA=(XY..XY) 1 
    12         26
    13         45
    14         55
    15         63
    16          8
    25          2
    26         11
    27        215
    28         99
    29         59
    30         41
    31         15
    39        102
    40         22
    41        320
    42        509
    43        326
    44         99
    45          7
    46          8
    47        128
    48         64
    49        616
    50         44
    51        265
    52         23
    53         21
    54         19
    55        208
    56         68
    57         90
    58        999
    59         45
    60          4
    61          1
    62          2
    63         12
    64          4
    65         26
    66         22
    67          6
    68         16
    69         19
    70         25
    71         43
    72         12
    73          2
    74          3
    75          6
    76         16
    77        274
    78        109
    79         46
    80          5
    81          4
    82         16
    84        713
    85         42
    86        246
    87          7
    88         34
    89         11
    91        114
    92         19
    93          2
    94          2
    95          2
    96          6
    97          7
    98        216
    99        193
   100        627
   101         54
   102         12
   103         34
   104         15
   105        374
   106         32
   107          7
   108          1
   109          2
   110          2
   111          2
   112          7
   113         17
   114         19
   115         87
   116         20
   117         32
   118          6
   119         15
   120        131
   121         16
   122          3
   123          1
   124          1
   125          2
   126         12
   127         12
   128         49
   129         25
   130         11
   131         24
   132         11
   133        229
   134         50
   135          4
   136          1
   139          1
   140          8
   141         37
   142         10
   143         18
   144         26
   145         13
   146          6
   147          7
   148          6
   149         10
   150          1
   151          0
   152          1
   153          1
   154          2
   156        295
   157         38
   158         10
   159         12
   161        751
   162         86
   163          9
   164          0
   167          3
   168          1
   169          1
   170          1
   171          1
   172          2
   173          1
   174          1
   175         10
   176          2
   184          1
   185          1
   186          8
   187          2
   188          0
   200          1
   202          1
   203          5
   204          2
   214          0
   218         16
   219          2
   228          0
   230          0
   246          3
   247          0
   261         48
   262         10
   263          1