##TITLE=Library Entry 65193
##JCAMP-DX=Revision 4.10 
##DATA TYPE=MASS SPECTRUM
##SAMPLE DESCRIPTION=Japan AIST/NIMC Database- Spectrum MS-IW-1348
##NAMES=HP
##CAS NAME=Benzene, (3-methylbutyl)-
##MOLFORM=C11H16
##CAS REGISTRY NO=2049-94-7
##MP= -300
##BP= -300
##MW= 148
##$RETENTION INDEX=1098
##$CONDENSED SPECTRUM=NO
##NPOINTS= 64
##XYDATA=(XY..XY) 1 
    27         21
    28          2
    29         43
    30          1
    38          2
    39         34
    40          3
    41         86
    42          6
    43         21
    50          8
    51         27
    52          7
    53          6
    54          1
    55         16
    56          8
    57         99
    58          5
    62          3
    63         13
    64          6
    65         77
    66          5
    67          2
    69          3
    70          8
    71          1
    74          2
    75          2
    76          3
    77         42
    78         26
    79         30
    80          2
    81          1
    82          4
    83          7
    87          1
    89         12
    90          5
    91        602
    92        999
    93         79
    94          3
   102          4
   103         21
   104         13
   105         95
   106          9
   107          1
   115          9
   116          3
   117          6
   118          1
   119          2
   127          1
   128          3
   129          2
   131          3
   133          4
   148        240
   149         28
   150          1