##TITLE=Library Entry 705
##JCAMP-DX=Revision 4.10 
##DATA TYPE=MASS SPECTRUM
##SAMPLE DESCRIPTION=Japan AIST/NIMC Database- Spectrum MS-NW-5795
##NAMES=HP
##CAS NAME=Propanedioic acid, 2-propenyl-, diethyl ester
##MOLFORM=C10H16O4
##CAS REGISTRY NO=2049-80-1
##MP= -300
##BP= -300
##MW= 200
##$RETENTION INDEX=0
##$CONDENSED SPECTRUM=NO
##NPOINTS= 135
##XYDATA=(XY..XY) 1 
    14          3
    15         27
    16          1
    17          1
    18          5
    19          1
    25          2
    26         41
    27        361
    28         74
    29        999
    30         21
    31         41
    32          9
    37          2
    38          7
    39        145
    40         11
    41        184
    42         54
    43        175
    44         22
    45         71
    46          5
    47         16
    48          1
    49          1
    50         11
    51         28
    52         23
    53        158
    54        141
    55        200
    56         28
    57         63
    58         39
    59          6
    60          6
    61          1
    62          1
    63          2
    64          1
    65          3
    66          3
    67         70
    68          9
    69         46
    70        108
    71         48
    72          8
    73         30
    74          3
    75          2
    76          2
    77          3
    78          1
    79          5
    80         36
    81        455
    82        235
    83         82
    84         16
    85         43
    86         30
    87         19
    88         12
    89          3
    91          3
    92          1
    93          6
    94          1
    95          6
    96          4
    97        134
    98        645
    99        340
   100         95
   101         16
   102          2
   103          2
   104          8
   105          6
   106          1
   107          1
   108        295
   109        713
   110         51
   111         31
   112          8
   113          4
   114         13
   115         10
   116          1
   117          1
   119          1
   120          2
   121          2
   122          1
   123          1
   124          1
   125         20
   126        429
   127        584
   128        110
   129         13
   130          1
   131          1
   132         12
   133         15
   134          1
   137          1
   138          1
   139          2
   141          2
   143          2
   144          1
   145          1
   146          1
   148          2
   149          2
   153          8
   154         98
   155        122
   156         13
   157          3
   158          1
   160         35
   161          4
   171          1
   172          2
   173          1
   197          1
   199          3
   200         17
   201          4