##TITLE=Library Entry 99057
##JCAMP-DX=Revision 4.10 
##DATA TYPE=MASS SPECTRUM
##SAMPLE DESCRIPTION=Exported from NIST MS Search
##NAMES=HP
##CAS NAME=Benzene, (1,1-dimethylpropyl)-
##MOLFORM=C11H16
##CAS REGISTRY NO=2049-95-8
##MP= -300
##BP= -300
##MW= 148
##$RETENTION INDEX=1070
##$CONDENSED SPECTRUM=NO
##NPOINTS= 90
##XYDATA=(XY..XY) 1 
    12          1
    13          1
    14          5
    15         32
    16          1
    25          1
    26         16
    27        109
    28         16
    29         67
    30          1
    37          2
    38          9
    39         97
    40          8
    41        165
    42          8
    43         12
    44          1
    49          1
    50         30
    51         80
    52         20
    53         20
    54          2
    55         49
    56          3
    57          2
    58          4
    59          1
    61          2
    62          8
    63         25
    64          8
    65         33
    66          3
    67          1
    68          1
    69          2
    70          2
    71          2
    73          1
    74          8
    75          9
    76          8
    77         86
    78         38
    79         70
    80          5
    81          1
    83          1
    85          1
    86          2
    87          3
    88          1
    89          9
    90          3
    91        476
    92         38
    93          2
    98          1
    99          1
   100          1
   101          2
   102         12
   103         47
   104         15
   105         34
   106          3
   113          1
   114          3
   115         34
   116         11
   117         28
   118         20
   119        999
   120         99
   121          4
   126          1
   127          2
   128          4
   129          2
   130          1
   131          3
   132          4
   133         26
   134          3
   148        126
   149         15
   150          1