##TITLE=Library Entry 27992
##JCAMP-DX=Revision 4.10 
##DATA TYPE=MASS SPECTRUM
##SAMPLE DESCRIPTION=NIST Mass Spectrometry Data Center, 1990.
##NAMES=HP
##CAS NAME=5-Nonanone, 2,8-dimethyl-
##MOLFORM=C11H22O
##CAS REGISTRY NO=2050-99-9
##MP= -300
##BP= -300
##MW= 170
##$RETENTION INDEX=1529
##$CONDENSED SPECTRUM=NO
##NPOINTS= 43
##XYDATA=(XY..XY) 1 
    27        136
    28         18
    29        134
    32         41
    39        151
    40         40
    41        400
    42        111
    43        973
    44         36
    51         11
    52          7
    53         57
    54          7
    55        232
    56        131
    57        384
    58        999
    59        354
    60         13
    67         25
    69         37
    71        423
    72         51
    73          7
    79         14
    81        789
    82         55
    83         23
    84          7
    85         78
    86         46
    97         25
    99        406
   100         26
   109         32
   114        111
   115         38
   127         49
   155         10
   169          7
   170         85
   171         10