##TITLE=Library Entry 37528
##JCAMP-DX=Revision 4.10 
##DATA TYPE=MASS SPECTRUM
##SAMPLE DESCRIPTION=Exported from NIST MS Search
##NAMES=HP
##CAS NAME=1-Butanol, 3-methyl-, carbonate (2:1)
##MOLFORM=C11H22O3
##CAS REGISTRY NO=2050-95-5
##MP= -300
##BP= -300
##MW= 202
##$RETENTION INDEX=0
##$CONDENSED SPECTRUM=NO
##NPOINTS= 63
##XYDATA=(XY..XY) 1 
    15          4
    18          3
    19          2
    26          3
    27         68
    28         48
    29         93
    30          4
    31         17
    32          4
    38          2
    39         47
    40          9
    41        172
    42        122
    43        766
    44         32
    45         22
    46          2
    50          1
    51          3
    52          1
    53         13
    54         12
    55        387
    56         31
    57         33
    58          3
    59          4
    63         22
    65          3
    66          2
    67          5
    68          8
    69        102
    70        999
    71        982
    72         55
    73          4
    76          3
    77          5
    85          2
    87         16
    88          1
    89         43
    90         22
    91          3
    94          7
   103          3
   105          3
   107         10
   109          9
   115          2
   117         52
   118          3
   131          2
   132         10
   133         17
   134          2
   159          3
   160          2
   202          5
   203          2