##TITLE=Library Entry 72902
##JCAMP-DX=Revision 4.10 
##DATA TYPE=MASS SPECTRUM
##SAMPLE DESCRIPTION=Japan AIST/NIMC Database- Spectrum MS-NW-8360
##NAMES=HP
##CAS NAME=1-Pentanamine, N-pentyl-
##MOLFORM=C10H23N
##CAS REGISTRY NO=2050-92-2
##MP= -300
##BP= -300
##MW= 157
##$RETENTION INDEX=1145
##$CONDENSED SPECTRUM=NO
##NPOINTS= 49
##XYDATA=(XY..XY) 1 
    15          4
    26          2
    27         51
    28         40
    29         85
    30        370
    31          6
    39         27
    40          4
    41        112
    42         38
    43        309
    44        798
    45         25
    53          5
    54          4
    55         22
    56         32
    57         15
    58          9
    59          1
    67          3
    68          5
    69         18
    70         28
    71         24
    72          6
    73          2
    75          2
    82          1
    84          7
    86         19
    87          9
    88          1
    98         13
    99          1
   100        999
   101         69
   102          2
   112          2
   113          1
   114          5
   126          3
   128          3
   142          3
   154          1
   156          9
   157         53
   158          9