##TITLE=Library Entry 66769
##JCAMP-DX=Revision 4.10 
##DATA TYPE=MASS SPECTRUM
##SAMPLE DESCRIPTION=Japan AIST/NIMC Database- Spectrum MS-NW-4436
##NAMES=HP
##CAS NAME=Phenol, 2,2'-azobis-
##MOLFORM=C12H10N2O2
##CAS REGISTRY NO=2050-14-8
##MP= -300
##BP= -300
##MW= 214
##$RETENTION INDEX=0
##$CONDENSED SPECTRUM=NO
##NPOINTS= 91
##XYDATA=(XY..XY) 1 
    15          3
    16          1
    26         17
    27         51
    28         18
    29          8
    30          2
    36          8
    37          7
    38         21
    39        185
    40         11
    41          5
    42          3
    43          7
    44          1
    49          2
    50         27
    51         88
    52         91
    53         61
    54          9
    55          8
    57          2
    58          2
    61          4
    62          8
    63         32
    64         41
    65        404
    66         29
    67          3
    68          3
    69          1
    71          1
    74          3
    75          8
    76         13
    77         12
    78         58
    79         27
    80         75
    81          7
    88          1
    89          3
    90          2
    91          2
    92         47
    93        999
    94         74
    95          5
   101          1
   102          2
   103          4
   105          3
   106         25
   107         14
   108         36
   109         27
   110          8
   114          2
   115          9
   118          2
   120         19
   121        572
   122         43
   123          2
   127          7
   128         12
   129          7
   130          2
   131         10
   132          2
   139         14
   140          3
   141          2
   157         11
   158          5
   167          1
   168          4
   169          4
   170          3
   171          2
   184          2
   185          7
   186         23
   187          4
   213          1
   214        576
   215         79
   216          9