##TITLE=Library Entry 87549
##JCAMP-DX=Revision 4.10 
##DATA TYPE=MASS SPECTRUM
##SAMPLE DESCRIPTION=Japan AIST/NIMC Database- Spectrum MS-NW-4279
##NAMES=HP
##CAS NAME=1,2-Diethoxybenzene
##MOLFORM=C10H14O2
##CAS REGISTRY NO=2050-46-6
##MP= -300
##BP= -300
##MW= 166
##$RETENTION INDEX=1214
##$CONDENSED SPECTRUM=NO
##NPOINTS= 76
##XYDATA=(XY..XY) 1 
    14          1
    15          3
    18          1
    26         14
    27         81
    28          6
    29         79
    30          2
    31          1
    37          2
    38          9
    39         27
    40          2
    41          3
    42          1
    43         20
    44          1
    45         10
    49          1
    50         13
    51         32
    52         48
    53         38
    54          7
    55          9
    57          4
    61          1
    62          5
    63         24
    64         41
    65         48
    66          6
    67          2
    68          1
    69          1
    74          1
    75          1
    76          2
    77         18
    78          3
    79          7
    80         10
    81        143
    82         22
    83          1
    88          1
    91          9
    92         23
    93         15
    94          6
    95          9
    96          1
   103          1
   105          1
   107          4
   108          2
   109        264
   110        999
   111         67
   112          6
   119          1
   120          1
   121         20
   122          3
   123          3
   135          1
   136          2
   137         11
   138        106
   139         10
   140          1
   151          2
   165          1
   166        393
   167         43
   168          4