##TITLE=Library Entry 38493
##JCAMP-DX=Revision 4.10 
##DATA TYPE=MASS SPECTRUM
##SAMPLE DESCRIPTION=Exported from NIST MS Search
##NAMES=HP
##CAS NAME=Carbonic acid, dipentyl ester
##MOLFORM=C11H22O3
##CAS REGISTRY NO=2050-94-4
##MP= -300
##BP= -300
##MW= 202
##$RETENTION INDEX=0
##$CONDENSED SPECTRUM=NO
##NPOINTS= 65
##XYDATA=(XY..XY) 1 
    15          3
    18          5
    26          3
    27         65
    28         44
    29        118
    30          5
    31         20
    32          5
    36          2
    38          2
    39         42
    40         10
    41        189
    42        218
    43        776
    44         37
    45         17
    50          2
    51          2
    52          2
    53         11
    54          8
    55        172
    56         22
    57         27
    58          5
    59          8
    60          2
    63        172
    64          3
    65          3
    67         14
    68         21
    69        142
    70        495
    71        999
    72         55
    73          4
    76          5
    77          5
    78          3
    81          2
    83          3
    84          2
    85          5
    86          3
    87         29
    88          5
    89         24
    90          9
    91          4
    97          2
    99          2
   103         33
   104          4
   105          2
   115          3
   117          8
   131          2
   132          8
   133         39
   134          3
   135          1
   202          1