##TITLE=Library Entry 7674
##JCAMP-DX=Revision 4.10 
##DATA TYPE=MASS SPECTRUM
##SAMPLE DESCRIPTION=Chuck Anderson, Aldrich Chemical Co.
##NAMES=HP
##CAS NAME=Decane, 1-iodo-
##MOLFORM=C10H21I
##CAS REGISTRY NO=2050-77-3
##MP= -300
##BP= -300
##MW= 268
##$RETENTION INDEX=1433
##$CONDENSED SPECTRUM=NO
##NPOINTS= 77
##XYDATA=(XY..XY) 1 
    15          1
    25          0
    26          7
    27        149
    28         36
    29        249
    30          6
    36          0
    37          1
    38          3
    39        126
    40         24
    41        515
    42        102
    43        999
    44         31
    45          0
    46          0
    47          0
    50          1
    51          4
    52          3
    53         27
    54         15
    55        223
    56         55
    57        880
    58         39
    59          0
    63          1
    64          0
    65          3
    66          1
    67         11
    68          3
    69         40
    70         14
    71        374
    72         19
    73          0
    77          2
    78          0
    79          2
    80          0
    81          2
    82          1
    83         16
    85        515
    86         33
    87          1
    91          1
    93          0
    95          0
    96          0
    97          4
    98          0
    99         84
   100          6
   111          0
   127          8
   128          3
   129          0
   140          0
   141         52
   142          5
   143          0
   153          0
   154          2
   155         53
   156          1
   167          0
   169          5
   183          3
   197          1
   211          0
   268          9
   269          1