##TITLE=Library Entry 35052
##JCAMP-DX=Revision 4.10 
##DATA TYPE=MASS SPECTRUM
##SAMPLE DESCRIPTION=ASES Database, Dalian Institute, P.R. China
##NAMES=HP
##CAS NAME=Cyanamide, dibutyl-
##MOLFORM=C9H18N2
##CAS REGISTRY NO=2050-54-6
##MP= -300
##BP= -300
##MW= 154
##$RETENTION INDEX=0
##$CONDENSED SPECTRUM=NO
##NPOINTS= 23
##XYDATA=(XY..XY) 1 
    41        375
    42         63
    43         95
    44        125
    55        657
    56        125
    57        580
    58         44
    69        999
    70        126
    83         63
    84        112
    86         81
    98        100
    99        125
   100         49
   111        625
   112        156
   125        125
   139         94
   153         43
   154        332
   155         63