##TITLE=Library Entry 100319
##JCAMP-DX=Revision 4.10 
##DATA TYPE=MASS SPECTRUM
##SAMPLE DESCRIPTION=NIST Mass Spectrometry Data Center, 1990.
##NAMES=HP
##CAS NAME=Benzene, 1,3-diethyl-5-methyl-
##MOLFORM=C11H16
##CAS REGISTRY NO=2050-24-0
##MP= -300
##BP= -300
##MW= 148
##$RETENTION INDEX=1147
##$CONDENSED SPECTRUM=NO
##NPOINTS= 60
##XYDATA=(XY..XY) 1 
    14         13
    15         34
    26          8
    27         77
    28        110
    29         47
    32         31
    38         11
    39        118
    40         20
    41         78
    50         37
    51        108
    52         33
    53         51
    55         17
    58         11
    59          8
    62         20
    63         86
    64         43
    65        119
    66         16
    67          7
    71          8
    74         14
    75         19
    76         21
    77        200
    78         74
    79         79
    87          9
    89         36
    91        367
    92         34
    93         36
   101          7
   102         34
   103         94
   104         46
   105        256
   106         25
   107          8
   115        185
   116         68
   117        186
   118          7
   119        999
   120        120
   121          7
   127         14
   128         31
   129         20
   130          6
   131         50
   132          6
   133        937
   134        103
   148        416
   149         50