##TITLE=Library Entry 8949
##JCAMP-DX=Revision 4.10 
##DATA TYPE=MASS SPECTRUM
##SAMPLE DESCRIPTION=Japan AIST/NIMC Database- Spectrum MS-NW-5747
##NAMES=HP
##CAS NAME=Propanoic acid, 2-methyl-, 3-methylbutyl ester
##MOLFORM=C9H18O2
##CAS REGISTRY NO=2050-01-3
##MP= -300
##BP= -300
##MW= 158
##$RETENTION INDEX=1015
##$CONDENSED SPECTRUM=NO
##NPOINTS= 66
##XYDATA=(XY..XY) 1 
    14          2
    15         13
    17          1
    18          8
    19          1
    25          1
    26          9
    27        118
    28         30
    29         79
    30          2
    31         12
    37          3
    38          6
    39         64
    40         16
    41        192
    42        116
    43        999
    44         38
    45         17
    46          1
    50          2
    51          2
    53          9
    54          6
    55        238
    56         24
    57         35
    58          9
    59         36
    60          3
    61          1
    66          1
    67          4
    68          4
    69         40
    70        590
    71        640
    72         31
    73         15
    74          3
    75          1
    84          2
    85         21
    86          4
    87          9
    88         16
    89        112
    90          6
    91          1
    97          1
    99          1
   100          1
   101         26
   102          4
   103          1
   113          1
   114          1
   115         28
   116          6
   117          1
   128          1
   129          2
   143          1
   157          1