##TITLE=Library Entry 35073
##JCAMP-DX=Revision 4.10 
##DATA TYPE=MASS SPECTRUM
##SAMPLE DESCRIPTION=Chemical Concepts
##NAMES=HP
##CAS NAME=2-Octene, 2,7-dimethyl-
##MOLFORM=C10H20
##CAS REGISTRY NO=2050-81-9
##MP= -300
##BP= -300
##MW= 140
##$RETENTION INDEX=0
##$CONDENSED SPECTRUM=NO
##NPOINTS= 71
##XYDATA=(XY..XY) 1 
    23          2
    24          2
    25          0
    26         10
    27        178
    28         29
    29        135
    30          3
    32          1
    37          1
    38          6
    39        153
    40         32
    41        697
    42         78
    43        250
    44          9
    47          0
    50          5
    51         17
    52          8
    53         68
    54         25
    55        284
    56        717
    57        242
    58         11
    62          1
    63          2
    64          0
    65         11
    66          6
    67         76
    68         73
    69        999
    70        175
    71         29
    72          2
    75          0
    77         13
    78          2
    79          8
    80          2
    81         23
    82         30
    83         83
    84        101
    85         18
    86          1
    91          2
    93          1
    94          0
    95          4
    96          9
    97         42
    98          7
    99          1
   105          1
   109          0
   111          2
   112         14
   113          1
   124          0
   125          9
   126          1
   136          0
   137          0
   138          0
   140        175
   141         21
   142          1