##TITLE=Library Entry 23260
##JCAMP-DX=Revision 4.10 
##DATA TYPE=MASS SPECTRUM
##SAMPLE DESCRIPTION=NIST Mass Spectrometry Data Center, 1994
##NAMES=HP
##CAS NAME=Ethanedioic acid, dibutyl ester
##MOLFORM=C10H18O4
##CAS REGISTRY NO=2050-60-4
##MP= -300
##BP= -300
##MW= 202
##$RETENTION INDEX=1321
##$CONDENSED SPECTRUM=NO
##NPOINTS= 54
##XYDATA=(XY..XY) 1 
     4          0
    14          0
    15          7
    16          0
    18          0
    26         15
    27        110
    28         76
    29        361
    30         15
    31         13
    32          0
    37          1
    39         77
    41        507
    42         31
    43         36
    44          8
    45          6
    47          1
    50          1
    51          2
    52          1
    53          9
    54          1
    55         69
    56        225
    57        999
    58         41
    59          4
    60          0
    69          0
    70          0
    71          2
    72          1
    73         11
    74         11
    75          1
    83          0
    85          9
    87         12
    88          1
    91          2
   101         13
   102          4
   103         22
   104          1
   117          0
   118          0
   131          1
   145          0
   147         13
   148          0
   157          1