##TITLE=Library Entry 40554
##JCAMP-DX=Revision 4.10 
##DATA TYPE=MASS SPECTRUM
##SAMPLE DESCRIPTION=J. MADSEN,DEP. ORG. CHEM.,TECH. UNIV. DENMARK,LYNGBY,DE
NMARK
##NAMES=HP
##CAS NAME=Trisulfide, di-2-propenyl
##MOLFORM=C6H10S3
##CAS REGISTRY NO=2050-87-5
##MP= -300
##BP= -300
##MW= 178
##$RETENTION INDEX=1297
##$CONDENSED SPECTRUM=NO
##NPOINTS= 58
##XYDATA=(XY..XY) 1 
    26          7
    27         47
    29         21
    37          8
    38         22
    39        317
    40         28
    41        876
    42         30
    44          3
    45        391
    46         27
    47         63
    49          3
    53          3
    54          3
    55          5
    57          3
    58         13
    59         16
    60          7
    61         10
    64         43
    65          4
    66          5
    67         29
    68         13
    69         10
    71         61
    72         69
    73        999
    74         48
    75         45
    77          2
    78          3
    79         31
    80         14
    81         23
    85         19
    86          5
    87          3
    91         15
    96          3
    99         19
   103         28
   104         38
   105         34
   106         11
   107          3
   113        603
   114         59
   115         29
   116          3
   137         11
   146          2
   178         53
   179          5
   180          7