##TITLE=Library Entry 37623
##JCAMP-DX=Revision 4.10 
##DATA TYPE=MASS SPECTRUM
##SAMPLE DESCRIPTION=V.Zaikin,Topchiev Inst.Petrochem.Synth.,Moscow
##NAMES=HP
##CAS NAME=Pentanoic acid, 3-methylbutyl ester
##MOLFORM=C10H20O2
##CAS REGISTRY NO=2050-09-1
##MP= -300
##BP= -300
##MW= 172
##$RETENTION INDEX=1108
##$CONDENSED SPECTRUM=NO
##NPOINTS= 71
##XYDATA=(XY..XY) 1 
    25          2
    26         14
    27         63
    28         24
    29        109
    30          3
    31          5
    35          2
    36         14
    37          2
    38          5
    39         52
    40         12
    41        168
    42         82
    43        261
    44         33
    45         12
    49          1
    50          6
    51          9
    52         13
    53         16
    54         10
    55        272
    56         28
    57        254
    58         11
    59          4
    60         34
    61          9
    65          1
    67          6
    68          6
    69         39
    70        999
    71        189
    72          9
    73         32
    74          4
    75          9
    76          1
    77          1
    78          3
    79         21
    80          2
    82          1
    83          6
    84         10
    85        574
    86         26
    87          8
    88          5
    91          3
    93          1
    97          2
   100          5
   101          9
   102         11
   103        133
   104          7
   105          2
   115         18
   116          1
   127          2
   128          4
   129         29
   130          9
   131          2
   143          1
   157          2