##TITLE=Library Entry 37102
##JCAMP-DX=Revision 4.10 
##DATA TYPE=MASS SPECTRUM
##SAMPLE DESCRIPTION=P. Vainiotalo, Dep. Chem., Joensuu Univ., Joensuu, Finl
and
##NAMES=HP
##CAS NAME=Oxazolidine, 2,2-dimethyl-
##MOLFORM=C5H11NO
##CAS REGISTRY NO=20515-62-2
##MP= -300
##BP= -300
##MW= 101
##$RETENTION INDEX=0
##$CONDENSED SPECTRUM=NO
##NPOINTS= 31
##XYDATA=(XY..XY) 1 
    15         48
    19         12
    26         16
    27         68
    29         33
    30        199
    31         29
    38         11
    39         82
    40         30
    41        149
    42        382
    43        146
    44        335
    45        144
    54         25
    55         54
    56         51
    57         11
    58         23
    59         16
    68         13
    70        999
    71        171
    72         23
    83         10
    86        305
    87         16
   100         11
   101         49
   102          3