##TITLE=Library Entry 30534
##JCAMP-DX=Revision 4.10 
##DATA TYPE=MASS SPECTRUM
##SAMPLE DESCRIPTION=Chemical Concepts
##NAMES=HP
##CAS NAME=.alpha.-D-Xylofuranose, 1,2-O-isopropylidene-5-O-(p-tosyl)-
##MOLFORM=C15H20O7S
##CAS REGISTRY NO=20513-95-5
##MP= -300
##BP= -300
##MW= 344
##$RETENTION INDEX=0
##$CONDENSED SPECTRUM=NO
##NPOINTS= 217
##XYDATA=(XY..XY) 1 
    25          0
    26          6
    27         54
    28          1
    29         59
    30          4
    31        105
    36          0
    37          0
    38          3
    39         81
    40         13
    41        109
    42         17
    43        664
    44         26
    45         36
    46          0
    47          3
    48          0
    49          0
    50          8
    51         21
    52          5
    53          9
    54          7
    55        162
    56         64
    57         91
    58         21
    59        999
    60         45
    61         25
    62          6
    63         28
    64          9
    65        175
    66         10
    67          6
    68         92
    69         88
    70          8
    71         97
    72         12
    73        207
    74          8
    75          3
    76          3
    77         26
    78          6
    79         20
    80          7
    81          4
    82          7
    83         23
    84         24
    85        193
    86         32
    87         11
    88          2
    89         54
    90         47
    91        764
    92        100
    93         11
    94          2
    95          4
    96          6
    97        369
    98         26
    99         12
   100        125
   101        151
   102         10
   103          4
   104          0
   105          4
   106          1
   107         49
   108         36
   109          6
   110          1
   111          5
   112          1
   113         64
   114         63
   115         51
   116          3
   117          1
   118          4
   119          1
   120          0
   121          1
   122          1
   123          9
   124          2
   125          0
   126          2
   127          8
   128          2
   129        797
   130         61
   131         15
   132          2
   133          0
   134          0
   135          1
   136          0
   137          0
   138          0
   139        714
   140         59
   141         15
   142          2
   143          6
   144          5
   145          1
   146          2
   147          1
   148          0
   149          0
   150          1
   151          0
   152          0
   153          2
   154          1
   155        580
   156         56
   157         51
   158          4
   159        183
   160         15
   161          2
   162          0
   163          0
   165          1
   167          0
   169          0
   170          0
   171          8
   172        242
   173        131
   174         24
   175          8
   176          0
   181          0
   183          3
   184          0
   185          2
   187          0
   188          0
   189          0
   195          0
   197          0
   204          0
   205          0
   210          1
   211          1
   213          2
   214          2
   215        125
   216         15
   217          8
   218          0
   219          0
   227          2
   228         17
   229          1
   230          1
   231          0
   238          0
   239         15
   240          2
   241          0
   243          0
   244          0
   245          0
   248          0
   251          2
   252          0
   253          0
   255          0
   256          2
   257          0
   261          1
   262          8
   263          1
   267          0
   268          0
   269         16
   270          2
   271          1
   273          3
   274          0
   275          0
   277          0
   285          4
   286          1
   287          0
   297          0
   301        198
   302         32
   303         14
   304          1
   305          0
   313          0
   315          0
   317          0
   328          0
   329        416
   330         69
   331         28
   332          4
   333          0
   344          1
   345          0
   347          0