##TITLE=Library Entry 69131
##JCAMP-DX=Revision 4.10 
##DATA TYPE=MASS SPECTRUM
##SAMPLE DESCRIPTION=NIST Mass Spectrometry Data Center, 1994
##NAMES=HP
##CAS NAME=Quinoline, decahydro-
##MOLFORM=C9H17N
##CAS REGISTRY NO=2051-28-7
##MP= -300
##BP= -300
##MW= 139
##$RETENTION INDEX=0
##$CONDENSED SPECTRUM=NO
##NPOINTS= 78
##XYDATA=(XY..XY) 1 
    14          1
    15         14
    16          0
    17          0
    18          5
    27         94
    28         95
    29         53
    30         80
    37          1
    39         86
    41        131
    42         36
    43         27
    44         18
    45          1
    46          0
    48          0
    50          4
    51         13
    52         11
    53         33
    54         44
    55         39
    56         46
    57         11
    58          2
    60          0
    61          0
    62          0
    63          2
    65         11
    67         47
    68         67
    69         18
    70         17
    71          1
    74          0
    75          0
    77         15
    78          5
    79         30
    80         20
    81         33
    82         89
    83         59
    84          8
    85          1
    88          0
    91          5
    93         11
    94         15
    96        999
    97         70
    98          4
   103          0
   104          0
   105          1
   106          2
   108          6
   109          6
   110         22
   111          2
   112          0
   118          0
   119          0
   120          0
   121          1
   122          1
   124          2
   125          0
   132          0
   134          0
   136          4
   138         48
   139        113
   140         11
   141          0