##TITLE=Library Entry 10093
##JCAMP-DX=Revision 4.10 
##DATA TYPE=MASS SPECTRUM
##SAMPLE DESCRIPTION=Exported from NIST MS Search
##NAMES=HP
##CAS NAME=2-Octanol, acetate
##MOLFORM=C10H20O2
##CAS REGISTRY NO=2051-50-5
##MP= -300
##BP= -300
##MW= 172
##$RETENTION INDEX=1115
##$CONDENSED SPECTRUM=NO
##NPOINTS= 61
##XYDATA=(XY..XY) 1 
    15         19
    18          4
    26          2
    27         45
    28         12
    29         61
    30          2
    31          3
    39         31
    40          6
    41        122
    42         68
    43        999
    44         30
    45         73
    46          2
    51          2
    53          9
    54          9
    55        136
    56        114
    57         83
    58        119
    59         42
    60          2
    61         44
    67          9
    68         16
    69         73
    70        161
    71         59
    72          8
    73          2
    81          4
    82         25
    83         92
    84         60
    85         18
    86          7
    87        373
    88         17
    89          2
    95          2
    97         42
    98          5
    99          2
   100          2
   101          3
   102         46
   103          6
   110          2
   111          3
   112        167
   113         29
   114          2
   115          6
   128         19
   129         14
   130          3
   157          3
   172          2