##TITLE=Library Entry 66950
##JCAMP-DX=Revision 4.10 
##DATA TYPE=MASS SPECTRUM
##SAMPLE DESCRIPTION=Exported from NIST MS Search
##NAMES=HP
##CAS NAME=8-Azabicyclo[3.2.1]oct-6-en-3-ol, 8-methyl-, endo-
##MOLFORM=C8H13NO
##CAS REGISTRY NO=20513-09-1
##MP= -300
##BP= -300
##MW= 139
##$RETENTION INDEX=1290
##$CONDENSED SPECTRUM=NO
##NPOINTS= 20
##XYDATA=(XY..XY) 1 
    41         82
    42        165
    43         30
    44         37
    79         20
    80         25
    81         22
    82         47
    83        118
    84         72
    85         25
    93         20
    94        999
    95        165
    96         42
    97         17
   120         10
   121         17
   122         45
   139         45