##TITLE=Library Entry 86409
##JCAMP-DX=Revision 4.10 
##DATA TYPE=MASS SPECTRUM
##SAMPLE DESCRIPTION=Japan AIST/NIMC Database- Spectrum MS-NW-2588
##NAMES=HP
##CAS NAME=p-Phenylazoresorcinol
##MOLFORM=C12H10N2O2
##CAS REGISTRY NO=2051-85-6
##MP= -300
##BP= -300
##MW= 214
##$RETENTION INDEX=0
##$CONDENSED SPECTRUM=NO
##NPOINTS= 133
##XYDATA=(XY..XY) 1 
    13          1
    14          3
    15          2
    16          1
    17          1
    18          3
    25          1
    26         10
    27         95
    28         24
    29         17
    31          3
    32          3
    36          6
    37         15
    38         39
    39        181
    40         24
    41         18
    42         15
    43         11
    44          2
    45          6
    49          4
    50         47
    51        221
    52         89
    53        159
    54         14
    55         44
    56          1
    57          4
    60          3
    61          6
    62         15
    63         63
    64         41
    65        117
    66         33
    67         13
    68         15
    69        193
    70          9
    71          4
    73          1
    74          8
    75          9
    76         12
    77        725
    78         63
    79         25
    80         61
    81        454
    82         32
    83          3
    84          1
    85          1
    86          1
    87          2
    88          2
    89          5
    90          5
    91         19
    92         81
    93         44
    94         18
    95         30
    96          3
    97          2
   102          4
   103          8
   104          4
   105         58
   106          6
   107          5
   108         22
   109        999
   110        101
   111          8
   112          1
   113          1
   114          3
   115         26
   116          5
   117          5
   118          2
   119          2
   120          6
   121          1
   122         11
   123          2
   124          2
   125          2
   126          1
   127         10
   128         24
   129         15
   130          5
   131          5
   132          1
   133          1
   136          9
   137        920
   138         68
   139         17
   140          4
   141          4
   142          1
   143          4
   144          1
   145          1
   147          1
   149          3
   155          2
   156          1
   157         18
   158          8
   159          1
   160          1
   167          2
   168          3
   169          3
   170          2
   171          4
   184          5
   185         26
   186         24
   187          3
   213          7
   214        775
   215        108
   216          9
   217          1