##TITLE=Library Entry 38785
##JCAMP-DX=Revision 4.10 
##DATA TYPE=MASS SPECTRUM
##SAMPLE DESCRIPTION=Japan AIST/NIMC Database- Spectrum MS-IW-2196
##NAMES=HP
##CAS NAME=1-Hexanol, 5-methyl-2-(1-methylethyl)-
##MOLFORM=C10H22O
##CAS REGISTRY NO=2051-33-4
##MP= -300
##BP= -300
##MW= 158
##$RETENTION INDEX=0
##$CONDENSED SPECTRUM=NO
##NPOINTS= 76
##XYDATA=(XY..XY) 1 
    15          4
    17          1
    18          3
    26          3
    27        122
    28         17
    29        167
    30          5
    31         68
    32          1
    33          1
    37          1
    38          3
    39         89
    40         15
    41        505
    42         79
    43        925
    44         46
    45         39
    46          1
    50          2
    51          6
    52          2
    53         35
    54         24
    55        686
    56        632
    57        997
    58         54
    59         19
    61          1
    63          1
    65          5
    66          2
    67         31
    68         33
    69        619
    70        340
    71        999
    72         63
    73         13
    77          4
    78          1
    79          6
    80          1
    81         31
    82         37
    83        174
    84        300
    85        462
    86         34
    87          4
    91          1
    93          1
    95          5
    96         40
    97        268
    98         47
    99          5
   101          1
   109          1
   111         13
   112         41
   113          5
   115         35
   116          2
   123          1
   125         32
   126         37
   127         67
   128          7
   129          1
   140         47
   141          6
   143          1