##TITLE=Library Entry 20429
##JCAMP-DX=Revision 4.10 
##DATA TYPE=MASS SPECTRUM
##SAMPLE DESCRIPTION=D.HENNEBERG, MAX-PLANCK INSTITUTE, MULHEIM, WEST GERMAN
Y
##NAMES=HP
##CAS NAME=4-Decanol
##MOLFORM=C10H22O
##CAS REGISTRY NO=2051-31-2
##MP= -300
##BP= -300
##MW= 158
##$RETENTION INDEX=1182
##$CONDENSED SPECTRUM=NO
##NPOINTS= 74
##XYDATA=(XY..XY) 1 
    25          0
    26          8
    27         96
    28         25
    29        111
    30          3
    31         59
    32          0
    36          0
    38          1
    39         39
    40          6
    41        175
    42         52
    43        301
    44         42
    45         21
    46          0
    49          1
    50          1
    51          2
    52          1
    53         11
    54         11
    55        999
    56         99
    57         64
    58         21
    59          6
    63          0
    65          1
    66          1
    67         10
    68          9
    69        115
    70         50
    71         30
    72         41
    73        439
    74         19
    75          1
    77          1
    79         14
    81          6
    82          7
    83         18
    84         15
    85          9
    86          9
    87          2
    88          0
    91          0
    93          0
    94          0
    95          1
    96          7
    97        315
    98         28
    99          4
   100          0
   101          0
   110          0
   111          6
   112          3
   113          9
   114          5
   115        109
   116          8
   117          0
   140         22
   141          2
   156          0
   157          1
   158          0