##TITLE=Library Entry 8809
##JCAMP-DX=Revision 4.10 
##DATA TYPE=MASS SPECTRUM
##SAMPLE DESCRIPTION=H. Fales, LC, NHLBI, NIH, Bethesda, MD 20892
##NAMES=HP
##CAS NAME=Ethanedioic acid, bis(3-methylbutyl) ester
##MOLFORM=C12H22O4
##CAS REGISTRY NO=2051-00-5
##MP= -300
##BP= -300
##MW= 230
##$RETENTION INDEX=1443
##$CONDENSED SPECTRUM=NO
##NPOINTS= 81
##XYDATA=(XY..XY) 1 
    41        405
    42         80
    43        999
    45         83
    46          0
    47          3
    48          0
    52          2
    53         26
    54         13
    55        266
    56         36
    57         53
    59        135
    60          4
    61          1
    63          0
    65          1
    67          6
    68          8
    69        110
    70        358
    71        717
    72         35
    73          7
    74          2
    76          0
    81          1
    82          1
    83          3
    84          4
    85          5
    86         13
    87         30
    88          4
    89          1
    91          4
    92          0
    97          2
    99          6
   100          1
   101          2
   103          0
   105          0
   111          5
   112          2
   113          2
   114          2
   115         28
   116          1
   117          7
   118          7
   119          0
   127          1
   129          4
   131          4
   139          0
   140          0
   141          1
   142          0
   143          1
   144          1
   145          3
   147          0
   153          0
   155          0
   157          0
   159          3
   161         20
   162          1
   169          4
   187          1
   188          9
   189          1
   201          0
   215          4
   217          0
   228          1
   229          0
   230          8
   231          1