##TITLE=Library Entry 57473
##JCAMP-DX=Revision 4.10 
##DATA TYPE=MASS SPECTRUM
##SAMPLE DESCRIPTION=Chemical Concepts
##NAMES=HP
##CAS NAME=3-Octanol, 3-ethyl-
##MOLFORM=C10H22O
##CAS REGISTRY NO=2051-32-3
##MP= -300
##BP= -300
##MW= 158
##$RETENTION INDEX=0
##$CONDENSED SPECTRUM=NO
##NPOINTS= 84
##XYDATA=(XY..XY) 1 
    26          5
    27         92
    28          9
    29        255
    30          5
    31         68
    38          1
    39         44
    40          8
    41        223
    42         21
    43        202
    44          7
    45        368
    46          8
    47          0
    50          0
    51          2
    52          1
    53         19
    54          6
    55        215
    56         23
    57        176
    58         12
    59        325
    60          9
    61          1
    65          2
    66          0
    67         10
    68          2
    69        552
    70         41
    71         67
    72         25
    73         32
    74          1
    77          1
    79          1
    81          3
    82          3
    83         16
    84         17
    85         37
    86         44
    87        999
    88         51
    89          2
    91          1
    93          0
    95          2
    96          0
    97          6
    98          5
    99         13
   100          1
   101          1
   105          0
   107          0
   108          0
   109          2
   110          1
   111         18
   112          3
   113          3
   115          1
   119          0
   121          2
   123          2
   125          2
   128          1
   129        745
   130         60
   131          4
   135          2
   136          2
   137          2
   139          0
   140          0
   141          5
   142          7
   143         12
   144          1