##TITLE=Library Entry 59546
##JCAMP-DX=Revision 4.10 
##DATA TYPE=MASS SPECTRUM
##SAMPLE DESCRIPTION=Exported from NIST MS Search
##NAMES=HP
##CAS NAME=1H-Pyrrole, 1-(phenylmethyl)-
##MOLFORM=C11H11N
##CAS REGISTRY NO=2051-97-0
##MP= -300
##BP= -300
##MW= 157
##$RETENTION INDEX=0
##$CONDENSED SPECTRUM=NO
##NPOINTS= 121
##XYDATA=(XY..XY) 1 
    36          1
    37         12
    38         34
    39        136
    40         21
    41         33
    42          3
    43          4
    44         22
    45          1
    46          1
    48          1
    49          3
    50         37
    51         82
    52         27
    53         29
    54          4
    55          3
    56          1
    57          2
    58          1
    59          1
    60          1
    61          4
    62         14
    63         48
    64         20
    65        139
    66         14
    67          8
    68          1
    69          1
    70          1
    71          1
    72          1
    73          1
    74          7
    75          8
    76          9
    77         46
    78         25
    79         21
    80         98
    81          7
    82          1
    83          1
    84          1
    85          1
    86          2
    87          3
    88          2
    89         29
    90         13
    91        999
    92        123
    93          8
    94          2
    95          1
    96          1
    97          1
    98          1
    99          1
   101          3
   102          6
   103          5
   104          6
   105          5
   106          4
   107          8
   108          1
   109          1
   110          1
   111          1
   112          1
   113          1
   114          1
   115          5
   116          4
   117          3
   118          1
   119          1
   120          1
   121          1
   122          1
   123          1
   124          1
   125          1
   126          3
   127         15
   128         27
   129         14
   130          7
   131          1
   132          1
   133          1
   134          1
   135          1
   136          1
   137          1
   138          1
   139          1
   140          1
   141          2
   142          1
   143          1
   144          1
   145          1
   146          1
   147          1
   149          1
   150          1
   151          1
   152          1
   153          3
   154         20
   155         16
   156        112
   157        130
   158         52
   159          5