##TITLE=Library Entry 97607
##JCAMP-DX=Revision 4.10 
##DATA TYPE=MASS SPECTRUM
##SAMPLE DESCRIPTION=NIST Mass Spectrometry Data Center
##NAMES=HP
##CAS NAME=7-Chloro-p-cymene
##MOLFORM=C10H13Cl
##CAS REGISTRY NO=2051-18-5
##MP= -300
##BP= -300
##MW= 168
##$RETENTION INDEX=1252
##$CONDENSED SPECTRUM=NO
##NPOINTS= 105
##XYDATA=(XY..XY) 1 
    13          1
    14          6
    15         60
    17          1
    18          7
    26         11
    27        104
    28         18
    29         11
    31          1
    35          5
    36          5
    37          9
    38         33
    39        225
    40         23
    41        113
    42          7
    43         16
    45          2
    47          1
    49         13
    50         59
    51        155
    52         36
    53         31
    54          2
    55         12
    56          4
    57         77
    59         21
    61         10
    62         52
    63        150
    64         78
    65        164
    66         13
    67          1
    69          2
    73         11
    74         21
    75         36
    76         25
    77        103
    78         58
    79         27
    80          1
    81          1
    85          4
    86         12
    87         19
    88          8
    89        124
    90         36
    91        452
    92         50
    93         16
    96          1
    97          2
    98          3
    99         10
   100          2
   101         11
   102         39
   103         76
   104         48
   105        147
   106         13
   107          3
   112          2
   113          5
   115        314
   116         77
   117        999
   118        223
   119        427
   120         39
   121          1
   123          1
   125         33
   126          5
   127         21
   128         17
   129          9
   131         35
   133        588
   134         74
   135          2
   138          5
   139         22
   140          4
   141          7
   148          1
   149          1
   150          2
   151          7
   153        980
   154         96
   155        308
   156         28
   157          1
   168        418
   169         55
   170        152
   171         16