##TITLE=Library Entry 9089
##JCAMP-DX=Revision 4.10 
##DATA TYPE=MASS SPECTRUM
##SAMPLE DESCRIPTION=Japan AIST/NIMC Database- Spectrum MS-NW-5232
##NAMES=HP
##CAS NAME=Disulfide, bis(3-methylbutyl)
##MOLFORM=C10H22S2
##CAS REGISTRY NO=2051-04-9
##MP= -300
##BP= -300
##MW= 206
##$RETENTION INDEX=1409
##$CONDENSED SPECTRUM=NO
##NPOINTS= 83
##XYDATA=(XY..XY) 1 
    15          4
    26          5
    27         91
    28         13
    29        122
    30          3
    32          3
    33          1
    34          1
    35          3
    37          1
    38          2
    39         54
    40          8
    41        193
    42         36
    43        999
    44         34
    45         24
    46         11
    47         29
    48          1
    49          1
    50          2
    51          3
    52          1
    53         14
    54          4
    55        117
    56         17
    57         30
    58          4
    59         20
    60         11
    61         26
    62          2
    63          1
    64          5
    65          1
    66          2
    67          8
    68          7
    69         43
    70         78
    71        624
    72         35
    73          5
    74          4
    75          2
    76          2
    78          2
    79         22
    80          1
    81          2
    85          2
    87         26
    88          2
    89          2
    93          7
   101         32
   102         32
   103         33
   104          8
   105          2
   107          1
   108          1
   117          1
   120          1
   121          2
   122          1
   131          1
   135          1
   136        101
   137          8
   138         10
   163          1
   174          6
   175          1
   206        235
   207         32
   208         24
   209          3
   210          1