##TITLE=Library Entry 71888
##JCAMP-DX=Revision 4.10 
##DATA TYPE=MASS SPECTRUM
##SAMPLE DESCRIPTION=NIST Mass Spectrometry Data Center, 1992
##NAMES=HP
##CAS NAME=Hexanoic acid, anhydride
##MOLFORM=C12H22O3
##CAS REGISTRY NO=2051-49-2
##MP= -300
##BP= -300
##MW= 214
##$RETENTION INDEX=0
##$CONDENSED SPECTRUM=NO
##NPOINTS= 79
##XYDATA=(XY..XY) 1 
    15          9
    17          1
    18          9
    19          0
    26         15
    27        152
    28         67
    29        163
    30          4
    31          2
    36          0
    37          1
    39         83
    40         23
    41        207
    42        152
    43        548
    44         19
    45         12
    46          0
    47          0
    48          0
    49          0
    50          1
    51          3
    52          2
    53         11
    54          0
    55        116
    56         20
    57          7
    58          2
    60         29
    61          3
    62          0
    63          0
    65          1
    66          0
    67          2
    68          3
    69         19
    70         41
    71        287
    72         16
    73         16
    74          2
    75          0
    77          0
    79          0
    80          6
    81          4
    83          5
    84          0
    85          1
    86          0
    87          4
    88          0
    89          0
    95          0
    97          7
    99        999
   100         70
   101          5
   111          0
   112          0
   113          0
   114          1
   115          3
   116          0
   117          3
   118          0
   127          0
   130          0
   140          1
   141          0
   143          2
   158          0
   183          0
   185          0