##TITLE=Library Entry 48506
##JCAMP-DX=Revision 4.10 
##DATA TYPE=MASS SPECTRUM
##SAMPLE DESCRIPTION=NIST Mass Spectrometry Data Center
##NAMES=HP
##CAS NAME=1,11-Dodecadiyne
##MOLFORM=C12H18
##CAS REGISTRY NO=20521-44-2
##MP= -300
##BP= -300
##MW= 162
##$RETENTION INDEX=0
##$CONDENSED SPECTRUM=NO
##NPOINTS= 78
##XYDATA=(XY..XY) 1 
    13          1
    15          8
    17          1
    18          5
    26         26
    27        394
    29        225
    30          5
    31          1
    37         13
    38         47
    39        641
    40        120
    41        913
    42         76
    43        109
    45          9
    49          2
    50         46
    51        122
    52         70
    53        375
    54        167
    55        470
    56         30
    57          8
    58          1
    61          1
    62          7
    63         27
    64          5
    65        155
    66         96
    67        654
    68        100
    69         57
    70          3
    71          1
    74          2
    75          2
    77        235
    78         92
    79        999
    80        266
    81        547
    82        116
    83         14
    89          2
    91        554
    92        158
    93        371
    94         80
    95        118
    96         14
    97          1
   102          1
   103          9
   105        254
   106         80
   107         73
   108         10
   109          3
   110          1
   115          3
   116          1
   117         14
   119        153
   120         21
   121         12
   122          1
   123          3
   131          5
   132          2
   133         37
   134          6
   145          1
   147          4
   161          1