##TITLE=Library Entry 3163
##JCAMP-DX=Revision 4.10 
##DATA TYPE=MASS SPECTRUM
##SAMPLE DESCRIPTION=James Little,Eastman Chem.Corp.,Kingsport,TN
##NAMES=HP
##CAS NAME=2-Butenal, 2-ethenyl-
##MOLFORM=C6H8O
##CAS REGISTRY NO=20521-42-0
##MP= -300
##BP= -300
##MW= 96
##$RETENTION INDEX=821
##$CONDENSED SPECTRUM=NO
##NPOINTS= 25
##XYDATA=(XY..XY) 1 
    26         30
    27        268
    29         88
    38         87
    39        865
    40        234
    41        999
    42        116
    51        107
    52         51
    53        320
    55         29
    63         62
    65        340
    66        209
    67        995
    68         90
    77         21
    78         33
    79         20
    81        132
    82          6
    95        358
    96        432
    97         28