##TITLE=Library Entry 57025
##JCAMP-DX=Revision 4.10 
##DATA TYPE=MASS SPECTRUM
##SAMPLE DESCRIPTION=NIST Mass Spectrometry Data Center
##NAMES=HP
##CAS NAME=.alpha.-Bromoisobutyric acid
##MOLFORM=C4H7BrO2
##CAS REGISTRY NO=2052-01-9
##MP= -300
##BP= -300
##MW= 166
##$RETENTION INDEX=0
##$CONDENSED SPECTRUM=NO
##NPOINTS= 63
##XYDATA=(XY..XY) 1 
    15          2
    25          2
    26         11
    27         57
    29         10
    31         32
    36          3
    37         22
    38         44
    39        280
    40         65
    41        603
    42        153
    43        147
    44         17
    45        247
    46          6
    47          2
    50          1
    51          1
    52          1
    53         17
    54          2
    55          9
    57         11
    58         14
    59        406
    60         19
    61          1
    68         15
    69         48
    70         21
    71          5
    73          7
    79         24
    80         26
    81         25
    82         25
    85          7
    86         74
    87        999
    88         47
    89          5
    93          5
    95          4
   105          6
   106          2
   107          6
   108          1
   109          1
   120          2
   121         70
   122         11
   123         73
   124          9
   125          2
   127          1
   128          2
   133          4
   135          4
   166         32
   167          1
   168         29