##TITLE=Library Entry 52863
##JCAMP-DX=Revision 4.10 
##DATA TYPE=MASS SPECTRUM
##SAMPLE DESCRIPTION=Exported from NIST MS Search
##NAMES=HP
##CAS NAME=Methane, oxybis[dichloro-
##MOLFORM=C2H2Cl4O
##CAS REGISTRY NO=20524-86-1
##MP= -300
##BP= -300
##MW= 182
##$RETENTION INDEX=988
##$CONDENSED SPECTRUM=NO
##NPOINTS= 21
##XYDATA=(XY..XY) 1 
    35         70
    36         14
    37         24
    38          5
    40          2
    41          5
    42          3
    47        255
    48        100
    49         96
    50         33
    51          5
    70          8
    72          5
    82         88
    83        999
    84         76
    85        652
    86         22
    87        107
    88          2