##TITLE=Library Entry 71892
##JCAMP-DX=Revision 4.10 
##DATA TYPE=MASS SPECTRUM
##SAMPLE DESCRIPTION=NIST Mass Spectrometry Data Center, 1998.
##NAMES=HP
##CAS NAME=Pentanoic acid, 4-oxo-, butyl ester
##MOLFORM=C9H16O3
##CAS REGISTRY NO=2052-15-5
##MP= -300
##BP= -300
##MW= 172
##$RETENTION INDEX=1225
##$CONDENSED SPECTRUM=NO
##NPOINTS= 61
##XYDATA=(XY..XY) 1 
    14          2
    15         18
    26         14
    27         93
    28         72
    29        138
    30          8
    31          9
    37          1
    38          4
    39         64
    40         10
    41        205
    42         61
    43        773
    44         26
    45         16
    50          3
    51          5
    52          2
    53         17
    54          8
    55        124
    56        253
    57        233
    58         30
    59          4
    60          2
    61         20
    69          3
    70          9
    71        146
    72         33
    73         89
    74        459
    75        130
    76          6
    81         16
    82          1
    83          3
    87          1
    97          3
    98         85
    99        999
   100         77
   101        283
   102         13
   103          2
   115          1
   116         11
   117        144
   118          8
   128          1
   129          8
   130         76
   131          7
   143          1
   157         53
   158          5
   172          3
   173          3