##TITLE=Library Entry 68417
##JCAMP-DX=Revision 4.10 
##DATA TYPE=MASS SPECTRUM
##SAMPLE DESCRIPTION=Exported from NIST MS Search
##NAMES=HP
##CAS NAME=Bicyclo[2.2.1]heptane, 2,2,3-trimethyl-, exo-
##MOLFORM=C10H18
##CAS REGISTRY NO=20536-41-8
##MP= -300
##BP= -300
##MW= 138
##$RETENTION INDEX=982
##$CONDENSED SPECTRUM=NO
##NPOINTS= 23
##XYDATA=(XY..XY) 1 
    41        530
    43        170
    53        120
    55        650
    67        470
    68        200
    69        430
    70        440
    77         50
    79         60
    80         20
    81        240
    82        300
    83        140
    91         35
    93         25
    94         90
    95        999
    96        190
   109        670
   110         65
   123        150
   138        180