##TITLE=Library Entry 37659
##JCAMP-DX=Revision 4.10 
##DATA TYPE=MASS SPECTRUM
##SAMPLE DESCRIPTION=RH-6
##NAMES=HP
##CAS NAME=Bicyclo[2.2.2]octan-1-ol
##MOLFORM=C8H14O
##CAS REGISTRY NO=20534-58-1
##MP= -300
##BP= -300
##MW= 126
##$RETENTION INDEX=1061
##$CONDENSED SPECTRUM=NO
##NPOINTS= 80
##XYDATA=(XY..XY) 1 
    14         10
    15         64
    17          5
    18          7
    19          8
    25          7
    26         76
    27        319
    28        178
    29        178
    30         10
    31         57
    32          6
    37         18
    38         46
    39        372
    40         72
    41        306
    42        141
    43         72
    44         15
    45          9
    47          5
    48         10
    49          8
    50         52
    51         89
    52         37
    53        130
    54         50
    55        319
    56         82
    57         78
    58         25
    61          7
    62         15
    63         29
    64          9
    65         47
    66         27
    67         92
    68         33
    69         85
    70        999
    71         94
    72         14
    74         17
    75         38
    76          8
    77         90
    78         31
    79        132
    80         28
    81         36
    82         24
    83        217
    84         34
    85          6
    89          5
    91         31
    92          9
    93         36
    94         12
    95         38
    96         30
    97        775
    98         96
    99         10
   105          8
   106          6
   107          9
   108         34
   109         13
   110          5
   111         34
   112          6
   125         20
   126        280
   127         29
   128          6