##TITLE=Library Entry 4220
##JCAMP-DX=Revision 4.10 
##DATA TYPE=MASS SPECTRUM
##SAMPLE DESCRIPTION=Institute of Organic Chemistry, USSR, 1990
##NAMES=HP
##CAS NAME=1,4-Dicyano-2-(5-hexenyl)benzene
##MOLFORM=C14H14N2
##CAS REGISTRY NO=205450-48-2
##MP= -300
##BP= -300
##MW= 210
##$RETENTION INDEX=0
##$CONDENSED SPECTRUM=NO
##NPOINTS= 125
##XYDATA=(XY..XY) 1 
    40         20
    41        999
    42        114
    43         88
    44         14
    46          6
    50         19
    51         38
    52         21
    53         65
    54         53
    55        287
    56        160
    57        103
    61          8
    63         18
    64         22
    65         18
    66          8
    67         71
    68         98
    69        704
    70         32
    71         14
    72          6
    73          6
    75         32
    76         25
    77         30
    78         15
    81          8
    82         20
    83         22
    84         22
    85         33
    86          8
    88         33
    89         36
    90         20
    91         22
    94         23
    95         17
    97         12
    99         28
   100         23
   101         50
   102         40
   103         32
   104         17
   107         53
   108          8
   109         28
   110         11
   111          7
   112         11
   113         42
   114        117
   115         98
   116        151
   117        103
   118         15
   119         12
   120         10
   121          8
   122          6
   124          5
   125         32
   126         12
   127         59
   128        125
   129        522
   130        181
   131         18
   132         16
   133         32
   135          6
   136          6
   138          5
   139         32
   140         50
   141        439
   142        387
   143         72
   144          7
   145         78
   146          9
   149         81
   152         40
   153         79
   154        307
   155        389
   156         96
   157         43
   158         38
   161          8
   163         24
   164          5
   165         12
   166         17
   167         58
   168        222
   169        308
   170        108
   171         41
   176         32
   178         36
   179         11
   180          6
   181        140
   182        241
   183         43
   184         12
   185         70
   186          7
   192         37
   195        889
   196        156
   197         13
   201         10
   205          9
   209        716
   210        700
   211         75
   212         11
   213         10