##TITLE=Library Entry 22810
##JCAMP-DX=Revision 4.10 
##DATA TYPE=MASS SPECTRUM
##SAMPLE DESCRIPTION=NIST Mass Spectrometry Data Center
##NAMES=HP
##CAS NAME=1,4-Cyclohexanedione, 2,2,6-trimethyl-
##MOLFORM=C9H14O2
##CAS REGISTRY NO=20547-99-3
##MP= -300
##BP= -300
##MW= 154
##$RETENTION INDEX=1183
##$CONDENSED SPECTRUM=NO
##NPOINTS= 58
##XYDATA=(XY..XY) 1 
    26          6
    27         47
    28         23
    29         36
    38         13
    39        228
    40         63
    41        424
    42        663
    43         74
    48          1
    50          9
    51         17
    52          7
    53         48
    54         18
    55        220
    56        999
    57         96
    63          5
    65         11
    66          5
    67         66
    68         18
    69        560
    70        452
    71         56
    77         13
    78          3
    79          9
    81         14
    82         16
    83        138
    84         35
    85         51
    86          3
    91          5
    93         10
    95         83
    96          9
    97         17
    98         25
    99          6
   109          9
   110         70
   111         85
   112         19
   113          5
   125          4
   126          5
   136          3
   139        829
   140         75
   141          6
   153          3
   154        476
   155         50
   156          4