##TITLE=Library Entry 89366
##JCAMP-DX=Revision 4.10 
##DATA TYPE=MASS SPECTRUM
##SAMPLE DESCRIPTION=J.H.MORRIS THE UNIVERSITY OF STRATHCLYDE, GLASGOW, UK
##NAMES=HP
##CAS NAME=1H-Tetrazaborole, 4,5-dihydro-1,4,5-trimethyl-
##MOLFORM=C3H9BN4
##CAS REGISTRY NO=20546-18-3
##MP= -300
##BP= -300
##MW= 112
##$RETENTION INDEX=0
##$CONDENSED SPECTRUM=NO
##NPOINTS= 36
##XYDATA=(XY..XY) 1 
    11         10
    13         10
    15         20
    24         10
    25         30
    26         60
    27        110
    28         40
    29         20
    30         40
    37         10
    38         20
    39         40
    40        160
    41        150
    42        130
    43         20
    44         10
    51         10
    52         10
    53         40
    54        180
    55        110
    56        360
    57         10
    66         10
    67         20
    68         30
    69        140
    70         10
    82         40
    83        210
    84         20
   111        220
   112        999
   113         30