##TITLE=Library Entry 96389
##JCAMP-DX=Revision 4.10 
##DATA TYPE=MASS SPECTRUM
##SAMPLE DESCRIPTION=L. Cohen, LC, NIDDK, NIH, Bethesda, MD 20892
##NAMES=HP
##CAS NAME=Histamine, N-t-butyloxycarbonyl-4-chloro-
##MOLFORM=C10H16ClN3O2
##CAS REGISTRY NO=205585-52-0
##MP= -300
##BP= -300
##MW= 245
##$RETENTION INDEX=0
##$CONDENSED SPECTRUM=NO
##NPOINTS= 123
##XYDATA=(XY..XY) 1 
    41        287
    42         31
    43         60
    44         14
    45         11
    46          3
    47         11
    48          5
    49         20
    50          4
    51         14
    52         43
    53         28
    54         56
    55         35
    56         49
    57        956
    58         47
    59         84
    60          5
    61         18
    62         28
    63          8
    64          8
    65          3
    66         18
    67         16
    68          3
    69          5
    70          3
    71          3
    72          0
    73         10
    74         53
    75         32
    76          7
    77         13
    78         14
    79          7
    80          6
    81         55
    82         15
    83          6
    84          9
    85          2
    86          7
    87          3
    88         25
    89         18
    90         11
    91          7
    92          2
    93          8
    94         13
    95          4
    96          1
    97          5
    98          2
    99          2
   100          3
   101          6
   102         20
   103          4
   104          7
   105          2
   106          9
   107          3
   108          7
   109          6
   110          4
   111          2
   113          1
   115        252
   116        999
   117        131
   118        336
   119         17
   121          1
   123          0
   124          9
   125          4
   127          3
   128        897
   129        151
   130        328
   131         48
   132          3
   135          1
   136          1
   138          1
   140          4
   142          4
   143          6
   144          7
   145          6
   146          8
   147          2
   148          2
   149          2
   153          1
   154          2
   155          2
   170          0
   171          4
   172        227
   173         18
   174         73
   175          6
   184          2
   186          2
   187          2
   189        487
   190         48
   191        160
   192         18
   193          1
   203          0
   211          0
   245        198
   246         45
   247         68
   248         15
   249          2