##TITLE=Library Entry 54568
##JCAMP-DX=Revision 4.10 
##DATA TYPE=MASS SPECTRUM
##SAMPLE DESCRIPTION=Japan AIST/NIMC Database- Spectrum MS-IW-1941
##NAMES=HP
##CAS NAME=Ethyl 4-(2,4-dinitrophenylhydrazono)butyrate
##MOLFORM=C12H14N4O6
##CAS REGISTRY NO=20552-76-5
##MP= -300
##BP= -300
##MW= 310
##$RETENTION INDEX=0
##$CONDENSED SPECTRUM=NO
##NPOINTS= 242
##XYDATA=(XY..XY) 1 
    12          1
    14          6
    15         20
    16          3
    17         15
    18         72
    19          4
    25          2
    26         34
    27        261
    28        292
    29        894
    30        355
    31         40
    32          4
    37         16
    38         64
    39        200
    40         46
    41        237
    42        101
    43        152
    44        125
    45         95
    46         10
    47          4
    48          1
    49          3
    50         57
    51        144
    52        123
    53         49
    54        164
    55        374
    56        100
    57        263
    58         20
    59          9
    60         41
    61         34
    62        111
    63        264
    64        156
    65         68
    66         37
    67         36
    68         46
    69         68
    70         21
    71        292
    72         65
    73         61
    74         84
    75        227
    76        135
    77        245
    78        211
    79        275
    80         68
    81         19
    82        195
    83        373
    84        209
    85        999
    86         55
    87         48
    88         42
    89         98
    90        154
    91        173
    92        137
    93         99
    94         20
    95         16
    96          6
    97          4
    98         20
    99         21
   100         84
   101         63
   102         65
   103        105
   104         86
   105         78
   106         73
   107         55
   108         20
   109          5
   110          4
   111          5
   112        762
   113         70
   114         22
   115        118
   116        104
   117        125
   118         87
   119        127
   120         47
   121         30
   122        146
   123         16
   124          4
   126          5
   127          7
   128         98
   129         79
   130        125
   131        104
   132         43
   133        103
   134         30
   135         57
   136         29
   137        107
   138         80
   139         30
   140          4
   141          5
   142         44
   143         79
   144         90
   145        145
   146         60
   147         42
   148         32
   149        132
   150         44
   151         16
   152        103
   153         64
   154          9
   155          5
   156         51
   157         95
   158         29
   159        102
   160         39
   161        110
   162         52
   163         49
   164         95
   165        507
   166         82
   167         63
   168         18
   169          5
   170         65
   171         34
   172         70
   173         91
   174         35
   175         56
   176         78
   177         99
   178         23
   179         49
   180         53
   181         51
   182         15
   183        130
   184         32
   185         18
   186         22
   187         10
   188         32
   189        222
   190        103
   191        195
   192         45
   193         80
   194         12
   195         22
   196         56
   197          7
   200          8
   201         41
   202        142
   203        111
   204         71
   205        103
   206         21
   207         77
   208         10
   209          5
   210          6
   215          1
   216         41
   217         39
   218         99
   219        407
   220         81
   221         20
   222          4
   223         60
   224          7
   225          1
   228          1
   229         46
   230         54
   231         89
   232         16
   233          5
   234          5
   235         23
   236        135
   237         39
   238          6
   239          3
   246         16
   247         95
   248         24
   249          7
   250          6
   251          1
   254          1
   258          1
   259          1
   260          2
   263         33
   264         75
   265        764
   266        101
   267         14
   268          1
   275        322
   276         53
   277         14
   278          4
   279          1
   280          6
   281          1
   282          3
   292          5
   293          4
   294          9
   295          1
   308          5
   310        584
   311         88
   312         12
   313          1