##TITLE=Library Entry 96195
##JCAMP-DX=Revision 4.10 
##DATA TYPE=MASS SPECTRUM
##SAMPLE DESCRIPTION=MASS SPECTROMETRY CENTER, UNIV. OF UTAH ALDRICH T01515-
6
##NAMES=HP
##CAS NAME=2(1H)-Pyrimidinethione, tetrahydro-
##MOLFORM=C4H8N2S
##CAS REGISTRY NO=2055-46-1
##MP= -300
##BP= -300
##MW= 116
##$RETENTION INDEX=0
##$CONDENSED SPECTRUM=NO
##NPOINTS= 75
##XYDATA=(XY..XY) 1 
    12          7
    13          2
    15         43
    16         10
    17         25
    18         10
    25          2
    26         64
    27        220
    28        154
    29        211
    30        747
    31         28
    32          7
    33         23
    34         16
    36          8
    37          4
    38         27
    39         57
    40         32
    41        134
    42        102
    43        131
    44        475
    45         86
    46         27
    47         19
    48          2
    50         17
    51         16
    52         21
    53         14
    54         54
    55        158
    56        260
    57         97
    58         83
    59        317
    60        414
    61         54
    62         25
    64          4
    65          4
    70         21
    71         14
    72        266
    73         45
    74         38
    75          8
    76         98
    77         23
    78         17
    79          5
    83         39
    84         14
    86         69
    87         69
    88        130
    89         17
    90          5
    98          7
    99         17
   101          5
   104          2
   105          3
   109          7
   110          2
   111          2
   113          4
   115        103
   116        999
   117        131
   118         77
   119          6