##TITLE=Library Entry 31038
##JCAMP-DX=Revision 4.10 
##DATA TYPE=MASS SPECTRUM
##SAMPLE DESCRIPTION=D. SCHULLER
##NAMES=HP
##CAS NAME=Pyridine, 3-(1-methyl-2-pyrrolidinyl)-, N,1-dioxide, (S)-
##MOLFORM=C10H14N2O2
##CAS REGISTRY NO=2055-29-0
##MP= -300
##BP= -300
##MW= 194
##$RETENTION INDEX=0
##$CONDENSED SPECTRUM=NO
##NPOINTS= 50
##XYDATA=(XY..XY) 1 
    60        999
    62         46
    63        123
    65        130
    66         95
    67         45
    68         54
    70         70
    77        126
    78        130
    79         95
    80         51
    82         52
    84        238
    91        109
    92        126
    94         51
    95         59
   103         47
   104         61
   105         60
   106         72
   117        168
   118        840
   119        153
   122         99
   123         80
   124        106
   130        114
   131         42
   132        134
   133         46
   134        183
   135        695
   136         82
   138         48
   148         87
   157         64
   158        115
   159        153
   160         37
   161         23
   162         11
   165         13
   175         99
   176        283
   177        138
   178         49
   194        786
   195        244