##TITLE=Library Entry 68397
##JCAMP-DX=Revision 4.10 
##DATA TYPE=MASS SPECTRUM
##SAMPLE DESCRIPTION=Chemical Concepts
##NAMES=HP
##CAS NAME=2,4a,5,8a-Tetramethyl-1,2,3,4,4a,7,8,8a-octahydronaphthalen-1-ol
##MOLFORM=C14H24O
##CAS REGISTRY NO=20558-22-9
##MP= -300
##BP= -300
##MW= 208
##$RETENTION INDEX=0
##$CONDENSED SPECTRUM=NO
##NPOINTS= 153
##XYDATA=(XY..XY) 1 
    26          4
    27        105
    28         50
    29        143
    30          6
    31         20
    36          1
    38          3
    39        128
    40         21
    41        403
    42         24
    43        287
    44         12
    45         24
    50          5
    51         29
    52         15
    53        123
    54         18
    55        286
    56         21
    57         80
    58         27
    59          8
    60          2
    61          1
    62          1
    63          9
    64          5
    65         58
    66         19
    67        177
    68         28
    69        305
    70         34
    71        105
    72         10
    73          2
    74          2
    75          4
    76          3
    77        136
    78         25
    79        194
    80         34
    81        327
    82         86
    83         71
    84         31
    85         31
    86          5
    87          1
    88          5
    89         11
    90          2
    91        192
    92         29
    93        222
    94         72
    95        999
    96        148
    97         70
    98         69
    99         24
   100          2
   101          1
   102          2
   103         14
   104          7
   105        223
   106         43
   107        712
   108        105
   109        193
   110         62
   111         79
   112        152
   113         35
   114          3
   115         13
   116          5
   117         14
   118          5
   119        181
   120         45
   121        274
   122        102
   123        252
   124         48
   125        233
   126         36
   127          5
   128          5
   129          5
   130          2
   131         15
   132          5
   133         86
   134         31
   135        135
   136         39
   137         96
   138         93
   139         99
   140         20
   141          5
   142          1
   143          2
   144          1
   145          6
   146          6
   147        167
   148         38
   149         36
   150         63
   151         45
   152         32
   153         10
   154          1
   155          1
   157          1
   159          6
   160          2
   161         15
   162          5
   163          4
   164          7
   165        373
   166         54
   167         25
   168          3
   169          1
   173          2
   175        225
   176         33
   177          8
   178          2
   179          3
   180          4
   181          1
   189          1
   190         58
   191         16
   192          3
   193        184
   194         25
   195          2
   206          1
   207          1
   208        298
   209         43
   210          3