##TITLE=Library Entry 18200
##JCAMP-DX=Revision 4.10 
##DATA TYPE=MASS SPECTRUM
##SAMPLE DESCRIPTION=Japan AIST/NIMC Database- Spectrum MS-IW-1926
##NAMES=HP
##CAS NAME=3-Methoxy-5-nitropyridazine 2-oxide
##MOLFORM=C5H5N3O4
##CAS REGISTRY NO=20552-44-7
##MP= -300
##BP= -300
##MW= 171
##$RETENTION INDEX=0
##$CONDENSED SPECTRUM=NO
##NPOINTS= 93
##XYDATA=(XY..XY) 1 
    12          3
    13          5
    14         10
    15        210
    16          3
    24          5
    25         31
    26         40
    27         45
    28         21
    29          3
    30        760
    31         37
    32          3
    33          1
    36          9
    37        104
    38        318
    39        108
    40         74
    41         52
    42        102
    43         38
    44         22
    45          5
    46         27
    47          3
    48          6
    49          9
    50         39
    51        999
    52        717
    53        298
    54         39
    55        132
    56         45
    57         11
    58          3
    59         22
    60          1
    62          3
    63          9
    64         17
    65        112
    66        394
    67        119
    68        187
    69        216
    70         15
    71          5
    76          2
    77         22
    78        113
    79        324
    80        608
    81         75
    82         31
    83        103
    84         15
    85          6
    86          1
    93          5
    94         17
    95        870
    96        103
    97         14
    98        125
    99          6
   107         58
   108         90
   109          8
   110          5
   111        127
   112          9
   113          1
   124         16
   125         28
   126         10
   127          1
   138          1
   139          1
   140          1
   141        325
   142         55
   143          5
   153        129
   154        149
   155         36
   156          3
   170         95
   171        747
   172         61
   173          9