##TITLE=Library Entry 63404
##JCAMP-DX=Revision 4.10 
##DATA TYPE=MASS SPECTRUM
##SAMPLE DESCRIPTION=Humboldt-Universitat zu Berlin, Department of Chemistry
, Analytical Group
##NAMES=HP
##CAS NAME=1,3,4-Oxadiazole, 4,5-dihydro-2,4,5-triphenyl-
##MOLFORM=C20H16N2O
##CAS REGISTRY NO=20561-17-5
##MP= -300
##BP= -300
##MW= 300
##$RETENTION INDEX=0
##$CONDENSED SPECTRUM=NO
##NPOINTS= 153
##XYDATA=(XY..XY) 1 
    12          0
    14          0
    15          0
    16          0
    17          4
    18         15
    25          0
    26          3
    27         22
    28          9
    29          6
    30          0
    31          0
    32          0
    36          0
    37          4
    38         19
    39         62
    40         11
    41         27
    42          2
    43          1
    44          2
    45          0
    48          0
    50         46
    51        173
    52         35
    53          4
    54          0
    55          1
    56          0
    57          1
    58          0
    60          0
    61          1
    62          9
    63         58
    64        163
    65         84
    66          7
    67          0
    68          0
    69          0
    70          0
    71          0
    72          0
    73          1
    74          9
    75         12
    76         33
    77        422
    78         48
    79          4
    80          2
    81          0
    82          0
    83          0
    84          0
    85          0
    86          1
    87          2
    88          2
    89         42
    90         42
    91        999
    92         83
    93         51
    94          5
    95          0
    96          0
    97          0
    98          0
    99          0
   100          1
   101          1
   102          3
   103         18
   104        152
   105        316
   106         33
   107         18
   108          1
   111          0
   112          0
   113          1
   114          1
   115          6
   116          1
   117          2
   118          2
   119          3
   120         19
   121          2
   122          1
   125          1
   126          2
   127          3
   128          3
   129          1
   130          1
   137          0
   138          1
   139          7
   140          4
   141          3
   142          0
   143          0
   150         18
   151          7
   152         15
   153          5
   154          2
   155          0
   163          3
   164          4
   165         31
   166         16
   167         56
   168         15
   169          2
   171          1
   177          2
   178          5
   179          6
   180         60
   181         19
   182          2
   191          0
   192          4
   193         62
   194        635
   195        113
   196         15
   197          2
   198          0
   207         16
   208          5
   209          0
   212         77
   213         11
   214          1
   221          1
   223        100
   224         16
   225          1
   259          0
   271          0
   297          1
   300        459
   301        106
   302         12
   303          1