##TITLE=Library Entry 66205
##JCAMP-DX=Revision 4.10 
##DATA TYPE=MASS SPECTRUM
##SAMPLE DESCRIPTION=Japan AIST/NIMC Database- Spectrum MS-NW-5283
##NAMES=HP
##CAS NAME=Pyridine, 4-(3-phenylpropyl)-
##MOLFORM=C14H15N
##CAS REGISTRY NO=2057-49-0
##MP= -300
##BP= -300
##MW= 197
##$RETENTION INDEX=1728
##$CONDENSED SPECTRUM=NO
##NPOINTS= 107
##XYDATA=(XY..XY) 1 
    26          5
    27         36
    28          5
    29          2
    37          1
    38          9
    39        105
    40         10
    41         26
    42          2
    43          1
    44          1
    49          1
    50         27
    51        104
    52         34
    53         23
    54         11
    55          2
    57          1
    61          2
    62          8
    63         39
    64         13
    65        185
    66         27
    67          9
    69          1
    70          1
    71          1
    74          6
    75          7
    76          9
    77        137
    78         63
    79         74
    80         10
    81          1
    82          1
    83          2
    84          1
    86          1
    87          2
    88          1
    89         23
    90         10
    91        920
    92        497
    93        999
    94         67
    95          2
    96          1
    98          3
    99          1
   101          2
   102          8
   103         48
   104        131
   105        254
   106        400
   107         37
   108          2
   113          1
   114          1
   115         15
   116          5
   117         13
   118         27
   119          9
   120          6
   121          1
   126          1
   127          2
   128          4
   129          2
   130          1
   139          3
   140          2
   141          3
   142          2
   143          1
   151          1
   152          4
   153          4
   154          5
   155          2
   156          1
   165          3
   166          2
   167          7
   168          8
   169          6
   170          3
   178          1
   179          1
   180          4
   181          1
   182          1
   191          1
   192          1
   193          2
   194          5
   195          2
   196         23
   197        451
   198         72
   199          6