##TITLE=Library Entry 34505
##JCAMP-DX=Revision 4.10 
##DATA TYPE=MASS SPECTRUM
##SAMPLE DESCRIPTION=Exported from NIST MS Search
##NAMES=HP
##CAS NAME=2,10-Dodecadien-1-ol, 3,7,11-trimethyl-, (E)-(.+/-.)-
##MOLFORM=C15H28O
##CAS REGISTRY NO=20576-59-4
##MP= -300
##BP= -300
##MW= 224
##$RETENTION INDEX=1681
##$CONDENSED SPECTRUM=NO
##NPOINTS= 89
##XYDATA=(XY..XY) 1 
    17          4
    19          2
    27         84
    28          6
    29        184
    31         42
    39        122
    40         22
    41        939
    42         64
    43        234
    44         20
    45         10
    51         20
    52          8
    53        130
    54         26
    55        519
    56        124
    57        128
    58          4
    59         18
    65         22
    66         20
    67        266
    68        246
    69        999
    70        156
    71        422
    72         22
    77         24
    78          6
    79         68
    80         64
    81        456
    82        370
    83        244
    84        224
    85         44
    86          4
    91         18
    92         24
    93        116
    94        100
    95        416
    96        156
    97        144
    98         46
    99         22
   100          4
   107        100
   108         48
   109        539
   110         88
   111         84
   112         28
   113         10
   121        156
   122         64
   123        160
   124         46
   125         16
   126          4
   129          2
   135         88
   136         42
   137         50
   138         42
   139         50
   140         20
   149         60
   150         48
   151         32
   153          6
   163         58
   164         14
   177         24
   178          2
   179          2
   180          6
   181          6
   191         34
   192          4
   193          8
   206         84
   207         20
   209          6
   224        158
   225         32