##TITLE=Library Entry 2049
##JCAMP-DX=Revision 4.10 
##DATA TYPE=MASS SPECTRUM
##SAMPLE DESCRIPTION=Exported from NIST MS Search
##NAMES=HP
##CAS NAME=Pentanal, (2,4-dinitrophenyl)hydrazone
##MOLFORM=C11H14N4O4
##CAS REGISTRY NO=2057-84-3
##MP= -300
##BP= -300
##MW= 266
##$RETENTION INDEX=2472
##$CONDENSED SPECTRUM=NO
##NPOINTS= 196
##XYDATA=(XY..XY) 1 
    26         10
    27        570
    28        490
    29        620
    30        480
    37         10
    38         60
    39        180
    40         50
    41        999
    42        150
    43        270
    44        200
    45         50
    46         10
    49         10
    50         70
    51        180
    52        150
    53         80
    54         60
    55        370
    56         80
    57        130
    58         70
    59         10
    60         20
    61         20
    62         80
    63        280
    64        180
    65        150
    66         50
    67        100
    68         60
    69        420
    70         30
    71         20
    72         10
    73         10
    74         50
    75        180
    76        150
    77        370
    78        250
    79        300
    80         70
    81         30
    82         40
    83         20
    84         30
    85         10
    86         10
    87         30
    88         30
    89         50
    90        100
    91        160
    92        180
    93         70
    94         20
    95         20
    96         10
    97         10
    98         10
   101         10
   102         60
   103        370
   104        250
   105         80
   106         50
   107         40
   108         30
   109         10
   110         10
   111         10
   114         10
   115         40
   116         40
   117         80
   118         50
   119         80
   120         40
   121         20
   122        280
   123         30
   124         10
   125         10
   127         10
   128         20
   129         40
   130         60
   131         70
   132         40
   133         20
   134         20
   135         30
   136         20
   137         30
   138         30
   139         10
   140         10
   141         10
   142         10
   143         30
   144         30
   145         30
   146         20
   147         40
   148         20
   149        350
   150         50
   151         30
   152        170
   153         30
   154         10
   155         10
   156         20
   157         30
   158         20
   159         20
   160         20
   161         10
   162         30
   163         20
   164         60
   165         30
   166         20
   167         30
   168         10
   169         20
   170         10
   171         10
   172         10
   173         10
   174         10
   175         30
   176         30
   177         80
   178         30
   179         20
   180         70
   181         40
   182         10
   183         50
   184         20
   185         40
   186         10
   187         10
   188         10
   189         10
   190         30
   191         20
   192         10
   193         50
   194         10
   195         10
   196         60
   197         10
   198         10
   199         10
   201         10
   202         20
   203         50
   204         20
   205         10
   206        550
   207         70
   208         10
   209         10
   210         10
   211         10
   216         10
   217         10
   218         10
   219         10
   220         20
   221         10
   222         10
   223         20
   224        130
   225         10
   229         10
   231         30
   232         10
   233         10
   235         10
   236         10
   237         10
   250         20
   251         10
   252         10
   265         10
   266        350
   267         60
   268         10