##TITLE=Library Entry 34504
##JCAMP-DX=Revision 4.10 
##DATA TYPE=MASS SPECTRUM
##SAMPLE DESCRIPTION=Exported from NIST MS Search
##NAMES=HP
##CAS NAME=2,10-Dodecadien-1-ol, 3,7,11-trimethyl-, (Z)-
##MOLFORM=C15H28O
##CAS REGISTRY NO=20576-57-2
##MP= -300
##BP= -300
##MW= 224
##$RETENTION INDEX=1668
##$CONDENSED SPECTRUM=NO
##NPOINTS= 82
##XYDATA=(XY..XY) 1 
    17          4
    27         84
    29        196
    31         40
    39        112
    40         24
    41        851
    42         76
    43        222
    44         10
    45         16
    51         10
    52         14
    53        140
    54         36
    55        497
    56        120
    57        134
    58          4
    65         32
    66         22
    67        232
    68        280
    69        999
    70        130
    71        400
    72         24
    77         34
    78          4
    79         82
    80         80
    81        474
    82        378
    83        256
    84        224
    85         46
    91         20
    92         40
    93        174
    94        140
    95        404
    96        158
    97        144
    98         40
    99         18
   101          4
   103          4
   107        126
   108         62
   109        569
   110         92
   111         64
   112         26
   113          4
   121        206
   122         88
   123        162
   124         56
   125         18
   129          4
   135         88
   136         66
   137         60
   138         40
   139         36
   140         16
   149         70
   150         48
   151         36
   153          6
   163         80
   164         16
   177         32
   178          4
   191         46
   192         14
   193         10
   206        138
   207         20
   209          4
   224         72
   225         10