##TITLE=Library Entry 52655
##JCAMP-DX=Revision 4.10 
##DATA TYPE=MASS SPECTRUM
##SAMPLE DESCRIPTION=Exported from NIST MS Search
##NAMES=HP
##CAS NAME=2,6-Dodecadien-1-ol, 3,7,11-trimethyl-, (Z,E)-
##MOLFORM=C15H28O
##CAS REGISTRY NO=20576-58-3
##MP= -300
##BP= -300
##MW= 224
##$RETENTION INDEX=0
##$CONDENSED SPECTRUM=NO
##NPOINTS= 91
##XYDATA=(XY..XY) 1 
    26          2
    27        104
    28          6
    29         21
    31         26
    39        126
    40         32
    41        615
    42         40
    43        466
    44         16
    45          4
    51         14
    52         12
    53        148
    54         24
    55        853
    56        100
    57        306
    58          6
    65         36
    66         34
    67        216
    68        284
    69        905
    70         96
    71        150
    72         10
    77         60
    78         18
    79         88
    80        228
    81        268
    82        122
    83        999
    84        470
    85         46
    86          2
    91         54
    92        118
    93        402
    94        106
    95        196
    96         60
    97        312
    98         66
    99         14
   101          2
   105         24
   106          2
   107         68
   108         26
   109         78
   110         36
   111        184
   112         50
   113         12
   117          4
   119          4
   120          4
   121        200
   122         40
   123         86
   124         22
   125          4
   126          6
   129          6
   135         46
   136         20
   137         24
   138         20
   139         44
   140         46
   141          2
   142          4
   149         54
   150         24
   151          4
   153         12
   163         20
   177          4
   179          2
   180          2
   191         12
   193         86
   194         14
   206         42
   207          8
   209          2
   224        140
   225         24