##TITLE=Library Entry 39620
##JCAMP-DX=Revision 4.10 
##DATA TYPE=MASS SPECTRUM
##SAMPLE DESCRIPTION=Chemical Concepts
##NAMES=HP
##CAS NAME=Isopropylpent-4-enylamine
##MOLFORM=C8H17N
##CAS REGISTRY NO=20576-73-2
##MP= -300
##BP= -300
##MW= 127
##$RETENTION INDEX=0
##$CONDENSED SPECTRUM=NO
##NPOINTS= 61
##XYDATA=(XY..XY) 1 
    26          5
    27         97
    28         82
    29         36
    30        766
    31          9
    37          1
    38          5
    39        106
    40         15
    41        402
    42        100
    43        130
    44        280
    45          6
    50          2
    51          6
    52          3
    53         17
    54         13
    55         25
    56        108
    57         29
    58        168
    59          5
    63          1
    64          5
    65          2
    66          2
    67         33
    68         14
    69        159
    70        113
    71         23
    72        999
    73         36
    74          0
    80          2
    81          1
    82         10
    83          9
    84         45
    85        146
    86          9
    91          0
    93          0
    94          1
    95          2
    96          6
    97          1
    98         11
    99          1
   110          3
   112        590
   113         42
   114         12
   115          1
   126         20
   127          7
   128          5
   129          1