##TITLE=Library Entry 10650
##JCAMP-DX=Revision 4.10 
##DATA TYPE=MASS SPECTRUM
##SAMPLE DESCRIPTION=Chemical Concepts
##NAMES=HP
##CAS NAME=2-ethyl-4,7-dioxo-octanoic acid,methyl ester
##MOLFORM=C11H18O4
##CAS REGISTRY NO=20577-49-5
##MP= -300
##BP= -300
##MW= 214
##$RETENTION INDEX=0
##$CONDENSED SPECTRUM=NO
##NPOINTS= 100
##XYDATA=(XY..XY) 1 
    26         18
    27        169
    28        151
    29        140
    30          7
    31         16
    32          2
    33          3
    37          1
    38          5
    39         86
    40         15
    41        155
    42         70
    43        999
    44         27
    45         35
    50          3
    51          8
    52          5
    53         40
    54         21
    55        556
    56        126
    57         37
    58          9
    59        192
    60          5
    61          1
    65          3
    66          1
    67          9
    68          5
    69         53
    70         26
    71        384
    72         28
    73        377
    74         17
    75          1
    77          6
    78          1
    79          7
    80          1
    81         28
    82          8
    83        316
    84         20
    85          9
    86          2
    87         57
    88          4
    91          2
    93          6
    94          1
    95         18
    96          8
    97         15
    98         25
    99        997
   100         54
   101        105
   102         14
   103          1
   107          1
   109          4
   110          1
   111         43
   112         35
   113          9
   114        675
   115        256
   116         18
   117          5
   121          2
   123          2
   124          2
   125         16
   126          2
   127          3
   135          2
   137          3
   139         85
   140         32
   141          4
   143        295
   144         20
   145          2
   153          3
   154          7
   155        190
   156         19
   157          2
   167          1
   171         16
   172          3
   182          4
   183         22
   184          2
   196          2