##TITLE=Library Entry 57186
##JCAMP-DX=Revision 4.10 
##DATA TYPE=MASS SPECTRUM
##SAMPLE DESCRIPTION=Japan AIST/NIMC Database- Spectrum MS-NW-4969
##NAMES=HP
##CAS NAME=D-Asparagine
##MOLFORM=C4H8N2O3
##CAS REGISTRY NO=2058-58-4
##MP= -300
##BP= -300
##MW= 132
##$RETENTION INDEX=0
##$CONDENSED SPECTRUM=NO
##NPOINTS= 65
##XYDATA=(XY..XY) 1 
    12          2
    13          3
    14         13
    15         79
    16         47
    17         40
    18        115
    19          2
    25          3
    26         19
    27         51
    28        233
    29         22
    30         87
    31          7
    32          2
    33          1
    34          3
    35          3
    36          1
    38          4
    39          9
    40         29
    41         74
    42        253
    43        317
    44        683
    45         78
    46         34
    47          1
    51          2
    52          4
    53          9
    54          9
    55         25
    56          6
    57          2
    58          1
    59        156
    60         23
    61          1
    66          1
    67          4
    68          8
    69         16
    70        257
    71         19
    72          9
    73          8
    74         56
    75          2
    80          1
    81          1
    85          1
    86         91
    87        999
    88         56
    89          6
    97          7
    98          3
    99          4
   112          2
   114         50
   115         21
   116          2