##TITLE=Library Entry 31316
##JCAMP-DX=Revision 4.10 
##DATA TYPE=MASS SPECTRUM
##SAMPLE DESCRIPTION=J. MADSEN,DEP. ORG. CHEM.,TECH. UNIV. DENMARK,LYNGBY,DE
NMARK
##NAMES=HP
##CAS NAME=4-(Methylthio)-1-butene
##MOLFORM=C5H10S
##CAS REGISTRY NO=20582-83-6
##MP= -300
##BP= -300
##MW= 102
##$RETENTION INDEX=0
##$CONDENSED SPECTRUM=NO
##NPOINTS= 33
##XYDATA=(XY..XY) 1 
    26         10
    27        119
    28         43
    29         45
    35         95
    37          5
    38          6
    39         81
    40         18
    41         35
    45         68
    46         29
    47         38
    48         13
    49          8
    50         10
    51         16
    52          6
    53         42
    54        110
    55         62
    58         13
    59         22
    60          6
    61        999
    62         29
    63         44
    74          6
    85         10
    87         13
   102        333
   103         21
   104         15