##TITLE=Library Entry 58440
##JCAMP-DX=Revision 4.10 
##DATA TYPE=MASS SPECTRUM
##SAMPLE DESCRIPTION=J.VOTH UNIV. OF CALIFORNIA, DAVIS, CALIFORNIA, 95616, U
SA
##NAMES=HP
##CAS NAME=Silane, (2-methoxycyclohexyl)trimethyl-, cis-
##MOLFORM=C10H22OSi
##CAS REGISTRY NO=20584-45-6
##MP= -300
##BP= -300
##MW= 186
##$RETENTION INDEX=0
##$CONDENSED SPECTRUM=NO
##NPOINTS= 117
##XYDATA=(XY..XY) 1 
    12          0
    13          0
    14          3
    15         48
    16          1
    17          1
    18          3
    26          4
    27         41
    28         30
    29         80
    30          5
    31         36
    32          2
    33          2
    37          0
    38          1
    39         45
    40          6
    41        102
    42         18
    43        112
    44         32
    45        199
    46         11
    47          8
    50          5
    51         15
    52          9
    53         66
    54        210
    55         68
    56         14
    57         27
    58         81
    59        354
    60         27
    61         19
    62          1
    63          2
    64          1
    65          8
    66         13
    67        430
    68         26
    69         18
    70          5
    71         85
    72         29
    73        670
    74         58
    75         66
    76          4
    77         16
    78          4
    79         31
    80         15
    81         82
    82        459
    83         37
    84         15
    85         11
    86          1
    87          1
    88          7
    89        999
    90         84
    91         39
    92          1
    93          1
    94          0
    95          3
    96          1
    97          7
    98          1
    99          4
   100          0
   101          1
   102          0
   103         13
   104          1
   105        236
   106         22
   107          9
   108          0
   109          2
   110          0
   111          5
   112          3
   113          3
   114          0
   115          7
   116          0
   117          0
   121          0
   123          0
   125          0
   127          1
   129         12
   130          1
   131          0
   137          0
   139         16
   140          2
   141          1
   142          0
   143         16
   144          1
   145          0
   154          3
   155          1
   156          0
   169          0
   171         12
   172          1
   173          0
   185          0