##TITLE=Library Entry 45226
##JCAMP-DX=Revision 4.10 
##DATA TYPE=MASS SPECTRUM
##SAMPLE DESCRIPTION=J.VOTH UNIV. OF CALIFORNIA, DAVIS, CALIFORNIA, 95616, U
SA
##NAMES=HP
##CAS NAME=Cyclohexanol, 2-(trimethylsilyl)-, cis-
##MOLFORM=C9H20OSi
##CAS REGISTRY NO=20584-43-4
##MP= -300
##BP= -300
##MW= 172
##$RETENTION INDEX=0
##$CONDENSED SPECTRUM=NO
##NPOINTS= 111
##XYDATA=(XY..XY) 1 
    12          0
    13          0
    14          2
    15         23
    16          0
    17          0
    18          1
    19          1
    26          2
    27         59
    28         23
    29         89
    30          4
    31         39
    32          1
    33          0
    37          0
    38          1
    39         40
    40          5
    41         71
    42         18
    43         94
    44         36
    45        167
    46         11
    47         56
    48          2
    49          1
    50          4
    51         12
    52          6
    53         54
    54        296
    55         68
    56          7
    57         68
    58         29
    59         76
    60         18
    61         55
    62          4
    63          3
    64          0
    65          7
    66         12
    67        522
    68         30
    69         10
    70         12
    71          8
    72         17
    73        463
    74         48
    75        999
    76         71
    77         46
    78          3
    79         21
    80          9
    81         58
    82        434
    83         33
    84          2
    85         13
    86          1
    87          2
    88          0
    89          0
    90          0
    91         77
    92          6
    93          3
    94          0
    95          2
    96          0
    97          3
    98          2
    99          7
   100          0
   101          2
   102          0
   103          0
   105          0
   107          0
   109          0
   111          1
   113          6
   114          0
   115          2
   123          0
   125          0
   127          1
   129         13
   130          1
   131          0
   139          2
   140          0
   141          0
   142          0
   143          0
   147          0
   149          0
   154          0
   155          1
   156          0
   157          3
   158          0
   169          0
   170          0
   171          0