##TITLE=Library Entry 52717
##JCAMP-DX=Revision 4.10 
##DATA TYPE=MASS SPECTRUM
##SAMPLE DESCRIPTION=Tox21 Consortium/NIST Mass Spectrometry Data Center, 20
12
##NAMES=HP
##CAS NAME=Clothiapine
##MOLFORM=C18H18ClN3S
##CAS REGISTRY NO=2058-52-8
##MP= -300
##BP= -300
##MW= 343
##$RETENTION INDEX=2705
##$CONDENSED SPECTRUM=NO
##NPOINTS= 284
##XYDATA=(XY..XY) 1 
    15          5
    26          1
    27         11
    28         32
    29         16
    30         13
    36          1
    37          1
    38          3
    39         11
    40          2
    41         18
    42        245
    43        158
    44         52
    45         14
    46          1
    49          1
    50         13
    51         13
    52          5
    53          3
    54         21
    55         25
    56        191
    57         37
    58         47
    59          2
    60          1
    61          2
    62          5
    63         22
    64          6
    65         10
    66          2
    67          2
    68          6
    69         46
    70        897
    71        166
    72         15
    73          5
    74         11
    75         20
    76          9
    77         11
    78          4
    79          2
    80          3
    81          7
    82        110
    83        999
    84         66
    85          6
    86          2
    87          5
    88          6
    89          7
    90          6
    91         10
    92          1
    93          7
    94          3
    95          7
    96          5
    97         34
    98         46
    99         54
   100          9
   101          4
   102          6
   103          4
   104          7
   106          5
   107          9
   108         48
   109         16
   110          6
   111          4
   112          3
   113          5
   114          6
   115          5
   116          7
   117          4
   118          3
   119          4
   120          3
   121          3
   122         10
   123          6
   124          7
   125          8
   126          6
   127          4
   128          2
   129          2
   130          3
   131          3
   133         23
   134          8
   135          4
   136          6
   137         13
   138         20
   139         28
   140         10
   141          2
   142          8
   143          2
   144          4
   145          3
   146          4
   147          2
   148          2
   149          6
   150         12
   151         12
   152          8
   153          4
   154          6
   155          2
   156          3
   157          3
   158          4
   159          3
   160          2
   161          2
   162          3
   163          7
   164        101
   165         25
   166          8
   167          3
   168          2
   169          4
   170          4
   171          3
   172          2
   173         10
   174          7
   175          6
   176          8
   177         53
   178         13
   179          5
   180          3
   181          5
   182         33
   183         20
   184          8
   185          3
   186          3
   187          1
   188          2
   189          1
   190          5
   191          5
   192          6
   193          4
   194          1
   195          3
   196          5
   197          4
   198          5
   199          2
   200          4
   201          6
   202          2
   203          4
   204          4
   205          9
   206          6
   207         11
   208         64
   209        321
   210         65
   211         27
   212         12
   213         12
   214          6
   215          4
   216          3
   217          5
   218         21
   219          8
   220          7
   221          3
   222          6
   223          9
   224          7
   225          3
   226          3
   227          4
   228          5
   229          3
   230          3
   231          4
   232          5
   233          3
   234          2
   235          3
   236          4
   237         11
   238         12
   239          7
   240          5
   241         11
   242          5
   243         22
   244        362
   245         81
   246        141
   247         29
   248         10
   249          3
   250          4
   251          8
   252          5
   253         10
   254          3
   255          5
   256          2
   257          5
   258          5
   259          8
   260         78
   261         86
   262         40
   263         33
   264          7
   265          7
   266          2
   267          6
   268          1
   269          2
   270          3
   271         14
   272          9
   273        314
   274         55
   275        115
   276         20
   277          6
   278          1
   279          1
   281          1
   282          1
   283          1
   284          3
   285        102
   286         60
   287         69
   288         26
   289         12
   290          3
   291          1
   296          1
   297          1
   298          1
   299         23
   300          7
   301         10
   302          3
   303          1
   310          1
   311          2
   312          1
   313          3
   314          2
   315          2
   316          1
   326          1
   328          2
   329          1
   330          1
   340          1
   341          3
   342          5
   343         82
   344         20
   345         33
   346          6
   347          1