##TITLE=Library Entry 36340
##JCAMP-DX=Revision 4.10 
##DATA TYPE=MASS SPECTRUM
##SAMPLE DESCRIPTION=NIST Mass Spectrometry Data Center, 1994
##NAMES=HP
##CAS NAME=1,1,1,5,5,6,6,7,7,7-Decafluoro-2,4-heptanedione
##MOLFORM=C7H2F10O2
##CAS REGISTRY NO=20583-66-8
##MP= -300
##BP= -300
##MW= 308
##$RETENTION INDEX=0
##$CONDENSED SPECTRUM=NO
##NPOINTS= 102
##XYDATA=(XY..XY) 1 
    13          4
    14         16
    15          1
    16          1
    17          1
    18          4
    19          1
    20          4
    25          2
    28          4
    29         16
    31         54
    33          7
    37          2
    38          1
    39          6
    40          2
    41         51
    42         60
    43          2
    44          7
    45          8
    47          8
    50         21
    51         11
    53         13
    54          1
    55          3
    56          8
    57          2
    60          2
    61          3
    62          2
    63         14
    64         12
    67          5
    69        999
    70         31
    71         17
    72          1
    73          5
    74          5
    75         36
    76          3
    77          1
    78          4
    81          5
    82          1
    83          9
    87          2
    89         17
    91        115
    92          8
    93          6
    94          4
    95          5
    97         19
   100         34
   101          1
   102          2
   103          2
   105          1
   106          3
   109          8
   110          2
   111          4
   113          6
   119        110
   120         45
   121          3
   122          8
   123          7
   125          5
   131          3
   139        423
   140         18
   141         17
   143          1
   145          1
   147          4
   150          1
   151          9
   153          2
   161          1
   163         13
   167          1
   169         34
   170          1
   173          2
   175          3
   191         94
   192          4
   197          1
   213          1
   219         84
   220          5
   239        125
   240          6
   241          6
   269         12
   289          3
   308          3