##TITLE=Library Entry 30753
##JCAMP-DX=Revision 4.10 
##DATA TYPE=MASS SPECTRUM
##SAMPLE DESCRIPTION=Exported from NIST MS Search
##NAMES=HP
##CAS NAME=Galactitol, 2,3:4,5-bis-O-(1-methylethylidene)-
##MOLFORM=C12H22O6
##CAS REGISTRY NO=20581-93-5
##MP= -300
##BP= -300
##MW= 262
##$RETENTION INDEX=0
##$CONDENSED SPECTRUM=NO
##NPOINTS= 41
##XYDATA=(XY..XY) 1 
    43        280
    55         56
    56          9
    57         84
    58         72
    59        999
    60         38
    61         46
    69        118
    70         10
    71        120
    72         20
    73        106
    81         30
    83         82
    84         16
    85        245
    86         38
    87         20
    99         28
   100         35
   101        186
   102         13
   103         16
   111         85
   112         13
   113         45
   114         18
   115         84
   129        107
   131        679
   132         48
   145         10
   161         20
   171         27
   173        383
   174         34
   187         14
   189         33
   229         12
   247        939