##TITLE=Library Entry 43394
##JCAMP-DX=Revision 4.10 
##DATA TYPE=MASS SPECTRUM
##SAMPLE DESCRIPTION=Exported from NIST MS Search
##NAMES=HP
##CAS NAME=.alpha.-D-Arabinopyranose, 4TMS derivative
##MOLFORM=C17H42O5Si4
##CAS REGISTRY NO=20585-61-9
##MP= -300
##BP= -300
##MW= 438
##$RETENTION INDEX=0
##$CONDENSED SPECTRUM=NO
##NPOINTS= 74
##XYDATA=(XY..XY) 1 
    44         10
    45         60
    59         40
    69         20
    72         20
    73        999
    74         80
    75        100
   101         50
   103         60
   116         30
   117         30
   129         60
   131         30
   133         60
   134         10
   143         20
   147        270
   148         40
   149         30
   169         10
   189         50
   190         20
   191        480
   192         90
   193         40
   203         20
   204        680
   205        130
   206         60
   207         10
   215         10
   217        710
   218        140
   219         80
   220         10
   221         10
   229          2
   230          6
   231         17
   232          5
   233          2
   234          1
   243         12
   244          3
   245          2
   259         17
   260          4
   261          1
   265          6
   266          1
   279          6
   280          1
   281          1
   291         14
   292          5
   293          2
   294          1
   303          2
   304          2
   305         42
   306         12
   307          8
   308          2
   318          1
   319          1
   333         24
   334          8
   335          4
   393          1
   421          3
   422          1
   423          2
   424          1