##TITLE=Library Entry 53414
##JCAMP-DX=Revision 4.10 
##DATA TYPE=MASS SPECTRUM
##SAMPLE DESCRIPTION=Organic Synthesis Lab, MSU, Moscow.TRC 511
##NAMES=HP
##CAS NAME=17.beta.-hydroxyandrostan-3-one-17-hexahydrobenzoate
##MOLFORM=C26H40O3
##CAS REGISTRY NO=20592-38-5
##MP= -300
##BP= -300
##MW= 400
##$RETENTION INDEX=0
##$CONDENSED SPECTRUM=NO
##NPOINTS= 159
##XYDATA=(XY..XY) 1 
    27         15
    29         33
    39         18
    40          3
    41        116
    42          5
    43         47
    44          2
    45          2
    51          2
    53         21
    54         12
    55        282
    56         18
    57         16
    60          2
    65          5
    66          3
    67         64
    68         21
    69         29
    70          2
    71          9
    73          3
    77         16
    78          3
    79         46
    80         12
    81         75
    83        999
    84         52
    85          4
    91         32
    92          6
    93         49
    94        102
    95         61
    96          8
    97         14
    98          2
    99          2
   105         26
   106          9
   107         45
   108         16
   109         22
   110         12
   111        312
   112         21
   115          1
   117          6
   118          3
   119         20
   120          8
   121         23
   122         11
   123         23
   124         45
   125          6
   128          3
   129          3
   130          2
   131         10
   132          3
   133         20
   134          7
   135         21
   136          5
   137         17
   138          2
   139          1
   143          3
   144          7
   145         14
   146         12
   147         28
   148         56
   149        122
   150         14
   151          3
   157          4
   158          3
   159         14
   160          7
   161         48
   162         17
   163         18
   164          3
   165          3
   171          3
   172          2
   173          8
   174          4
   175          8
   176          3
   177          3
   178          3
   179          5
   185          3
   186          2
   187          6
   188          2
   189          3
   190          2
   191          2
   197          3
   199          7
   200         13
   201         23
   202         15
   203          7
   204          3
   211          3
   212          1
   213         22
   214         11
   215         16
   216          8
   217         13
   218          3
   219          2
   227          3
   229         11
   230         12
   231         25
   232          5
   233          4
   239         12
   240          3
   241          1
   243          6
   244         57
   245         12
   246          6
   247          3
   253         10
   254         18
   255         27
   256          8
   257        210
   258         40
   259          4
   270          5
   271         69
   272        758
   273        212
   274         28
   275          3
   288          8
   289         28
   290          6
   316          2
   317         15
   318          3
   330          2
   357          2
   385          1
   400         16
   401          4