##TITLE=Library Entry 41636
##JCAMP-DX=Revision 4.10 
##DATA TYPE=MASS SPECTRUM
##SAMPLE DESCRIPTION=Exported from NIST MS Search
##NAMES=HP
##CAS NAME=Ether, 1-ethyl-6-iodooctyl methyl
##MOLFORM=C11H23IO
##CAS REGISTRY NO=20599-96-6
##MP= -300
##BP= -300
##MW= 298
##$RETENTION INDEX=0
##$CONDENSED SPECTRUM=NO
##NPOINTS= 33
##XYDATA=(XY..XY) 1 
    41        347
    42         44
    43         89
    45        211
    55        458
    56         33
    57        140
    67         89
    69        322
    70         13
    71        144
    72         18
    73        999
    74         53
    81         44
    82         13
    83        573
    84         33
    96          9
    97        222
    98          9
    99          7
   109        156
   110          7
   111          7
   139        178
   140         13
   141         67
   169          7
   170          7
   171        300
   172         44
   269         44