##TITLE=Library Entry 491
##JCAMP-DX=Revision 4.10 
##DATA TYPE=MASS SPECTRUM
##SAMPLE DESCRIPTION=Chemical Concepts
##NAMES=HP
##CAS NAME=Propanoic acid, 2-bromo-3-hydroxy-, ethyl ester
##MOLFORM=C5H9BrO3
##CAS REGISTRY NO=20591-86-0
##MP= -300
##BP= -300
##MW= 196
##$RETENTION INDEX=0
##$CONDENSED SPECTRUM=NO
##NPOINTS= 87
##XYDATA=(XY..XY) 1 
    25          7
    26         87
    27        463
    28         90
    29        999
    30        144
    31        188
    38          8
    39          2
    41         43
    42        996
    43        623
    44        492
    45        217
    46         11
    47         20
    53          9
    54         13
    55        202
    56         23
    57         14
    58         22
    59         19
    60          8
    61          6
    69         19
    70         26
    71        145
    72         22
    73         29
    74          4
    75         19
    76          2
    77          2
    79          9
    80          5
    81          8
    82          8
    83          5
    85          5
    87          5
    88         20
    89        162
    90          6
    91          6
    92          7
    93         19
    94         19
    95         17
    96         10
    97          3
    99         14
   101          6
   103         11
   104          4
   105         13
   106        132
   107         23
   108        131
   109         13
   117         81
   118          4
   120         74
   122         82
   123        212
   124         19
   125        204
   126          9
   133          8
   135          9
   138        144
   139          5
   140        139
   141          6
   149         10
   150          4
   151         63
   153         63
   155          6
   166        164
   167          8
   168        156
   169          7
   179         19
   180          0
   181         19
   182          0