##TITLE=Library Entry 14276
##JCAMP-DX=Revision 4.10 
##DATA TYPE=MASS SPECTRUM
##SAMPLE DESCRIPTION=Div. of Experiment Therapeutics WRAIR, WRAMC, Washingto
n DC 20307
##NAMES=HP
##CAS NAME=Estra-1,3,5(10),16-tetraene-3,17-diol, diacetate
##MOLFORM=C22H26O4
##CAS REGISTRY NO=20592-42-1
##MP= -300
##BP= -300
##MW= 354
##$RETENTION INDEX=0
##$CONDENSED SPECTRUM=NO
##NPOINTS= 103
##XYDATA=(XY..XY) 1 
    41         88
    43        999
    44         17
    49         14
    51         18
    53         46
    55        244
    56          3
    57         13
    63          2
    65         33
    67         48
    69         18
    71          3
    77         64
    79         60
    81         44
    83         48
    84          9
    86          9
    89          3
    91         65
    93         47
    95         93
    97         70
   103         29
   105         48
   107         78
   109         51
   110         16
   111          2
   115         74
   116         15
   117         27
   119          8
   120         25
   121         11
   123         21
   127         40
   128         27
   129         19
   131         54
   133        130
   134          8
   141         25
   142          2
   144         61
   145         90
   146         92
   147         39
   148          2
   149          4
   150          2
   152         10
   153          6
   154          4
   155         10
   157        130
   158         19
   159        179
   160         74
   161         16
   165         13
   167          7
   169         10
   170         10
   172         83
   173         72
   174          3
   175         11
   181          9
   182          3
   183         14
   185         87
   186         29
   195         10
   197         24
   198         11
   199         27
   209          9
   211         14
   213         45
   214          8
   223          6
   225          3
   226         10
   227          6
   237         50
   241          2
   252         22
   253          4
   255        292
   256         11
   267          3
   268          3
   270        713
   271         19
   272          7
   297         20
   312        240
   313         30
   354        107
   355         17