##TITLE=Library Entry 53418
##JCAMP-DX=Revision 4.10 
##DATA TYPE=MASS SPECTRUM
##SAMPLE DESCRIPTION=Organic Synthesis Lab, MSU, Moscow.TRC 582
##NAMES=HP
##CAS NAME=17.beta.-Cyclohexylcarbonyloxy-5.alpha.-androstan-3.beta.-ol
##MOLFORM=C26H42O3
##CAS REGISTRY NO=20592-39-6
##MP= -300
##BP= -300
##MW= 402
##$RETENTION INDEX=0
##$CONDENSED SPECTRUM=NO
##NPOINTS= 193
##XYDATA=(XY..XY) 1 
    27         19
    29         48
    30          1
    31          4
    39         23
    40          6
    41        182
    42         13
    43         83
    44          6
    45          5
    50          1
    51          2
    52          1
    53         28
    54         20
    55        411
    56         22
    57         34
    58          4
    59          3
    60          3
    65          9
    66          6
    67        117
    68         28
    69         44
    70          6
    71         11
    72          1
    73          7
    77         32
    78          7
    79        103
    80         22
    81        153
    82         25
    83        999
    84         64
    85          5
    87          1
    91         72
    92         17
    93        132
    94        178
    95        109
    96         19
    97         10
    98          3
    99          2
   100          1
   103          2
   104          3
   105         63
   106         28
   107        136
   108         64
   109         51
   110         18
   111        250
   112         17
   113          1
   115          2
   116          1
   117         12
   118          7
   119         43
   120         30
   121         59
   122         19
   123         18
   124         20
   125          8
   126          2
   127          1
   128          6
   129          9
   130          2
   131         23
   132          8
   133         44
   134         21
   135         57
   136         11
   137         10
   138         10
   139          5
   140          1
   143          4
   144          3
   145         30
   146         22
   147         71
   148        308
   149        164
   150         28
   151         10
   152          1
   153          2
   157          4
   158          3
   159         26
   160         16
   161         60
   162         48
   163         27
   164         11
   165         27
   166         10
   167          3
   169          1
   171          4
   172          2
   173         18
   174         34
   175         24
   176          6
   177          7
   178          6
   179          6
   180          1
   185          8
   186          3
   187         15
   188          7
   189          7
   190          3
   191          5
   192          2
   193          1
   199         15
   200          8
   201         25
   202         42
   203         13
   204          2
   205          2
   206          1
   213         12
   214          7
   215         31
   216         10
   217         34
   218         10
   219          8
   220          3
   227          5
   228          7
   229          6
   230         15
   231          9
   232          9
   233         17
   234          4
   239          2
   241         63
   242         12
   243          2
   245          3
   246         40
   247          8
   248          5
   254          1
   255         51
   256         91
   257         86
   258         15
   259        196
   260         36
   261          3
   272          6
   273         51
   274        581
   275        110
   276         13
   277          1
   288          1
   290          3
   291         12
   292          3
   301          1
   316          1
   319          9
   320          2
   328          1
   330         15
   331          3
   369          3
   384         19
   385          5
   387          2
   402          6
   403          1