##TITLE=Library Entry 83032
##JCAMP-DX=Revision 4.10 
##DATA TYPE=MASS SPECTRUM
##SAMPLE DESCRIPTION=Exported from NIST MS Search
##NAMES=HP
##CAS NAME=Guanidine, N-methyl-N-phenyl-
##MOLFORM=C8H11N3
##CAS REGISTRY NO=20600-59-3
##MP= -300
##BP= -300
##MW= 149
##$RETENTION INDEX=0
##$CONDENSED SPECTRUM=NO
##NPOINTS= 33
##XYDATA=(XY..XY) 1 
    27         30
    30         60
    39        100
    42         30
    43        250
    44         40
    50         50
    51        120
    52         30
    60         40
    63         40
    65         80
    66         50
    71         40
    76         20
    77        260
    78         80
    79         70
    91         30
    92         30
    93        420
    94         30
   104         40
   105         20
   106        999
   107        440
   108         20
   118         20
   131         20
   132         40
   133         40
   149        640
   150        150