##TITLE=Library Entry 58335
##JCAMP-DX=Revision 4.10 
##DATA TYPE=MASS SPECTRUM
##SAMPLE DESCRIPTION=Exported from NIST MS Search
##NAMES=HP
##CAS NAME=Acetic acid, [(2-methylpropyl)thio]-
##MOLFORM=C6H12O2S
##CAS REGISTRY NO=20600-62-8
##MP= -300
##BP= -300
##MW= 148
##$RETENTION INDEX=0
##$CONDENSED SPECTRUM=NO
##NPOINTS= 50
##XYDATA=(XY..XY) 1 
    39        466
    40         99
    41        962
    42        185
    43        610
    44         92
    45        550
    46        308
    47        810
    48         35
    49         28
    53         74
    54         44
    55        744
    56        969
    57        925
    58         79
    59        145
    60        515
    61        572
    62         74
    63         44
    70         30
    71         26
    72         26
    73         66
    74         88
    75        191
    76         30
    77        627
    78         26
    79         44
    87        198
    88        127
    89        999
    90         99
    91         88
    92        123
    93         70
   101         26
   103        145
   104         30
   105        251
   106        132
   107         22
   115         26
   119         39
   148        742
   149         88
   150         44