##TITLE=Library Entry 71761
##JCAMP-DX=Revision 4.10 
##DATA TYPE=MASS SPECTRUM
##SAMPLE DESCRIPTION=ATLAS OF MASS SPECTRA OF ORGANIC COMPOUNDS, V. A. KOPTY
UG, ED.
##NAMES=HP
##CAS NAME=Butanal, propylhydrazone
##MOLFORM=C7H16N2
##CAS REGISTRY NO=20607-76-5
##MP= -300
##BP= -300
##MW= 128
##$RETENTION INDEX=0
##$CONDENSED SPECTRUM=NO
##NPOINTS= 29
##XYDATA=(XY..XY) 1 
    28        194
    29        103
    30        689
    31         24
    32         11
    39         72
    40         12
    41        259
    42         75
    43        375
    44         63
    54         18
    55         31
    56         50
    57         91
    58         66
    68         28
    69         28
    70        104
    71         42
    72         15
    83         13
    85         67
    97         10
    99        999
   100         91
   127          9
   128        250
   129         28