##TITLE=Library Entry 17859
##JCAMP-DX=Revision 4.10 
##DATA TYPE=MASS SPECTRUM
##SAMPLE DESCRIPTION=MINISTRY OF TECH. E.R.D.E., WALTHAM ABBEY, UK
##NAMES=HP
##CAS NAME=1,2-Propanediol, 3,3'-oxydi-, tetranitrate
##MOLFORM=C6H10N4O13
##CAS REGISTRY NO=20600-96-8
##MP= -300
##BP= -300
##MW= 346
##$RETENTION INDEX=0
##$CONDENSED SPECTRUM=NO
##NPOINTS= 25
##XYDATA=(XY..XY) 1 
    12          4
    13          1
    14         32
    15         21
    26          3
    27          8
    28         77
    29         82
    30        783
    31         27
    41          7
    42         10
    43         29
    44         62
    45         28
    46        999
    47          5
    55          2
    57          2
    60          7
    73          2
    76         10
    77          1
   105          1
   123          1