##TITLE=Library Entry 96695
##JCAMP-DX=Revision 4.10 
##DATA TYPE=MASS SPECTRUM
##SAMPLE DESCRIPTION=Exported from NIST MS Search
##NAMES=HP
##CAS NAME=3,5-Xylyl isocyanide
##MOLFORM=C9H9N
##CAS REGISTRY NO=20600-56-0
##MP= -300
##BP= -300
##MW= 131
##$RETENTION INDEX=0
##$CONDENSED SPECTRUM=NO
##NPOINTS= 14
##XYDATA=(XY..XY) 1 
    51        140
    52         10
    77        150
    78         10
    89        120
    90         10
   103        130
   104         10
   116        999
   117        170
   118         20
   130        250
   131        670
   132         70