##TITLE=Library Entry 13634
##JCAMP-DX=Revision 4.10 
##DATA TYPE=MASS SPECTRUM
##SAMPLE DESCRIPTION=Exported from NIST MS Search
##NAMES=HP
##CAS NAME=Acetamide, N-(4-hydroxy-2-benzothiazolyl)-
##MOLFORM=C9H8N2O2S
##CAS REGISTRY NO=20600-52-6
##MP= -300
##BP= -300
##MW= 208
##$RETENTION INDEX=0
##$CONDENSED SPECTRUM=NO
##NPOINTS= 23
##XYDATA=(XY..XY) 1 
    43        999
    44         80
    51         28
    52         29
    69         33
    70         17
    78         24
    79         20
    82         10
    83         17
    84         14
    95         14
    96         30
   110         38
   111         86
   123         10
   137         33
   139         67
   166        495
   167         50
   193         10
   208        505
   209         50