##TITLE=Library Entry 58461
##JCAMP-DX=Revision 4.10 
##DATA TYPE=MASS SPECTRUM
##SAMPLE DESCRIPTION=Exported from NIST MS Search
##NAMES=HP
##CAS NAME=Acetic acid, (isobutylthio)-, methyl ester
##MOLFORM=C7H14O2S
##CAS REGISTRY NO=20600-66-2
##MP= -300
##BP= -300
##MW= 162
##$RETENTION INDEX=0
##$CONDENSED SPECTRUM=NO
##NPOINTS= 46
##XYDATA=(XY..XY) 1 
    27        180
    28         70
    29        230
    39        180
    40         20
    41        430
    42        120
    43        300
    44        130
    45        470
    46        140
    47        220
    48         40
    55        370
    56        280
    57        580
    58         30
    59        170
    60         80
    61        300
    62         30
    63         20
    73         50
    74        810
    75        160
    76         10
    87        150
    88        230
    89        999
    90         80
    91        230
    92         20
    93         20
   101         20
   103        300
   104         20
   105         20
   106        230
   107        180
   108         20
   115         20
   119        130
   120         10
   162        680
   163         80
   164         40