##TITLE=Library Entry 52431
##JCAMP-DX=Revision 4.10 
##DATA TYPE=MASS SPECTRUM
##SAMPLE DESCRIPTION=R.LARGE BRITISH PETROLEUM CO. LTD., EPSOM, SURREY, UK
##NAMES=HP
##CAS NAME=Cyclohexanehexanoic acid, .epsilon.-oxo-
##MOLFORM=C12H20O3
##CAS REGISTRY NO=20606-25-1
##MP= -300
##BP= -300
##MW= 212
##$RETENTION INDEX=0
##$CONDENSED SPECTRUM=NO
##NPOINTS= 50
##XYDATA=(XY..XY) 1 
    27        110
    28         60
    29        120
    31         20
    39        100
    40         20
    41        300
    42         30
    43         80
    44         10
    45         40
    53         40
    54         40
    55        570
    56         40
    57         20
    58         10
    59         70
    60         30
    67         70
    68         30
    69         20
    70          6
    71         40
    73         70
    77         10
    79         20
    81         40
    82         40
    83        999
    84        100
    85         30
   100         20
   101        140
   102         20
   111        380
   112         40
   113         20
   126        120
   127         15
   129        190
   130         14
   139         25
   144          8
   157         22
   166         10
   171          6
   194          4
   212         74
   213         11