##TITLE=Library Entry 50324
##JCAMP-DX=Revision 4.10 
##DATA TYPE=MASS SPECTRUM
##SAMPLE DESCRIPTION=Japan AIST/NIMC Database- Spectrum MS-NW-9598
##NAMES=HP
##CAS NAME=Dicyclohexyl-4,4'-diol
##MOLFORM=C12H22O2
##CAS REGISTRY NO=20601-38-1
##MP= -300
##BP= -300
##MW= 198
##$RETENTION INDEX=0
##$CONDENSED SPECTRUM=NO
##NPOINTS= 132
##XYDATA=(XY..XY) 1 
    14          4
    15          9
    16          3
    17          3
    18          9
    26          3
    27         57
    28         15
    29         82
    30          4
    31         34
    32          6
    36          1
    37          1
    38          3
    39         62
    40          9
    41        188
    42         26
    43        138
    44         23
    45        241
    46          6
    50          2
    51          9
    52          5
    53         57
    54        120
    55        273
    56         27
    57        120
    58         18
    59         18
    60          1
    62          1
    63          2
    64          1
    65         23
    66         34
    67        405
    68         53
    69         66
    70         44
    71         14
    72          2
    73          1
    76          1
    77         43
    78        134
    79        402
    80        490
    81        999
    82        192
    83         96
    84         13
    85          4
    91        113
    92         64
    93        111
    94        411
    95        141
    96         37
    97         51
    98         20
    99         25
   100          2
   103          3
   104         11
   105         54
   106         42
   107        184
   108         74
   109         24
   110          9
   111          9
   112          4
   113          1
   115          4
   116          1
   117          9
   118          7
   119         81
   120         99
   121        136
   122         26
   123         33
   124         24
   125          9
   126          1
   127          1
   128          2
   129          4
   130          4
   131          8
   132          7
   133        164
   134        121
   135         19
   136         30
   137         51
   138          9
   139          4
   141          1
   143          6
   144          1
   145          5
   146          1
   147         82
   148          9
   149          8
   150          2
   151         30
   152          4
   157          1
   158          7
   159          1
   160         12
   161          9
   162        218
   163         37
   164          8
   165          4
   170          2
   174          1
   176          2
   178          9
   179          4
   180         10
   181          2
   190          1
   194          4
   196          1