##TITLE=Library Entry 38143
##JCAMP-DX=Revision 4.10 
##DATA TYPE=MASS SPECTRUM
##SAMPLE DESCRIPTION=ATLAS OF MASS SPECTRA OF ORGANIC COMPOUNDS, V. A. KOPTY
UG, ED.
##NAMES=HP
##CAS NAME=Acetaldehyde, butylhydrazone
##MOLFORM=C6H14N2
##CAS REGISTRY NO=20607-72-1
##MP= -300
##BP= -300
##MW= 114
##$RETENTION INDEX=922
##$CONDENSED SPECTRUM=NO
##NPOINTS= 31
##XYDATA=(XY..XY) 1 
    28        142
    29        118
    30        631
    31        289
    39         37
    40         16
    41         87
    42        224
    43         79
    44         50
    45          8
    54          4
    55         20
    56         42
    57         63
    58         50
    59          5
    69         16
    70         21
    71        999
    72        118
    73         26
    83          7
    84          8
    85          6
    99         71
   100          5
   112          9
   113         10
   114        213
   115         21