##TITLE=Library Entry 89383
##JCAMP-DX=Revision 4.10 
##DATA TYPE=MASS SPECTRUM
##SAMPLE DESCRIPTION=NIST Mass Spectrometry Data Center
##NAMES=HP
##CAS NAME=2-(Hexamethyleneimino)ethanol
##MOLFORM=C8H17NO
##CAS REGISTRY NO=20603-00-3
##MP= -300
##BP= -300
##MW= 143
##$RETENTION INDEX=0
##$CONDENSED SPECTRUM=NO
##NPOINTS= 63
##XYDATA=(XY..XY) 1 
    10          1
    11          3
    12          4
    13          5
    14         19
    15         61
    16          8
    18         16
    19         19
    26         27
    27        144
    28        197
    29        147
    30        112
    31         46
    32          4
    38          8
    39        154
    40         31
    41        352
    42        433
    43        144
    44        278
    45         68
    51          5
    52          2
    53         38
    54         59
    55        223
    56        127
    57         81
    58        556
    59         35
    67         27
    68         36
    69         49
    70         85
    71         26
    72         19
    74         14
    79          4
    80          4
    81          7
    82         44
    83         29
    84        117
    85         46
    88         27
    94          1
    96         18
    98         72
    99          6
   100         19
   103         26
   110         26
   112        999
   113         88
   114          3
   126          2
   140          9
   141         12
   142          7
   143         43