##TITLE=Library Entry 58282
##JCAMP-DX=Revision 4.10 
##DATA TYPE=MASS SPECTRUM
##SAMPLE DESCRIPTION=Exported from NIST MS Search
##NAMES=HP
##CAS NAME=Acetic acid, (butylthio)-
##MOLFORM=C6H12O2S
##CAS REGISTRY NO=20600-61-7
##MP= -300
##BP= -300
##MW= 148
##$RETENTION INDEX=0
##$CONDENSED SPECTRUM=NO
##NPOINTS= 40
##XYDATA=(XY..XY) 1 
    27        570
    28        180
    29        860
    30         20
    39        270
    40         20
    41        960
    42         60
    43        140
    45        500
    46        340
    47        850
    48         30
    55        930
    56        910
    57        310
    58         20
    59        100
    60        200
    61        750
    62         50
    63         60
    73        150
    74        110
    75        100
    76         10
    77        380
    78         30
    88         70
    89        999
    90         90
    91         10
    92         90
    93         80
   103         90
   105        100
   106         10
   148        540
   149        110
   150         20