##TITLE=Library Entry 40556
##JCAMP-DX=Revision 4.10 
##DATA TYPE=MASS SPECTRUM
##SAMPLE DESCRIPTION=Japan AIST/NIMC Database- Spectrum MS-NW-6799
##NAMES=HP
##CAS NAME=Acetic acid, (2-propenylthio)-
##MOLFORM=C5H8O2S
##CAS REGISTRY NO=20600-63-9
##MP= -300
##BP= -300
##MW= 132
##$RETENTION INDEX=1014
##$CONDENSED SPECTRUM=NO
##NPOINTS= 93
##XYDATA=(XY..XY) 1 
    12          1
    13          3
    14         13
    15         17
    16          2
    17          6
    18         21
    19          1
    20          3
    25          2
    26         10
    27         45
    28         27
    29         14
    30          2
    31         19
    32          6
    33          4
    34          5
    35          2
    36          2
    37         17
    38         37
    39        301
    40         37
    41        644
    42         57
    43         14
    44         42
    45        432
    46        107
    47        148
    48          9
    49          7
    50          1
    51          2
    52          1
    53         42
    54          5
    55          5
    56          1
    57         22
    58         12
    59         27
    60         76
    61         10
    62          1
    63          7
    64          2
    67          1
    68          3
    69         12
    70          3
    71         50
    72         77
    73        999
    74         55
    75         49
    76          9
    77         19
    78          1
    79          2
    80          1
    81          2
    82          1
    83          1
    84          2
    85         40
    86         24
    87        154
    88         10
    89          9
    90          8
    91          4
    92          3
    97          2
    98          1
    99          5
   100          2
   101          1
   103          3
   104          1
   105          2
   111          1
   113          1
   114          9
   115          2
   130          1
   131          2
   132        472
   133         34
   134         25
   135          2