##TITLE=Library Entry 687
##JCAMP-DX=Revision 4.10 
##DATA TYPE=MASS SPECTRUM
##SAMPLE DESCRIPTION=NIST Mass Spectrometry Data Center, 1994
##NAMES=HP
##CAS NAME=Diethyl bis(hydroxymethyl)malonate
##MOLFORM=C9H16O6
##CAS REGISTRY NO=20605-01-0
##MP= -300
##BP= -300
##MW= 220
##$RETENTION INDEX=0
##$CONDENSED SPECTRUM=NO
##NPOINTS= 87
##XYDATA=(XY..XY) 1 
    12          8
    13         17
    14         38
    15         90
    16         15
    17         13
    18         29
    19         24
    25         13
    26        201
    27        564
    28        173
    29        999
    30        141
    31        132
    32          2
    38          3
    39         18
    40          4
    41         26
    42        102
    43        178
    44         42
    45        137
    46          7
    47         21
    53         77
    54        208
    55        242
    56         76
    57         23
    58         22
    60         24
    61         10
    69         60
    70         42
    71         99
    72        102
    73         63
    80          3
    81          5
    82         37
    83         90
    84         20
    85         44
    86         23
    87         52
    88        101
    89         25
    90          2
    97         19
    99        647
   100        114
   101         53
   102          8
   103          2
   104          5
   105          7
   108         20
   110         15
   113          4
   115        142
   116         27
   117         63
   118          6
   126        160
   127        644
   128         83
   129         22
   130          4
   131         42
   132         10
   133         48
   143        130
   144         49
   145         56
   146          7
   160         10
   161         10
   171          2
   172          3
   173         19
   174          2
   175         12
   189         54
   190         24
   191          2