##TITLE=Library Entry 46791
##JCAMP-DX=Revision 4.10 
##DATA TYPE=MASS SPECTRUM
##SAMPLE DESCRIPTION=R. J. SOOTHILL
##NAMES=HP
##CAS NAME=Ethanol, 2-(phenylsulfonyl)-
##MOLFORM=C8H10O3S
##CAS REGISTRY NO=20611-21-6
##MP= -300
##BP= -300
##MW= 186
##$RETENTION INDEX=0
##$CONDENSED SPECTRUM=NO
##NPOINTS= 19
##XYDATA=(XY..XY) 1 
    51        354
    65         78
    77        999
    78        810
    91         73
    93         25
    94        273
    97         31
   104        132
   121        105
   125        118
   141        137
   142        118
   143        223
   144         20
   156         33
   158        123
   168          6
   186         64