##TITLE=Library Entry 11059
##JCAMP-DX=Revision 4.10 
##DATA TYPE=MASS SPECTRUM
##SAMPLE DESCRIPTION=NIST Mass Spectrometry Data Center, 2010
##NAMES=HP
##CAS NAME=(3E,5E)-2,6-Dimethylocta-3,5,7-trien-2-ol
##MOLFORM=C10H16O
##CAS REGISTRY NO=206115-88-0
##MP= -300
##BP= -300
##MW= 152
##$RETENTION INDEX=0
##$CONDENSED SPECTRUM=NO
##NPOINTS= 77
##XYDATA=(XY..XY) 1 
    27         80
    29         41
    30          4
    31         30
    38         17
    39        255
    40         40
    41        284
    43        999
    45         94
    50         43
    51        154
    52         48
    53        181
    54         25
    55        354
    56         19
    57         50
    58         22
    59        140
    60          7
    61         21
    62         26
    63         74
    65        212
    66         48
    67        436
    68        141
    69         79
    71         25
    72         93
    74         13
    75         13
    77        486
    78        137
    79        493
    80        108
    81        561
    82         51
    87          8
    89         20
    90          5
    91        716
    92        131
    93        352
    94        108
    95        241
    96         26
    97         28
    98         16
   102         10
   103         66
   104         45
   105        170
   106         47
   107        175
   108         46
   109        738
   110         74
   115         63
   116         11
   117        117
   118         24
   119        515
   120         62
   121        111
   122         38
   123        118
   125          6
   133         23
   134        249
   135         39
   136         23
   137        196
   138         19
   152        347
   153         40