##TITLE=Library Entry 30542
##JCAMP-DX=Revision 4.10 
##DATA TYPE=MASS SPECTRUM
##SAMPLE DESCRIPTION=ASES Database, Dalian Institute, P.R. China
##NAMES=HP
##CAS NAME=Propanoic acid, 2,2,3,3-tetrachloro-, methyl ester
##MOLFORM=C4H4Cl4O2
##CAS REGISTRY NO=20618-05-7
##MP= -300
##BP= -300
##MW= 224
##$RETENTION INDEX=1156
##$CONDENSED SPECTRUM=NO
##NPOINTS= 42
##XYDATA=(XY..XY) 1 
    49         23
    53         23
    59        999
    60        115
    61         30
    62         52
    63         69
    83        175
    84         30
    85        114
    87         37
    94         15
    95        191
    96         22
    97        122
    99         23
   119        114
   121         62
   123        153
   125        106
   127         37
   129         62
   130        843
   131         76
   132        817
   133         38
   134        260
   136         37
   141         98
   143         77
   145         22
   154         53
   156         37
   158         22
   165        154
   166         23
   167        200
   168         23
   169        107
   171         30
   189         23
   191         22