##TITLE=Library Entry 62745
##JCAMP-DX=Revision 4.10 
##DATA TYPE=MASS SPECTRUM
##SAMPLE DESCRIPTION=L.N.Kulikova, V.G. Zaikin, Peoples' Friendship Universi
ty of Russia, Moscow
##NAMES=HP
##CAS NAME=Benzenepentanoic acid, methyl ester
##MOLFORM=C12H16O2
##CAS REGISTRY NO=20620-59-1
##MP= -300
##BP= -300
##MW= 192
##$RETENTION INDEX=0
##$CONDENSED SPECTRUM=NO
##NPOINTS= 76
##XYDATA=(XY..XY) 1 
    26          3
    27         22
    28          8
    29         20
    30          1
    31          4
    38          1
    39         39
    40          3
    41         33
    42         15
    43         48
    45          1
    50          6
    51         30
    52          8
    53          9
    54          2
    55         25
    56          2
    57         20
    58          1
    59         95
    60          2
    61          1
    62          1
    63         14
    64          6
    65        117
    66          8
    67          1
    74        255
    75         18
    76          4
    77         68
    78         56
    79         29
    80         11
    87        109
    88         26
    89         20
    90         12
    91        999
    92        137
    93          7
   100          1
   101         52
   102         10
   103         47
   104        430
   105        107
   106          8
   115         20
   116          9
   117        148
   118         69
   119         16
   127          2
   128          9
   129         31
   130          6
   131         18
   132        109
   133         20
   134          1
   135          1
   141          1
   142         36
   143          7
   145          4
   159          6
   160        678
   161        249
   162          9
   192         60
   193          8