##TITLE=Library Entry 77040
##JCAMP-DX=Revision 4.10 
##DATA TYPE=MASS SPECTRUM
##SAMPLE DESCRIPTION=LAC, NIDDK, NIH, Bethesda, MD 20892
##NAMES=HP
##CAS NAME=n-Butyl-.beta.-phenylpropionate
##MOLFORM=C13H18O2
##CAS REGISTRY NO=20627-49-0
##MP= -300
##BP= -300
##MW= 206
##$RETENTION INDEX=0
##$CONDENSED SPECTRUM=NO
##NPOINTS= 89
##XYDATA=(XY..XY) 1 
    41        211
    42         35
    43         58
    44         16
    45         62
    46          1
    49          2
    50         48
    51        147
    52         38
    53         24
    54          3
    55         41
    56         21
    57         93
    58          2
    59         11
    60          1
    61          3
    62         12
    63         45
    64         12
    65        124
    66         13
    69          1
    71          2
    72         18
    73         12
    74         13
    75         13
    76         19
    77        228
    78        175
    79        147
    80          9
    85          0
    86          2
    87          2
    88          0
    89         30
    90         22
    91        927
    92         82
    93          4
    94          1
    95          0
    97          1
    98          1
    99          2
   101          4
   102         20
   103        137
   104        999
   105        374
   106         32
   107          2
   115          2
   117          3
   118          1
   119          1
   120          1
   121          1
   130          2
   131         19
   132         19
   133        112
   134         12
   135          2
   145          2
   146          5
   147          5
   148          3
   149         22
   150        228
   151         25
   152          2
   154          5
   162          3
   163          3
   164          2
   172          1
   174          1
   175          0
   176          3
   177          8
   178          0
   206        185
   207         33
   208          3