##TITLE=Library Entry 90253
##JCAMP-DX=Revision 4.10 
##DATA TYPE=MASS SPECTRUM
##SAMPLE DESCRIPTION=Dennis Rohrbaugh, CBDCOM/ERDEC, Edgewood, MD
##NAMES=HP
##CAS NAME=O-Isobutyl methylphosphonothiolate
##MOLFORM=C5H13O2PS
##CAS REGISTRY NO=20626-99-7
##MP= -300
##BP= -300
##MW= 168
##$RETENTION INDEX=0
##$CONDENSED SPECTRUM=NO
##NPOINTS= 18
##XYDATA=(XY..XY) 1 
    63        119
    65         80
    77        140
    78         33
    79        449
    80         70
    81         48
    94         30
    95        534
    96         73
    97        128
   111         19
   112        190
   113        999
   114         30
   115         50
   168         43
   169          5