##TITLE=Library Entry 930
##JCAMP-DX=Revision 4.10 
##DATA TYPE=MASS SPECTRUM
##SAMPLE DESCRIPTION=Chuck Anderson, Aldrich Chemical Co.
##NAMES=HP
##CAS NAME=S-(-)-2-Methylbutylamine
##MOLFORM=C5H13N
##CAS REGISTRY NO=20626-52-2
##MP= -300
##BP= -300
##MW= 87
##$RETENTION INDEX=0
##$CONDENSED SPECTRUM=NO
##NPOINTS= 41
##XYDATA=(XY..XY) 1 
    15          3
    17          0
    18         10
    26          5
    27         39
    28         55
    29         48
    30        999
    31         26
    32         25
    33          0
    37          1
    38          3
    39         34
    40          5
    41         63
    42         17
    43         11
    44         17
    45          0
    49          0
    50          2
    51          2
    52          1
    53          3
    54          4
    55         13
    56         17
    57          6
    58         16
    59          1
    65          0
    67          0
    68          0
    69          4
    70         10
    71          0
    72          1
    86          1
    87         47
    88          4