##TITLE=Library Entry 41018
##JCAMP-DX=Revision 4.10 
##DATA TYPE=MASS SPECTRUM
##SAMPLE DESCRIPTION=H.FR.GRUTZMACHER UNIV. OF HAMBURG, W.GERMANY
##NAMES=HP
##CAS NAME=Pentane, 1,2,3-trimethoxy-
##MOLFORM=C8H18O3
##CAS REGISTRY NO=20637-28-9
##MP= -300
##BP= -300
##MW= 162
##$RETENTION INDEX=0
##$CONDENSED SPECTRUM=NO
##NPOINTS= 39
##XYDATA=(XY..XY) 1 
    39         35
    41        193
    42         31
    43         88
    45        417
    46         10
    47         24
    53         71
    54          6
    55         47
    56         11
    57         43
    58        500
    59        187
    60          8
    64          8
    67         17
    68          5
    69          7
    70          5
    71         63
    72        242
    73        999
    74         57
    75        112
    85        134
    86         14
    87         13
    88         36
    89         80
    97          5
    98          7
    99         17
   101         67
   102          7
   103        274
   104         16
   117         46
   133         29