##TITLE=Library Entry 17492
##JCAMP-DX=Revision 4.10 
##DATA TYPE=MASS SPECTRUM
##SAMPLE DESCRIPTION=Chemical Concepts
##NAMES=HP
##CAS NAME=Butane, 1,2,4-trimethoxy-
##MOLFORM=C7H16O3
##CAS REGISTRY NO=20637-48-3
##MP= -300
##BP= -300
##MW= 148
##$RETENTION INDEX=0
##$CONDENSED SPECTRUM=NO
##NPOINTS= 42
##XYDATA=(XY..XY) 1 
    26          0
    27         23
    29         47
    30          4
    31         32
    33          6
    39         14
    40          0
    41         41
    42          6
    43         29
    45        999
    46         21
    47          7
    53          7
    54          1
    55         14
    56          3
    57          4
    58         25
    59         42
    60          2
    69          3
    71         97
    72         10
    73         57
    74          4
    75         14
    76          0
    84          5
    85         11
    86          1
    88          2
    89         13
    90          1
   101          2
   102          5
   103        155
   104          8
   105          0
   116         18
   117          0