##TITLE=Library Entry 44861
##JCAMP-DX=Revision 4.10 
##DATA TYPE=MASS SPECTRUM
##SAMPLE DESCRIPTION=Exported from NIST MS Search
##NAMES=HP
##CAS NAME=Butyric acid, 4-(p-fluorophenyl)-, methyl ester
##MOLFORM=C11H13FO2
##CAS REGISTRY NO=20637-05-2
##MP= -300
##BP= -300
##MW= 196
##$RETENTION INDEX=0
##$CONDENSED SPECTRUM=NO
##NPOINTS= 33
##XYDATA=(XY..XY) 1 
    55          2
    56          2
    59          3
    74        999
    75         36
    76          2
    85          4
    87          5
    96          6
   103          2
   109        225
   110         20
   115          2
   117          2
   118          3
   122        708
   123        197
   124         16
   125          2
   131          3
   133          2
   134          2
   135         92
   136         23
   137          4
   164        264
   165        274
   166         28
   194         62
   195          6
   196        423
   197         52
   198          2