##TITLE=Library Entry 83157
##JCAMP-DX=Revision 4.10 
##DATA TYPE=MASS SPECTRUM
##SAMPLE DESCRIPTION=Exported from NIST MS Search
##NAMES=HP
##CAS NAME=Benzenebutanoic acid, 4-amino-, methyl ester
##MOLFORM=C11H15NO2
##CAS REGISTRY NO=20637-09-6
##MP= -300
##BP= -300
##MW= 193
##$RETENTION INDEX=0
##$CONDENSED SPECTRUM=NO
##NPOINTS= 27
##XYDATA=(XY..XY) 1 
    74          4
    85          1
    86         10
    87          2
    93          6
   100          2
   101          2
   105          1
   106        999
   107        100
   108          3
   118          7
   119        321
   120         54
   121          3
   131          2
   132         18
   133         18
   134         16
   135          1
   144          2
   162        100
   163         12
   192          1
   193        579
   194         84
   195          5