##TITLE=Library Entry 5561
##JCAMP-DX=Revision 4.10 
##DATA TYPE=MASS SPECTRUM
##SAMPLE DESCRIPTION=MINISTRY OF TECH. E.R.D.E., WALTHAM ABBEY, UK
##NAMES=HP
##CAS NAME=Nitric acid, hexyl ester
##MOLFORM=C6H13NO3
##CAS REGISTRY NO=20633-11-8
##MP= -300
##BP= -300
##MW= 147
##$RETENTION INDEX=1043
##$CONDENSED SPECTRUM=NO
##NPOINTS= 44
##XYDATA=(XY..XY) 1 
    12          4
    13          6
    14          5
    15         28
    26         19
    27        192
    28         80
    29        308
    30         72
    31         51
    39         98
    40         18
    41        293
    42        114
    43        999
    44         49
    45          9
    46        243
    47          1
    52          4
    53          8
    54         11
    55         72
    56         89
    57        100
    58         21
    59          3
    64          2
    65          3
    66          2
    67         29
    68          5
    69         32
    70         13
    71        101
    72          4
    73          2
    76        203
    77          3
    81          8
    82          4
    83         29
    84         21
    85         54