##TITLE=Library Entry 73126
##JCAMP-DX=Revision 4.10 
##DATA TYPE=MASS SPECTRUM
##SAMPLE DESCRIPTION=AIR PRODUCTS & CHEMICALS, INC BOX 538, ALLENTOWN, PA 18
105, D M PAREES
##NAMES=HP
##CAS NAME=Di-N-propylethylamine
##MOLFORM=C8H19N
##CAS REGISTRY NO=20634-92-8
##MP= -300
##BP= -300
##MW= 129
##$RETENTION INDEX=836
##$CONDENSED SPECTRUM=NO
##NPOINTS= 37
##XYDATA=(XY..XY) 1 
    27         48
    29         32
    30         78
    39         19
    40          3
    41         71
    42         60
    43         76
    44         77
    54          7
    55          5
    56         32
    57         11
    58        228
    59         10
    68          4
    70         14
    71          8
    72         93
    73          6
    82          2
    84         22
    85          4
    86         30
    87          3
    98         17
    99          3
   100        999
   101         77
   102          3
   112          2
   114         52
   115          5
   127          3
   128         18
   129        124
   130         13