##TITLE=Library Entry 7669
##JCAMP-DX=Revision 4.10 
##DATA TYPE=MASS SPECTRUM
##SAMPLE DESCRIPTION=Exported from NIST MS Search
##NAMES=HP
##CAS NAME=3,4-Hexanedione, 2,2,5-trimethyl-
##MOLFORM=C9H16O2
##CAS REGISTRY NO=20633-03-8
##MP= -300
##BP= -300
##MW= 156
##$RETENTION INDEX=0
##$CONDENSED SPECTRUM=NO
##NPOINTS= 21
##XYDATA=(XY..XY) 1 
    26         23
    27        157
    28         30
    29        171
    39         93
    40         18
    41        281
    42         56
    43        999
    44         51
    45         18
    55         14
    56         28
    57        586
    58         37
    70         16
    71        211
    72         16
    85         84
    86         16
   156         32