##TITLE=Library Entry 58946
##JCAMP-DX=Revision 4.10 
##DATA TYPE=MASS SPECTRUM
##SAMPLE DESCRIPTION=Exported from NIST MS Search
##NAMES=HP
##CAS NAME=Acetoacetic acid, 3-thio-, benzyl ester
##MOLFORM=C11H12O2S
##CAS REGISTRY NO=20632-90-0
##MP= -300
##BP= -300
##MW= 208
##$RETENTION INDEX=0
##$CONDENSED SPECTRUM=NO
##NPOINTS= 65
##XYDATA=(XY..XY) 1 
    26         50
    27        183
    28         93
    29         83
    31         66
    32        126
    33         83
    34        200
    37         33
    38         66
    39        673
    40        116
    41        126
    42         16
    43         83
    44        100
    45        250
    46         33
    47         26
    49         33
    50        166
    51        350
    52        100
    53        100
    57         90
    58         86
    59        186
    60         66
    61         33
    62         40
    63         93
    64         26
    65        193
    66         16
    67         66
    68         16
    69         90
    71        200
    72        133
    73         40
    74         83
    75         33
    76         16
    77        499
    78        116
    79        466
    80         66
    85         83
    89         50
    90         60
    91        999
    92         83
   100        400
   101         73
   105         50
   107        499
   108        616
   109         50
   117         66
   140         16
   174         30
   190         16
   208         53
   209         10
   210         10