##TITLE=Library Entry 37092
##JCAMP-DX=Revision 4.10 
##DATA TYPE=MASS SPECTRUM
##SAMPLE DESCRIPTION=Exported from NIST MS Search
##NAMES=HP
##CAS NAME=1,2-Cyclopentanedione, 3,3,5,5-tetramethyl-
##MOLFORM=C9H14O2
##CAS REGISTRY NO=20633-06-1
##MP= -300
##BP= -300
##MW= 154
##$RETENTION INDEX=0
##$CONDENSED SPECTRUM=NO
##NPOINTS= 27
##XYDATA=(XY..XY) 1 
    26         30
    27        191
    28         16
    29         70
    38         28
    39        210
    40         46
    41        322
    42        457
    43         28
    53         39
    54         14
    55        172
    56         37
    68          9
    69         30
    70        999
    71         65
    72         18
    82         16
    83        140
    84         23
    98         16
   126         56
   127         16
   154        144
   155         18