##TITLE=Library Entry 49223
##JCAMP-DX=Revision 4.10 
##DATA TYPE=MASS SPECTRUM
##SAMPLE DESCRIPTION=RH-2
##NAMES=HP
##CAS NAME=Bicyclo[2.2.2]octane, 1-chloro-
##MOLFORM=C8H13Cl
##CAS REGISTRY NO=2064-03-1
##MP= -300
##BP= -300
##MW= 144
##$RETENTION INDEX=0
##$CONDENSED SPECTRUM=NO
##NPOINTS= 80
##XYDATA=(XY..XY) 1 
    14          5
    15         39
    26         59
    27        285
    28        116
    29         73
    30          1
    35          2
    36          1
    37         26
    38         56
    39        470
    40         72
    41        298
    42         24
    43         16
    49         42
    50         96
    51        200
    52         86
    53        280
    54        115
    55        117
    56         34
    57         12
    58         16
    61         26
    62         26
    63         65
    64         14
    65        155
    66         64
    67        380
    68         79
    69         73
    70          8
    73         20
    74         24
    75         74
    76         20
    77        333
    78        372
    79        999
    80        239
    81        340
    82         63
    83         10
    87          8
    88        274
    89         39
    90         94
    91         99
    92         20
    93        241
    94         26
    95         76
    96          6
    99          6
   100          8
   101         88
   102         30
   103         34
   104         10
   105         14
   106         10
   107         51
   108        617
   109        641
   110         59
   114          7
   115         94
   116         16
   117         28
   118          4
   129          8
   131          3
   144        399
   145         39
   146        130
   147         12