##TITLE=Library Entry 5349
##JCAMP-DX=Revision 4.10 
##DATA TYPE=MASS SPECTRUM
##SAMPLE DESCRIPTION=Asinex Ltd, Moscow, Russia
##NAMES=HP
##CAS NAME=1,2,5-Oxadiazolo[3,4-E]tetrazolo[1,5-a]pyrazine, 5-morpholino-
##MOLFORM=C8H8N8O2
##CAS REGISTRY NO=206446-61-9
##MP= -300
##BP= -300
##MW= 248
##$RETENTION INDEX=0
##$CONDENSED SPECTRUM=NO
##NPOINTS= 117
##XYDATA=(XY..XY) 1 
    33          0
    37          8
    38         84
    39        156
    40        200
    41        287
    42        999
    43        414
    44        136
    45        245
    46          1
    50          8
    51         63
    52        206
    53        424
    54        323
    55        364
    56        187
    57        150
    58         25
    60          6
    61          0
    62          0
    63          0
    64         19
    65         20
    66        200
    67        138
    68        377
    69         73
    70         41
    71         61
    72         30
    73         14
    76          5
    77         27
    78        354
    79        305
    80        204
    81         59
    82         41
    84         43
    85          4
    86          2
    90          0
    91          4
    92         37
    93        188
    94        665
    95         52
    96         21
    97         26
    98         17
    99          0
   104          4
   105         10
   106         40
   107         39
   108         20
   109          5
   110         13
   111         38
   112        129
   113         13
   118          9
   119        164
   120         39
   121         19
   122          0
   123          6
   124          2
   125          0
   126          0
   128          0
   129          0
   132        142
   133        105
   134         43
   135         12
   136         16
   137          5
   138        404
   139         19
   143          1
   145          0
   146        213
   147         16
   148          3
   149          3
   150         18
   151          0
   153          0
   159          0
   160        167
   161         18
   162         25
   163         26
   164          1
   165          0
   176          0
   177          1
   183          0
   188          2
   189          6
   190        781
   191         76
   192          0
   193          1
   203          0
   218          0
   220          3
   221          0
   233          0
   236          0
   247          0
   248        293
   249         35