##TITLE=Library Entry 18576
##JCAMP-DX=Revision 4.10 
##DATA TYPE=MASS SPECTRUM
##SAMPLE DESCRIPTION=A.A.Kutin, Moscow, Russia
##NAMES=HP
##CAS NAME=4H-2-Oxa-1,3,4,6,7,8,8a-heptaaza-as-indacen-5-one oxime
##MOLFORM=C4H2N8O2
##CAS REGISTRY NO=206446-62-0
##MP= -300
##BP= -300
##MW= 194
##$RETENTION INDEX=0
##$CONDENSED SPECTRUM=NO
##NPOINTS= 137
##XYDATA=(XY..XY) 1 
    33          5
    34          9
    35          4
    36         25
    38        292
    39        131
    40        213
    41        309
    42        183
    43        166
    44        376
    45         33
    46          3
    47          4
    48          1
    49          1
    50         27
    51         17
    52        226
    53        999
    54        276
    55         60
    56         25
    57         80
    58        122
    59         10
    60         12
    61          4
    62          2
    63          7
    64         70
    65         30
    66        175
    67        170
    68        546
    69        323
    70         31
    71         23
    72          8
    73         17
    74          6
    75          5
    76          8
    77         21
    78        392
    79         83
    80         25
    81         11
    82         10
    83         45
    84        232
    85         16
    86          4
    87          5
    88          3
    89          3
    90          5
    91         16
    92         26
    93        107
    94         41
    95         13
    96         10
    97         13
    98          9
    99          5
   100          2
   101          4
   102          2
   103          1
   104          4
   105         30
   106         99
   107          9
   108          5
   109         34
   110         12
   111         14
   112         12
   113         21
   114          4
   115          1
   116          0
   117          3
   118          5
   119         10
   120         41
   121         23
   122          7
   123          5
   124          3
   125          2
   126          3
   127          6
   128         12
   129          4
   130          2
   131          1
   132          2
   133          6
   134          5
   136        539
   137         36
   138         26
   139          4
   140          0
   141          0
   142          0
   143          1
   144          4
   145          2
   146          1
   148          0
   149          6
   150          1
   151          1
   152          2
   153          4
   154         11
   155          0
   157          0
   161          0
   165          2
   166          7
   167          4
   168         25
   169          5
   170          0
   171          5
   175          1
   178         23
   179         17
   180          1
   192          9
   194        651
   195         44
   196          5