##TITLE=Library Entry 97418
##JCAMP-DX=Revision 4.10 
##DATA TYPE=MASS SPECTRUM
##SAMPLE DESCRIPTION=Institute of Organic Chemistry, USSR, 1990
##NAMES=HP
##CAS NAME=4-Butylbenzonitrile
##MOLFORM=C11H13N
##CAS REGISTRY NO=20651-73-4
##MP= -300
##BP= -300
##MW= 159
##$RETENTION INDEX=0
##$CONDENSED SPECTRUM=NO
##NPOINTS= 40
##XYDATA=(XY..XY) 1 
    40         10
    41        116
    42          9
    43        144
    44          6
    50         11
    51         26
    52         13
    56         13
    62         13
    63         36
    64         13
    65         15
    75         29
    76         17
    77         32
    78          9
    88         13
    89        155
    90         90
    91         17
   101         12
   102         36
   103         67
   104         33
   114          8
   115         12
   116        436
   117        999
   118         91
   127          7
   128         12
   129         20
   130         49
   131          5
   140          5
   142          8
   144          7
   159        336
   160         45