##TITLE=Library Entry 99292
##JCAMP-DX=Revision 4.10 
##DATA TYPE=MASS SPECTRUM
##SAMPLE DESCRIPTION=NIST Mass Spectrometry Data Center, 1994
##NAMES=HP
##CAS NAME=3,4-Dimethylbenzyl isothiocyanate
##MOLFORM=C10H11NS
##CAS REGISTRY NO=206559-59-3
##MP= -300
##BP= -300
##MW= 177
##$RETENTION INDEX=0
##$CONDENSED SPECTRUM=NO
##NPOINTS= 83
##XYDATA=(XY..XY) 1 
     4          1
    14          0
    15          7
    26          4
    27         36
    28         18
    29          4
    32          5
    37          2
    38         14
    39         90
    40         12
    41         69
    42          2
    44          5
    45         14
    49          2
    50         35
    51         82
    52         24
    53         29
    54          3
    58         22
    59          9
    60          2
    61          5
    62         16
    63         44
    64         12
    65         55
    66          7
    67          5
    69          2
    70          3
    72         13
    73          3
    74         13
    75         17
    76         14
    77        109
    78         47
    79         36
    80          6
    81          5
    82          2
    86          4
    88         26
    89         23
    91        213
    92         19
    93         18
    94          2
   101          4
   102         18
   103         64
   104         52
   105         20
   106          2
   115         55
   116         18
   117         77
   118         76
   119        999
   120         93
   121          7
   128          2
   129          1
   130         14
   131          2
   132          2
   134          4
   135          4
   142          1
   144          2
   145          8
   146          2
   147          2
   148          5
   149          4
   162          7
   177        106
   178         16
   179          5