##TITLE=Library Entry 59907
##JCAMP-DX=Revision 4.10 
##DATA TYPE=MASS SPECTRUM
##SAMPLE DESCRIPTION=NIST Mass Spectrometry Data Center, 1994
##NAMES=HP
##CAS NAME=3-Benzyloxyphenyl isothiocyanate
##MOLFORM=C14H11NOS
##CAS REGISTRY NO=206559-36-6
##MP= -300
##BP= -300
##MW= 241
##$RETENTION INDEX=0
##$CONDENSED SPECTRUM=NO
##NPOINTS= 84
##XYDATA=(XY..XY) 1 
    14          0
    18          1
    26          3
    27          8
    28          2
    29          1
    32          2
    37          5
    38         25
    39         80
    40          6
    41         16
    42          0
    44          3
    45         10
    46          0
    50         23
    51         43
    52         10
    53          3
    57          1
    58          1
    59          1
    60          0
    61          4
    62         16
    63         68
    64         32
    65        161
    66         11
    67          0
    69          5
    70          6
    71          1
    72          3
    73          0
    74          5
    75          7
    76          8
    77         13
    78         13
    79          1
    81          1
    82          2
    83          3
    84          1
    85          0
    86          1
    87          1
    89         23
    91        999
    92         80
    93          4
    94          1
    95          7
    96          7
    97          0
   102          0
   105          2
   107          2
   108          0
   115          1
   120          1
   121          3
   122         35
   123          2
   124          1
   127          0
   128          0
   133          1
   134          3
   135          0
   150          1
   151          1
   152          2
   153          2
   154          1
   178          0
   181          1
   183          1
   209          3
   241         82
   242         14
   243          5