##TITLE=Library Entry 20759
##JCAMP-DX=Revision 4.10 
##DATA TYPE=MASS SPECTRUM
##SAMPLE DESCRIPTION=Exported from NIST MS Search
##NAMES=HP
##CAS NAME=2,3-Octanediol
##MOLFORM=C8H18O2
##CAS REGISTRY NO=20653-90-1
##MP= -300
##BP= -300
##MW= 146
##$RETENTION INDEX=1613
##$CONDENSED SPECTRUM=NO
##NPOINTS= 95
##XYDATA=(XY..XY) 1 
    14          1
    15         12
    16          1
    17          4
    18         17
    19         24
    26          4
    27        273
    28         32
    29        168
    30          7
    31         54
    32          2
    33          1
    38          2
    39         44
    40          8
    41        244
    42         39
    43        251
    44         57
    45        280
    46         10
    47         12
    50          1
    51          3
    52          1
    53         13
    54          7
    55        999
    56         93
    57        229
    58         37
    59         38
    60          7
    61         27
    62          1
    63          2
    65          2
    66          1
    67         19
    68         10
    69         90
    70         13
    71         42
    72         15
    73         11
    74          6
    75        104
    76          4
    77          2
    79          2
    81         13
    82         61
    83        827
    84         66
    85         16
    86          5
    87          7
    88          2
    89          3
    90          1
    91          1
    93          1
    95         17
    96          5
    97        133
    98         11
    99          9
   100        149
   101        268
   102         20
   103          3
   105          1
   109          4
   110          2
   111          9
   112          3
   113          2
   114          4
   115         52
   116          5
   117          3
   123          1
   125          2
   127          1
   128          1
   129          8
   130          1
   131         10
   132          1
   139          1
   143          1
   144          1
   145          2