##TITLE=Library Entry 69748
##JCAMP-DX=Revision 4.10 
##DATA TYPE=MASS SPECTRUM
##SAMPLE DESCRIPTION=Exported from NIST MS Search
##NAMES=HP
##CAS NAME=Oxazole, 4,5-dimethyl-
##MOLFORM=C5H7NO
##CAS REGISTRY NO=20662-83-3
##MP= -300
##BP= -300
##MW= 97
##$RETENTION INDEX=760
##$CONDENSED SPECTRUM=NO
##NPOINTS= 30
##XYDATA=(XY..XY) 1 
    15        107
    26        118
    27        246
    28        252
    29         60
    37         24
    38         24
    39         86
    40         58
    41        214
    42        261
    43        829
    44        137
    45         32
    46         18
    50         18
    51         32
    52         65
    53         50
    54        398
    55        688
    56         43
    68         86
    69        101
    70        107
    82        103
    95         11
    96        120
    97        999
    98         65