##TITLE=Library Entry 86992
##JCAMP-DX=Revision 4.10 
##DATA TYPE=MASS SPECTRUM
##SAMPLE DESCRIPTION=Exported from NIST MS Search
##NAMES=HP
##CAS NAME=Oxazole, 5-hexyl-2,4-dimethyl-
##MOLFORM=C11H19NO
##CAS REGISTRY NO=20662-85-5
##MP= -300
##BP= -300
##MW= 181
##$RETENTION INDEX=0
##$CONDENSED SPECTRUM=NO
##NPOINTS= 39
##XYDATA=(XY..XY) 1 
    28        142
    29         43
    30        110
    39         80
    40         18
    41        185
    42        258
    43        373
    44         22
    53         22
    54         22
    55         91
    56         22
    57         22
    60         41
    67         22
    68         65
    69        103
    70         43
    80         43
    81         11
    82         22
    83         22
    95         22
    96         43
   106         22
   107         43
   110        999
   111        273
   112         41
   122         22
   124         50
   125         22
   138         22
   139         22
   152         22
   166         18
   181        108
   182         33