##TITLE=Library Entry 55560
##JCAMP-DX=Revision 4.10 
##DATA TYPE=MASS SPECTRUM
##SAMPLE DESCRIPTION=TNO Volatile Compounds in Food - Chemical Concepts
##NAMES=HP
##CAS NAME=Benzene, (1,3-butadienylthio)-, (Z)-
##MOLFORM=C10H10S
##CAS REGISTRY NO=20664-21-5
##MP= -300
##BP= -300
##MW= 162
##$RETENTION INDEX=0
##$CONDENSED SPECTRUM=NO
##NPOINTS= 92
##XYDATA=(XY..XY) 1 
    26         17
    27        188
    28          2
    33          0
    34          0
    37          8
    38         23
    39        138
    41         39
    42          1
    44          0
    45        195
    46          4
    47          8
    49          5
    50         78
    51        215
    52         35
    53         95
    54          4
    57         12
    58         53
    59         20
    60          2
    61          4
    62          9
    63         25
    64          5
    65         89
    66         55
    67          8
    69         62
    70          5
    71         25
    73          3
    74         17
    75         13
    76          9
    77        101
    78         68
    79          9
    80          3
    81         15
    82         17
    83         11
    84        217
    85        999
    86         59
    87         43
    88          2
    89         11
    90          4
    91         48
    92          4
    93          2
    95          2
    97          2
   101          1
   102         10
   103         11
   104          1
   108         15
   109         50
   110         29
   111          3
   112          1
   115         51
   116         14
   117         36
   118          3
   121         54
   122          4
   123          2
   126          2
   127         33
   128        141
   129        276
   130         32
   131          1
   133          1
   134         21
   135         24
   136          3
   147         28
   148          3
   149          1
   159          2
   160          5
   161        107
   162        493
   163         63
   164         25