##TITLE=Library Entry 93712
##JCAMP-DX=Revision 4.10 
##DATA TYPE=MASS SPECTRUM
##SAMPLE DESCRIPTION=A.A.Kutin, Moscow, Russia
##NAMES=HP
##CAS NAME=Benzo[d]perhydroazepin-2-one, 4,4-dimethyl-2-methylene-
##MOLFORM=C13H15NO
##CAS REGISTRY NO=206663-86-7
##MP= -300
##BP= -300
##MW= 201
##$RETENTION INDEX=0
##$CONDENSED SPECTRUM=NO
##NPOINTS= 72
##XYDATA=(XY..XY) 1 
    33         76
    34         32
    36          4
    37          5
    38         44
    39        214
    40         91
    41        152
    42        261
    43         77
    44        457
    45         22
    50         74
    51        124
    52         35
    53         20
    55         28
    56         33
    57        131
    58        380
    59         17
    62         49
    63        113
    64         49
    65         86
    69         71
    70         18
    74         28
    75         51
    76         42
    77        118
    78         42
    79         17
    81          6
    85         26
    87         16
    88         34
    89        125
    90         34
    91        125
    92         42
    93         33
    97          7
   101          5
   102         33
   103         29
   104         18
   105         52
   106         13
   107          8
   113         18
   115        999
   116        845
   117        160
   118         39
   119         21
   127         55
   128         93
   129         40
   130         23
   132          6
   141         35
   143        231
   144        659
   145         83
   146         14
   156          7
   157          6
   158         60
   186         64
   201        113
   202          4