##TITLE=Library Entry 12582
##JCAMP-DX=Revision 4.10 
##DATA TYPE=MASS SPECTRUM
##SAMPLE DESCRIPTION=Chuck Anderson, Aldrich Chemical Co.
##NAMES=HP
##CAS NAME=Propanoic acid, 2-methyl-, 4-formyl-2-methoxyphenyl ester
##MOLFORM=C12H14O4
##CAS REGISTRY NO=20665-85-4
##MP= -300
##BP= -300
##MW= 222
##$RETENTION INDEX=0
##$CONDENSED SPECTRUM=NO
##NPOINTS= 62
##XYDATA=(XY..XY) 1 
    15         15
    17          2
    18          1
    26         13
    27        103
    28         45
    29         17
    31          6
    37          1
    38         11
    39         56
    40          8
    41        137
    42         25
    43        999
    44         34
    50         17
    51         59
    52         43
    53         24
    55         21
    62          8
    63         24
    64          4
    65         48
    66          5
    67         13
    69          6
    70        136
    71        505
    72         22
    75          4
    76          2
    77         47
    78          1
    79         68
    80         29
    81         41
    91         10
    92         11
    93         13
    95         38
   105         16
   107          1
   108         19
   109         46
   110          3
   119         24
   120          8
   121         10
   122         12
   123         59
   124         11
   137         21
   149          4
   151        368
   152        530
   153        112
   154          9
   194         19
   222         75
   223          8