##TITLE=Library Entry 87957
##JCAMP-DX=Revision 4.10 
##DATA TYPE=MASS SPECTRUM
##SAMPLE DESCRIPTION=Exported from NIST MS Search
##NAMES=HP
##CAS NAME=Oxazole, 4-hexyl-2,5-dimethyl-
##MOLFORM=C11H19NO
##CAS REGISTRY NO=20662-86-6
##MP= -300
##BP= -300
##MW= 181
##$RETENTION INDEX=0
##$CONDENSED SPECTRUM=NO
##NPOINTS= 29
##XYDATA=(XY..XY) 1 
    28         13
    30         13
    39         25
    41         61
    42        198
    43        628
    44         25
    55         25
    68         25
    69         97
    70         32
    80         22
    81         15
    82         15
    95         13
    96         13
   106         13
   110        527
   111        999
   112         73
   122         13
   123         13
   124         73
   125         13
   138         25
   152         17
   166         17
   181         49
   182         13