##TITLE=Library Entry 37786
##JCAMP-DX=Revision 4.10 
##DATA TYPE=MASS SPECTRUM
##SAMPLE DESCRIPTION=Organic Synthesis Lab, MSU, Moscow.TRC 700
##NAMES=HP
##CAS NAME=Acetic acid, bromo-, 2-butene-1,4-diyl ester
##MOLFORM=C8H10Br2O4
##CAS REGISTRY NO=20679-58-7
##MP= -300
##BP= -300
##MW= 328
##$RETENTION INDEX=0
##$CONDENSED SPECTRUM=NO
##NPOINTS= 78
##XYDATA=(XY..XY) 1 
    26         11
    27         93
    29         80
    30          4
    31         56
    37          2
    38          9
    39        130
    40         31
    41        163
    42        250
    43        133
    44         22
    45         24
    50          4
    51          9
    52          8
    53         62
    54         50
    55         29
    56          1
    57         54
    58         10
    59          4
    60          2
    67          4
    68          9
    69         95
    70        999
    71        112
    72          5
    79          8
    80          7
    81         21
    82         10
    83         13
    84          2
    85          3
    86          2
    87          3
    91          3
    92          5
    93        122
    94         40
    95        119
    96         39
    97          3
    98          1
    99          9
   111         34
   112          5
   113          1
   120         12
   121        366
   122         15
   123        354
   124          8
   133          1
   135          2
   138         19
   139         41
   140         21
   141         39
   151          2
   153          2
   165          3
   167          3
   177         15
   178          3
   179         16
   180          4
   181          1
   190         33
   191         27
   192         33
   193         30
   194          2
   260          1