##TITLE=Library Entry 6219
##JCAMP-DX=Revision 4.10 
##DATA TYPE=MASS SPECTRUM
##SAMPLE DESCRIPTION=NIST Mass Spectrometry Data Center, 1994
##NAMES=HP
##CAS NAME=3-Methylhexyl isothiocyanate
##MOLFORM=C8H15NS
##CAS REGISTRY NO=206761-72-0
##MP= -300
##BP= -300
##MW= 157
##$RETENTION INDEX=0
##$CONDENSED SPECTRUM=NO
##NPOINTS= 92
##XYDATA=(XY..XY) 1 
    14          8
    15         30
    26         43
    27        522
    28        161
    29        442
    30         65
    31          8
    32         30
    36          5
    37          5
    39        382
    40         84
    41        909
    42        160
    43        999
    44         65
    45         93
    46         12
    47          7
    50         15
    51         34
    52         17
    53         81
    54         45
    55        563
    56        200
    57        411
    58         54
    59         73
    60         75
    61          8
    62          9
    63          6
    64          4
    65         12
    66          5
    67         28
    68         36
    69        180
    70        151
    71         85
    72        666
    73         73
    74         66
    75         30
    76          6
    77          7
    78          6
    79         11
    80          7
    81         48
    82         65
    83         55
    84         22
    85         31
    86         48
    87         25
    88         17
    89          4
    94          7
    95         14
    96         31
    97         26
    98         14
    99         17
   100        110
   101         34
   102         10
   107         13
   108          7
   109          8
   110          7
   111          5
   112          4
   113          4
   114        537
   115        216
   116         35
   117          9
   124        174
   125         20
   128         59
   129        510
   130         44
   131         22
   142         55
   143          5
   144          4
   156         47
   157         44
   158          8