##TITLE=Library Entry 5305
##JCAMP-DX=Revision 4.10 
##DATA TYPE=MASS SPECTRUM
##SAMPLE DESCRIPTION=V.A.Korolev, Moscow, Russia
##NAMES=HP
##CAS NAME=2-Bromo-1-N,1-N,8-N,8-N-tetramethylnaphthalene-1,8-diamine
##MOLFORM=C14H17BrN2
##CAS REGISTRY NO=206761-13-9
##MP= -300
##BP= -300
##MW= 292
##$RETENTION INDEX=0
##$CONDENSED SPECTRUM=NO
##NPOINTS= 208
##XYDATA=(XY..XY) 1 
    34          1
    37          7
    38         30
    39        137
    40         66
    41        213
    42        999
    43        362
    44        634
    45        109
    46         26
    50         90
    51        144
    52         53
    53         23
    54         22
    55        136
    56         57
    57        201
    58        281
    59         12
    61         17
    62         87
    63        297
    64         83
    65         46
    66         32
    67         37
    68         31
    69        108
    70         78
    71        108
    74        150
    75        211
    76        191
    77        352
    79         29
    80         14
    81         44
    82         37
    84        161
    85        102
    86         75
    87        145
    88         89
    89         64
    90         51
    91        184
    93         13
    94          7
    95         33
    96         21
    97         71
    98        133
    99        160
   100         88
   101         97
   102         58
   103         28
   104         20
   105         30
   106         27
   108          4
   109         25
   110         25
   111         56
   112         49
   113        158
   114        159
   115        171
   116         40
   117         27
   118         10
   119         10
   120          4
   121          9
   122         23
   123         91
   124         96
   125        145
   126        839
   127        623
   128        193
   129         63
   131        327
   132        214
   134          3
   135          7
   136          6
   138        101
   139        290
   140        310
   141        138
   142         39
   143         18
   144         14
   145          7
   146         76
   147         79
   149         57
   150         13
   151         41
   152        134
   153        271
   154        485
   155        174
   156         39
   157         26
   158          5
   159          4
   160          2
   161          3
   163          5
   164         16
   165         34
   166        196
   167        511
   168        918
   169        489
   170        124
   171         30
   172         12
   173          4
   174          2
   176          2
   177          8
   178          6
   179         16
   180         30
   181        189
   182        179
   183         90
   184         29
   185          7
   186          3
   191          7
   192          6
   193         33
   194         10
   195         38
   196         32
   197         80
   198         49
   199         12
   200          3
   204          8
   205         42
   206         30
   207         40
   208         23
   209         10
   210         14
   211         33
   212         42
   213         89
   214         19
   217          5
   218         35
   219         29
   220         36
   221         25
   222         18
   223          6
   224          3
   225          5
   226          3
   227          2
   230          2
   231         12
   232         91
   233         74
   234         89
   235         64
   236         13
   237         13
   238          3
   241          3
   242          5
   244          3
   245         59
   246        460
   247        224
   248        639
   249        210
   250        212
   251         55
   252         16
   253          2
   259         17
   260        191
   261        343
   262        390
   263        362
   264        207
   265         47
   266          6
   276         18
   277        183
   278         41
   279        180
   280         40
   281          1
   291          7
   292        377
   293         67
   294        370
   295         66
   296          3