##TITLE=Library Entry 20431
##JCAMP-DX=Revision 4.10 
##DATA TYPE=MASS SPECTRUM
##SAMPLE DESCRIPTION=Japan AIST/NIMC Database- Spectrum MS-NW-6230
##NAMES=HP
##CAS NAME=Pentanoic acid, 5-bromo-
##MOLFORM=C5H9BrO2
##CAS REGISTRY NO=2067-33-6
##MP= -300
##BP= -300
##MW= 180
##$RETENTION INDEX=0
##$CONDENSED SPECTRUM=NO
##NPOINTS= 115
##XYDATA=(XY..XY) 1 
    12          1
    13          2
    14         13
    15         30
    16          2
    18          1
    24          1
    25          6
    26         86
    27        481
    28        228
    29        337
    30         18
    31         72
    32          8
    34          2
    35          1
    36          4
    37         14
    38         25
    39        238
    40         47
    41        593
    42        359
    43        264
    44         30
    45        150
    46          8
    47          7
    48          1
    49          6
    50         21
    51         23
    52          9
    53         60
    54         62
    55        999
    56        316
    57         64
    58         35
    59        305
    60         58
    61          3
    62          1
    63          1
    65          1
    66          1
    67          2
    68          5
    69          7
    70         51
    71         17
    72          6
    73        862
    74         82
    75          8
    76          1
    77          2
    78          1
    79         33
    80         90
    81         36
    82         91
    83        397
    84         24
    85          6
    86          1
    87         31
    88          2
    89          1
    90          1
    91          1
    92          1
    93         16
    94          2
    95         14
    96          2
    97          1
    98          1
    99          8
   100         97
   101        769
   102         46
   103          6
   105          3
   106          8
   107         45
   108          9
   109         40
   110          1
   119          4
   121          5
   122          1
   123          1
   128          1
   133          2
   134          4
   135          9
   136          4
   137          8
   139          1
   140          1
   151          5
   152         12
   153          6
   154         12
   155          1
   162          9
   163          8
   164          9
   165          7
   180         16
   181          1
   182         14
   183          2