##TITLE=Library Entry 23465
##JCAMP-DX=Revision 4.10 
##DATA TYPE=MASS SPECTRUM
##SAMPLE DESCRIPTION=NIST Mass Spectrometry Data Center, 1994
##NAMES=HP
##CAS NAME=3-Heptyl isothiocyanate
##MOLFORM=C8H15NS
##CAS REGISTRY NO=206761-66-2
##MP= -300
##BP= -300
##MW= 157
##$RETENTION INDEX=0
##$CONDENSED SPECTRUM=NO
##NPOINTS= 71
##XYDATA=(XY..XY) 1 
     4          1
    14          3
    15         12
    18          2
    26         17
    27        200
    28         48
    29        226
    30          7
    32         10
    37          2
    39        170
    41        612
    42         56
    43        327
    44         17
    45         16
    47          2
    50          6
    51         11
    52          8
    53         33
    54         20
    55        122
    56        121
    57        999
    58         73
    59         31
    60         28
    61          2
    62          2
    63          2
    64          1
    65          5
    67         11
    68         14
    69        140
    70         60
    71         30
    72        189
    73          9
    74         10
    78          2
    79          1
    82          3
    83         10
    84         10
    85         12
    86         35
    87          3
    88          2
    94          2
    95          2
    96          4
    97          4
    98         36
    99          2
   100         95
   101         11
   102          8
   114          6
   115          2
   124         58
   125          5
   128         94
   129         27
   130          6
   142         13
   157        124
   158         13
   159          6