##TITLE=Library Entry 23097
##JCAMP-DX=Revision 4.10 
##DATA TYPE=MASS SPECTRUM
##SAMPLE DESCRIPTION=D.D.FAULK CENTRAL MISSOURI STATE COLLEGE, WARRENSBURG,
 USA
##NAMES=HP
##CAS NAME=4-Hepten-3-one, 5-methyl-, (E)-
##MOLFORM=C8H14O
##CAS REGISTRY NO=20685-44-3
##MP= -300
##BP= -300
##MW= 126
##$RETENTION INDEX=0
##$CONDENSED SPECTRUM=NO
##NPOINTS= 101
##XYDATA=(XY..XY) 1 
    13          3
    14         32
    15         71
    16          6
    17          6
    18         21
    19          0
    24          1
    25          5
    26         67
    27        437
    28        195
    29        797
    30         19
    31          6
    32          2
    33          0
    34          0
    35          0
    36          2
    37         12
    38         34
    39        300
    40         57
    41        720
    42         66
    43        117
    44         26
    45          3
    46          0
    47          0
    49          5
    50         30
    51         55
    52         30
    53        114
    54         29
    55        125
    56         30
    57        999
    58         36
    59          3
    60          0
    61          3
    62          6
    63         13
    64          4
    65         24
    66         12
    67         54
    68         23
    69        165
    70         42
    71         12
    72          8
    73          2
    74          3
    75          5
    76          2
    77         54
    78         15
    79         32
    80          6
    81         23
    82          8
    83         12
    84          5
    85          2
    86          1
    87          0
    89          2
    90          1
    91         58
    92          8
    93         80
    94          7
    95         22
    96          8
    97        448
    98         30
    99          7
   100          0
   102          0
   103          2
   104          2
   105         12
   106          7
   107         10
   108         43
   109         41
   110         10
   111         13
   112          1
   115          2
   122          3
   123          5
   124         15
   125          2
   126        105
   127          9
   128          1