##TITLE=Library Entry 17232
##JCAMP-DX=Revision 4.10 
##DATA TYPE=MASS SPECTRUM
##SAMPLE DESCRIPTION=J.Little, Eastman Chem. Comp.,Kingsport
##NAMES=HP
##CAS NAME=Propane, 1-(1-ethoxyethoxy)-
##MOLFORM=C7H16O2
##CAS REGISTRY NO=20680-10-8
##MP= -300
##BP= -300
##MW= 132
##$RETENTION INDEX=821
##$CONDENSED SPECTRUM=NO
##NPOINTS= 24
##XYDATA=(XY..XY) 1 
    15         19
    27        114
    28         98
    29        114
    31         46
    39         26
    41         80
    43        310
    44         34
    45        999
    47        114
    58         14
    59          5
    61         26
    72          3
    73        608
    74         23
    75        112
    87        179
    88          7
    89          7
   103          7
   117        152
   118          7