##TITLE=Library Entry 7129
##JCAMP-DX=Revision 4.10 
##DATA TYPE=MASS SPECTRUM
##SAMPLE DESCRIPTION=D.D.FAULK CENTRAL MISSOURI STATE COLLEGE, WARRENSBURG,
 USA
##NAMES=HP
##CAS NAME=3-Hexen-2-one, 3,4-dimethyl-, (E)-
##MOLFORM=C8H14O
##CAS REGISTRY NO=20685-46-5
##MP= -300
##BP= -300
##MW= 126
##$RETENTION INDEX=0
##$CONDENSED SPECTRUM=NO
##NPOINTS= 110
##XYDATA=(XY..XY) 1 
    13          6
    14         51
    15        226
    16          8
    17          6
    18         22
    19          0
    24          1
    25          4
    26         51
    27        314
    28        100
    29        168
    30          5
    31          3
    32          1
    33          0
    35          0
    36          6
    37         11
    38         26
    39        258
    40         46
    41        478
    42         62
    43        999
    44         45
    45          6
    46          0
    47          0
    48          0
    49          4
    50         37
    51         67
    52         38
    53        120
    54         30
    55        761
    56         53
    57         35
    58          6
    59          1
    60          0
    61          3
    62          8
    63         16
    64          4
    65         29
    66         12
    67         90
    68         12
    69         67
    70          9
    71          6
    72         20
    73          2
    74          3
    75          2
    76          2
    77         47
    78         19
    79         26
    80          6
    81         34
    82         22
    83        374
    84         44
    85          4
    86          0
    87          0
    88          0
    89          2
    90          1
    91         47
    92          6
    93         68
    94          6
    95         14
    96          4
    97         17
    98          3
    99          1
   100          0
   102          1
   103          2
   104          1
   105          8
   106          5
   107          0
   108         43
   109         31
   110          9
   111        161
   112         12
   113          1
   114          0
   115          2
   116          1
   117          2
   118          0
   119          3
   120          1
   121          1
   122          2
   123         25
   124         23
   125          4
   126        106
   127          9
   128          1