##TITLE=Library Entry 23095
##JCAMP-DX=Revision 4.10 
##DATA TYPE=MASS SPECTRUM
##SAMPLE DESCRIPTION=D.D.FAULK CENTRAL MISSOURI STATE COLLEGE, WARRENSBURG,
 USA
##NAMES=HP
##CAS NAME=4-Hepten-3-one, 5-methyl-, (Z)-
##MOLFORM=C8H14O
##CAS REGISTRY NO=20685-43-2
##MP= -300
##BP= -300
##MW= 126
##$RETENTION INDEX=0
##$CONDENSED SPECTRUM=NO
##NPOINTS= 110
##XYDATA=(XY..XY) 1 
    13          5
    14         26
    15         72
    16          6
    17          8
    18         28
    19          0
    24          1
    25          7
    26         82
    27        427
    28        141
    29        784
    30         20
    31          6
    32          1
    33          0
    34          0
    35          0
    36          2
    37         13
    38         35
    39        295
    40         57
    41        705
    42         67
    43        119
    44         25
    45          2
    46          0
    47          0
    48          0
    49          4
    50         30
    51         57
    52         38
    53        123
    54         29
    55        118
    56         28
    57        999
    58         36
    59          3
    60          0
    61          3
    62          6
    63         12
    64          3
    65         22
    66         12
    67         51
    68         22
    69        159
    70         41
    71         10
    72          9
    73          2
    74          3
    75          5
    76          2
    77         47
    78         13
    79         29
    80          5
    81         21
    82          7
    83          9
    84          4
    85          1
    86          1
    87          0
    88          0
    89          2
    90          1
    91         48
    92          7
    93         68
    94          6
    95         20
    96          7
    97        461
    98         31
    99          6
   100          0
   102          0
   103          2
   104          1
   105         10
   106          5
   107          9
   108         37
   109         39
   110          9
   111         11
   112          1
   113          0
   115          1
   116          0
   117          2
   118          1
   119          7
   120          2
   121          2
   122          3
   123          5
   124         14
   125          2
   126        105
   127          9
   128          3