##TITLE=Library Entry 86425
##JCAMP-DX=Revision 4.10 
##DATA TYPE=MASS SPECTRUM
##SAMPLE DESCRIPTION=N.Klyuev, Institute of Ecology & Evolution, RAS, Moscow
##NAMES=HP
##CAS NAME=2-Methoxy-5-methyl-4-pyrimidinamine
##MOLFORM=C6H9N3O
##CAS REGISTRY NO=20696-83-7
##MP= -300
##BP= -300
##MW= 139
##$RETENTION INDEX=0
##$CONDENSED SPECTRUM=NO
##NPOINTS= 35
##XYDATA=(XY..XY) 1 
    26         44
    27         87
    29         63
    38         65
    39        220
    40        157
    41        275
    42        264
    43        231
    52         94
    53         66
    54        182
    55        137
    56         46
    58        128
    65         46
    66        209
    67        352
    68        129
    69        484
    70         37
    81         58
    82        549
    83         78
    92         57
    93         58
    94        130
    97         38
   108        136
   109        999
   110        188
   116         49
   138        440
   139        966
   140         79