##TITLE=Library Entry 23090
##JCAMP-DX=Revision 4.10 
##DATA TYPE=MASS SPECTRUM
##SAMPLE DESCRIPTION=D.HENNEBERG, MAX-PLANCK INSTITUTE, MULHEIM, WEST GERMAN
Y
##NAMES=HP
##CAS NAME=3-Heptanone, 5-methylene-
##MOLFORM=C8H14O
##CAS REGISTRY NO=20690-70-4
##MP= -300
##BP= -300
##MW= 126
##$RETENTION INDEX=0
##$CONDENSED SPECTRUM=NO
##NPOINTS= 61
##XYDATA=(XY..XY) 1 
    23          2
    25          4
    26         12
    27        114
    28         38
    29        602
    30         10
    31          3
    33          1
    36          0
    37          2
    38          4
    39         74
    40         11
    41        181
    42         14
    43         19
    44         10
    50          6
    51          8
    52          5
    53         17
    54          6
    55         32
    56         17
    57        999
    58         28
    59          2
    60          0
    62          1
    63          2
    65          6
    66          2
    67         12
    68          3
    69         53
    70         20
    71          2
    73          0
    75          0
    77          3
    78          0
    79          3
    81          2
    83          2
    85          0
    91          1
    93          2
    95          4
    96          1
    97        104
    98          5
   107          1
   108          0
   109          3
   111         10
   112          1
   121          1
   124          3
   126         15
   127          2