##TITLE=Library Entry 37189
##JCAMP-DX=Revision 4.10 
##DATA TYPE=MASS SPECTRUM
##SAMPLE DESCRIPTION=J.CASSAN, 18 GRAVIER AVE., PARC COROMANDEL, NICE, FR
##NAMES=HP
##CAS NAME=Menthylamine
##MOLFORM=C10H21N
##CAS REGISTRY NO=20706-69-8
##MP= -300
##BP= -300
##MW= 155
##$RETENTION INDEX=0
##$CONDENSED SPECTRUM=NO
##NPOINTS= 50
##XYDATA=(XY..XY) 1 
    38          2
    39         53
    40          9
    41        122
    42         46
    43        137
    44         26
    45          5
    50          2
    51          6
    52          3
    53         21
    54         15
    55         59
    56         85
    57         14
    58          3
    65          6
    66          3
    67         41
    68         16
    69         33
    70        999
    71         48
    72          3
    77          7
    78          1
    79         10
    80          8
    81         60
    82         22
    83          6
    84         36
    85          3
    91          3
    93          4
    94          6
    95         41
    96         11
    98         54
    99          6
   109          4
   110          3
   112         11
   123         13
   124          2
   138         39
   140         28
   141          3
   155         33