##TITLE=Library Entry 6698
##JCAMP-DX=Revision 4.10 
##DATA TYPE=MASS SPECTRUM
##SAMPLE DESCRIPTION=D.HENNEBERG, MAX-PLANCK INSTITUTE, MULHEIM, WEST GERMAN
Y
##NAMES=HP
##CAS NAME=1,2,4,5-Tetrazine, hexahydro-1,2,4,5-tetramethyl-
##MOLFORM=C6H16N4
##CAS REGISTRY NO=20717-38-8
##MP= -300
##BP= -300
##MW= 144
##$RETENTION INDEX=0
##$CONDENSED SPECTRUM=NO
##NPOINTS= 58
##XYDATA=(XY..XY) 1 
    23          0
    24          0
    25          2
    26         20
    27        137
    28        262
    29         45
    30        200
    31         12
    32          4
    33          0
    34          1
    35          1
    36          1
    37          1
    38          7
    39         14
    40         40
    41         70
    42        825
    43        999
    44        928
    45        100
    46         13
    47          0
    52          0
    53          1
    54          1
    55         10
    56         11
    57        175
    58        150
    59        100
    60         48
    61          1
    68          0
    69          2
    70          9
    71        241
    72        190
    73         70
    74          3
    83          1
    84          2
    85          4
    86         16
    87          2
    98          2
   100          0
   101          2
   102         20
   103          0
   128          0
   142          0
   143          1
   144        142
   145         10
   146          0