##TITLE=Library Entry 51367
##JCAMP-DX=Revision 4.10 
##DATA TYPE=MASS SPECTRUM
##SAMPLE DESCRIPTION=NIST Mass Spectrometry Data Center, 2011
##NAMES=HP
##CAS NAME=11-Tetradecen-1-ol, acetate, (Z)-
##MOLFORM=C16H30O2
##CAS REGISTRY NO=20711-10-8
##MP= -300
##BP= -300
##MW= 254
##$RETENTION INDEX=1778
##$CONDENSED SPECTRUM=NO
##NPOINTS= 108
##XYDATA=(XY..XY) 1 
    14          1
    15          7
    26          2
    27         35
    28         12
    29         74
    30          2
    31          5
    38          2
    39         79
    40         18
    41        518
    42        103
    43        678
    44         20
    45          5
    50          2
    51          7
    52          5
    53         70
    54        241
    55        661
    56        111
    57         70
    58          7
    59          2
    60          2
    61        136
    62          3
    63          2
    65         20
    66         42
    67        639
    68        864
    69        459
    70         70
    71         30
    72          4
    73         34
    74          1
    77         16
    78          4
    79         58
    80         37
    81        589
    82        999
    83        258
    84         28
    85         10
    86          5
    87          3
    88          1
    91          8
    92          1
    93         18
    94         22
    95        456
    96        572
    97        125
    98         16
    99          3
   100          4
   101          2
   105          1
   107          6
   108          9
   109        218
   110        214
   111         44
   112         11
   113          2
   114          2
   115          1
   116          2
   121          4
   122          9
   123        111
   124        115
   125         18
   126          4
   127          1
   128          2
   129          1
   135          2
   136          5
   137         63
   138         72
   139          9
   140          1
   141          1
   142          2
   143          1
   149          1
   150          1
   151         22
   152         25
   153          4
   154          1
   156          1
   165         12
   166         24
   167          4
   168          1
   179          1
   194        116
   195         17
   196          1
   211          1