##TITLE=Library Entry 21203
##JCAMP-DX=Revision 4.10 
##DATA TYPE=MASS SPECTRUM
##SAMPLE DESCRIPTION=V.G.Zaikin, TIPS, Russian Acad. Sci.
##NAMES=HP
##CAS NAME=Trans-bicyclo[4.4.0]decan-1-ol-3-one
##MOLFORM=C10H16O2
##CAS REGISTRY NO=20721-86-2
##MP= -300
##BP= -300
##MW= 168
##$RETENTION INDEX=0
##$CONDENSED SPECTRUM=NO
##NPOINTS= 60
##XYDATA=(XY..XY) 1 
    51        141
    52         87
    53        349
    54        172
    55        999
    56        108
    57        107
    58        146
    63         60
    64         24
    65        146
    66        108
    67        378
    68        134
    69        281
    70        426
    71        230
    72         24
    77        232
    78         82
    79        347
    80        149
    81        234
    82        110
    83        533
    84        201
    85         48
    91        175
    92         47
    93        295
    94         97
    95        234
    96         71
    97        471
    98        904
    99         71
   105         26
   106         13
   107        105
   108        235
   109        108
   110        213
   111        775
   112        143
   121         86
   122        173
   123         34
   125        245
   126         65
   135         99
   139         14
   140         29
   149         30
   150        146
   151         42
   152          8
   153         11
   168        586
   169         64
   170          3