##TITLE=Library Entry 47281
##JCAMP-DX=Revision 4.10 
##DATA TYPE=MASS SPECTRUM
##SAMPLE DESCRIPTION=V.A.Korolev, Moscow, Russia
##NAMES=HP
##CAS NAME=5-Methyl-1-phenyl-1,2,3-triazole-4-carboxylic acid
##MOLFORM=C10H9N3O2
##CAS REGISTRY NO=20725-32-0
##MP= -300
##BP= -300
##MW= 203
##$RETENTION INDEX=0
##$CONDENSED SPECTRUM=NO
##NPOINTS= 93
##XYDATA=(XY..XY) 1 
    34          6
    36          7
    37         27
    38        105
    39        151
    40         67
    41         26
    42         34
    43         50
    44        106
    45         54
    46          2
    49          3
    50        136
    51        652
    52         89
    53         17
    54         25
    55         90
    56          8
    57          9
    59          9
    60          6
    61          6
    62         19
    63         69
    64         56
    65         36
    66         25
    67         15
    68          2
    69          7
    70          4
    71          5
    72          2
    73         10
    74         26
    75         37
    76         72
    77        999
    78        154
    79         23
    80         20
    81          4
    82          5
    83        140
    84          8
    85          2
    87          3
    88          6
    89         36
    90         31
    91         29
    92         13
    93         13
    94          5
    97          2
    98          2
   101          7
   102         36
   103        132
   104        166
   105         51
   106          5
   115          2
   116          5
   117         14
   118         77
   119         60
   120         52
   121          4
   128         95
   129         82
   130        843
   131        330
   132         45
   133        119
   134          9
   144          2
   146         61
   147         19
   155          6
   156         13
   157         25
   158         30
   159          7
   174         41
   175         22
   182          2
   184          2
   186          7
   203         56
   204          6