##TITLE=Library Entry 26197
##JCAMP-DX=Revision 4.10 
##DATA TYPE=MASS SPECTRUM
##SAMPLE DESCRIPTION=Chemical Concepts
##NAMES=HP
##CAS NAME=2,2-Dimethylheptane-3,5-dione
##MOLFORM=C9H16O2
##CAS REGISTRY NO=20734-29-6
##MP= -300
##BP= -300
##MW= 156
##$RETENTION INDEX=0
##$CONDENSED SPECTRUM=NO
##NPOINTS= 73
##XYDATA=(XY..XY) 1 
    12          2
    13          1
    14         30
    15         51
    16         19
    17         26
    18         60
    19          0
    26         18
    27        226
    28        147
    29        448
    30         12
    31         13
    32         39
    37          2
    38          8
    39        163
    40         25
    41        421
    42        109
    43        237
    44         11
    45          7
    50          6
    51         10
    52          4
    53         36
    54          5
    55         68
    56         43
    57        999
    58         40
    59         10
    65          4
    66          1
    67         13
    68          1
    69         51
    70         16
    71         28
    72        218
    73         32
    74          2
    77          2
    79          5
    81         15
    82          2
    83         16
    84          6
    85         31
    86          1
    91          1
    93          1
    95          2
    97          9
    98          6
    99        527
   100         28
   101         11
   109          2
   111          5
   112          7
   113         18
   114          1
   123          1
   127         17
   128        115
   129         11
   141          2
   156         65
   157          8
   158          1