##TITLE=Library Entry 51979
##JCAMP-DX=Revision 4.10 
##DATA TYPE=MASS SPECTRUM
##SAMPLE DESCRIPTION=NIST Mass Spectrometry Data Center, 1994
##NAMES=HP
##CAS NAME=3-Dipropylaminopropanenitrile
##MOLFORM=C9H18N2
##CAS REGISTRY NO=20732-22-3
##MP= -300
##BP= -300
##MW= 154
##$RETENTION INDEX=0
##$CONDENSED SPECTRUM=NO
##NPOINTS= 60
##XYDATA=(XY..XY) 1 
    13          4
    14          4
    15        123
    18         11
    25          4
    26         51
    27        506
    28        277
    29        101
    30        318
    37          4
    38         13
    39        186
    40         48
    41        580
    42        997
    43        490
    44         93
    50          2
    51          9
    52         33
    53         31
    54        285
    55         41
    56         97
    57         28
    58          9
    66          2
    67         12
    68         33
    69         12
    70        112
    71         12
    72        151
    73          7
    79          2
    80          5
    81         15
    82          2
    83        999
    84        114
    85          8
    86        125
    87          7
    95          5
    97         94
    98         11
   101          3
   109          6
   111          8
   112          7
   114        378
   115         32
   123          8
   125        770
   126         71
   127          3
   153          8
   154         48
   155          5