##TITLE=Library Entry 84797
##JCAMP-DX=Revision 4.10 
##DATA TYPE=MASS SPECTRUM
##SAMPLE DESCRIPTION=NIST Mass Spectrometry Data Center, 1994
##NAMES=HP
##CAS NAME=Propionic acid 2-phenylhydrazide
##MOLFORM=C9H12N2O
##CAS REGISTRY NO=20730-02-3
##MP= -300
##BP= -300
##MW= 164
##$RETENTION INDEX=0
##$CONDENSED SPECTRUM=NO
##NPOINTS= 48
##XYDATA=(XY..XY) 1 
    16         11
    25          5
    26         33
    27        177
    28         61
    29        389
    30          6
    37         12
    38         42
    39        134
    40         18
    41          4
    42          7
    44          8
    49          5
    50         75
    51        230
    52         57
    53         29
    54         11
    55         13
    56          4
    57        311
    58          9
    61          5
    62         14
    63         39
    64         45
    65        140
    66         20
    75         12
    77        410
    78         94
    79         55
    80         57
    81         14
    90          9
    91         78
    92        149
    93         47
   105         43
   107        282
   108        999
   109         68
   120          3
   164        240
   165         28
   166          3