##TITLE=Library Entry 44586
##JCAMP-DX=Revision 4.10 
##DATA TYPE=MASS SPECTRUM
##SAMPLE DESCRIPTION=R.T.HOLMAN,UNIVERSITY OF MINNESOTA
##NAMES=HP
##CAS NAME=5-Nonenoic acid, methyl ester
##MOLFORM=C10H18O2
##CAS REGISTRY NO=20731-20-8
##MP= -300
##BP= -300
##MW= 170
##$RETENTION INDEX=0
##$CONDENSED SPECTRUM=NO
##NPOINTS= 74
##XYDATA=(XY..XY) 1 
    15        150
    17         20
    18         60
    19         20
    26         20
    27        260
    28         80
    29        190
    31         50
    39        270
    40         40
    41        650
    42        110
    43        640
    44        140
    45        960
    46         30
    50         10
    51         30
    52         10
    53        100
    54        350
    55        770
    56         80
    57        100
    58         10
    59        210
    60         10
    61         10
    65         40
    66         20
    67        330
    68        110
    69        190
    70         50
    71        150
    72         20
    73        110
    74        999
    75         80
    77         30
    79         80
    80         30
    81        380
    82         90
    83         60
    84        120
    85         80
    87        130
    88         30
    91         20
    93         30
    94         50
    95        110
    96        580
    97        200
    98         20
    99         30
   101         10
   109         60
   110         60
   111         10
   113         20
   114         20
   115         20
   121         50
   123         40
   127         10
   138        300
   139        130
   141         10
   159         10
   170         30
   171         10