##TITLE=Library Entry 34038
##JCAMP-DX=Revision 4.10 
##DATA TYPE=MASS SPECTRUM
##SAMPLE DESCRIPTION=NIST Mass Spectrometry Data Center
##NAMES=HP
##CAS NAME=4-Hexyn-3-ol
##MOLFORM=C6H10O
##CAS REGISTRY NO=20739-59-7
##MP= -300
##BP= -300
##MW= 98
##$RETENTION INDEX=0
##$CONDENSED SPECTRUM=NO
##NPOINTS= 56
##XYDATA=(XY..XY) 1 
    14          2
    15         14
    17          1
    18          1
    19          1
    25          1
    26         16
    27         91
    28         19
    29         88
    30          4
    31         17
    36          1
    37         16
    38         34
    39        221
    40         27
    41        234
    42         19
    43         64
    44          2
    45          2
    49          4
    50         29
    51         42
    52         15
    53         33
    54          4
    55         33
    56          9
    57         17
    58          3
    59          2
    61          3
    62          6
    63          9
    64          1
    65         10
    66         10
    67         34
    68         37
    69        999
    70         45
    71          3
    73          1
    74          3
    77         18
    78          3
    79         22
    80          5
    81          4
    83        220
    84         13
    95          1
    97         22
    98          2