##TITLE=Library Entry 20442
##JCAMP-DX=Revision 4.10 
##DATA TYPE=MASS SPECTRUM
##SAMPLE DESCRIPTION=R.T.HOLMAN,UNIVERSITY OF MINNESOTA
##NAMES=HP
##CAS NAME=7-Nonenoic acid, methyl ester
##MOLFORM=C10H18O2
##CAS REGISTRY NO=20731-22-0
##MP= -300
##BP= -300
##MW= 170
##$RETENTION INDEX=0
##$CONDENSED SPECTRUM=NO
##NPOINTS= 69
##XYDATA=(XY..XY) 1 
    15        140
    18         10
    26         20
    27        190
    28         70
    29        190
    31         30
    32         10
    38         10
    39        240
    40         40
    41        450
    42        110
    43        260
    44         10
    45         80
    50         10
    51         30
    52         20
    53        150
    54        170
    55        999
    56        110
    57         80
    58         10
    59        460
    60         20
    65         30
    66         20
    67        230
    68        160
    69        280
    70         40
    71         50
    72         20
    73        150
    74        700
    75         60
    77         20
    79        120
    80         40
    81        210
    82        100
    83        150
    84        140
    85         40
    87        260
    88         40
    89         10
    91         20
    92         10
    93         30
    94        100
    95        100
    96        280
    97        100
   101         20
   109         40
   110         40
   111         10
   113         20
   114         10
   115         30
   121         20
   123         20
   138         90
   139         20
   170          4
   171          1