##TITLE=Library Entry 44515
##JCAMP-DX=Revision 4.10 
##DATA TYPE=MASS SPECTRUM
##SAMPLE DESCRIPTION=R.T.HOLMAN,UNIVERSITY OF MINNESOTA
##NAMES=HP
##CAS NAME=8-Nonenoic acid, methyl ester
##MOLFORM=C10H18O2
##CAS REGISTRY NO=20731-23-1
##MP= -300
##BP= -300
##MW= 170
##$RETENTION INDEX=1216
##$CONDENSED SPECTRUM=NO
##NPOINTS= 70
##XYDATA=(XY..XY) 1 
    15        290
    26         20
    27        240
    28        110
    29        250
    31         30
    38         10
    39        290
    40         40
    41        680
    42        160
    43        480
    44         60
    45        360
    46         10
    51         20
    52         10
    53         80
    54        130
    55        680
    56         70
    57         90
    58         10
    59        320
    60         10
    65         20
    66         10
    67        140
    68        220
    69        480
    70         50
    71         40
    72         20
    73         80
    74        999
    75         60
    77         10
    79         70
    80         30
    81        120
    82         80
    83         70
    84        140
    85         40
    87        330
    88         40
    91         10
    93         40
    94        100
    95         90
    96        330
    97        160
    98         20
   101         30
   109         50
   110         60
   111         10
   113         30
   114         20
   120         10
   121        110
   123         50
   124         40
   128         20
   129         30
   130         10
   138        140
   139         50
   141         10
   170          3