##TITLE=Library Entry 13279
##JCAMP-DX=Revision 4.10 
##DATA TYPE=MASS SPECTRUM
##SAMPLE DESCRIPTION=RADIAN CORP
##NAMES=HP
##CAS NAME=1,2-Dicarbadodecaborane(12), 1-hexyl-
##MOLFORM=C8H24B10
##CAS REGISTRY NO=20740-05-0
##MP= -300
##BP= -300
##MW= 230
##$RETENTION INDEX=0
##$CONDENSED SPECTRUM=NO
##NPOINTS= 102
##XYDATA=(XY..XY) 1 
    27        248
    29        713
    37         11
    39        106
    41        624
    42        130
    43        999
    44         12
    53          6
    55         99
    56         42
    57        446
    71        156
    90          5
   100          7
   101         10
   102          9
   103         11
   104         19
   105          9
   111         13
   112         32
   113         32
   114         27
   115         11
   116          2
   122          9
   123         37
   124         59
   125         60
   126         53
   127         32
   128         10
   129          5
   131          3
   132          8
   133         22
   134         33
   135         67
   136         92
   137         99
   138         97
   139         85
   140         83
   141         75
   142         64
   143         34
   144         11
   145          5
   146         16
   147         40
   148         59
   149         74
   150        100
   151        125
   152        151
   153        174
   154        146
   155         86
   156         33
   157         24
   161          9
   162         39
   163         66
   164         83
   165         97
   166        114
   167        149
   168        130
   169         80
   170         34
   171          8
   175         16
   176         41
   177         82
   178        140
   179        218
   180        358
   181        538
   182        774
   183        886
   184        775
   185        397
   186        104
   187         30
   190         20
   191         43
   192         78
   193        127
   194        181
   195        261
   196        406
   197        529
   198        465
   199        193
   224          2
   225         52
   226         98
   227        107
   228         76
   229         34
   230          2