##TITLE=Library Entry 69962
##JCAMP-DX=Revision 4.10 
##DATA TYPE=MASS SPECTRUM
##SAMPLE DESCRIPTION=Japan AIST/NIMC Database- Spectrum MS-IW-6796
##NAMES=HP
##CAS NAME=Heptanal, (2,4-dinitrophenyl)hydrazone
##MOLFORM=C13H18N4O4
##CAS REGISTRY NO=2074-05-7
##MP= -300
##BP= -300
##MW= 294
##$RETENTION INDEX=2666
##$CONDENSED SPECTRUM=NO
##NPOINTS= 242
##XYDATA=(XY..XY) 1 
    14          2
    15          5
    16          1
    25          2
    26         28
    27        244
    28        195
    29        164
    30        149
    31          3
    32          1
    36          1
    37          8
    38         25
    39        121
    40         27
    41        392
    42         92
    43        317
    44         43
    45          8
    46          2
    48          1
    49          3
    50         30
    51         76
    52         63
    53         46
    54         52
    55        923
    56        106
    57         38
    58          6
    59          1
    60          3
    61          7
    62         36
    63         96
    64         75
    65         64
    66         26
    67         62
    68         48
    69        130
    70         43
    71         16
    72          4
    73          2
    74         14
    75         97
    76         75
    77        193
    78        109
    79        105
    80         33
    81         31
    82         45
    83         31
    84         26
    85          5
    86          5
    87          3
    88          9
    89         30
    90         54
    91        102
    92        113
    93         36
    94         11
    95         70
    96         35
    97        999
    98         80
    99          4
   100          1
   101          4
   102         41
   103        188
   104        147
   105         50
   106         25
   107         28
   108         11
   109          4
   110          9
   111          4
   112         11
   113          4
   114          2
   115         15
   116         15
   117         28
   118         29
   119         40
   120         23
   121         10
   122        147
   123         13
   124          2
   127          3
   128          9
   129         18
   130         37
   131         39
   132         28
   133         10
   134          9
   135         17
   136         10
   137         21
   138         25
   139          3
   140          1
   141          2
   142          6
   143         11
   144         16
   145         17
   146          9
   147         18
   148         14
   149        260
   150         36
   151         15
   152         78
   153         41
   154          7
   155          4
   156          8
   157         20
   158          8
   159          9
   160         14
   161          8
   162          7
   163         10
   164         45
   165         34
   166         13
   167         36
   168          9
   169          8
   170          6
   171          8
   172          5
   173          6
   174          5
   175         12
   176         24
   177         61
   178         15
   179         11
   180         42
   181         72
   182          9
   183        139
   184         24
   185          9
   186          5
   187          5
   188          3
   189         13
   190         30
   191         18
   192          9
   193         36
   194          7
   195          2
   196         40
   197          7
   198          3
   199          2
   200          3
   201          7
   202          9
   203         39
   204         13
   205          7
   206        590
   207         71
   208          8
   209          4
   210          3
   211          3
   212          2
   213          8
   214          4
   215         11
   216          8
   217         14
   218          6
   219          4
   220          6
   221          1
   222          1
   223         25
   224        154
   225         15
   226          2
   227          1
   228          2
   229          3
   230          7
   231         30
   232          9
   233          4
   234          8
   235          7
   236          1
   237          5
   238          1
   243          1
   244          2
   245          1
   246          2
   247          2
   248          9
   249          2
   250          1
   251          6
   252          1
   257          1
   258          1
   259         19
   260          9
   261          2
   262          1
   264          5
   265          7
   266          1
   275          2
   276          1
   277          2
   278         11
   279          4
   280          2
   292          5
   293          6
   294        326
   295         74
   296          9
   297          1