##TITLE=Library Entry 50391
##JCAMP-DX=Revision 4.10 
##DATA TYPE=MASS SPECTRUM
##SAMPLE DESCRIPTION=A.ROSENTHAL, UNIVERSITY OF BRITISH COLUMBIA, VANCOUVER,
 CANADA
##NAMES=HP
##CAS NAME=Glucopyranose, 3-deoxy-3-(hydroxymethyl)-, pentaacetate, .alpha.-
D-
##MOLFORM=C17H24O11
##CAS REGISTRY NO=20746-89-8
##MP= -300
##BP= -300
##MW= 404
##$RETENTION INDEX=0
##$CONDENSED SPECTRUM=NO
##NPOINTS= 43
##XYDATA=(XY..XY) 1 
    53        333
    54        333
    58        316
    70        583
    73        450
    76         16
    80         33
    81        999
    82        750
    83        999
    84        533
    85        250
    86        250
    93         33
    97        333
    98        466
   102        133
   110        200
   111        433
   116        150
   118         33
   127        233
   139        416
   140        250
   141         50
   145        150
   169        200
   182        250
   183        150
   199         83
   200         50
   211         66
   225         66
   242         33
   259         33
   271         16
   273         33
   285         16
   302         16
   331         16
   344          3
   345         83
   361         16