##TITLE=Library Entry 82050
##JCAMP-DX=Revision 4.10 
##DATA TYPE=MASS SPECTRUM
##SAMPLE DESCRIPTION=Japan AIST/NIMC Database- Spectrum MS-IW-4272
##NAMES=HP
##CAS NAME=Benzamide, N-(1,1'-biphenyl)-4-yl-
##MOLFORM=C19H15NO
##CAS REGISTRY NO=20743-57-1
##MP= -300
##BP= -300
##MW= 273
##$RETENTION INDEX=0
##$CONDENSED SPECTRUM=NO
##NPOINTS= 70
##XYDATA=(XY..XY) 1 
    27          2
    28          3
    29          3
    39          5
    50          6
    51         24
    52          3
    57          1
    62          1
    63          5
    64          1
    65          2
    71          1
    74          2
    75          4
    76         18
    77        273
    78         23
    87          1
    88          1
    89          3
    91          2
   102          3
   103         32
   104          5
   105        999
   106         78
   107          5
   113          2
   114          2
   115         19
   116          2
   126          1
   127          2
   128          1
   139          9
   140          5
   141         21
   142          3
   150          1
   151          4
   152          9
   153          7
   154         16
   155          2
   166          5
   167          7
   168          9
   169         17
   170         40
   171          5
   178          1
   179          4
   195          8
   196          1
   228          1
   230          2
   241          1
   242          1
   243          1
   254          2
   255          5
   256          3
   257          2
   271          1
   272          4
   273        581
   274        123
   275         13
   276          1