##TITLE=Library Entry 74434
##JCAMP-DX=Revision 4.10 
##DATA TYPE=MASS SPECTRUM
##SAMPLE DESCRIPTION=Exported from NIST MS Search
##NAMES=HP
##CAS NAME=Myo-Inositol, 1,2,3,4,5,6-hexa-O-methyl-
##MOLFORM=C12H24O6
##CAS REGISTRY NO=2075-22-1
##MP= -300
##BP= -300
##MW= 264
##$RETENTION INDEX=0
##$CONDENSED SPECTRUM=NO
##NPOINTS= 45
##XYDATA=(XY..XY) 1 
    39         10
    41         60
    42         10
    43         20
    45        210
    47         20
    53         10
    55         20
    56         10
    57         20
    58         10
    59         20
    69         10
    71         50
    72         60
    73         90
    74         10
    75        340
    76         10
    81         10
    83         10
    85         30
    88        260
    89         10
    98         10
    99         10
   101        999
   102         50
   103         10
   114         80
   115         10
   117         10
   119         20
   127         10
   129         30
   130         10
   131         90
   132         10
   144        190
   145         40
   157         20
   158         10
   200         10
   201         10
   264         40