##TITLE=Library Entry 45996
##JCAMP-DX=Revision 4.10 
##DATA TYPE=MASS SPECTRUM
##SAMPLE DESCRIPTION=F.FALKNER, VANDERBILT UNIV., NASHVILLE, TENNESSEE, USA
##NAMES=HP
##CAS NAME=Digitoxigenin, TMS derivative
##MOLFORM=C26H42O4Si
##CAS REGISTRY NO=20759-23-3
##MP= -300
##BP= -300
##MW= 446
##$RETENTION INDEX=0
##$CONDENSED SPECTRUM=NO
##NPOINTS= 81
##XYDATA=(XY..XY) 1 
    73        646
    75        999
    77        108
    79        177
    81        221
    83         54
    85        128
    91        231
    93        260
    94         75
    95        201
   105        226
   106         76
   107        299
   108        177
   109        240
   110         66
   111        248
   115         53
   117         89
   119        158
   120         61
   121        141
   123         56
   124        187
   129        158
   131        117
   133        151
   134         51
   135         96
   142        111
   143        104
   145        148
   146         61
   147        303
   148        142
   149        145
   155        117
   157         92
   159        102
   161        114
   162        158
   163         76
   169         59
   170         85
   171         59
   173         67
   174         72
   175        106
   176         75
   177         52
   179         59
   181         68
   183        132
   185         81
   187         57
   189         56
   195         85
   198         63
   199         65
   201         66
   203        734
   213         90
   215         86
   219         87
   228         78
   231         76
   235         64
   246        138
   267         63
   284         88
   323        138
   337        116
   338        479
   341         54
   355         58
   356        483
   413        182
   428        144
   431        342
   446        131