##TITLE=Library Entry 89828
##JCAMP-DX=Revision 4.10 
##DATA TYPE=MASS SPECTRUM
##SAMPLE DESCRIPTION=J. VAN THUIJL
##NAMES=HP
##CAS NAME=1H-Pyrazole, 4-nitro-
##MOLFORM=C3H3N3O2
##CAS REGISTRY NO=2075-46-9
##MP= -300
##BP= -300
##MW= 113
##$RETENTION INDEX=0
##$CONDENSED SPECTRUM=NO
##NPOINTS= 35
##XYDATA=(XY..XY) 1 
    24          5
    25          8
    26         28
    27        115
    28        379
    29         42
    30        121
    36          7
    38        132
    39        138
    40         85
    41         13
    42         11
    43         49
    46          9
    50          5
    51          9
    52         22
    53         22
    54          6
    56         38
    65          7
    66         15
    67         51
    68          8
    69         12
    70         34
    78          5
    82         51
    84          3
    97         59
    98          3
   113        999
   114         45
   115          6