##TITLE=Library Entry 13042
##JCAMP-DX=Revision 4.10 
##DATA TYPE=MASS SPECTRUM
##SAMPLE DESCRIPTION=Div. of Experiment Therapeutics WRAIR, WRAMC, Washingto
n DC 20307
##NAMES=HP
##CAS NAME=5-Nitrothiazole-2-carboxaldehyde acethydrazone
##MOLFORM=C6H6N4O3S
##CAS REGISTRY NO=20751-87-5
##MP= -300
##BP= -300
##MW= 214
##$RETENTION INDEX=0
##$CONDENSED SPECTRUM=NO
##NPOINTS= 59
##XYDATA=(XY..XY) 1 
    41          9
    42         27
    43        999
    44         38
    45         44
    46          5
    47          3
    48          8
    49          7
    51          8
    52         66
    53          5
    54          2
    55          5
    56          6
    57         65
    58         13
    59         26
    60          3
    65          0
    67          1
    68          3
    69         18
    70         40
    71         17
    72          5
    73          3
    82          4
    83         13
    84         52
    85         11
    86          6
    87          2
    94          0
    95          3
    96          7
    97         41
    98          5
    99         12
   109          2
   110          2
   113          2
   125          4
   126         42
   127          6
   128          2
   139          0
   143         12
   144          2
   155         24
   156          8
   157          1
   171        261
   172         60
   173         17
   174          3
   214         25
   215          6
   216          2