##TITLE=Library Entry 47231
##JCAMP-DX=Revision 4.10 
##DATA TYPE=MASS SPECTRUM
##SAMPLE DESCRIPTION=D.A.JAEGER DEPT. CHEM., UNIV. WYOMING, LARAMIE, WYOMING
, USA
##NAMES=HP
##CAS NAME=Benzene, 1,1'-[oxybis(2,1-ethanediyloxy-2,1-ethanediyloxy)]bis-
##MOLFORM=C20H26O5
##CAS REGISTRY NO=20768-77-8
##MP= -300
##BP= -300
##MW= 346
##$RETENTION INDEX=0
##$CONDENSED SPECTRUM=NO
##NPOINTS= 83
##XYDATA=(XY..XY) 1 
    41        120
    42         30
    43        250
    44        110
    45        580
    46         30
    47         10
    50         80
    51        200
    52         30
    53         10
    54         50
    57         30
    58         30
    59         80
    61         10
    62         20
    63         50
    64         40
    65        400
    66        240
    67         30
    68         10
    69         10
    70         20
    71         60
    72         20
    73        170
    74         20
    75         20
    76         30
    77        999
    78        100
    79         80
    80         10
    81         10
    86         30
    87         70
    88         30
    89         80
    90         10
    91        310
    92         40
    93        590
    94        360
    95         50
    96         10
   101         10
   103         90
   104         10
   105         50
   106         10
   107         90
   108         20
   115         30
   117         30
   119         80
   120        420
   121        730
   122         60
   123         10
   133         80
   134         10
   135         30
   136         10
   137         10
   138         40
   139         10
   147         30
   149         20
   151         20
   159         20
   164         50
   165        110
   166         20
   182         30
   208         10
   209         10
   226         80
   227         20
   253         20
   346         80
   347         20