##TITLE=Library Entry 3995
##JCAMP-DX=Revision 4.10 
##DATA TYPE=MASS SPECTRUM
##SAMPLE DESCRIPTION=Japan AIST/NIMC Database- Spectrum MS-NW-4954
##NAMES=HP
##CAS NAME=Propanoyl bromide, 2-bromo-2-methyl-
##MOLFORM=C4H6Br2O
##CAS REGISTRY NO=20769-85-1
##MP= -300
##BP= -300
##MW= 228
##$RETENTION INDEX=0
##$CONDENSED SPECTRUM=NO
##NPOINTS= 70
##XYDATA=(XY..XY) 1 
    12          2
    13          2
    14          6
    15         23
    16          1
    24          1
    25          9
    26         42
    27         85
    28          9
    29          4
    31          2
    35          1
    36         13
    37         25
    38         43
    39        235
    40         57
    41        999
    42        181
    43         17
    44          3
    45          4
    47          1
    49          2
    50          4
    51          3
    52          1
    53          8
    54          3
    55          4
    58          1
    59          8
    68          2
    69         10
    70         47
    71          8
    74          2
    77          5
    79         30
    80         23
    81         29
    82         21
    91          1
    93         13
    95         12
   104          1
   105          8
   106          2
   107         13
   108          2
   109          7
   119          2
   120          1
   121        672
   122         23
   123        642
   124         23
   127          1
   128          2
   149        139
   150          7
   151        134
   152          7
   158          2
   160          3
   162          2
   185          1
   187          2
   189          1