##TITLE=Library Entry 11988
##JCAMP-DX=Revision 4.10 
##DATA TYPE=MASS SPECTRUM
##SAMPLE DESCRIPTION=Japan AIST/NIMC Database- Spectrum MS-IW-5409
##NAMES=HP
##CAS NAME=4-(2-Nitrophenyl)but-3-en-2-one
##MOLFORM=C10H9NO3
##CAS REGISTRY NO=20766-40-9
##MP= -300
##BP= -300
##MW= 191
##$RETENTION INDEX=0
##$CONDENSED SPECTRUM=NO
##NPOINTS= 122
##XYDATA=(XY..XY) 1 
    14          2
    15         29
    17          1
    18          1
    26          4
    27         19
    28          3
    29          1
    30          9
    31          1
    32          1
    37          4
    38         18
    39         81
    40          7
    41         10
    42         10
    43        999
    44         32
    45          5
    46          1
    49          3
    50         96
    51        255
    52         43
    53         11
    54          2
    55          6
    56          1
    57          8
    58          4
    59          1
    61          8
    62         29
    63        100
    64         41
    65        219
    66         77
    67         16
    68          2
    69         17
    70          2
    71          3
    72          1
    73          5
    74         59
    75        112
    76        154
    77        181
    78         45
    79         13
    80          2
    81          1
    83          1
    85          9
    86          7
    87         11
    88          8
    89         99
    90         60
    91         99
    92        352
    93        254
    94         24
    95          2
    97          2
    98          9
    99          4
   100          4
   101         93
   102        265
   103         98
   104        112
   105         56
   106          6
   107          1
   108          1
   109          1
   113          3
   114          4
   115         73
   116         40
   117         17
   118         32
   119         10
   120        635
   121        106
   122          9
   126          2
   127          5
   128         10
   129         20
   130        990
   131        185
   132        262
   133         38
   134          5
   135          2
   140          1
   141          2
   142          7
   143         54
   144         27
   145        412
   146         64
   147          6
   148        129
   149        147
   150         12
   151          2
   159         25
   160          3
   161          2
   162          2
   173          1
   174          2
   175          1
   176         57
   177          6
   190          3
   191          8
   192          1