##TITLE=Library Entry 37223
##JCAMP-DX=Revision 4.10 
##DATA TYPE=MASS SPECTRUM
##SAMPLE DESCRIPTION=Dr. Jiri Zamecnik, DCIEM, North York, Canada, GP Librar
y
##NAMES=HP
##CAS NAME=trans-4-Methylaminorex
##MOLFORM=C10H12N2O
##CAS REGISTRY NO=2077-59-0
##MP= -300
##BP= -300
##MW= 176
##$RETENTION INDEX=0
##$CONDENSED SPECTRUM=NO
##NPOINTS= 25
##XYDATA=(XY..XY) 1 
    42        177
    43        491
    51         76
    63         44
    69        319
    70        999
    77        116
    79         44
    89         81
    90         46
    91        109
   104         17
   105         76
   107         19
   115         21
   117         50
   118         36
   119         20
   130          9
   132        206
   133        111
   161        180
   162         15
   176        187
   177         18