##TITLE=Library Entry 5825
##JCAMP-DX=Revision 4.10 
##DATA TYPE=MASS SPECTRUM
##SAMPLE DESCRIPTION=W. KELLY UNILEVER RESEARCH COLWORTH/WELWYN, BEDFORD U.K
.
##NAMES=HP
##CAS NAME=Dihydrocarvyl acetate
##MOLFORM=C12H20O2
##CAS REGISTRY NO=20777-49-5
##MP= -300
##BP= -300
##MW= 196
##$RETENTION INDEX=1306
##$CONDENSED SPECTRUM=NO
##NPOINTS= 49
##XYDATA=(XY..XY) 1 
    27        190
    29        180
    39        390
    40         58
    41        590
    42         65
    43        999
    44         32
    45         12
    50         11
    51         55
    52         38
    53        250
    54         50
    55        240
    56         40
    57         25
    61         17
    63         18
    65         60
    66         45
    67        280
    68        150
    69         90
    77        120
    79        235
    80         68
    81        140
    82         31
    83         21
    91        100
    92         50
    93        307
    94        140
    95         90
    96         18
    97         25
   105         30
   106          9
   107        200
   108         70
   109         25
   121        210
   122         23
   135          7
   136        140
   137         20
   154          9
   196          3