##TITLE=Library Entry 52944
##JCAMP-DX=Revision 4.10 
##DATA TYPE=MASS SPECTRUM
##SAMPLE DESCRIPTION=Japan AIST/NIMC Database- Spectrum MS-IW-6295
##NAMES=HP
##CAS NAME=Hexadecyl methanesulfonate
##MOLFORM=C17H36O3S
##CAS REGISTRY NO=20779-14-0
##MP= -300
##BP= -300
##MW= 320
##$RETENTION INDEX=2345
##$CONDENSED SPECTRUM=NO
##NPOINTS= 102
##XYDATA=(XY..XY) 1 
    15         13
    26          1
    27         30
    28         13
    29        120
    30          3
    31          3
    32          1
    39         27
    40          7
    41        354
    42        112
    43        525
    44         19
    45          7
    51          1
    52          1
    53         19
    54         90
    55        720
    56        528
    57        740
    58         32
    59          2
    63          3
    64          1
    65          4
    66         12
    67        124
    68        195
    69        821
    70        601
    71        409
    72         20
    73          1
    77          2
    78          1
    79         77
    80          7
    81         87
    82        511
    83        999
    84        448
    85        257
    86         14
    91          2
    93          2
    94          2
    95         41
    96        254
    97        994
    98        316
    99         81
   100          5
   108          1
   109         19
   110        128
   111        615
   112        242
   113         49
   114          3
   122          1
   123          9
   124         89
   125        368
   126        178
   127         32
   128          2
   135          2
   137          6
   138         63
   139        194
   140        154
   141         32
   142          3
   149          1
   151          1
   152         45
   153        119
   154        103
   155         22
   156          2
   165          2
   166         28
   167         83
   168         72
   169         12
   170          1
   180         15
   181         58
   182         45
   183          8
   194          9
   195         37
   196        160
   197         23
   198          1
   209          1
   222          1
   224        580
   225        117
   226         11