##TITLE=Library Entry 18593
##JCAMP-DX=Revision 4.10 
##DATA TYPE=MASS SPECTRUM
##SAMPLE DESCRIPTION=Chemical Concepts
##NAMES=HP
##CAS NAME=3,8-Cyclodecadiene-1,6-dione, (Z,Z)-
##MOLFORM=C10H12O2
##CAS REGISTRY NO=20771-23-7
##MP= -300
##BP= -300
##MW= 164
##$RETENTION INDEX=0
##$CONDENSED SPECTRUM=NO
##NPOINTS= 97
##XYDATA=(XY..XY) 1 
    27        348
    28        129
    29         26
    31          2
    36          0
    37          6
    38         21
    39        341
    40         19
    41         32
    42         18
    43         10
    49          2
    50         33
    51         56
    52         37
    53        158
    54        999
    55        110
    56          4
    57          2
    58          5
    61          2
    62          5
    63         12
    64          6
    65         12
    66         38
    67         14
    68        132
    69          6
    70          1
    73          1
    74          2
    75          2
    76          1
    77         18
    78         14
    79        134
    80         20
    81        136
    82        206
    83         92
    84          5
    85          1
    86          8
    87          1
    89          3
    90          1
    91         21
    92         36
    93         13
    94         13
    95         23
    96          7
    97          1
    98          0
   102          1
   103          5
   104         10
   105         21
   106          2
   107          6
   108          5
   109          8
   110         23
   111          2
   112          0
   115          9
   116          4
   117         24
   118         18
   119         27
   120          6
   121          5
   122         13
   123          4
   127          1
   128          3
   129          2
   130          1
   131          3
   133          0
   134          0
   135          5
   136         15
   137          1
   144          1
   145          3
   146         20
   147          3
   148          0
   149          4
   163          0
   164         61
   165          7
   166          0