##TITLE=Library Entry 45415
##JCAMP-DX=Revision 4.10 
##DATA TYPE=MASS SPECTRUM
##SAMPLE DESCRIPTION=A.A.Kutin, Moscow, Russia
##NAMES=HP
##CAS NAME=.alpha.-d-Glucopyranoside, methyl 3-O-methyl-4,6-O-(phenylmethyle
ne)-
##MOLFORM=C15H20O6
##CAS REGISTRY NO=20770-95-0
##MP= -300
##BP= -300
##MW= 296
##$RETENTION INDEX=0
##$CONDENSED SPECTRUM=NO
##NPOINTS= 100
##XYDATA=(XY..XY) 1 
    33         17
    39         52
    40         15
    41        120
    42         63
    43        130
    44         65
    45        410
    46         90
    47          0
    50          1
    51         41
    52         24
    53         14
    54         14
    55         58
    56         18
    57         78
    58         68
    59         84
    60         29
    61         56
    62         16
    65          2
    67          0
    68         27
    69        100
    70         31
    71         68
    72         25
    73         72
    74        508
    75        999
    76        203
    77        208
    78         75
    79         81
    80         19
    81         10
    82          5
    83          4
    84         25
    85         36
    86         75
    87        410
    88        131
    89         29
    90         31
    91        118
    92         41
    95          0
    97          2
    98          4
    99         49
   100         45
   101        103
   102         50
   103         17
   104         19
   105        482
   106        313
   107        280
   108        100
   109         15
   111          2
   115         31
   116         29
   117         25
   118         25
   119         43
   120         13
   121         62
   122         19
   127         16
   129          5
   130          2
   131          6
   132          0
   133          1
   141          3
   145         78
   146         13
   147        142
   148         48
   149         75
   150         16
   159         26
   160          1
   162          4
   163          1
   177          3
   178          0
   179         43
   180         10
   181         19
   191         22
   192          1
   221          0
   223          0
   296          2