##TITLE=Library Entry 81734
##JCAMP-DX=Revision 4.10 
##DATA TYPE=MASS SPECTRUM
##SAMPLE DESCRIPTION=NIST Mass Spectrometry Data Center
##NAMES=HP
##CAS NAME=Hippuric acid, TMS derivative
##MOLFORM=C12H17NO3Si
##CAS REGISTRY NO=2078-24-2
##MP= -300
##BP= -300
##MW= 251
##$RETENTION INDEX=1849
##$CONDENSED SPECTRUM=NO
##NPOINTS= 118
##XYDATA=(XY..XY) 1 
    15          1
    27          3
    28          6
    29          5
    30          2
    31          2
    38          1
    39          5
    41          1
    42          4
    43         23
    44         11
    45         68
    46          5
    47         27
    48          1
    49          2
    50         29
    51        110
    52          8
    53          3
    54          1
    55          4
    56          6
    57          6
    58         31
    59         25
    60          7
    61         26
    62          3
    63          3
    64          1
    65          2
    66          1
    67          1
    70          3
    71          3
    72         27
    73        489
    74         59
    75        149
    76         39
    77        463
    78         36
    79          3
    83          1
    84          1
    85          1
    86         11
    87         15
    88         14
    89         10
    90          4
    91          9
    92          1
    93          1
    96         14
   100          5
   101          5
   102         13
   103          9
   104         42
   105        999
   106         96
   107          7
   108          1
   115          1
   116         18
   117         24
   118         26
   119          5
   120          2
   121          7
   122          1
   130          8
   131          3
   132          7
   133          9
   134         28
   135         24
   136          3
   137          2
   145          1
   146          2
   147          2
   148         11
   149         10
   150          2
   151          1
   160          1
   161          8
   162          5
   163         21
   164          4
   165          1
   176          2
   177         28
   178          7
   179          6
   180          1
   190         64
   191         11
   192         33
   193          6
   194          2
   204          6
   206        877
   207        235
   208         60
   209          8
   210          1
   234          1
   236        133
   237         24
   238          7
   239          1
   251          4
   252          1