##TITLE=Library Entry 60422
##JCAMP-DX=Revision 4.10 
##DATA TYPE=MASS SPECTRUM
##SAMPLE DESCRIPTION=Chuck Anderson, Aldrich Chemical Co.
##NAMES=HP
##CAS NAME=Benzene, (epoxyethyl)-, (R)-
##MOLFORM=C8H8O
##CAS REGISTRY NO=20780-53-4
##MP= -300
##BP= -300
##MW= 120
##$RETENTION INDEX=0
##$CONDENSED SPECTRUM=NO
##NPOINTS= 56
##XYDATA=(XY..XY) 1 
    14          4
    15          5
    18          0
    26         10
    27         27
    28          7
    29         30
    30          4
    31          2
    36          1
    37         25
    38         68
    39        249
    40         29
    41         31
    42          4
    43          9
    44          3
    45          8
    46          3
    49         10
    50         90
    51        143
    52         26
    53          6
    59          4
    60          2
    61         25
    62         73
    63        194
    64         72
    65        214
    66         15
    73          5
    74         24
    75         14
    76          7
    77         48
    78         14
    84          1
    85          5
    86         10
    87          8
    89        503
    90        441
    91        999
    92        288
    93         20
    98          2
   102          6
   103         12
   104         15
   105         10
   119        266
   120        227
   121         19