##TITLE=Library Entry 37206
##JCAMP-DX=Revision 4.10 
##DATA TYPE=MASS SPECTRUM
##SAMPLE DESCRIPTION=NIST Mass Spectrometry Data Center
##NAMES=HP
##CAS NAME=3,7-Dimethyloctyl acetate
##MOLFORM=C12H24O2
##CAS REGISTRY NO=20780-49-8
##MP= -300
##BP= -300
##MW= 200
##$RETENTION INDEX=1290
##$CONDENSED SPECTRUM=NO
##NPOINTS= 55
##XYDATA=(XY..XY) 1 
    27         25
    29         46
    30          1
    39         53
    40         11
    41        267
    42         97
    43        888
    44         25
    45          6
    53         25
    54         28
    55        581
    56        636
    57        359
    58         25
    60          3
    61        170
    62          5
    67         55
    68         51
    69        617
    70        999
    71        257
    72         17
    73         36
    81         38
    82         40
    83        259
    84        229
    85         69
    86          5
    87         57
    88         25
    95         12
    96         56
    97        192
    98         41
    99          7
   110         13
   111        168
   112        163
   113         15
   114          5
   115         55
   116         10
   125         80
   126          9
   128          3
   130         17
   140         52
   141          5
   143          3
   156          3
   185          5