##TITLE=Library Entry 100649
##JCAMP-DX=Revision 4.10 
##DATA TYPE=MASS SPECTRUM
##SAMPLE DESCRIPTION=NIST Mass Spectrometry Data Center, 1994
##NAMES=HP
##CAS NAME=4-Isopropylbenzenesulfonylacetonitrile
##MOLFORM=C11H13NO2S
##CAS REGISTRY NO=207853-59-6
##MP= -300
##BP= -300
##MW= 223
##$RETENTION INDEX=0
##$CONDENSED SPECTRUM=NO
##NPOINTS= 94
##XYDATA=(XY..XY) 1 
    12          3
    13         10
    14          8
    15         55
    16          5
    17          6
    18          8
    26         11
    27        129
    28         33
    29         14
    37          5
    38         26
    39        210
    40        119
    41        339
    42         16
    43         30
    44          7
    45         15
    48         25
    50        134
    51        239
    52         62
    53         47
    54          6
    55          5
    58         13
    59          5
    61          5
    62         29
    63        103
    64         30
    65        104
    66         12
    67          7
    69         11
    70          4
    71          4
    74         40
    75         47
    76         81
    77        321
    78        234
    79         82
    80          7
    82          3
    86          5
    87         12
    88          7
    89         62
    90         53
    91        617
    92         56
    93         25
    95          4
    97          3
   101          9
   102         71
   103        379
   104        334
   105         35
   106          4
   107          5
   115         84
   116         25
   117        119
   118         98
   119        999
   120        108
   121         10
   123          4
   130          3
   132          6
   134          5
   135          9
   139          4
   143          4
   144          5
   152         18
   154          3
   167        183
   168         23
   169         11
   181          5
   183        762
   184         88
   185         41
   186          4
   208         43
   209          5
   223         74
   224         10
   225          4