##TITLE=Library Entry 81534
##JCAMP-DX=Revision 4.10 
##DATA TYPE=MASS SPECTRUM
##SAMPLE DESCRIPTION=O A MAMER, MCGILL UNIVERSITY, MONTREne $$ Tr
##NAMES=HP
##CAS NAME=Benzoic Acid, TMS derivative
##MOLFORM=C10H14O2Si
##CAS REGISTRY NO=2078-12-8
##MP= -300
##BP= -300
##MW= 194
##$RETENTION INDEX=1249
##$CONDENSED SPECTRUM=NO
##NPOINTS= 29
##XYDATA=(XY..XY) 1 
    15         46
    27         35
    28         59
    29         28
    39         23
    43         82
    44         33
    45        155
    47         57
    50         73
    51        256
    52         26
    59         34
    73         92
    74         31
    75         84
    76         51
    77        802
    78         63
    89         64
   105        999
   106         82
   135        503
   136         73
   137         25
   179        898
   180        137
   181         45
   194         78