##TITLE=Library Entry 43699
##JCAMP-DX=Revision 4.10 
##DATA TYPE=MASS SPECTRUM
##SAMPLE DESCRIPTION=S. MARKEY UNIV. OF COLO. MED. CTR., DENVER, COLORADO, U
SA
##NAMES=HP
##CAS NAME=Vanillic Acid, 2TMS derivative
##MOLFORM=C14H24O4Si2
##CAS REGISTRY NO=2078-15-1
##MP= -300
##BP= -300
##MW= 312
##$RETENTION INDEX=1776
##$CONDENSED SPECTRUM=NO
##NPOINTS= 106
##XYDATA=(XY..XY) 1 
    39          5
    43         73
    44         47
    45        278
    46         14
    47         23
    51         22
    53          9
    55         10
    57          8
    58         27
    59        175
    60         11
    61         20
    63         26
    65          5
    69         13
    71          9
    72         22
    73        999
    74         78
    75        119
    76         25
    77         36
    78          4
    79         36
    83         52
    85          9
    89         92
    90         18
    91         53
    92         17
    93         13
    95          8
    98         26
    99          4
   103          4
   104         14
   105         20
   106          3
   107         28
   109         20
   111          2
   117          2
   119         44
   120         23
   121         53
   122         21
   123         11
   126        125
   127          5
   133         65
   134         12
   135         56
   136         10
   137         99
   138         11
   141         28
   147         16
   148         12
   149         64
   150         25
   151         22
   163         27
   164         16
   165         90
   166         17
   167          5
   178         22
   179         38
   180         28
   181         10
   191          6
   193        177
   194         33
   195         18
   207         27
   209          7
   211          2
   215          7
   216         48
   221          6
   223        290
   224         59
   225         20
   237         14
   239          8
   253        294
   254         82
   255         22
   256          2
   267        483
   268          2
   269          4
   280         10
   282        351
   283          2
   284          5
   297        415
   298         97
   299         41
   300          2
   312        322
   313         84
   314         32
   315          2