##TITLE=Library Entry 57290
##JCAMP-DX=Revision 4.10 
##DATA TYPE=MASS SPECTRUM
##SAMPLE DESCRIPTION=A.A.Kutin, Moscow, Russia
##NAMES=HP
##CAS NAME=Urea, (2-hydroxyethyl)-
##MOLFORM=C3H8N2O2
##CAS REGISTRY NO=2078-71-9
##MP= -300
##BP= -300
##MW= 104
##$RETENTION INDEX=0
##$CONDENSED SPECTRUM=NO
##NPOINTS= 7
##XYDATA=(XY..XY) 1 
    42        483
    43        441
    44        217
    59        723
    60         44
    87        999
    88        120