##TITLE=Library Entry 41337
##JCAMP-DX=Revision 4.10 
##DATA TYPE=MASS SPECTRUM
##SAMPLE DESCRIPTION=NIST Mass Spectrometry Data Center
##NAMES=HP
##CAS NAME=Benzeneacetic acid, TMS derivative
##MOLFORM=C11H16O2Si
##CAS REGISTRY NO=2078-18-4
##MP= -300
##BP= -300
##MW= 208
##$RETENTION INDEX=1302
##$CONDENSED SPECTRUM=NO
##NPOINTS= 107
##XYDATA=(XY..XY) 1 
    15          2
    26          1
    27          3
    28          2
    29          6
    30          1
    31          2
    37          1
    38          4
    39         32
    40          3
    41          9
    42          4
    43         34
    44         14
    45         99
    46          7
    47         38
    48          2
    49          2
    50          7
    51         20
    52          6
    53          4
    54          1
    55          6
    56          1
    57          6
    58         23
    59         21
    60          7
    61         34
    62         10
    63         34
    64         11
    65         99
    66          6
    67          1
    68          1
    69          1
    70          2
    71          3
    72         14
    73        999
    74         97
    75        340
    76         25
    77         18
    78          2
    79          2
    81          1
    82          1
    83          1
    85          1
    86          1
    87          2
    88          2
    89         58
    90         57
    91        197
    92         16
    93          2
    95          1
    96         12
   101          1
   102          1
   103          2
   104          1
   105          5
   106          1
   107          1
   115          1
   116          2
   117         29
   118         20
   119          6
   120          1
   121          9
   122          1
   123          1
   131          2
   132          1
   133          3
   134          1
   135          6
   136          1
   137         40
   138          5
   139          2
   145          1
   146          1
   147          2
   148          3
   149          7
   150          3
   151          1
   164        197
   165         52
   166         12
   167          2
   177          1
   193        125
   194         20
   195          6
   196          1
   208          9
   209          1