##TITLE=Library Entry 9231
##JCAMP-DX=Revision 4.10 
##DATA TYPE=MASS SPECTRUM
##SAMPLE DESCRIPTION=Insect Chem. Ecol. Lab., USDA, Beltsville, MD 20705
##NAMES=HP
##CAS NAME=3-Octanol, 3,7-dimethyl-, acetate
##MOLFORM=C12H24O2
##CAS REGISTRY NO=20780-48-7
##MP= -300
##BP= -300
##MW= 200
##$RETENTION INDEX=1234
##$CONDENSED SPECTRUM=NO
##NPOINTS= 73
##XYDATA=(XY..XY) 1 
    41        229
    42         42
    43        999
    44         22
    45         23
    47         14
    48          7
    52          1
    53         24
    54         11
    55        293
    56        106
    57        164
    58         54
    59         12
    60          0
    61          7
    65          4
    66          1
    67         25
    68         13
    69        436
    70        359
    71        135
    73        620
    74         24
    75          1
    77          4
    79          5
    81         11
    82         11
    83        124
    84         14
    85         82
    86          5
    87         11
    88          8
    91          1
    93          0
    95         21
    96          5
    97         17
    98          5
    99         13
   100          2
   109          6
   110         12
   111        403
   112         46
   113          6
   114          6
   115        561
   116         32
   117          3
   119          0
   123          1
   125         57
   126          5
   128          5
   129        361
   130         78
   131          6
   133          2
   139          1
   140        205
   141         51
   143         67
   144          6
   156          0
   157          0
   171         73
   172          7
   185          4