##TITLE=Library Entry 43775
##JCAMP-DX=Revision 4.10 
##DATA TYPE=MASS SPECTRUM
##SAMPLE DESCRIPTION=TNO Volatile Compounds in Food - Chemical Concepts
##NAMES=HP
##CAS NAME=Gallic acid, 4TMS derivative
##MOLFORM=C19H38O5Si4
##CAS REGISTRY NO=2078-17-3
##MP= -300
##BP= -300
##MW= 458
##$RETENTION INDEX=1987
##$CONDENSED SPECTRUM=NO
##NPOINTS= 175
##XYDATA=(XY..XY) 1 
    41          1
    42          3
    43         20
    44         18
    45        175
    46         11
    47          9
    50          1
    51          3
    52          0
    53          3
    55          3
    56          1
    57          5
    58          8
    59         18
    60          2
    61          3
    64          1
    65          2
    66          0
    67          0
    69          4
    70          2
    71          3
    72         13
    73        999
    74         94
    75         55
    76          4
    77          9
    78          1
    79          2
    83          6
    85          3
    87          1
    88          1
    89          3
    90          4
    91         14
    93          2
    95          1
    96          4
    97          2
    99          1
   103          7
   104          1
   105          8
   107          4
   108          1
   109          1
   115          2
   116          1
   117          8
   118          2
   119          9
   120          1
   121          2
   123          1
   126          1
   129          1
   131         12
   132          2
   133         29
   134          5
   135         10
   137          1
   141          2
   143          2
   145          1
   147         56
   148          7
   149          7
   150          1
   151          2
   153          1
   155          1
   159          1
   161          2
   163          3
   164          2
   167          3
   168          0
   170          1
   171          1
   175          0
   177          5
   178          3
   179         51
   180          7
   181          8
   183          1
   191          4
   192          2
   193         12
   194          3
   195          4
   196          0
   197          1
   203          1
   205          2
   207         13
   208          6
   209          9
   210          5
   211          1
   215          1
   219          1
   221          3
   222          3
   223          5
   224          2
   225          1
   235          2
   236          1
   237         12
   238          5
   239          5
   249          1
   251          7
   252          2
   253         11
   254          2
   255          1
   265          4
   266          1
   267          4
   268          1
   279          3
   280          2
   281        261
   282         63
   283         23
   284          4
   285          1
   295          5
   296          3
   297          1
   309          1
   311         15
   312          5
   313          2
   325          2
   326          3
   327          1
   328          0
   339          2
   341          1
   353          2
   354          0
   355         21
   356          8
   357          3
   367          0
   369         17
   370          8
   371          2
   372          1
   385          1
   386          1
   399         13
   400          4
   401          1
   427          1
   443         86
   444         34
   445         20
   446          7
   458        253
   459        115
   460         57
   461         16
   462          5
   463          2
   464          0