##TITLE=Library Entry 78700
##JCAMP-DX=Revision 4.10 
##DATA TYPE=MASS SPECTRUM
##SAMPLE DESCRIPTION=NIST Mass Spectrometry Data Center
##NAMES=HP
##CAS NAME=2-Fluoro-3-(trifluoromethyl)benzophenone
##MOLFORM=C14H8F4O
##CAS REGISTRY NO=207853-70-1
##MP= -300
##BP= -300
##MW= 268
##$RETENTION INDEX=0
##$CONDENSED SPECTRUM=NO
##NPOINTS= 115
##XYDATA=(XY..XY) 1 
    17          1
    18          4
    20          2
    26          8
    27         37
    28         11
    29          4
    31         11
    37          6
    38         16
    39         28
    40          1
    44          1
    45          1
    50        161
    51        382
    52         18
    53          9
    56          3
    57         11
    61          6
    62         16
    63         33
    64          2
    68         24
    69         69
    70          2
    71          1
    72          1
    74         60
    75         87
    77        638
    78         37
    79          2
    80          4
    81          7
    82          1
    85          6
    86          6
    87          6
    88          3
    92          8
    93         29
    94         39
    95          7
    96          1
    97          1
    98          6
    99         21
   100          4
   101          2
   103          2
   105        999
   106         77
   107          5
   110          5
   111          3
   112         11
   113         58
   114          5
   116          2
   117          4
   118          4
   120         13
   122          3
   123          6
   125         14
   126          2
   131          1
   132          1
   133          1
   134          1
   137          3
   138          2
   143         58
   144         27
   145          3
   149          2
   150          5
   151          6
   152          2
   163        186
   164         15
   167          1
   168          3
   169          6
   170         14
   171          5
   175          1
   179          2
   180          1
   181          1
   182          1
   183          1
   187          1
   188          2
   191        230
   192         22
   193          3
   199         23
   200          4
   201          8
   202          1
   219          9
   220          2
   229          1
   237          1
   238          1
   240          5
   247          2
   249         39
   250          6
   268        249
   269         37
   270          3