##TITLE=Library Entry 26449
##JCAMP-DX=Revision 4.10 
##DATA TYPE=MASS SPECTRUM
##SAMPLE DESCRIPTION=Chemical Concepts
##NAMES=HP
##CAS NAME=2-(E)-Hexenoic acid, (4S)-[(t-butoxycarbonyl)amino-5-methyl-, met
hyl ester
##MOLFORM=C13H23NO4
##CAS REGISTRY NO=207924-96-7
##MP= -300
##BP= -300
##MW= 257
##$RETENTION INDEX=0
##$CONDENSED SPECTRUM=NO
##NPOINTS= 152
##XYDATA=(XY..XY) 1 
    26          2
    27         37
    28         16
    29         84
    30          9
    31         12
    33          1
    35          1
    38          1
    39         30
    40          5
    41        164
    42         14
    43         37
    44          4
    45          5
    46          0
    47          0
    48          0
    49          0
    50          0
    51          0
    52          6
    53         11
    54         25
    55         38
    56         34
    57        999
    58         39
    59         44
    60          2
    61         31
    62          2
    63          1
    65          3
    66          1
    67          9
    68          2
    69          5
    70          5
    71          2
    72         51
    73         10
    74          2
    77          1
    78          0
    79          5
    80          5
    81         21
    82         50
    83         19
    84         10
    85         10
    86          5
    87          1
    88          4
    89          0
    91          1
    92          0
    93          0
    94          1
    95          6
    96          7
    97          1
    98         22
    99          2
   100          3
   101          1
   102          1
   103          2
   106          0
   107          0
   108          1
   109         27
   110         11
   111          1
   112          2
   113          2
   114        600
   115         34
   116         32
   117          1
   118          0
   119          0
   120          5
   122          0
   123          0
   124          9
   125         12
   126         44
   127         15
   128          1
   129          9
   130          5
   131         11
   132          0
   136          0
   138          0
   139          0
   140          4
   141         14
   142         16
   143          1
   144          0
   146          1
   148          0
   151          0
   152         15
   153          2
   154          1
   155          0
   156          7
   157         12
   158        249
   159         26
   160          6
   161          0
   164          5
   165          0
   166          0
   168          0
   169          4
   170         11
   171          0
   172          5
   173          0
   183          0
   184         43
   185         16
   186          2
   187          6
   188          0
   190          1
   192          0
   193          0
   194          0
   195          0
   198          0
   199          0
   200          0
   201         61
   202          7
   203          1
   214        139
   215         18
   216          2
   220          2
   225          0
   242          3
   243          0
   257         12
   258          2