##TITLE=Library Entry 30185
##JCAMP-DX=Revision 4.10 
##DATA TYPE=MASS SPECTRUM
##SAMPLE DESCRIPTION=TNO Volatile Compounds in Food - Chemical Concepts
##NAMES=HP
##CAS NAME=Methyl 3-(methylthio)butanoate
##MOLFORM=C6H12O2S
##CAS REGISTRY NO=207983-28-6
##MP= -300
##BP= -300
##MW= 148
##$RETENTION INDEX=0
##$CONDENSED SPECTRUM=NO
##NPOINTS= 64
##XYDATA=(XY..XY) 1 
    26          7
    27         50
    28         87
    29         61
    30          5
    31         18
    32          7
    33          7
    34         24
    35          4
    37          2
    38         10
    39        124
    40         20
    41        632
    42         65
    43         24
    44         11
    45        101
    46         36
    47        145
    48         47
    49         42
    53          4
    54          5
    55         28
    56          2
    57          3
    58         16
    59        999
    60         25
    61         38
    62          1
    63          5
    68          4
    69         73
    70          8
    71          6
    72          2
    73         23
    74         35
    75        960
    76         21
    77         19
    85          7
    87         43
    88        217
    89         47
    90          9
    91         39
   100          9
   101        175
   102         19
   103          4
   115          3
   116          2
   117         61
   118          2
   133         68
   134          4
   135          2
   148        570
   149         17
   150         10