##TITLE=Library Entry 78757
##JCAMP-DX=Revision 4.10 
##DATA TYPE=MASS SPECTRUM
##SAMPLE DESCRIPTION=NIST Mass Spectrometry Data Center, 1994
##NAMES=HP
##CAS NAME=2-Fluoro-4-(trifluoromethyl)benzophenone
##MOLFORM=C14H8F4O
##CAS REGISTRY NO=207974-08-1
##MP= -300
##BP= -300
##MW= 268
##$RETENTION INDEX=0
##$CONDENSED SPECTRUM=NO
##NPOINTS= 95
##XYDATA=(XY..XY) 1 
    18          1
    20          3
    27          7
    37          3
    38         11
    39         21
    50        129
    51        333
    52         16
    53          7
    56          3
    57         11
    61          5
    62         14
    63         33
    64          2
    68         20
    69         44
    70          2
    71          1
    73          2
    74         27
    75         68
    76          1
    77        555
    78         36
    79          1
    80          3
    81          7
    82          2
    85          6
    86          5
    87          5
    88          2
    92          5
    93         28
    94         37
    95         19
    98          5
    99         14
   100          2
   105        999
   106         76
   107          5
   109          1
   110          4
   111          2
   112         10
   113         60
   114          4
   117          3
   118          3
   119          3
   120         10
   122          2
   123          6
   124          4
   125         12
   126          2
   137          3
   138          1
   143         53
   144         26
   145          3
   149          2
   150          3
   151          6
   152          3
   161          2
   163        185
   164         15
   168          2
   169          6
   170         14
   171          5
   172          1
   179          3
   181          1
   188          2
   191        247
   192         19
   193          3
   199         29
   200          5
   201          6
   219         11
   220          2
   221         12
   222          1
   240          5
   249         32
   250          4
   268        232
   269         33
   270          2