##TITLE=Library Entry 76948
##JCAMP-DX=Revision 4.10 
##DATA TYPE=MASS SPECTRUM
##SAMPLE DESCRIPTION=NIST Mass Spectrometry Data Center, 1994
##NAMES=HP
##CAS NAME=N-Tritylformamide
##MOLFORM=C20H17NO
##CAS REGISTRY NO=20799-66-0
##MP= -300
##BP= -300
##MW= 287
##$RETENTION INDEX=0
##$CONDENSED SPECTRUM=NO
##NPOINTS= 124
##XYDATA=(XY..XY) 1 
    16          1
    17          1
    18          9
    27         10
    28         33
    38         11
    39         74
    40          5
    46          6
    49          3
    50         69
    51        311
    52         46
    53          7
    62         12
    63         48
    64         10
    65         32
    66          5
    75         28
    77        646
    78         88
    79         21
    81          5
    83          3
    86          8
    87         14
    88         18
    89         29
    90         10
    91         27
    94         27
    98          5
    99          6
   100         10
   101         22
   102         21
   103          5
   104        999
   105        111
   106         17
   107         20
   108         17
   111          4
   113         38
   114         15
   115         62
   116         17
   117          3
   119         18
   120         44
   122          4
   125          5
   126         17
   127         17
   128         17
   129          7
   130          5
   137          5
   138          7
   139         45
   140          9
   141          5
   150         16
   151         26
   152         55
   153         28
   154         15
   155         16
   162          7
   163         42
   165        513
   166         94
   167         30
   168          4
   175          3
   176         12
   177          6
   178         15
   179          3
   180        130
   181          3
   182        597
   183        120
   184         10
   187         12
   188          7
   189         20
   190          6
   193        168
   194        286
   195         41
   200         12
   201          9
   202         30
   203          8
   208         14
   210        389
   211         69
   212         10
   213         20
   214          6
   215         49
   216         12
   226         34
   227         22
   228         41
   229         11
   237         20
   239         97
   240         31
   241        102
   242        116
   243        139
   244         37
   245          4
   256          5
   258         22
   259          7
   269          3
   270          5
   287        465
   288         97
   289         11