##TITLE=Library Entry 2973
##JCAMP-DX=Revision 4.10 
##DATA TYPE=MASS SPECTRUM
##SAMPLE DESCRIPTION=NIST Mass Spectrometry Data Center
##NAMES=HP
##CAS NAME=Tetradecanethiol
##MOLFORM=C14H30S
##CAS REGISTRY NO=2079-95-0
##MP= -300
##BP= -300
##MW= 230
##$RETENTION INDEX=0
##$CONDENSED SPECTRUM=NO
##NPOINTS= 96
##XYDATA=(XY..XY) 1 
    15          7
    17          3
    18         11
    27        226
    28        106
    29        486
    30         12
    31          1
    32          1
    35         28
    36          4
    38          7
    39        165
    40         36
    41        999
    42        199
    43        832
    44         26
    45         56
    46         21
    47        209
    48         14
    51          4
    53          4
    54         65
    55        102
    56        905
    57        453
    58        592
    59         32
    60         22
    61         37
    62        128
    63          5
    65          7
    66         12
    67         18
    68        154
    69        249
    70        655
    71        393
    72        228
    73         12
    74         13
    75          7
    77         11
    79          9
    80         12
    81          4
    82         64
    83        293
    84        624
    85        241
    87        120
    88         30
    89         41
    90        172
    91         10
    94         11
    95          4
    96         20
    97        202
    98        517
    99        168
   101         11
   103         12
   109          7
   110         73
   111        257
   112        109
   113         14
   114          3
   115          5
   123          4
   124         39
   125        156
   126         68
   127         11
   138         15
   139         53
   140         41
   141          5
   152         10
   153         22
   154         13
   155          4
   166          8
   167         17
   168         58
   169         10
   196        130
   197         19
   229         26
   230        272
   231         41
   232         15