##TITLE=Library Entry 49740
##JCAMP-DX=Revision 4.10 
##DATA TYPE=MASS SPECTRUM
##SAMPLE DESCRIPTION=M. IWAMOTO TOYO RAYON CO., SONOYANA, OTSU, SHIGA-KEN, J
APAN
##NAMES=HP
##CAS NAME=1,4-Hexadiene, 3-ethyl-
##MOLFORM=C8H14
##CAS REGISTRY NO=2080-89-9
##MP= -300
##BP= -300
##MW= 110
##$RETENTION INDEX=855
##$CONDENSED SPECTRUM=NO
##NPOINTS= 36
##XYDATA=(XY..XY) 1 
    15         17
    26         28
    27        235
    28         37
    29        106
    38         23
    39        265
    40         41
    41        312
    42         24
    43         14
    50         35
    51         65
    52         35
    53        253
    54         47
    55        241
    56         29
    60         11
    63         20
    65         58
    66         53
    67        167
    68         91
    69         22
    77        106
    79        247
    80         53
    81        999
    82         88
    91         17
    93         17
    95        147
    96         16
   110        147
   111         17