##TITLE=Library Entry 60342
##JCAMP-DX=Revision 4.10 
##DATA TYPE=MASS SPECTRUM
##SAMPLE DESCRIPTION=LAC, NIDDK, NIH, Bethesda, MD 20892
##NAMES=HP
##CAS NAME=Bis(p-toluenesulfonyl)-l-histidine, methyl ester
##MOLFORM=C21H23N3O6S2
##CAS REGISTRY NO=2080-77-5
##MP= -300
##BP= -300
##MW= 477
##$RETENTION INDEX=0
##$CONDENSED SPECTRUM=NO
##NPOINTS= 73
##XYDATA=(XY..XY) 1 
    41         67
    42         19
    43         41
    45         15
    48         25
    49         24
    50         27
    51         52
    52         27
    53         31
    54         46
    55         31
    57         22
    59         28
    62         23
    63         79
    64          9
    65        380
    66         24
    67         19
    68         12
    69         21
    71         14
    74          3
    77         43
    78         17
    79         21
    80         31
    81        533
    82         99
    83         16
    84          8
    85          3
    86          4
    89        102
    90         64
    91        999
    92        122
    93          9
    95         74
    96         58
    97          7
   107         34
   108         78
   109         20
   110          3
   111         14
   121          7
   123          8
   139         60
   140          3
   141          4
   143          3
   155        452
   156         56
   157         34
   166          9
   167         36
   171         29
   172          9
   235         42
   236        485
   237         74
   238         31
   242         18
   262          3
   263         29
   264         18
   306          7
   322          7
   418         59
   419         13
   477          7