##TITLE=Library Entry 17447
##JCAMP-DX=Revision 4.10 
##DATA TYPE=MASS SPECTRUM
##SAMPLE DESCRIPTION=James Little,Eastman Chem.Co.,Kingsport,TN
##NAMES=HP
##CAS NAME=1,3-Dithiolan-2-one
##MOLFORM=C3H4OS2
##CAS REGISTRY NO=2080-58-2
##MP= -300
##BP= -300
##MW= 120
##$RETENTION INDEX=0
##$CONDENSED SPECTRUM=NO
##NPOINTS= 30
##XYDATA=(XY..XY) 1 
    27        288
    28        234
    32        145
    33         39
    34         70
    35         13
    44        150
    45        999
    46        350
    47        114
    48         26
    57         76
    58        178
    59        595
    60        429
    61         58
    64        311
    76         72
    77          9
    78          9
    91         20
    92        721
    93         45
    94         72
   120        649
   121         67
   122         71
   123         14
   124          8
   125          4