##TITLE=Library Entry 8737
##JCAMP-DX=Revision 4.10 
##DATA TYPE=MASS SPECTRUM
##SAMPLE DESCRIPTION=Exported from NIST MS Search
##NAMES=HP
##CAS NAME=4-Octanone, 7-methyl-
##MOLFORM=C9H18O
##CAS REGISTRY NO=20809-46-5
##MP= -300
##BP= -300
##MW= 142
##$RETENTION INDEX=0
##$CONDENSED SPECTRUM=NO
##NPOINTS= 32
##XYDATA=(XY..XY) 1 
    27        409
    28         95
    29        212
    30          5
    31          7
    39        194
    41        347
    42        109
    43        999
    44         32
    45          7
    55         91
    56         29
    57         90
    58        375
    59         17
    69         14
    70         16
    71        669
    72         38
    73          3
    84          1
    85          4
    86        181
    87         36
    99        213
   100         17
   101          3
   113         17
   114          2
   127          3
   142         74