##TITLE=Library Entry 4594
##JCAMP-DX=Revision 4.10 
##DATA TYPE=MASS SPECTRUM
##SAMPLE DESCRIPTION=A.A.Kutin, Moscow, Russia
##NAMES=HP
##CAS NAME=Oxazolidin-2-one, 3-methyl-5-phenyl-
##MOLFORM=C10H11NO2
##CAS REGISTRY NO=20805-26-9
##MP= -300
##BP= -300
##MW= 177
##$RETENTION INDEX=0
##$CONDENSED SPECTRUM=NO
##NPOINTS= 55
##XYDATA=(XY..XY) 1 
    33          0
    39        154
    42        999
    43        811
    44        198
    46          0
    51        267
    52         29
    54          5
    56         28
    58          9
    62         94
    65        107
    67          0
    68          0
    71          0
    72          3
    74         27
    75         16
    77        168
    78         62
    79         21
    80          1
    83          0
    85          0
    86          2
    87          5
    89         72
    91        238
    92         16
    93          1
    94          0
    98          0
    99          2
   100          1
   103         53
   104         50
   105         58
   107         50
   108         14
   109          1
   117         66
   118         15
   120         18
   128          0
   132        448
   133         84
   134         10
   135          0
   148          6
   149          3
   177        255
   178         30
   179          2
   180          0