##TITLE=Library Entry 79695
##JCAMP-DX=Revision 4.10 
##DATA TYPE=MASS SPECTRUM
##SAMPLE DESCRIPTION=NIST Mass Spectrometry Data Center, 1994
##NAMES=HP
##CAS NAME=2,3-Difluorobenzophenone
##MOLFORM=C13H8F2O
##CAS REGISTRY NO=208173-20-0
##MP= -300
##BP= -300
##MW= 218
##$RETENTION INDEX=0
##$CONDENSED SPECTRUM=NO
##NPOINTS= 66
##XYDATA=(XY..XY) 1 
    17         11
    18         47
    37         10
    38         10
    39         22
    44          0
    49          5
    50         98
    51        289
    52         14
    53          8
    56          4
    57         13
    61         11
    62         30
    63        171
    64         10
    68         18
    69         12
    72          2
    73          0
    74          2
    75         33
    76          0
    77        586
    78         36
    80          4
    81         13
    82          6
    85         15
    86          7
    87         10
    88          4
    92          6
    93         25
    94         23
    95         29
    98          4
    99          6
   101          2
   105        999
   106         72
   107          6
   109          7
   111          5
   113        221
   114         15
   123          4
   141        308
   142         23
   143          3
   151          4
   162          3
   168          7
   169          9
   170         12
   187          3
   188         18
   189          9
   190          8
   198         25
   199         10
   201          4
   218        453
   219         62
   220          5