##TITLE=Library Entry 19689
##JCAMP-DX=Revision 4.10 
##DATA TYPE=MASS SPECTRUM
##SAMPLE DESCRIPTION=LAC, NIDDK, NIH, Bethesda, MD 20892
##NAMES=HP
##CAS NAME=4,22-Stigmastadiene-3-one
##MOLFORM=C29H46O
##CAS REGISTRY NO=20817-72-5
##MP= -300
##BP= -300
##MW= 410
##$RETENTION INDEX=3399
##$CONDENSED SPECTRUM=NO
##NPOINTS= 189
##XYDATA=(XY..XY) 1 
    41        473
    43        775
    44         15
    49          6
    51          6
    53         91
    55        999
    57        117
    58          1
    65         41
    67        289
    69        564
    70         10
    71         59
    77        127
    79        306
    81        410
    83        351
    84         58
    85         30
    86          4
    91        253
    93        267
    95        332
    96         33
    97        292
    98         22
    99          6
   100          0
   103         17
   105        195
   107        205
   108         14
   109        171
   110         38
   111         40
   112          4
   113          4
   115         21
   116          7
   117         60
   119        131
   121        183
   122         11
   123        243
   124        107
   125         15
   127          2
   128         20
   129         29
   130          7
   131         81
   133        148
   134         47
   135        106
   136         29
   137         88
   138         17
   139         11
   140          2
   141         13
   142         11
   143         30
   144         12
   145         81
   146         23
   147        170
   148         38
   149        139
   150          3
   151         33
   152          4
   153          2
   154          1
   155         13
   156          2
   157         37
   158          8
   159         65
   160          7
   161         95
   162         20
   163         42
   164          3
   165         11
   166         20
   167          3
   168          1
   169         11
   170          5
   171         25
   172         13
   173         47
   174         25
   175         64
   176         10
   177         31
   178          3
   179          1
   180          3
   181          3
   183         11
   184          3
   185         25
   186          7
   187         34
   188          8
   189         20
   190          3
   191         10
   192          2
   195          1
   197         11
   198          2
   199         17
   200          7
   201         27
   202          4
   203         33
   204          4
   205          3
   209          3
   211         12
   212          3
   213         18
   214          4
   215         26
   216          3
   217         13
   218          1
   223          0
   225          9
   226          1
   227         34
   228         11
   229         49
   230          9
   231         34
   232          4
   239          3
   241         10
   242          8
   243         32
   244         12
   245         89
   246         14
   251          2
   252          2
   253         46
   254          9
   255         13
   256         34
   257         29
   258          3
   259          3
   268         34
   269        122
   270         74
   271        142
   272         31
   273          5
   274          0
   280          3
   281         10
   283         32
   284          9
   285          9
   286          2
   287          0
   297         47
   298         89
   299         34
   300          5
   311          3
   312         19
   313         14
   314          2
   325          2
   327          3
   349          8
   350          0
   367         48
   368         12
   381          1
   395          3
   410         82
   411         30
   412          9
   413          1