##TITLE=Library Entry 69523
##JCAMP-DX=Revision 4.10 
##DATA TYPE=MASS SPECTRUM
##SAMPLE DESCRIPTION=T.Hofmann ET AL.J.Agr.Food Chem.,46,2270(1998)
##NAMES=HP
##CAS NAME=2-Acetyl-3-methyl-3,4,5,6-tetrahydropyridine
##MOLFORM=C8H13NO
##CAS REGISTRY NO=208102-57-2
##MP= -300
##BP= -300
##MW= 139
##$RETENTION INDEX=0
##$CONDENSED SPECTRUM=NO
##NPOINTS= 21
##XYDATA=(XY..XY) 1 
    39         97
    41        360
    42        227
    43        653
    52         27
    54        116
    55        208
    66         23
    68        257
    69        691
    79         34
    82        238
    96        999
    97        227
    98         13
   112         46
   113         34
   124        358
   138         23
   139        777
   140         74