##TITLE=Library Entry 85982
##JCAMP-DX=Revision 4.10 
##DATA TYPE=MASS SPECTRUM
##SAMPLE DESCRIPTION=NIST Mass Spectrometry Data Center, 1990.
##NAMES=HP
##CAS NAME=2,5,8- Trimethyl-1-nonen-3-yn-5-ol
##MOLFORM=C12H20O
##CAS REGISTRY NO=208173-17-5
##MP= -300
##BP= -300
##MW= 180
##$RETENTION INDEX=0
##$CONDENSED SPECTRUM=NO
##NPOINTS= 78
##XYDATA=(XY..XY) 1 
    26         12
    27        117
    29         68
    38         26
    39        243
    40         60
    41        321
    42         12
    43        604
    44         21
    50         66
    51        157
    52         50
    53        137
    54         16
    55         97
    56         18
    57         49
    58         66
    59         26
    61         11
    62         35
    63        112
    64         47
    65        231
    66         87
    67         62
    68         11
    69         48
    71         25
    74         21
    75         32
    76         34
    77        315
    78        178
    79        190
    80         24
    81         67
    82         11
    83         13
    87          9
    89         38
    91        831
    92         78
    93         96
    94         18
    95         36
    96         12
   102         21
   103        106
   104         81
   105        280
   106        516
   107        111
   108         12
   109        999
   110         87
   111         58
   115         77
   116         26
   117         85
   118         21
   119        321
   120         49
   121         17
   123         20
   124         38
   128         14
   129         11
   131         13
   133         29
   134         16
   137         15
   147        169
   148         19
   162        163
   163         23
   165         47