##TITLE=Library Entry 58147
##JCAMP-DX=Revision 4.10 
##DATA TYPE=MASS SPECTRUM
##SAMPLE DESCRIPTION=Japan AIST/NIMC Database- Spectrum MS-NW-9479
##NAMES=HP
##CAS NAME=Allyl dimethyldithiocarbamate
##MOLFORM=C6H11NS2
##CAS REGISTRY NO=20821-66-3
##MP= -300
##BP= -300
##MW= 161
##$RETENTION INDEX=1417
##$CONDENSED SPECTRUM=NO
##NPOINTS= 70
##XYDATA=(XY..XY) 1 
    14          1
    15         24
    26          2
    27          8
    28          5
    29          1
    30          5
    32          3
    33          1
    34          2
    37          2
    38          6
    39         56
    40          9
    41         75
    42         90
    43         18
    44        276
    45         37
    46          7
    47         24
    48          1
    49          1
    54          1
    55          3
    56         20
    57          1
    58          3
    59          3
    61          8
    64          8
    69          2
    70          2
    71          8
    72         27
    73         64
    74         71
    75          5
    76         22
    77         76
    78          4
    79          7
    82          2
    84          1
    85          2
    87          1
    88        999
    89         61
    90         46
    91          2
    94          2
   105          2
   114          3
   117          2
   120        151
   121         10
   122         13
   128         13
   129          1
   132          8
   133          1
   134          1
   146         70
   147          5
   148          6
   160          1
   161        302
   162         26
   163         27
   164          2