##TITLE=Library Entry 34152
##JCAMP-DX=Revision 4.10 
##DATA TYPE=MASS SPECTRUM
##SAMPLE DESCRIPTION=Japan AIST/NIMC Database- Spectrum MS-IW-2390
##NAMES=HP
##CAS NAME=1,4-Butylene glycol dimethacrylate
##MOLFORM=C12H18O4
##CAS REGISTRY NO=2082-81-7
##MP= -300
##BP= -300
##MW= 226
##$RETENTION INDEX=0
##$CONDENSED SPECTRUM=NO
##NPOINTS= 86
##XYDATA=(XY..XY) 1 
    15          3
    26          2
    27         15
    28         10
    29         16
    30          1
    31          6
    37          1
    38          4
    39        103
    40         44
    41        458
    42         40
    43         23
    44          3
    45         20
    53          6
    54        244
    55        195
    56         12
    57          4
    58          2
    59          8
    67          6
    68        100
    69        999
    70         67
    71        141
    72         15
    73         25
    74          2
    79          2
    80          5
    81         11
    82         13
    83          2
    84          4
    85          4
    86         16
    87         53
    88          3
    94          8
    95         33
    96          3
    97          3
    98         17
    99         32
   100          4
   101         11
   102          1
   107          1
   108         36
   109         12
   110          9
   111          9
   112          4
   113          2
   117          1
   122          1
   123          1
   125          8
   126        108
   127         17
   128          3
   131          1
   136         52
   137          6
   138          2
   139          2
   140        116
   141        103
   142          9
   143          1
   144          2
   153          1
   154         20
   155          3
   157          3
   171          2
   172         11
   173          2
   180          3
   186          1
   198          7
   226          6
   227          1