##TITLE=Library Entry 87327
##JCAMP-DX=Revision 4.10 
##DATA TYPE=MASS SPECTRUM
##SAMPLE DESCRIPTION=TNO Volatile Compounds in Food - Chemical Concepts
##NAMES=HP
##CAS NAME=2-Thiophenebutanoic acid, methyl ester
##MOLFORM=C9H12O2S
##CAS REGISTRY NO=20828-66-4
##MP= -300
##BP= -300
##MW= 184
##$RETENTION INDEX=0
##$CONDENSED SPECTRUM=NO
##NPOINTS= 64
##XYDATA=(XY..XY) 1 
    27         32
    28         20
    29         10
    31          6
    32          1
    33          3
    34         11
    38          5
    39         59
    41         26
    42          5
    43         62
    44          7
    45        118
    47          8
    50          4
    51         17
    52          5
    53         54
    55         19
    57          3
    58         14
    59         17
    62          5
    63         12
    65         12
    66         14
    67          5
    69         13
    70          4
    71         14
    72          2
    74         98
    75          1
    77         21
    78          4
    79         10
    80          2
    82          2
    84         18
    85          6
    91          7
    95          4
    96          7
    97        650
    98         24
    99         15
   109         13
   110        999
   111        162
   112         32
   113          5
   123         18
   124         17
   125         14
   126          2
   135          5
   152         38
   153        135
   154         13
   155          4
   184        187
   185         18
   186          7