##TITLE=Library Entry 17861
##JCAMP-DX=Revision 4.10 
##DATA TYPE=MASS SPECTRUM
##SAMPLE DESCRIPTION=MINISTRY OF TECH. E.R.D.E., WALTHAM ABBEY, UK
##NAMES=HP
##CAS NAME=Nitroisobutanetriol trinitrate
##MOLFORM=C4H6N4O11
##CAS REGISTRY NO=20820-44-4
##MP= -300
##BP= -300
##MW= 286
##$RETENTION INDEX=0
##$CONDENSED SPECTRUM=NO
##NPOINTS= 36
##XYDATA=(XY..XY) 1 
    14         15
    15         53
    26         26
    27         82
    28        121
    29        195
    30        419
    31         45
    32          6
    39         40
    40         16
    41         51
    42         45
    43         93
    44         59
    45         16
    46        999
    47         10
    55         55
    56         32
    57         26
    58         12
    59         16
    60         10
    69         26
    70         10
    71         14
    73          8
    74         12
    76         39
    87         21
    91          9
    97         15
   102         26
   118         12
   166          7