##TITLE=Library Entry 502
##JCAMP-DX=Revision 4.10 
##DATA TYPE=MASS SPECTRUM
##SAMPLE DESCRIPTION=S. ADACHI,LAB. ANIM. PROD. TECHNOL.,TOHOKU UNIV., SENDA
I,JPN.
##NAMES=HP
##CAS NAME=1,6-Anhydro-3,4-O-isopropylidene-2-O-methyl-.beta.-D-galactopyran
ose
##MOLFORM=C10H16O5
##CAS REGISTRY NO=20822-68-8
##MP= -300
##BP= -300
##MW= 216
##$RETENTION INDEX=0
##$CONDENSED SPECTRUM=NO
##NPOINTS= 21
##XYDATA=(XY..XY) 1 
    29        999
    41        450
    43        980
    45        350
    55        560
    57        590
    58        320
    59        850
    69        260
    71        240
    81        320
    85        330
    87        180
    95        150
    97        280
   101        400
   113        320
   129        360
   143        320
   149        270
   201        550