##TITLE=Library Entry 18871
##JCAMP-DX=Revision 4.10 
##DATA TYPE=MASS SPECTRUM
##SAMPLE DESCRIPTION=Exported from NIST MS Search
##NAMES=HP
##CAS NAME=2(3H)-Furanone
##MOLFORM=C4H4O2
##CAS REGISTRY NO=20825-71-2
##MP= -300
##BP= -300
##MW= 84
##$RETENTION INDEX=914
##$CONDENSED SPECTRUM=NO
##NPOINTS= 19
##XYDATA=(XY..XY) 1 
    26        409
    27        637
    28        239
    29        204
    36         11
    37         69
    38         91
    39        198
    41         23
    42          4
    43         12
    44        165
    53        440
    54        248
    55        999
    56         36
    83         18
    84        514
    85         25