##TITLE=Library Entry 66078
##JCAMP-DX=Revision 4.10 
##DATA TYPE=MASS SPECTRUM
##SAMPLE DESCRIPTION=Chemical Concepts
##NAMES=HP
##CAS NAME=3,5-Pyrazolidinedione, 1-phenyl-4-(phenylazo)-
##MOLFORM=C15H12N4O2
##CAS REGISTRY NO=20838-19-1
##MP= -300
##BP= -300
##MW= 280
##$RETENTION INDEX=0
##$CONDENSED SPECTRUM=NO
##NPOINTS= 75
##XYDATA=(XY..XY) 1 
    27         31
    29         43
    31         10
    38         25
    39         99
    40         20
    41         58
    42         18
    43         98
    44         28
    45         21
    50         29
    51        133
    52         44
    53         16
    54         17
    55         38
    56         16
    57         41
    60         18
    63         39
    64         81
    65        207
    66         38
    67         20
    69         65
    70         17
    71         35
    73         21
    76         14
    77        958
    78        103
    79         24
    80         12
    81         23
    82         12
    83         36
    84          9
    85         24
    87         11
    89         10
    90         15
    91        207
    92        198
    93        999
    94         71
    95         17
    97         18
   104         34
   105        200
   106         47
   107        155
   108         33
   109         14
   117         12
   118         43
   119         41
   120         31
   121          9
   129         10
   134        151
   135         23
   140         16
   141         10
   145         25
   146         14
   147         20
   149         17
   160         15
   161          9
   203         55
   204          7
   280        916
   281        166
   282         18