##TITLE=Library Entry 57075
##JCAMP-DX=Revision 4.10 
##DATA TYPE=MASS SPECTRUM
##SAMPLE DESCRIPTION=Exported from NIST MS Search
##NAMES=HP
##CAS NAME=Butanoic acid, 4,4'-selenobis-
##MOLFORM=C8H14O4Se
##CAS REGISTRY NO=20846-67-7
##MP= -300
##BP= -300
##MW= 254
##$RETENTION INDEX=0
##$CONDENSED SPECTRUM=NO
##NPOINTS= 133
##XYDATA=(XY..XY) 1 
    26         15
    27        220
    28         43
    29         71
    30          1
    31         62
    35          6
    36         27
    37          7
    38         21
    39        279
    40         34
    41        387
    42        138
    43        589
    44        297
    45        455
    46         15
    47          3
    51          3
    53          9
    54          3
    55         60
    56          6
    57         27
    58          7
    59         15
    60         68
    61          9
    63         14
    66          3
    67          7
    68         24
    69        120
    70          9
    71          4
    73         38
    74          3
    75          3
    76          1
    77          6
    78          9
    79          6
    80         14
    81         12
    82         10
    83          6
    84          3
    85         46
    86         10
    87        999
    88         72
    89         12
    90         20
    91         51
    92         20
    93         93
    94         54
    95         55
    96         12
    97          7
   101          1
   102          1
   103          6
   104         15
   105         24
   106         27
   107         40
   108         49
   109         23
   110         10
   111          7
   115          4
   116          4
   117         24
   118         41
   119         69
   120         57
   121        103
   122         91
   123         29
   124         17
   125          9
   127         20
   128         24
   129          3
   131          3
   132          1
   133          7
   134          1
   135          9
   137          1
   144          4
   145          6
   146        133
   147         52
   148         99
   149         54
   150        178
   151         66
   152         37
   153         14
   156          1
   158          3
   163          3
   164          1
   165          9
   166          1
   167         12
   168          3
   169          1
   174          3
   175          1
   176          6
   177          6
   190          1
   191          1
   192          4
   194         12
   196          3
   197          4
   202          1
   233          4
   235          7
   248          1
   250         37
   251         34
   252        102
   253          9
   254        207
   255         15
   256         41
   257          3