##TITLE=Library Entry 8280
##JCAMP-DX=Revision 4.10 
##DATA TYPE=MASS SPECTRUM
##SAMPLE DESCRIPTION=Exported from NIST MS Search
##NAMES=HP
##CAS NAME=2-Pentanethiol
##MOLFORM=C5H12S
##CAS REGISTRY NO=2084-19-7
##MP= -300
##BP= -300
##MW= 104
##$RETENTION INDEX=782
##$CONDENSED SPECTRUM=NO
##NPOINTS= 72
##XYDATA=(XY..XY) 1 
    24          1
    25          6
    26         74
    27        541
    28         58
    29        326
    30          7
    31          4
    32         21
    33         57
    34         32
    35         85
    36          4
    37         27
    38         47
    39        372
    40         49
    41        517
    42        281
    43        999
    44         36
    45        131
    46         20
    47        182
    48          6
    49         13
    50         17
    51         23
    52          7
    53         42
    54         11
    55        528
    56         26
    57         17
    58         55
    59        108
    60        152
    61        731
    62         44
    63         39
    64          2
    65          5
    66          1
    67          6
    68          2
    69         26
    70        319
    71        408
    72         22
    73          7
    74          9
    75         36
    76          5
    77          2
    78          1
    81          1
    82          1
    83          1
    84          1
    85          2
    87          3
    88          1
    89         12
    90          1
    91          3
    92          1
    99          2
   103          1
   104        397
   105         26
   106         19
   107          1