##TITLE=Library Entry 71117
##JCAMP-DX=Revision 4.10 
##DATA TYPE=MASS SPECTRUM
##SAMPLE DESCRIPTION=Japan AIST/NIMC Database- Spectrum MS-NW-5624
##NAMES=HP
##CAS NAME=1-Methyl-2-piperidinemethanol
##MOLFORM=C7H15NO
##CAS REGISTRY NO=20845-34-5
##MP= -300
##BP= -300
##MW= 129
##$RETENTION INDEX=0
##$CONDENSED SPECTRUM=NO
##NPOINTS= 70
##XYDATA=(XY..XY) 1 
    15         22
    18          2
    26          5
    27         32
    28         27
    29         18
    30         18
    31         13
    32          3
    37          1
    38          3
    39         31
    40          7
    41         54
    42        189
    43         27
    44         90
    45          3
    50          2
    51          4
    52          3
    53         10
    54         12
    55         44
    56         22
    57         28
    58          8
    65          4
    66          3
    67         16
    68         28
    69         10
    70        216
    71         12
    72          2
    73          3
    74          1
    77          1
    78          2
    79          4
    80          5
    81          9
    82         34
    83         13
    84         20
    85          2
    86          5
    91          1
    92          1
    93          2
    94          9
    95          4
    96         52
    97         18
    98        999
    99         70
   100          4
   106          1
   107          1
   108          4
   109          3
   110         24
   111         26
   112          6
   113          1
   114          1
   126          1
   127          1
   128          7
   129          3