##TITLE=Library Entry 31141
##JCAMP-DX=Revision 4.10 
##DATA TYPE=MASS SPECTRUM
##SAMPLE DESCRIPTION=Exported from NIST MS Search
##NAMES=HP
##CAS NAME=2-Butanethiol, 3-methyl-
##MOLFORM=C5H12S
##CAS REGISTRY NO=2084-18-6
##MP= -300
##BP= -300
##MW= 104
##$RETENTION INDEX=773
##$CONDENSED SPECTRUM=NO
##NPOINTS= 61
##XYDATA=(XY..XY) 1 
    25          2
    26         40
    27        455
    28         56
    29        224
    30          5
    32         12
    33         35
    34         35
    35         84
    36          2
    37         15
    38         28
    39        264
    40         37
    41        353
    42         65
    43        747
    44         24
    45        109
    46         23
    47         94
    48          4
    49          8
    50         19
    51         25
    52          8
    53         54
    54         10
    55        387
    56         27
    57         10
    58         35
    59         98
    60        366
    61        999
    62        102
    63         56
    64          4
    65          3
    66          1
    67          4
    68          1
    69         22
    70         88
    71        317
    72         17
    73          6
    74          4
    75          2
    76          3
    87          2
    88          1
    89         18
    90          1
    91          1
   103          2
   104        313
   105         20
   106         15
   107          1