##TITLE=Library Entry 50770
##JCAMP-DX=Revision 4.10 
##DATA TYPE=MASS SPECTRUM
##SAMPLE DESCRIPTION=W.Jennings, T.Shibamoto
##NAMES=HP
##CAS NAME=Cyclohexane glycidate
##MOLFORM=C9H14O3
##CAS REGISTRY NO=208524-95-2
##MP= -300
##BP= -300
##MW= 170
##$RETENTION INDEX=1344
##$CONDENSED SPECTRUM=NO
##NPOINTS= 65
##XYDATA=(XY..XY) 1 
    27          7
    29        221
    31         19
    39          7
    40         27
    41        139
    42         27
    43        468
    45         19
    51          7
    53         71
    54        239
    55        534
    56         19
    57        131
    58         19
    59          7
    60         59
    61         19
    63          7
    65         19
    66         93
    67        918
    68        123
    69        123
    70         59
    71         19
    75         27
    76         49
    77        192
    78         49
    79        343
    80         71
    81        999
    82        192
    83        163
    84         19
    86         28
    87          7
    88         28
    89          7
    91         49
    92         19
    93        409
    94         59
    95          7
    97        388
    98         49
    99        948
   100        162
   109        162
   110        119
   111        761
   112        128
   113         29
   127        983
   128        242
   129          7
   137          7
   138        113
   139         49
   141          7
   156         62
   166          7
   167         29