##TITLE=Library Entry 81089
##JCAMP-DX=Revision 4.10 
##DATA TYPE=MASS SPECTRUM
##SAMPLE DESCRIPTION=Exported from NIST MS Search
##NAMES=HP
##CAS NAME=Oxirane, 2-methyl-2-phenyl-
##MOLFORM=C9H10O
##CAS REGISTRY NO=2085-88-3
##MP= -300
##BP= -300
##MW= 134
##$RETENTION INDEX=1666
##$CONDENSED SPECTRUM=NO
##NPOINTS= 83
##XYDATA=(XY..XY) 1 
    14          1
    15          4
    17          1
    18          5
    26          4
    27         45
    28         13
    29          9
    30          1
    31          1
    32          1
    36          1
    37          5
    38         13
    39         69
    40          5
    41          7
    42          3
    43        106
    44          4
    45          3
    49          4
    50         60
    51        154
    52         36
    53         16
    54          2
    55          6
    56          2
    57          2
    58          2
    61          6
    62         17
    63         49
    64          9
    65         37
    66          8
    67          1
    68          1
    73          4
    74         25
    75         21
    76         26
    77        297
    78        260
    79        190
    80         12
    81          3
    85          1
    86          3
    87          5
    88          1
    89         22
    90          9
    91        144
    92         27
    93          1
    94          1
    97          1
    98          3
    99          1
   101          5
   102         39
   103        390
   104        358
   105        999
   106        100
   107          6
   108          1
   109          7
   115         13
   116          3
   117          7
   118          8
   119         23
   120          4
   121          3
   131          1
   132          2
   133        716
   134        363
   135         34
   136          2