##TITLE=Library Entry 3652
##JCAMP-DX=Revision 4.10 
##DATA TYPE=MASS SPECTRUM
##SAMPLE DESCRIPTION=Chemical Concepts
##NAMES=HP
##CAS NAME=4-Hepten-1-ol
##MOLFORM=C7H14O
##CAS REGISTRY NO=20851-55-2
##MP= -300
##BP= -300
##MW= 114
##$RETENTION INDEX=870
##$CONDENSED SPECTRUM=NO
##NPOINTS= 72
##XYDATA=(XY..XY) 1 
    24          0
    25          1
    26         22
    27        289
    29         48
    30         11
    31        268
    33          1
    35          0
    37          7
    38         22
    39        337
    40         63
    41        999
    42        257
    43        129
    44        149
    45         53
    46          2
    47          0
    48          1
    49          1
    50         20
    51         37
    52         19
    53        166
    54        330
    55        606
    56         70
    57        176
    58         22
    59          3
    61          1
    62          3
    63          8
    64          1
    65         30
    66         29
    67        341
    68        336
    69        102
    70         58
    71         35
    72         12
    73          1
    74          1
    75          1
    76          0
    77         18
    78          4
    79         71
    80         10
    81        906
    82         58
    83         19
    84          5
    85         10
    86         26
    87          1
    91          2
    92          0
    93          2
    94          1
    95         30
    96        187
    97         16
    98          0
    99          0
   112          0
   113          0
   114         42
   115          3