##TITLE=Library Entry 78761
##JCAMP-DX=Revision 4.10 
##DATA TYPE=MASS SPECTRUM
##SAMPLE DESCRIPTION=K.P.ZELLER CHEM.INST., UNIV., TUBINGEN, GERMANY, F.R.G.
##NAMES=HP
##CAS NAME=1,3-Propanedione, 2-diazo-1,3-diphenyl-
##MOLFORM=C15H10N2O2
##CAS REGISTRY NO=2085-31-6
##MP= -300
##BP= -300
##MW= 250
##$RETENTION INDEX=0
##$CONDENSED SPECTRUM=NO
##NPOINTS= 19
##XYDATA=(XY..XY) 1 
    50         40
    51        240
    77        520
    78         40
   105        999
   106         90
   139         10
   163         20
   164         10
   165         60
   166         10
   171         10
   178         20
   194         10
   221         10
   222        160
   223         40
   224         20
   250         20