##TITLE=Library Entry 76476
##JCAMP-DX=Revision 4.10 
##DATA TYPE=MASS SPECTRUM
##SAMPLE DESCRIPTION=Japan AIST/NIMC Database- Spectrum MS-IW-2061
##NAMES=HP
##CAS NAME=N-(2,2-Diethoxyethyl)-4-methylthio-1,2-carbazoledicarboximide
##MOLFORM=C21H22N2O4S
##CAS REGISTRY NO=20863-11-0
##MP= -300
##BP= -300
##MW= 398
##$RETENTION INDEX=0
##$CONDENSED SPECTRUM=NO
##NPOINTS= 177
##XYDATA=(XY..XY) 1 
    15          1
    17          3
    18          2
    26          1
    27          8
    28          6
    29         33
    30          1
    31          9
    39          1
    41          1
    42          1
    43          5
    44          4
    45          8
    46          2
    47        270
    48          3
    49          1
    61          9
    63          1
    69          5
    75        399
    76         13
    77          3
    83          1
    84          1
    86          1
    87          2
    88          1
    89         17
    90          1
    91          1
    93          2
    97          2
    98          4
    99          1
   101          1
   102          1
   103        999
   104         58
   105          8
   106          1
   111          1
   112          1
   113          1
   114          1
   116          1
   117          1
   119          1
   120          1
   125          4
   126          2
   127          1
   128          1
   131          2
   132          1
   133          1
   137          4
   138          2
   139          4
   140          3
   141          1
   144          1
   146          2
   147          1
   148          1
   150          1
   151          7
   152         11
   153          5
   154          2
   162          4
   163          5
   164         11
   165          9
   166          5
   167          9
   168          9
   169          3
   170          2
   171          1
   177          2
   178          9
   179          5
   180          3
   183          1
   184          2
   185          1
   191          2
   192         10
   193          5
   194          5
   195          9
   196         28
   197         30
   198          7
   199          2
   204          1
   205          2
   206          2
   207          1
   208          3
   209          6
   210         19
   211         26
   212         19
   213          4
   214          1
   219          1
   220          1
   221          4
   222          4
   223         12
   224         15
   225          7
   226          2
   232          1
   234          1
   235          2
   236          3
   237          3
   238         11
   239         11
   240         11
   241          2
   247          1
   248          2
   249          7
   250          7
   251          3
   252         10
   253          4
   254          1
   263          3
   264          3
   265          4
   266          2
   267          8
   268          9
   269          2
   270          1
   277          1
   278          1
   279          3
   280         20
   281          7
   282         13
   283          3
   284          1
   292          2
   293          2
   294          1
   295        144
   296         43
   297         13
   298          2
   306          1
   307         13
   308          4
   309          7
   310          2
   323          7
   324         12
   325         25
   326          5
   327          1
   351          1
   352         29
   353         63
   354         15
   355          5
   383          1
   398         67
   399         16
   400          5
   401          1