##TITLE=Library Entry 55929
##JCAMP-DX=Revision 4.10 
##DATA TYPE=MASS SPECTRUM
##SAMPLE DESCRIPTION=Chemical Concepts
##NAMES=HP
##CAS NAME=3-(4-Morpholinecarbonyl)-6-nitrocoumarin
##MOLFORM=C14H12N2O6
##CAS REGISTRY NO=20862-57-1
##MP= -300
##BP= -300
##MW= 304
##$RETENTION INDEX=0
##$CONDENSED SPECTRUM=NO
##NPOINTS= 48
##XYDATA=(XY..XY) 1 
    37         17
    38         26
    39         24
    40         32
    41        107
    42        210
    43         45
    44         28
    45         33
    50         71
    51         31
    52         16
    53         34
    54         71
    56        691
    57         60
    58         64
    62        167
    63         39
    69         34
    70         69
    72        250
    73         19
    74         42
    75         28
    76         59
    77         19
    79         11
    86        999
    87        123
    88        162
    89         34
    99         18
   100         38
   104         11
   116         65
   117         12
   132         13
   144         23
   172        205
   173         14
   191        106
   205         14
   218        179
   219         14
   261         30
   303         48
   304         52