##TITLE=Library Entry 64144
##JCAMP-DX=Revision 4.10 
##DATA TYPE=MASS SPECTRUM
##SAMPLE DESCRIPTION=Japan AIST/NIMC Database- Spectrum MS-IW-7322
##NAMES=HP
##CAS NAME=Methyl 2,3-di-O-benzyl-beta-d-galactofuranoside
##MOLFORM=C21H26O6
##CAS REGISTRY NO=20869-18-5
##MP= -300
##BP= -300
##MW= 374
##$RETENTION INDEX=0
##$CONDENSED SPECTRUM=NO
##NPOINTS= 121
##XYDATA=(XY..XY) 1 
    15          1
    17         10
    18         56
    27          1
    28          8
    29          6
    30          2
    31          7
    32          4
    33          1
    39          6
    41          4
    43          4
    44          1
    45          4
    50          2
    51          5
    52          2
    53          1
    55          1
    57          3
    59          1
    61          6
    63          3
    64          1
    65         26
    66          1
    68          1
    69          9
    70          1
    71          5
    73          3
    74          1
    75          1
    77         12
    78          4
    79          9
    80          1
    81          1
    82          1
    83          1
    84          1
    85          5
    86          1
    87          4
    89          5
    90          5
    91        999
    92         93
    93          4
    95          1
    97          5
    98          1
    99          5
   100          3
   103          3
   104          4
   105          9
   106          7
   107         13
   108         10
   109          1
   115         28
   116          2
   117          5
   118          1
   119          1
   121          2
   127          1
   129          3
   131          2
   132          1
   133          5
   134          1
   135          5
   143          1
   145         10
   146          3
   147          1
   151          9
   152          1
   157          1
   159          2
   160          1
   161          5
   163          9
   164          2
   165          1
   167          3
   169          2
   173          2
   174          1
   175          8
   176          2
   177          5
   178          1
   179          1
   181         26
   182          9
   183          1
   187          3
   188          1
   191          3
   193          4
   197          3
   199          1
   203          1
   205         10
   206          5
   207          2
   217          1
   223          1
   234          4
   235          2
   251          3
   253        185
   254         35
   255          3
   283          4
   313          3
   314          1