##TITLE=Library Entry 7318
##JCAMP-DX=Revision 4.10 
##DATA TYPE=MASS SPECTRUM
##SAMPLE DESCRIPTION=J.LLOYD PFLUG,FRANK J.SEILER RES.LAB.,USAF ACADEMY,CO 8
0840,USA
##NAMES=HP
##CAS NAME=Nitro-tert-butyl-acetate
##MOLFORM=C6H11NO4
##CAS REGISTRY NO=20867-84-9
##MP= -300
##BP= -300
##MW= 161
##$RETENTION INDEX=0
##$CONDENSED SPECTRUM=NO
##NPOINTS= 85
##XYDATA=(XY..XY) 1 
    12          0
    13          0
    14          1
    15         12
    16          0
    17          0
    18          0
    25          0
    26          4
    27         33
    28         20
    29         48
    30         31
    31          9
    36          0
    37          7
    38         17
    39        134
    40         20
    41        107
    42         71
    43        999
    44         43
    45         78
    46         32
    47          0
    48          0
    49          5
    50         29
    51         37
    52         16
    53        130
    54         36
    55        872
    56        249
    57         70
    58         39
    59        201
    60        121
    61        129
    62         11
    63          1
    64          0
    65          0
    66          1
    67          2
    68          1
    69          4
    70          3
    71        173
    72        124
    73        312
    74         18
    75          1
    76          0
    77          0
    82          0
    84        277
    85         24
    86          2
    87          0
    88          0
    89          0
    90          2
    91          0
    96          0
    97          7
    98          0
    99          0
   100          3
   101        235
   102         29
   103          2
   104          0
   113          0
   114         15
   115         27
   116          1
   117          0
   126          0
   143          0
   144          0
   146         41
   147          2
   148          0