##TITLE=Library Entry 76478
##JCAMP-DX=Revision 4.10 
##DATA TYPE=MASS SPECTRUM
##SAMPLE DESCRIPTION=Japan AIST/NIMC Database- Spectrum MS-IW-2065
##NAMES=HP
##CAS NAME=N-(2,2-Diethoxyethyl)-9-methyl-4-methylthio-1,2-carbazoledicarbox
imide
##MOLFORM=C22H24N2O4S
##CAS REGISTRY NO=20863-14-3
##MP= -300
##BP= -300
##MW= 412
##$RETENTION INDEX=0
##$CONDENSED SPECTRUM=NO
##NPOINTS= 178
##XYDATA=(XY..XY) 1 
    15          1
    17          2
    18          5
    19          2
    26          2
    27          7
    28          6
    29         32
    30          1
    31         10
    39          1
    41          1
    42          2
    43          4
    44          3
    45          9
    46          2
    47        261
    48          3
    49          1
    57          1
    61          6
    63          1
    69          2
    75        387
    76         13
    77          3
    87          1
    88          1
    89         10
    90          1
    91          2
    93          1
    99          1
   101          1
   102          1
   103        999
   104         56
   105          9
   111          2
   112          5
   113          2
   114          1
   115          1
   116          1
   117          1
   125          2
   126          2
   127          2
   128          1
   137          2
   138          3
   139          8
   140          5
   141          2
   144          1
   149          1
   150          4
   151          7
   152          6
   153          2
   154          2
   155          2
   162          1
   163          3
   164          6
   165          4
   166          8
   167          6
   168          1
   169          6
   170          2
   176          1
   177          6
   178          9
   179          9
   180          7
   181          6
   182          4
   183          4
   184          3
   185          1
   190          1
   191          5
   192          9
   193          4
   194          3
   195          3
   196          7
   197          3
   198          2
   204          1
   205          6
   206         11
   207          4
   208          5
   209         14
   210         33
   211         24
   212          6
   213          1
   219          1
   220          2
   221          2
   222          5
   223         14
   224         15
   225         25
   226          9
   227          2
   233          1
   234          9
   235          6
   236          4
   237          7
   238         19
   239          9
   240          3
   241          1
   248          1
   249          2
   250          2
   251          5
   252          7
   253          7
   254          6
   255          1
   261          1
   262          2
   263          9
   264          6
   265          5
   266          8
   267          3
   268          2
   277          3
   278          2
   279          4
   280          5
   281          5
   282          5
   283          1
   291          1
   292          2
   293          4
   294         21
   295         11
   296         18
   297          4
   298          1
   306          1
   307          1
   308          1
   309        142
   310         42
   311         12
   312          3
   320          1
   321          8
   322          3
   323          7
   324          2
   337          9
   338         16
   339         25
   340          6
   341          1
   366         42
   367         62
   368         16
   369          5
   382          1
   386          1
   411          1
   412         93
   413         23
   414          8
   415          1