##TITLE=Library Entry 64143
##JCAMP-DX=Revision 4.10 
##DATA TYPE=MASS SPECTRUM
##SAMPLE DESCRIPTION=Japan AIST/NIMC Database- Spectrum MS-IW-7321
##NAMES=HP
##CAS NAME=Methyl 2,3-di-O-benzyl-alpha-d-galactofuranoside
##MOLFORM=C21H26O6
##CAS REGISTRY NO=20869-17-4
##MP= -300
##BP= -300
##MW= 374
##$RETENTION INDEX=0
##$CONDENSED SPECTRUM=NO
##NPOINTS= 133
##XYDATA=(XY..XY) 1 
    15          2
    17         17
    18         51
    27          2
    28          9
    29          7
    30          3
    31          9
    32          5
    33          1
    39          6
    40          1
    41          4
    42          1
    43          4
    44          2
    45          4
    50          2
    51          6
    52          2
    53          1
    55          2
    56          1
    57          3
    61          6
    63          3
    64          1
    65         28
    66          2
    68          1
    69         12
    70          1
    71          6
    73          3
    74          1
    75          1
    77         13
    78          4
    79         10
    80          1
    81          1
    82          1
    83          1
    84          1
    85          7
    86          1
    87          3
    89          5
    90          5
    91        999
    92         93
    93          4
    95          1
    97          7
    98          1
    99          6
   100          5
   101          1
   103          3
   104          5
   105         10
   106          7
   107         14
   108          9
   109          2
   115         28
   116          2
   117          5
   118          1
   119          1
   120          1
   121          6
   127          2
   128          1
   129          3
   130          1
   131          3
   132          2
   133          6
   134          1
   135          4
   143          4
   144          1
   145         17
   146          3
   147          1
   151          9
   152          1
   157          1
   158          1
   159          3
   160          1
   161          5
   163          9
   164          2
   165          1
   167          3
   169          1
   173          3
   174          1
   175          9
   176          2
   177          5
   178          1
   179          2
   180          1
   181         24
   182          9
   183          1
   187          3
   188          1
   191          3
   193          4
   197          2
   199          1
   203          1
   205         11
   206          6
   207          2
   217          1
   221          1
   223          2
   234          5
   235          3
   251          6
   252          1
   253        182
   254         34
   255          3
   283          4
   284          1
   313          5
   314          1