##TITLE=Library Entry 88585
##JCAMP-DX=Revision 4.10 
##DATA TYPE=MASS SPECTRUM
##SAMPLE DESCRIPTION=Exported from NIST MS Search
##NAMES=HP
##CAS NAME=Indole, 2-[(1,2-dimethyl-3-piperidyl)methyl]-
##MOLFORM=C16H22N2
##CAS REGISTRY NO=20876-59-9
##MP= -300
##BP= -300
##MW= 242
##$RETENTION INDEX=0
##$CONDENSED SPECTRUM=NO
##NPOINTS= 71
##XYDATA=(XY..XY) 1 
    27         38
    28         62
    29         33
    30         29
    39         38
    41         66
    42        281
    43         38
    44         68
    51         25
    53         23
    54         19
    55         33
    56        135
    57        236
    58         56
    63         27
    65         19
    67         19
    68         34
    69          9
    70         77
    71         52
    72        102
    76         13
    77         91
    78         19
    81         13
    82         38
    83         11
    84        161
    85         58
    89         23
    91         19
    93         38
    95         11
    96        155
    97         54
    98         34
   103         23
   104         40
   105         23
   108         19
   109         23
   110        223
   111        999
   112        139
   115         21
   117         36
   121         19
   124         66
   125         58
   127         19
   128         38
   129         38
   130        572
   131         97
   143         36
   144         23
   154         34
   155         15
   156         42
   167         23
   168         27
   169         13
   170         19
   182         19
   183         15
   184         17
   227         25
   242         38