##TITLE=Library Entry 13729
##JCAMP-DX=Revision 4.10 
##DATA TYPE=MASS SPECTRUM
##SAMPLE DESCRIPTION=J.Little
##NAMES=HP
##CAS NAME=.alpha.-D-Xylofuranose, 1,2:3,5-bis-O-(1-methylethylidene)-
##MOLFORM=C11H18O5
##CAS REGISTRY NO=20881-04-3
##MP= -300
##BP= -300
##MW= 230
##$RETENTION INDEX=0
##$CONDENSED SPECTRUM=NO
##NPOINTS= 111
##XYDATA=(XY..XY) 1 
    36          1
    37          3
    38          4
    39         27
    40          6
    41         48
    42         33
    43        999
    44         11
    45          6
    47          1
    50          1
    51          2
    52          1
    53          7
    54         13
    55        112
    56         22
    57         48
    58        142
    59        285
    60         16
    61         16
    62          1
    63          1
    64          1
    65          2
    66          2
    67          4
    68         20
    69        135
    70          9
    71         26
    72         13
    73         75
    74          4
    77          1
    79          3
    80          2
    81         13
    82          5
    83         21
    84         36
    85        246
    86         21
    87         10
    89          7
    90          1
    91          1
    93          3
    94          2
    95         10
    96         11
    97         98
    98          9
    99         10
   100        296
   101         83
   102          5
   103          1
   105          1
   107          1
   108          5
   109          2
   110          1
   111          5
   112          4
   113        158
   114         44
   115        110
   116         10
   117          1
   119          1
   122          2
   123          2
   124          2
   125          1
   126          2
   127         36
   128          8
   129        365
   130         14
   131          2
   135          1
   136          3
   137          2
   139          4
   140          1
   141          4
   142         10
   143          4
   144          3
   152          1
   154          1
   155         16
   156          3
   157         97
   158          7
   159          1
   169          1
   171          3
   172          7
   173          1
   185          1
   187          9
   188          1
   201          1
   214          5
   215        566
   216         27
   217          3