##TITLE=Library Entry 98578
##JCAMP-DX=Revision 4.10 
##DATA TYPE=MASS SPECTRUM
##SAMPLE DESCRIPTION=Chemical Concepts
##NAMES=HP
##CAS NAME=2-Propenoic acid, 3-(2-hydroxyphenyl)-, methyl ester
##MOLFORM=C10H10O3
##CAS REGISTRY NO=20883-98-1
##MP= -300
##BP= -300
##MW= 178
##$RETENTION INDEX=1430
##$CONDENSED SPECTRUM=NO
##NPOINTS= 81
##XYDATA=(XY..XY) 1 
    26          4
    27         12
    29         21
    30          3
    31         30
    37          5
    38         20
    39         89
    40          9
    41         16
    42          2
    43         17
    44          5
    45         19
    46          3
    50         24
    51         58
    52         12
    53         18
    54          3
    55          8
    57          3
    59         48
    60          4
    61          9
    62         31
    63         93
    64         41
    65        129
    66         11
    67          3
    69          4
    73          3
    74         19
    75         45
    76          8
    77         47
    78         15
    79         17
    85          4
    86          6
    87          6
    88          8
    89        140
    90        177
    91        358
    92         34
    93          3
    98          2
    99          3
   101         34
   102         12
   103        224
   104         21
   105         24
   106          5
   107         12
   108          2
   115          4
   117          4
   118        999
   119        125
   120         15
   121          7
   131         16
   132          8
   133          7
   134          4
   135          5
   145          7
   146        982
   147        338
   148         30
   149          9
   160          3
   161         96
   162         14
   163          3
   178        389
   179         39
   180          8