##TITLE=Library Entry 14044
##JCAMP-DX=Revision 4.10 
##DATA TYPE=MASS SPECTRUM
##SAMPLE DESCRIPTION=Chemical Concepts
##NAMES=HP
##CAS NAME=.beta.-D-Fructopyranose, 2,3:4,5-bis-O-(1-methylethylidene)-
##MOLFORM=C12H20O6
##CAS REGISTRY NO=20880-92-6
##MP= -300
##BP= -300
##MW= 260
##$RETENTION INDEX=0
##$CONDENSED SPECTRUM=NO
##NPOINTS= 121
##XYDATA=(XY..XY) 1 
    26          6
    27         78
    29        121
    30          8
    31        273
    38          2
    39         71
    40         15
    41        203
    42         51
    43        999
    44         46
    45         26
    47          1
    49          1
    51          3
    52          2
    53         27
    54         10
    55         99
    56         20
    57        182
    58         45
    59        715
    60         29
    61         43
    62          1
    63          1
    65          2
    67          5
    68         79
    69        628
    70         33
    71         63
    72         24
    73         40
    74         11
    75          2
    77          3
    79          2
    81         40
    82          5
    83         54
    84         49
    85        269
    86         40
    87         26
    88          3
    89          7
    90          1
    91          6
    93          4
    95          9
    96          6
    97         63
    98         10
    99         81
   100         25
   101         72
   102          7
   103          8
   107          9
   109         44
   110          4
   111         16
   112          2
   113        108
   114         11
   115         95
   116         10
   117         35
   118          2
   119          1
   121          1
   122          0
   123          1
   125          6
   126         16
   127        403
   128         23
   129         10
   130         76
   131         14
   132          1
   139          4
   140          2
   141          6
   142          2
   143         26
   144         31
   145         24
   146          2
   149          1
   153          4
   155          1
   156          1
   157          2
   159          1
   167          4
   168          1
   169         91
   171        310
   172         24
   173          8
   174          1
   175          2
   184          5
   185         14
   186          2
   187         46
   188          5
   189          1
   202          3
   203          7
   229        218
   230         18
   231          3
   245        738
   246         71
   247         11
   248          1