##TITLE=Library Entry 80859
##JCAMP-DX=Revision 4.10 
##DATA TYPE=MASS SPECTRUM
##SAMPLE DESCRIPTION=Exported from NIST MS Search
##NAMES=HP
##CAS NAME=Benzenebutanoic acid, .gamma.-methyl-, methyl ester
##MOLFORM=C12H16O2
##CAS REGISTRY NO=20881-29-2
##MP= -300
##BP= -300
##MW= 192
##$RETENTION INDEX=0
##$CONDENSED SPECTRUM=NO
##NPOINTS= 59
##XYDATA=(XY..XY) 1 
    31         10
    32         20
    39         50
    41         40
    43         80
    44         20
    50         20
    51         70
    52         20
    53         20
    55         30
    57         10
    58         20
    59         30
    62         10
    63         20
    64         10
    65         30
    66         10
    74        410
    75         30
    76         10
    77        130
    78         60
    79         90
    80         10
    87         10
    88         10
    89         10
    90         10
    91        190
    92         20
   102         20
   103         90
   104         80
   105        999
   106         90
   115         50
   116         20
   117        120
   118        620
   119        700
   120         70
   121         10
   127         10
   128         10
   129         10
   131         20
   132         10
   135         10
   143         30
   144         10
   145         10
   160        160
   161        200
   162         30
   173         10
   192        170
   193         30