##TITLE=Library Entry 55096
##JCAMP-DX=Revision 4.10 
##DATA TYPE=MASS SPECTRUM
##SAMPLE DESCRIPTION=Exported from NIST MS Search
##NAMES=HP
##CAS NAME=Fructopyranose, 1,2:4,5-di-O-isopropylidene-, .alpha.-D-
##MOLFORM=C12H20O6
##CAS REGISTRY NO=20880-93-7
##MP= -300
##BP= -300
##MW= 260
##$RETENTION INDEX=0
##$CONDENSED SPECTRUM=NO
##NPOINTS= 70
##XYDATA=(XY..XY) 1 
    60        247
    61        205
    67         23
    68         88
    69        899
    70        100
    71        435
    72        823
    73        564
    74         70
    75         11
    77         11
    78         11
    79          5
    81        164
    82         11
    83          5
    84         35
    85        999
    86        294
    87         94
    88         11
    89         41
    95         35
    96          5
    97         94
    98         23
    99        223
   100        464
   101        364
   102         35
   103        105
   104          5
   109        152
   110         11
   111         11
   113         82
   114         47
   115        129
   116         23
   117        858
   118         47
   125         23
   126         23
   127        282
   128         17
   129         41
   130         47
   131         41
   141         70
   142          5
   143         47
   144        276
   145         58
   146          5
   147         11
   159         11
   167         11
   169         41
   171         11
   173         29
   175         35
   185         47
   186          5
   187         70
   188          5
   202         11
   203         11
   245        270
   246         35