##TITLE=Library Entry 79372
##JCAMP-DX=Revision 4.10 
##DATA TYPE=MASS SPECTRUM
##SAMPLE DESCRIPTION=Patti Price, Georgia Bureau of Investigation, Decatur,
 Georgia
##NAMES=HP
##CAS NAME=Androst-4-en-3-one, 17-(benzoyloxy)-, (17.beta.)-
##MOLFORM=C26H32O3
##CAS REGISTRY NO=2088-71-3
##MP= -300
##BP= -300
##MW= 392
##$RETENTION INDEX=0
##$CONDENSED SPECTRUM=NO
##NPOINTS= 94
##XYDATA=(XY..XY) 1 
    41         16
    43          6
    44          7
    50          1
    51         12
    53          7
    55         48
    57          1
    60          1
    65         10
    66          3
    67         20
    68          1
    69          2
    70          1
    75          1
    77        198
    78         19
    79         39
    80          5
    81         27
    82          1
    83          2
    90          1
    91         50
    92          2
    93         32
    94          8
    95         28
    97          3
   100          1
   103          2
   104          3
   105        999
   106         92
   107         28
   108          8
   109         17
   111          3
   112          1
   117         11
   119         24
   120          6
   121         17
   122          5
   123         15
   124        111
   125          7
   126          1
   128          1
   129          5
   131         21
   132          1
   133         28
   134          7
   135         10
   136          6
   137          3
   144         11
   145         20
   146         40
   147        135
   148         27
   149          5
   156          1
   157          3
   158          2
   159         11
   161         10
   162          4
   163          1
   164          1
   171          3
   172          1
   173          5
   185         14
   186          2
   199          1
   207          1
   211          1
   213          3
   214          1
   227          2
   228         36
   230         41
   231          1
   242          1
   255          4
   270         21
   287          1
   308          1
   350         15
   392         32
   393          9