##TITLE=Library Entry 38310
##JCAMP-DX=Revision 4.10 
##DATA TYPE=MASS SPECTRUM
##SAMPLE DESCRIPTION=Chemical Concepts
##NAMES=HP
##CAS NAME=1-Penten-3-ol, 2-methyl-
##MOLFORM=C6H12O
##CAS REGISTRY NO=2088-07-5
##MP= -300
##BP= -300
##MW= 100
##$RETENTION INDEX=778
##$CONDENSED SPECTRUM=NO
##NPOINTS= 64
##XYDATA=(XY..XY) 1 
    25          0
    26         23
    27        210
    28          9
    29        147
    30          7
    31        142
    32          3
    33          0
    36          0
    37          8
    38         21
    39        198
    40         31
    41        378
    42         64
    43        535
    44         18
    45         19
    46          0
    49          1
    50          9
    51         13
    52          6
    53         63
    54         15
    55         45
    56         11
    57        103
    58         12
    59         55
    60          1
    61          0
    62          1
    63          4
    64          0
    65         10
    66          3
    67         85
    68          6
    69         22
    70         12
    71        999
    72         56
    73          4
    74          0
    75          0
    77          3
    78          0
    79          6
    80          0
    81          8
    82         27
    83          9
    84          3
    85        171
    86          8
    87          1
    91          0
    97          0
    98          1
    99          5
   100         79
   101          4