##TITLE=Library Entry 79705
##JCAMP-DX=Revision 4.10 
##DATA TYPE=MASS SPECTRUM
##SAMPLE DESCRIPTION=A.A.Kutin, Moscow, Russia
##NAMES=HP
##CAS NAME=Benzamide, N-(3-ethynylphenyl)-
##MOLFORM=C15H11NO
##CAS REGISTRY NO=208943-24-2
##MP= -300
##BP= -300
##MW= 221
##$RETENTION INDEX=0
##$CONDENSED SPECTRUM=NO
##NPOINTS= 145
##XYDATA=(XY..XY) 1 
    34          0
    35          1
    36          1
    37          3
    38         11
    39         33
    40         11
    41          9
    42          2
    43         10
    44          8
    45          2
    47          2
    48          1
    49          3
    50         39
    51        136
    52         13
    53          3
    54          2
    55          9
    56          2
    57          6
    58          1
    59          3
    60          1
    61          3
    62         19
    63         42
    64          8
    65          7
    66          1
    67          3
    68          1
    69          5
    70          3
    71          5
    72          2
    73          3
    74         14
    75         20
    76         26
    77        512
    78         37
    79          2
    80          0
    81          3
    82          4
    83         13
    84          2
    85          8
    86          3
    87          7
    88          9
    89         48
    90          6
    91          3
    92          1
    93          1
    94          0
    95          4
    96          1
    97          3
    98          3
    99          2
   100          1
   101          6
   102          1
   103          3
   104         12
   105        999
   106         77
   107          5
   108          1
   109          2
   111          7
   112          1
   113          1
   114          4
   115          4
   116          9
   117          9
   118          3
   119          1
   121          1
   122          1
   123          0
   124          0
   125          1
   126          1
   127          0
   128          1
   129          0
   132          0
   133          0
   134          0
   135          0
   136          0
   137          1
   138          2
   139          3
   140          1
   141          1
   142          1
   143          2
   144          0
   145          0
   147          6
   148          0
   149          7
   150          2
   151          0
   152          1
   154          0
   159          0
   163          3
   164          3
   165          5
   166          1
   167          0
   171          0
   175          0
   176          2
   177          3
   182          0
   183          0
   184          0
   185          0
   188          0
   189          0
   190          4
   191          6
   192          1
   193          1
   194          0
   201          0
   202          0
   207          1
   211          0
   219          3
   220          4
   221        377
   222         61
   223          6
   224          0