##TITLE=Library Entry 62940
##JCAMP-DX=Revision 4.10 
##DATA TYPE=MASS SPECTRUM
##SAMPLE DESCRIPTION=Japan AIST/NIMC Database- Spectrum MS-NW-6318
##NAMES=HP
##CAS NAME=L-Histidine, N-[(1,1-dimethylethoxy)carbonyl]-1-(phenylmethyl)-
##MOLFORM=C18H23N3O4
##CAS REGISTRY NO=20898-44-6
##MP= -300
##BP= -300
##MW= 345
##$RETENTION INDEX=0
##$CONDENSED SPECTRUM=NO
##NPOINTS= 147
##XYDATA=(XY..XY) 1 
    12          2
    14          2
    15         16
    16          4
    17          4
    18          9
    26         13
    27         38
    28         63
    29         61
    30          4
    31         39
    37          7
    38         16
    39        106
    40         17
    41        144
    42         13
    43         40
    44         16
    45          6
    46          1
    49          2
    50         13
    51         27
    52         18
    53         20
    54         24
    55         13
    56         16
    57        179
    58         11
    59        131
    60          6
    61          1
    62          6
    63         26
    64          9
    65        139
    66         13
    67          6
    68          3
    69          3
    73          2
    74          5
    75          3
    76          3
    77         10
    78          5
    79          3
    80          7
    81        205
    82         23
    83          5
    87          2
    88          1
    89         34
    90         21
    91        999
    92         80
    93          6
    94          3
    95          3
   101          2
   102          2
   103          6
   104          5
   105          1
   106          2
   107          4
   108         23
   109         15
   110          9
   114          1
   115         11
   116          7
   117          4
   118          2
   120          1
   122          1
   127          2
   128          2
   129          2
   130          6
   131          2
   135          2
   136          3
   138          1
   140          2
   141          1
   142          4
   143          7
   144          2
   153          5
   154          3
   155          2
   156          1
   157          2
   158          2
   159          2
   165          1
   168          2
   169          9
   170          7
   171        316
   172        140
   173         17
   174          1
   181          2
   182          1
   183          4
   184        135
   185         33
   186          4
   197          2
   198          6
   199         36
   200        200
   201         36
   202          3
   211          2
   226          4
   227          3
   228         34
   229         17
   230          3
   242          2
   243          4
   244        146
   245         72
   246         11
   247          1
   270          2
   271          9
   272         62
   273         10
   274          1
   289         54
   290         11
   291          2
   299          2
   300         16
   301         35
   302          5
   345         60
   346         13
   347          2