##TITLE=Library Entry 62545
##JCAMP-DX=Revision 4.10 
##DATA TYPE=MASS SPECTRUM
##SAMPLE DESCRIPTION=Japan AIST/NIMC Database- Spectrum MS-NW-9940
##NAMES=HP
##CAS NAME=(O-p-Tosylisonitroso)malononitrile
##MOLFORM=C10H7N3O3S
##CAS REGISTRY NO=20893-01-0
##MP= -300
##BP= -300
##MW= 249
##$RETENTION INDEX=0
##$CONDENSED SPECTRUM=NO
##NPOINTS= 56
##XYDATA=(XY..XY) 1 
    24          1
    26          4
    27         10
    28          6
    30         12
    37          1
    38          9
    39         59
    40          5
    41         19
    43          1
    44          1
    45          3
    50         17
    51         27
    52         57
    53         14
    54          1
    61          2
    62         11
    63         44
    64         14
    65        207
    66         10
    67          2
    69          1
    74          4
    75          4
    76          3
    77         14
    78          6
    79          9
    85          1
    86          2
    87          2
    88          1
    89         49
    90         26
    91        999
    92         77
    93          2
    95          1
   106          2
   107          4
   108          1
   111          1
   121          1
   139          4
   155        605
   156         51
   157         31
   158          2
   172          4
   249         33
   250          4
   251          2