##TITLE=Library Entry 2187
##JCAMP-DX=Revision 4.10 
##DATA TYPE=MASS SPECTRUM
##SAMPLE DESCRIPTION=V.G. Zaikin, TIPS RAS, Moscow, Russia
##NAMES=HP
##CAS NAME=Cyclopropanecarboxylic acid, cyclohexylmethyl ester
##MOLFORM=C11H18O2
##CAS REGISTRY NO=208941-23-5
##MP= -300
##BP= -300
##MW= 182
##$RETENTION INDEX=0
##$CONDENSED SPECTRUM=NO
##NPOINTS= 57
##XYDATA=(XY..XY) 1 
    25          5
    26         49
    27        254
    28         55
    29        204
    30          9
    31         14
    36          5
    37         24
    38         55
    39        689
    40        107
    41        999
    42        101
    43         65
    44          7
    45         18
    49          5
    50         18
    51         38
    52         22
    53         81
    54        111
    55        447
    56         45
    57         14
    58          5
    59          7
    62          5
    63          7
    65         12
    66         25
    67        207
    68        155
    69        556
    70         25
    71          9
    77         15
    78          5
    79         25
    80          5
    81        276
    82         31
    83         31
    84          5
    85          7
    86         15
    87         35
    91          5
    93          5
    94          5
    95         44
    96        269
    97         43
    98          5
    99          9
   100          8