##TITLE=Library Entry 30358
##JCAMP-DX=Revision 4.10 
##DATA TYPE=MASS SPECTRUM
##SAMPLE DESCRIPTION=NIST Mass Spectrometry Data Center, 1994
##NAMES=HP
##CAS NAME=Methyl 4-(p-chlorophenoxy)butyrate
##MOLFORM=C11H13ClO3
##CAS REGISTRY NO=209052-80-2
##MP= -300
##BP= -300
##MW= 228
##$RETENTION INDEX=0
##$CONDENSED SPECTRUM=NO
##NPOINTS= 111
##XYDATA=(XY..XY) 1 
     4          1
    12          2
    13          2
    15        257
    16          5
    17          2
    18          4
    19          1
    26         16
    27         65
    28         36
    29        129
    30         13
    31         30
    32          1
    33          1
    35          2
    36          2
    37         10
    38         38
    39        144
    40         24
    41        246
    42        113
    43         30
    44          4
    45         27
    46          1
    47          4
    49         11
    50         48
    51         30
    52          3
    53         12
    54          1
    55         18
    56          2
    57          5
    58          1
    59        999
    60         32
    61         15
    62         23
    63         86
    64         32
    65         57
    66          8
    67          3
    68          1
    69        198
    70         11
    71          9
    72          7
    73         74
    74         37
    75        118
    76         25
    77         26
    78          4
    79          5
    85         20
    87          4
    89          4
    91         11
    92          7
    93          6
    97          2
    99        112
   101        871
   102         55
   103         11
   104          1
   105          3
   111         81
   112          9
   113         37
   114          3
   115          4
   116          1
   119          4
   125          5
   127         50
   128        217
   129         32
   130         69
   131          7
   132          2
   133          1
   139          1
   141         35
   142          5
   143         12
   144          2
   153          2
   154          2
   155          3
   156          1
   157          1
   167          2
   168          1
   169          2
   179          6
   180          1
   181          1
   197         51
   198          5
   199         17
   200          2
   228         27
   229          4
   230          9