##TITLE=Library Entry 9499
##JCAMP-DX=Revision 4.10 
##DATA TYPE=MASS SPECTRUM
##SAMPLE DESCRIPTION=CARL DJERASSI DEPT OF CHEM STANFORD UNIV STANFORD CALIF
 94305
##NAMES=HP
##CAS NAME=2-Butanone, 1-(2-furanyl)-3-methyl-
##MOLFORM=C9H12O2
##CAS REGISTRY NO=20907-04-4
##MP= -300
##BP= -300
##MW= 152
##$RETENTION INDEX=0
##$CONDENSED SPECTRUM=NO
##NPOINTS= 15
##XYDATA=(XY..XY) 1 
    41        120
    42         20
    43        999
    44         20
    50         20
    51         50
    52         40
    53        160
    54         10
    55         10
    71        210
    72         10
    81        340
    82         30
   152         50