##TITLE=Library Entry 20714
##JCAMP-DX=Revision 4.10 
##DATA TYPE=MASS SPECTRUM
##SAMPLE DESCRIPTION=Exported from NIST MS Search
##NAMES=HP
##CAS NAME=Heptane, 1,1-dicyclohexyl-
##MOLFORM=C19H36
##CAS REGISTRY NO=2090-15-5
##MP= -300
##BP= -300
##MW= 264
##$RETENTION INDEX=0
##$CONDENSED SPECTRUM=NO
##NPOINTS= 143
##XYDATA=(XY..XY) 1 
    29        356
    30          7
    31          1
    36          1
    37          1
    38          2
    39        111
    40         19
    41        833
    42         68
    43        342
    44         10
    45          1
    50          1
    51          6
    52          6
    53         75
    54        172
    55        999
    56         75
    57        276
    58         10
    59          1
    60          1
    61          1
    62          1
    63          1
    64          1
    65         16
    66         16
    67        351
    68         78
    69        439
    70         32
    71         82
    72          4
    77         22
    78          6
    79         43
    80         20
    81        216
    82        419
    83        959
    84         66
    85         75
    86          5
    87          1
    89          1
    90          1
    91         13
    92          2
    93         12
    94          6
    95         82
    96        356
    97        687
    98         58
    99         27
   100          2
   101          1
   102          1
   103          1
   104          1
   105          2
   106          1
   107          4
   108          7
   109        115
   110         33
   111        306
   112         24
   113          5
   114          1
   115          1
   116          1
   117          1
   118          1
   119          1
   120          1
   121          2
   122          2
   123         21
   124         18
   125        145
   126         13
   127          1
   128          1
   131          1
   133          1
   134          1
   135          2
   136          1
   137         10
   138         11
   139         22
   140          3
   141          1
   147          1
   148          1
   149          1
   150          1
   151          5
   152         12
   153          3
   154          1
   163          1
   164          1
   165          3
   166          2
   167          3
   168          1
   169          1
   175          1
   176          1
   177          1
   178         11
   179         50
   180        449
   181        306
   182         35
   183          3
   191          1
   192          1
   193          3
   194          1
   195          1
   196          1
   198          2
   199          3
   200          4
   201          2
   202          5
   204          1
   206          1
   207          1
   208          1
   209          1
   210          1
   262          1
   263          1
   264          5
   265          1
   266          1