##TITLE=Library Entry 8962
##JCAMP-DX=Revision 4.10 
##DATA TYPE=MASS SPECTRUM
##SAMPLE DESCRIPTION=CARL DJERASSI DEPT OF CHEM STANFORD UNIV STANFORD CALIF
 94305
##NAMES=HP
##CAS NAME=2-Pentanone, 1-(2-furanyl)-
##MOLFORM=C9H12O2
##CAS REGISTRY NO=20907-03-3
##MP= -300
##BP= -300
##MW= 152
##$RETENTION INDEX=0
##$CONDENSED SPECTRUM=NO
##NPOINTS= 15
##XYDATA=(XY..XY) 1 
    41        150
    42         20
    43        999
    44         20
    50         30
    51         60
    52         50
    53        200
    54         10
    55         10
    71        430
    72         10
    81        360
    82         60
   152         80