##TITLE=Library Entry 59536
##JCAMP-DX=Revision 4.10 
##DATA TYPE=MASS SPECTRUM
##SAMPLE DESCRIPTION=A.A.Kutin, Moscow, Russia
##NAMES=HP
##CAS NAME=2-Hydroxybenzamide-N-benzyl
##MOLFORM=C14H13NO2
##CAS REGISTRY NO=20919-36-2
##MP= -300
##BP= -300
##MW= 227
##$RETENTION INDEX=0
##$CONDENSED SPECTRUM=NO
##NPOINTS= 128
##XYDATA=(XY..XY) 1 
    34          0
    37         18
    38         71
    39        390
    40         28
    41         30
    42          9
    43         19
    44         20
    45          6
    46          4
    47          0
    48          0
    49          5
    50         94
    51        196
    52         65
    53         77
    54         10
    55          9
    56          2
    57          1
    59          0
    61         14
    62         49
    63        170
    64         94
    65        491
    66         47
    67          6
    68          3
    69          2
    70          1
    71          0
    73          3
    74         26
    75         28
    76         48
    77        243
    78         84
    79         80
    80         25
    81          6
    82          1
    85          1
    86          1
    87          2
    89         47
    90         33
    91        999
    92        254
    93        104
    94         15
    95          2
    98          0
   101          0
   102          9
   103          6
   104         72
   105         30
   106        239
   107         69
   108          6
   109          0
   113          0
   114          3
   115          2
   116          0
   117          1
   118          0
   119          8
   120         98
   121        243
   122         19
   123          1
   125          0
   126          0
   127          0
   128          1
   129          0
   132          3
   133          2
   134          2
   135          0
   137          0
   138          1
   139          1
   140          0
   141          4
   142          0
   148          0
   149          2
   150         10
   151          2
   152          5
   153          2
   154          1
   155          0
   162          0
   163          0
   164          0
   165          2
   166          0
   167          0
   168          0
   169          0
   170          0
   178          0
   180          4
   181          3
   182          1
   183          1
   184          0
   190          0
   192          0
   194          0
   196          2
   197          1
   208          2
   209          2
   210         19
   211          5
   225          1
   226         10
   227        331
   228         49
   229          5
   230          0