##TITLE=Library Entry 73256
##JCAMP-DX=Revision 4.10 
##DATA TYPE=MASS SPECTRUM
##SAMPLE DESCRIPTION=Japan AIST/NIMC Database- Spectrum MS-NW-9558
##NAMES=HP
##CAS NAME=Ethyl 2-methylcyclopropanecarboxylate
##MOLFORM=C7H12O2
##CAS REGISTRY NO=20913-25-1
##MP= -300
##BP= -300
##MW= 128
##$RETENTION INDEX=0
##$CONDENSED SPECTRUM=NO
##NPOINTS= 68
##XYDATA=(XY..XY) 1 
    14          1
    15          7
    26         17
    27        186
    28         54
    29        475
    30         11
    31          6
    32          3
    35          1
    36          1
    37          2
    38          7
    39        132
    40         17
    41         82
    42         29
    43         95
    44          8
    45        138
    46          3
    47          5
    48          3
    49          2
    50          8
    51         13
    52          7
    53         81
    54        138
    55        810
    56        165
    57         43
    58         75
    59          6
    60         13
    61          1
    65          1
    66          1
    67          4
    68          9
    69         29
    70          3
    71         19
    72          9
    73         93
    74          5
    81         35
    82        161
    83        942
    84         58
    85         42
    86          4
    87          3
    88          1
    91          1
    95          1
    97          2
    98          1
    99         82
   100        999
   101        327
   102         20
   103          2
   113          6
   127         15
   128         72
   129         41
   130          3