##TITLE=Library Entry 29694
##JCAMP-DX=Revision 4.10 
##DATA TYPE=MASS SPECTRUM
##SAMPLE DESCRIPTION=LAC, NIDDK, NIH, Bethesda, MD 20892
##NAMES=HP
##CAS NAME=20-Methyl-4-pregnen-20-ol-3-one
##MOLFORM=C22H34O2
##CAS REGISTRY NO=20917-51-5
##MP= -300
##BP= -300
##MW= 330
##$RETENTION INDEX=0
##$CONDENSED SPECTRUM=NO
##NPOINTS= 104
##XYDATA=(XY..XY) 1 
    41        184
    43        321
    45        108
    47         10
    52          4
    53         61
    54          7
    55        119
    57         21
    59        999
    60         24
    65         26
    66          7
    67         88
    68         12
    69         31
    71         49
    77         71
    78         20
    79        127
    81         82
    82         33
    83         15
    84         11
    85          8
    86          4
    91        119
    92          4
    93         66
    94         14
    95         58
    96          3
    97         32
   103          9
   105         73
   106         11
   107         58
   108         16
   109         36
   111         10
   115         15
   116          4
   117         29
   118          5
   119         31
   120          7
   121         32
   122         13
   123         36
   124        183
   125         18
   128          7
   129         11
   131         27
   132          6
   133         38
   134         22
   135         24
   136         10
   137         11
   141          4
   143         12
   144          4
   145         23
   146          8
   147         22
   148         39
   149         69
   150          9
   157          8
   159         16
   160          2
   161         14
   162          4
   163          9
   171          7
   173          9
   174          2
   175          5
   176          2
   185          8
   187         29
   188         13
   189          7
   200          2
   201          4
   212          2
   215          9
   229          4
   230         46
   231         17
   254          8
   257         44
   258          9
   269          2
   271          2
   272        104
   273         31
   274          2
   297          8
   313          4
   315         11
   330         26
   331          6