##TITLE=Library Entry 19244
##JCAMP-DX=Revision 4.10 
##DATA TYPE=MASS SPECTRUM
##SAMPLE DESCRIPTION=EP-1277
##NAMES=HP
##CAS NAME=9-Hexadecenoic acid
##MOLFORM=C16H30O2
##CAS REGISTRY NO=2091-29-4
##MP= -300
##BP= -300
##MW= 254
##$RETENTION INDEX=1942
##$CONDENSED SPECTRUM=NO
##NPOINTS= 227
##XYDATA=(XY..XY) 1 
    16          7
    25          6
    26         28
    27        210
    28        333
    29        342
    30         14
    31         37
    32         15
    35          5
    36         19
    37          8
    38         11
    39        192
    40         42
    41        841
    42        192
    43        542
    44         54
    45         88
    46          6
    47          5
    49          4
    50         10
    51         17
    52         44
    53        114
    54        271
    55        999
    56        324
    57        263
    58         22
    59         52
    60        157
    61         26
    62          6
    63          8
    64          5
    65         31
    66         26
    67        324
    68        236
    69        691
    70        280
    71        140
    72         14
    73        184
    74         21
    75          9
    76          5
    77         31
    78         15
    79         65
    80         36
    81        263
    82        219
    83        438
    84        280
    85         84
    86         13
    87         62
    88          9
    89          6
    90          4
    91         29
    92         10
    93         35
    94         37
    95        157
    96        210
    97        298
    98        219
    99         42
   100         45
   101         65
   102         11
   103          5
   104          5
   105         16
   106          9
   107         26
   108         28
   109         90
   110        131
   111        140
   112         73
   113         33
   114         78
   115         42
   116         14
   117          8
   118          6
   119         21
   120          8
   121         23
   122         22
   123         77
   124         71
   125         64
   126         34
   127         46
   128         19
   129         35
   130          9
   131          7
   132          6
   133         21
   134         17
   135         21
   136         15
   137         50
   138         55
   139         38
   140         19
   141         22
   142          9
   143         14
   144          7
   145          5
   146          4
   147         19
   148         13
   149         16
   150          9
   151         35
   152         49
   153         28
   154         11
   155         13
   156          6
   157         10
   158          8
   159          6
   160          3
   161         11
   162          7
   163          8
   164          6
   165         28
   166         20
   167         14
   168          7
   170          6
   171         11
   172          6
   173          4
   174          3
   175          7
   176          5
   177          5
   178          6
   179         18
   180          9
   181          7
   182          7
   183          6
   184          4
   185         14
   186          6
   187          4
   188          3
   189          6
   190          5
   191          6
   192         32
   193         19
   194         36
   195         13
   196          5
   197          5
   198          3
   199          5
   200          3
   201          3
   202          4
   203          4
   204          3
   205          4
   206          4
   207         12
   208         11
   209          6
   210         10
   211          7
   212          4
   213          6
   214          4
   215          4
   216          5
   217         10
   218         17
   219         33
   220         12
   221          6
   222          5
   223          4
   224          4
   225          4
   226          3
   227          4
   228          3
   229          2
   230          2
   233          3
   234          5
   235          4
   236         78
   237         18
   238          6
   239          5
   240          3
   241          5
   242          3
   243          2
   244          2
   245          2
   246          2
   247          2
   248          2
   250          3
   251          3
   252          6
   253          5
   254         38
   255         10
   256         10
   257          4