##TITLE=Library Entry 58290
##JCAMP-DX=Revision 4.10 
##DATA TYPE=MASS SPECTRUM
##SAMPLE DESCRIPTION=Chemical Concepts
##NAMES=HP
##CAS NAME=d-Ribo-hexos-3-ulose
##MOLFORM=C6H10O6
##CAS REGISTRY NO=2092-61-7
##MP= -300
##BP= -300
##MW= 178
##$RETENTION INDEX=0
##$CONDENSED SPECTRUM=NO
##NPOINTS= 101
##XYDATA=(XY..XY) 1 
    26         60
    27        145
    28        252
    29        527
    30         96
    31        609
    33          8
    36         24
    37         10
    38         16
    39        121
    40         38
    41         47
    42        273
    43        618
    44        176
    45        271
    46        174
    47         79
    49         26
    50          5
    51         13
    52         10
    53         18
    54         40
    55        219
    56        198
    57        240
    58        106
    59         70
    60        487
    61        388
    62          9
    63         12
    67         16
    68         95
    69         58
    70         20
    71        190
    72        218
    73        234
    74         96
    75         16
    76         17
    77         42
    79         16
    80          7
    81         15
    82          8
    83         76
    84         26
    85        233
    86         62
    87         71
    88         85
    89        999
    90         70
    91         70
    93         16
    95         44
    96         69
    97         37
    98         23
    99         21
   100         43
   101        228
   102        144
   103         26
   104         12
   105         15
   107         10
   108          6
   109          9
   110          6
   111          7
   112         11
   113         68
   114         69
   115         19
   117          8
   118        147
   119        122
   120         11
   121          8
   123          9
   125          7
   126         15
   127          7
   129         18
   130         72
   131         21
   132         17
   133          8
   141         11
   142         29
   147         50
   149         39
   150          8
   160         40
   161          7
   162          8