##TITLE=Library Entry 23709
##JCAMP-DX=Revision 4.10 
##DATA TYPE=MASS SPECTRUM
##SAMPLE DESCRIPTION=LAC, NIDDK, NIH, Bethesda, MD 20892
##NAMES=HP
##CAS NAME=Pyrrole-3-aldehyde, N-t-butyloxycarbonyl-
##MOLFORM=C10H13NO3
##CAS REGISTRY NO=209216-57-9
##MP= -300
##BP= -300
##MW= 195
##$RETENTION INDEX=0
##$CONDENSED SPECTRUM=NO
##NPOINTS= 82
##XYDATA=(XY..XY) 1 
    41        347
    42         25
    43         76
    44         14
    45          5
    47          1
    49          2
    50         11
    51         18
    52          5
    53         14
    54          3
    55         31
    56          7
    57        999
    58         41
    59         19
    63          3
    64          8
    65         16
    66         73
    67         13
    68         11
    69          7
    70          2
    71          5
    72          0
    77          1
    78          1
    79          2
    80          2
    81          1
    82          1
    83          4
    84          6
    85          3
    86          4
    88          0
    89          3
    90          2
    91         12
    93         33
    94         89
    95        105
    96         33
    97          5
    98          0
    99          0
   105          0
   106          0
   107          1
   108          7
   109          1
   110          0
   111          3
   112          0
   116          1
   117          2
   118          1
   122         60
   123          4
   131          0
   132          0
   133          0
   136         27
   138         18
   139         20
   140         70
   141          5
   143          7
   144          1
   145          4
   146          0
   151          3
   155          0
   171          0
   172          1
   173          2
   180          2
   195         57
   196         31
   197          3