##TITLE=Library Entry 109309
##JCAMP-DX=Revision 4.10 
##DATA TYPE=MASS SPECTRUM
##SAMPLE DESCRIPTION=Japan AIST/NIMC Database- Spectrum MS-IW-7894
##NAMES=HP
##CAS NAME=3-Methoxy-2(1H)-pyridone
##MOLFORM=C6H7NO2
##CAS REGISTRY NO=20928-63-6
##MP= -300
##BP= -300
##MW= 125
##$RETENTION INDEX=0
##$CONDENSED SPECTRUM=NO
##NPOINTS= 70
##XYDATA=(XY..XY) 1 
    14          3
    15         22
    16          1
    17          2
    18          7
    25          4
    26         43
    27         57
    28        179
    29         17
    30          3
    31          3
    32          2
    36          2
    37         21
    38         49
    39        121
    40         24
    41         27
    42          7
    43          6
    44          5
    49          2
    50         10
    51         17
    52         44
    53         52
    54         70
    55        340
    56         14
    57          1
    61         20
    62          7
    63          3
    64          9
    65          9
    66         36
    67         79
    68         13
    69         11
    70          1
    71          1
    75          1
    76          2
    77          9
    78         68
    79         69
    80         20
    81         23
    82        257
    83         13
    84          1
    93          2
    94         82
    95        284
    96        707
    97         44
    98          2
   106         26
   107         26
   108         21
   109         17
   110          9
   111          2
   122         53
   123          5
   124        611
   125        999
   126        119
   127          9