##TITLE=Library Entry 48845
##JCAMP-DX=Revision 4.10 
##DATA TYPE=MASS SPECTRUM
##SAMPLE DESCRIPTION=NIST Mass Spectrometry Data Center, 1990.
##NAMES=HP
##CAS NAME=6-Methyl-6-hepten-4-yn-2-ol
##MOLFORM=C8H12O
##CAS REGISTRY NO=20937-57-9
##MP= -300
##BP= -300
##MW= 124
##$RETENTION INDEX=0
##$CONDENSED SPECTRUM=NO
##NPOINTS= 31
##XYDATA=(XY..XY) 1 
    27         75
    28          6
    29         47
    38         41
    39        159
    40         38
    41         67
    42         15
    43        111
    45        480
    50         76
    51        144
    52         98
    53        118
    54         22
    55         20
    61         16
    62         45
    63        119
    64         49
    65        136
    69         16
    74         28
    75         13
    77        316
    79        999
    80        906
    81         97
    91         47
   109         15
   124         69