##TITLE=Library Entry 2019
##JCAMP-DX=Revision 4.10 
##DATA TYPE=MASS SPECTRUM
##SAMPLE DESCRIPTION=Humboldt-Universitat zu Berlin, Department of Chemistry
, Analytical Group
##NAMES=HP
##CAS NAME=2-(4-Chlorophenyl)-5-morpholin-4-yl-1H-imidazol-4-carboxylic acid
, methyl ester
##MOLFORM=C15H16ClN3O3
##CAS REGISTRY NO=209392-01-8
##MP= -300
##BP= -300
##MW= 321
##$RETENTION INDEX=0
##$CONDENSED SPECTRUM=NO
##NPOINTS= 259
##XYDATA=(XY..XY) 1 
    12          9
    13          8
    15        969
    16         28
    17         27
    18         93
    19         39
    26         67
    27        379
    28        969
    29        322
    30         74
    31        107
    32         10
    33         34
    35          8
    36         21
    37         10
    38         26
    39        110
    40        384
    41        999
    42        452
    43        195
    44         76
    45        408
    46         12
    47          4
    49          7
    50         68
    51         63
    52         65
    53         75
    54        283
    55         85
    56         96
    57         33
    58         16
    59        135
    60         14
    61         14
    62         29
    63         34
    64         19
    66        412
    67        164
    68        110
    69         47
    70         64
    71         21
    72         15
    73         28
    74         22
    75        138
    76         63
    77         17
    78         12
    79         13
    80         28
    81         31
    82         16
    84         34
    85         22
    86         55
    87         40
    88         40
    89         29
    90         10
    91          7
    92          6
    93         38
    94         71
    95         72
    96         61
    97        117
    98         23
    99         15
   100         29
   102        209
   103         55
   104         13
   105          5
   106          4
   107         18
   108         11
   109         17
   110         32
   111        134
   112         26
   113         56
   114        156
   115         69
   118          3
   119          2
   120          4
   121         13
   122         17
   123        149
   124        599
   125        112
   126         29
   127         17
   128         16
   129         25
   133          3
   134          2
   135          4
   137        279
   138        400
   139        174
   140        146
   141         71
   142         26
   143         14
   144         23
   146         81
   148         16
   149         43
   150         93
   151        123
   152         47
   153         40
   154         10
   155         11
   156          9
   157          8
   161          9
   162         10
   163         52
   164         17
   165         21
   166         10
   167         12
   168         99
   169         28
   170          9
   171         13
   172          2
   175         59
   176         29
   177         40
   178        103
   179         24
   180         35
   181          9
   182          6
   183          5
   184          4
   185          2
   187          2
   189         22
   190         18
   191         34
   192         17
   193         16
   194          7
   195          6
   196         21
   197         13
   198          4
   199          2
   201          4
   202          8
   203         74
   204         76
   205         84
   206         60
   207         27
   208         15
   209          5
   210          4
   211          4
   212          2
   213          2
   215          2
   216          7
   217         17
   218         60
   219         37
   220         39
   221         15
   222          8
   223          5
   224          7
   225          8
   226         21
   227          5
   228          4
   229          8
   230         64
   231        435
   232        278
   233        195
   234        106
   235         22
   236         10
   237          3
   238          1
   242          4
   243          7
   244         24
   245         66
   246         69
   247         34
   248         50
   249         15
   250         35
   251         14
   252         10
   253          7
   254          3
   255          3
   256          2
   257          3
   258         34
   259         88
   260        137
   261         65
   262         96
   263         76
   264        101
   265         39
   266         27
   267          6
   268          1
   270          4
   271          6
   272          6
   273          2
   274          8
   275          2
   276         14
   277         84
   278         53
   279         35
   280         16
   281          6
   283          1
   286          5
   288        100
   289        115
   290        172
   291         80
   292         59
   293         22
   294          3
   302          1
   303          7
   304          2
   305          3
   306         15
   307          2
   308          5
   319          2
   321        396
   322         75
   323        140
   324         26
   325          2