##TITLE=Library Entry 157
##JCAMP-DX=Revision 4.10 
##DATA TYPE=MASS SPECTRUM
##SAMPLE DESCRIPTION=Humboldt-Universitat zu Berlin, Department of Chemistry
, Analytical Group
##NAMES=HP
##CAS NAME=2-(4-Fluorophenyl)-5-morpholin-4-yl-3H-imidazol-4-carboxylic acid
, methyl ester
##MOLFORM=C15H16FN3O3
##CAS REGISTRY NO=209392-07-4
##MP= -300
##BP= -300
##MW= 305
##$RETENTION INDEX=0
##$CONDENSED SPECTRUM=NO
##NPOINTS= 200
##XYDATA=(XY..XY) 1 
    12          8
    13          5
    14         27
    15        697
    16         20
    17         32
    18        119
    19         33
    20          3
    26         67
    27        375
    28        999
    29        352
    30         86
    31        125
    32         11
    33         41
    37          4
    38         10
    39         81
    40        326
    41        919
    42        412
    43        158
    44         69
    45        374
    46         18
    47          3
    49          3
    50         30
    51         23
    52         55
    53         77
    54        265
    55         96
    56        122
    57         98
    58         17
    59        185
    60          8
    61          8
    62         14
    63         21
    64         13
    66        640
    67        230
    68        185
    69         90
    70        108
    71         25
    72         17
    73          5
    74         15
    75        102
    76         28
    77         10
    78         13
    79         20
    80         51
    81         69
    82         37
    83         21
    84         30
    85         11
    86         48
    87         23
    88         23
    89          5
    90          3
    91          4
    92          5
    93         50
    94        201
    95        281
    96         81
    97        112
    98         20
    99          9
   100         25
   101         14
   102         40
   103          7
   104          2
   105         15
   106         35
   107        139
   108         43
   109         37
   110          7
   111          3
   112          5
   113          9
   114         10
   115         10
   116         39
   119          6
   120         16
   121        261
   122        413
   123        133
   124        344
   125         34
   126         18
   127          3
   129          3
   130          2
   131          3
   132         41
   133         91
   134         85
   135        135
   136         34
   137         41
   139          3
   141          5
   145          3
   146         12
   147         50
   148         14
   149          4
   150          9
   151          9
   153          5
   158          4
   159         57
   160         33
   161         23
   162         84
   163         17
   164          3
   168          2
   171          3
   173         23
   174         19
   175         26
   176         10
   177          6
   185          4
   186          8
   187         65
   188         68
   189         60
   190         37
   191          7
   199          1
   200          8
   201         17
   202         57
   203         27
   204         18
   205          5
   212          1
   213          5
   214         54
   215        374
   216        220
   217         42
   218         20
   219          4
   220          2
   226          2
   227          5
   228         21
   229         49
   230         53
   231         13
   232         28
   233          8
   234         18
   235          7
   236          2
   242         32
   243         63
   244        100
   245         34
   246         39
   247         47
   248         60
   249         13
   250          2
   254          4
   255          4
   256          4
   258          5
   260         10
   261         75
   262         47
   263          7
   272         82
   273         79
   274        107
   275         54
   276         11
   287          7
   288          1
   290         12
   291          2
   305        352
   306         68
   307          8