##TITLE=Library Entry 83538
##JCAMP-DX=Revision 4.10 
##DATA TYPE=MASS SPECTRUM
##SAMPLE DESCRIPTION=Japan AIST/NIMC Database- Spectrum MS-IW-7297
##NAMES=HP
##CAS NAME=3,6-Dihydro-6-hydroxymethyl-2-phenyl-2H-1,2-oxazine
##MOLFORM=C11H13NO2
##CAS REGISTRY NO=20939-75-7
##MP= -300
##BP= -300
##MW= 191
##$RETENTION INDEX=0
##$CONDENSED SPECTRUM=NO
##NPOINTS= 130
##XYDATA=(XY..XY) 1 
    15          1
    17          9
    18          1
    26          3
    27         23
    28         19
    29         25
    30         13
    31         31
    37          3
    38         12
    39         75
    40         14
    41         39
    42          9
    43          9
    44          2
    46          2
    49          1
    50         26
    51        129
    52         22
    53         16
    54          7
    55         68
    56         15
    57          8
    58          6
    59          1
    61          1
    62          5
    63         19
    64         23
    65         48
    66         30
    67          9
    68         19
    69         28
    70          4
    71          8
    72          2
    73          1
    74          7
    75          8
    76         14
    77        692
    78         92
    79         17
    80          5
    81         35
    82          5
    83         82
    84         13
    85          3
    86          5
    87          1
    88          2
    89         10
    90         10
    91         45
    92         53
    93        152
    94         22
    95          4
    96          1
    97          2
    98          6
    99          4
   100          1
   101          2
   102          5
   103         16
   104         98
   105         31
   106         33
   107        999
   108         93
   109        166
   110         11
   113          1
   114          4
   115         95
   116         44
   117         65
   118         23
   119          9
   120          3
   121          4
   122         40
   123          4
   126          1
   127         11
   128         17
   129         12
   130         79
   131         16
   132         40
   133          6
   134          1
   135          1
   140          3
   141          7
   142         16
   143        155
   144         79
   145         11
   146          6
   147          2
   148          2
   153          1
   154         32
   155         14
   156        235
   157         38
   158          7
   159         20
   160         67
   161         16
   162          4
   170         10
   171         14
   172         55
   173        213
   174         28
   175          4
   190          2
   191        572
   192         74
   193          9
   194          1