##TITLE=Library Entry 63700
##JCAMP-DX=Revision 4.10 
##DATA TYPE=MASS SPECTRUM
##SAMPLE DESCRIPTION=A.A.Kutin, Moscow, Russia
##NAMES=HP
##CAS NAME=1,2,4-Triazine-6-carbonitrile, 2,3,4,5-tetrahydro-3,5-dioxo-2-phe
nyl-
##MOLFORM=C10H6N4O2
##CAS REGISTRY NO=20932-00-7
##MP= -300
##BP= -300
##MW= 214
##$RETENTION INDEX=0
##$CONDENSED SPECTRUM=NO
##NPOINTS= 110
##XYDATA=(XY..XY) 1 
    33          1
    34          3
    35          1
    36          5
    37         51
    38        180
    39        179
    40         81
    41         77
    42         18
    43         81
    44         56
    46         88
    47          2
    49          8
    50        103
    51        294
    52        107
    53         25
    54         16
    55         13
    56          5
    57         11
    58          1
    59          3
    60         10
    61         16
    62         39
    63        201
    64        362
    65        100
    66         22
    67          6
    68          3
    69          9
    70         41
    72         67
    73         12
    74         21
    75         16
    76         32
    77        546
    78         43
    79          7
    80          3
    81          4
    82          2
    83         10
    84          3
    85         11
    86          2
    87          7
    88          8
    89          4
    90         42
    91        999
    92         72
    93          8
    94          4
    95          4
    96          2
    97          4
    98          2
    99          0
   101          1
   103          1
   104          2
   105         89
   106          7
   107          2
   109          2
   111          4
   114          3
   115          4
   116          2
   117          1
   118          1
   119         32
   120          2
   121          1
   123          1
   124          0
   125          2
   129          2
   130          0
   133          0
   135          1
   137          2
   138          1
   139          1
   141          0
   142          6
   143        459
   144         46
   145          3
   149          7
   150          1
   153          1
   155          1
   157          0
   165          1
   171         33
   172          3
   182          0
   195          1
   200          0
   213          5
   214        568
   215         75
   216          6