##TITLE=Library Entry 8804
##JCAMP-DX=Revision 4.10 
##DATA TYPE=MASS SPECTRUM
##SAMPLE DESCRIPTION=NIST Mass Spectrometry Data Center, 1990.
##NAMES=HP
##CAS NAME=Butanal, 2,2-dimethyl-
##MOLFORM=C6H12O
##CAS REGISTRY NO=2094-75-9
##MP= -300
##BP= -300
##MW= 100
##$RETENTION INDEX=0
##$CONDENSED SPECTRUM=NO
##NPOINTS= 37
##XYDATA=(XY..XY) 1 
    14          3
    15         20
    16          1
    18          2
    26         24
    27        210
    28         34
    29        258
    30          6
    31          6
    37          8
    38         23
    39        198
    40         33
    41        307
    42          6
    43        999
    44         37
    45          3
    49          2
    50         13
    51         17
    52          6
    53         37
    54          2
    55        118
    56         13
    57         35
    58          1
    65          2
    67          6
    69         11
    71        399
    72        147
    73          6
    85          4
   100         10