##TITLE=Library Entry 37191
##JCAMP-DX=Revision 4.10 
##DATA TYPE=MASS SPECTRUM
##SAMPLE DESCRIPTION=Exported from NIST MS Search
##NAMES=HP
##CAS NAME=Acetamide, N-allyl-N,N'-tetramethylenebis-
##MOLFORM=C11H20N2O2
##CAS REGISTRY NO=20944-07-4
##MP= -300
##BP= -300
##MW= 212
##$RETENTION INDEX=0
##$CONDENSED SPECTRUM=NO
##NPOINTS= 81
##XYDATA=(XY..XY) 1 
    41        415
    42        155
    43        674
    44         77
    45         16
    46         10
    52         10
    53         16
    54         40
    55         67
    56        147
    57         73
    58         24
    59          8
    66         10
    67         24
    68         73
    69         36
    70        999
    71         69
    72        159
    73         57
    74         32
    75         12
    81         12
    82         30
    83         20
    84        104
    85         49
    86         30
    87         20
    88          8
    95          8
    96         24
    97         16
    98         51
    99         16
   100         32
   101         10
   102          6
   107          6
   108         16
   109         36
   110        116
   111         40
   112        347
   113         75
   114         49
   115         16
   116          6
   124         12
   125         38
   126         28
   127         10
   139         10
   140         36
   141         10
   143         22
   144          8
   148         10
   149         30
   150         12
   151         24
   152         12
   153          8
   166          6
   167         18
   168         40
   169        366
   170         53
   171         14
   172         10
   195         10
   196         30
   197         16
   198          6
   210         10
   211         20
   212         59
   213         16
   214          4