##TITLE=Library Entry 96514
##JCAMP-DX=Revision 4.10 
##DATA TYPE=MASS SPECTRUM
##SAMPLE DESCRIPTION=Japan AIST/NIMC Database- Spectrum MS-IW-6063
##NAMES=HP
##CAS NAME=Ethyl tellurac
##MOLFORM=C20H40N4S8Te
##CAS REGISTRY NO=20941-65-5
##MP= -300
##BP= -300
##MW= 722
##$RETENTION INDEX=0
##$CONDENSED SPECTRUM=NO
##NPOINTS= 241
##XYDATA=(XY..XY) 1 
    14          1
    15          5
    25          2
    26         16
    27         74
    28         92
    29        146
    30         18
    32         19
    33          9
    34         25
    35          4
    36          1
    38          5
    39          4
    40          9
    41         12
    42         45
    43          8
    44        185
    45         14
    46          3
    47          3
    51          2
    52          4
    53          2
    54         16
    55         25
    56         71
    57          9
    58         23
    59         79
    60        261
    61         27
    62         13
    63          1
    64        104
    65          4
    66          9
    67          3
    68          3
    69          8
    70         13
    71         19
    72        114
    73         11
    74          1
    76        109
    77         56
    78         10
    79          5
    80          2
    81          4
    82          4
    83          3
    84          5
    85          2
    86         33
    87        114
    88        442
    89         25
    90         19
    91         12
    92          9
    93          5
    94          1
    95          4
    96          3
    97          3
    98          8
    99          1
   100          7
   101          1
   104          4
   105          1
   106          1
   107          1
   108          1
   109          1
   110          1
   111          3
   112          2
   113          5
   114          7
   115          2
   116        999
   117         85
   118         47
   119          6
   120          2
   121          1
   122          2
   123          1
   124          2
   125          1
   126          3
   127          2
   128          6
   129          4
   130          6
   131          1
   134          2
   135          1
   136          1
   137          1
   138          1
   139          4
   145          1
   146          4
   147          9
   148        256
   149         67
   150         27
   151          6
   152          2
   153          1
   155          1
   156          1
   157          2
   158          4
   159          2
   160          6
   161          1
   162          5
   163          1
   166          1
   168          9
   169          1
   171          1
   175          1
   177          3
   178          1
   180          3
   192          2
   196          1
   200          2
   202          1
   203          6
   204          4
   205          6
   206          6
   207          2
   208          7
   209          2
   210          6
   211          4
   212          9
   213          3
   214          4
   220          1
   232          5
   233          1
   241          1
   248          2
   249          1
   250          6
   251          5
   252         13
   253          9
   254         25
   255          9
   256         39
   257          2
   258         37
   259          1
   260         20
   261          1
   264         11
   265          1
   266          2
   268          1
   270          9
   271          4
   272         19
   273         29
   274         76
   275          9
   276        129
   277         11
   278        143
   279         12
   280         12
   281          2
   282          1
   283          1
   284          1
   285          2
   286          1
   287          1
   288          1
   289          1
   296         50
   297          8
   298          9
   299          1
   300          1
   302          1
   303          2
   305          3
   307          4
   308          1
   310          1
   312          2
   314          3
   316          2
   318          1
   350          1
   351          1
   352         11
   353          2
   354          6
   355          1
   356          2
   357         14
   358          2
   359         27
   360          4
   361         15
   362          2
   363          2
   402          1
   404          1
   418          5
   419          2
   420         10
   421         15
   422         41
   423          8
   424         71
   425          9
   426         79
   427         11
   428         12
   429          2
   430          1
   500          1
   505         77
   506         11
   507         13
   508          2
   509          1