##TITLE=Library Entry 17910
##JCAMP-DX=Revision 4.10 
##DATA TYPE=MASS SPECTRUM
##SAMPLE DESCRIPTION=J. E. CALIN
##NAMES=HP
##CAS NAME=1,3,6-Dioxathiocane
##MOLFORM=C5H10O2S
##CAS REGISTRY NO=2094-92-0
##MP= -300
##BP= -300
##MW= 134
##$RETENTION INDEX=0
##$CONDENSED SPECTRUM=NO
##NPOINTS= 17
##XYDATA=(XY..XY) 1 
    27        113
    28        490
    29        295
    30        220
    31         94
    45        213
    46        999
    47         81
    59        138
    60        452
    61        647
    74        301
    75         88
    76         56
    90         69
   104        314
   134        295