##TITLE=Library Entry 49940
##JCAMP-DX=Revision 4.10 
##DATA TYPE=MASS SPECTRUM
##SAMPLE DESCRIPTION=J.Tsai ET AL.J.Agr.Food Chem.,46,254(1998)
##NAMES=HP
##CAS NAME=3-Methylselenomethylfuran
##MOLFORM=C6H8OSe
##CAS REGISTRY NO=209530-84-7
##MP= -300
##BP= -300
##MW= 176
##$RETENTION INDEX=0
##$CONDENSED SPECTRUM=NO
##NPOINTS= 57
##XYDATA=(XY..XY) 1 
    37         29
    38         44
    39        144
    40         31
    41         86
    42         42
    43        154
    44         16
    49          8
    50        130
    51        211
    52        130
    53        694
    54         23
    55         47
    57         16
    62          5
    63         44
    64          8
    65         23
    66        104
    67         13
    68         16
    69         13
    74          8
    77        115
    78         23
    79        154
    80         76
    81        999
    82         39
    83          5
    88         47
    89         55
    90         36
    91         16
    92         86
    93        154
    94         91
    96         13
   105          8
   107        224
   108        295
   109        138
   119         23
   120          5
   121         21
   123         60
   124          5
   125          5
   131          5
   152         23
   172         34
   173         18
   174         89
   176        206
   178         39