##TITLE=Library Entry 25359
##JCAMP-DX=Revision 4.10 
##DATA TYPE=MASS SPECTRUM
##SAMPLE DESCRIPTION=James Little, Eastman Chemical Co.
##NAMES=HP
##CAS NAME=Heptadecane, 7-methyl-
##MOLFORM=C18H38
##CAS REGISTRY NO=20959-33-5
##MP= -300
##BP= -300
##MW= 254
##$RETENTION INDEX=1739
##$CONDENSED SPECTRUM=NO
##NPOINTS= 57
##XYDATA=(XY..XY) 1 
    27         44
    28         40
    29        121
    36          1
    38          2
    39         36
    40         14
    41        319
    42         83
    43        575
    44         25
    53         21
    54         17
    55        206
    56        149
    57        999
    58         45
    67         27
    68         21
    69        100
    70        122
    71        785
    72         42
    73          9
    77          8
    78          1
    79          4
    81         10
    82         36
    83        107
    84         75
    85        298
    86         16
    96         16
    97         62
    98         25
    99        100
   100          6
   110          5
   111         43
   112        203
   113        105
   114          5
   125          9
   126          8
   127         27
   139          5
   140         45
   141         22
   168        101
   169         53
   170          4
   207          4
   210          4
   224          4
   225          4
   239          7