##TITLE=Library Entry 12204
##JCAMP-DX=Revision 4.10 
##DATA TYPE=MASS SPECTRUM
##SAMPLE DESCRIPTION=J.Tsai ET AL.J.Agr.Food Chem.,46,254(1998)
##NAMES=HP
##CAS NAME=Methylselenoacetate
##MOLFORM=C3H6OSe
##CAS REGISTRY NO=209530-82-5
##MP= -300
##BP= -300
##MW= 138
##$RETENTION INDEX=663
##$CONDENSED SPECTRUM=NO
##NPOINTS= 23
##XYDATA=(XY..XY) 1 
    35         16
    36         10
    39         13
    40         10
    41         40
    42         66
    43        999
    44         17
    68         11
    84          2
    90         17
    91         43
    92         37
    93        151
    94         69
    95        101
    96         46
   133         19
   134         39
   135         34
   136         99
   138        188
   140         42