##TITLE=Library Entry 6201
##JCAMP-DX=Revision 4.10 
##DATA TYPE=MASS SPECTRUM
##SAMPLE DESCRIPTION=DKFZ HD FUERSTENBERGER, HEIDELBERG, GERMANY, F.R.G.
##NAMES=HP
##CAS NAME=Decanoic acid, 1,1a,1b,4,4a,5,7a,7b,8,9-decahydro-4a,7b-dihydroxy
-1,1,6,8-tetramethyl-5-oxo-3-[[(1-oxodecyl)oxy]methyl]-9aH-cyclopropa[3,4]be
nz[1,2-e]azulene-9,9a-diyl ester, [1aR-(1a.alpha.,1b.beta.,4a.beta.,7a.alpha
.,7b.alpha.,8.alpha.,9.beta.,9
##MOLFORM=C50H82O9
##CAS REGISTRY NO=20963-94-4
##MP= -300
##BP= -300
##MW= 826
##$RETENTION INDEX=0
##$CONDENSED SPECTRUM=NO
##NPOINTS= 739
##XYDATA=(XY..XY) 1 
    14          2
    15          3
    16          6
    17          2
    18          3
    19          1
    24          0
    25          4
    26          9
    27        342
    28        195
    29        463
    30        210
    31          9
    32          8
    35          1
    36          5
    37          8
    38         10
    39        147
    40         15
    41        936
    42        197
    43        999
    44        132
    45         71
    46          3
    47          1
    48          0
    49          2
    50         21
    51         69
    52         53
    53        143
    54         67
    55        663
    56        209
    57        863
    58         86
    59         96
    60        505
    61         90
    62          7
    63         18
    64          8
    65         77
    66         28
    67        166
    68         86
    69        463
    70        143
    71        926
    72         54
    73        673
    74         53
    75          8
    76          6
    77         73
    78         56
    79        166
    80        589
    81        209
    82         74
    83        389
    84        112
    85        368
    86         27
    87         91
    88          8
    89         11
    90          5
    91        105
    92        115
    93        336
    94         58
    95        175
    96        157
    97        100
    98        122
    99         29
   100         11
   101         45
   102          9
   103         20
   104         65
   105        166
   106        578
   107        172
   108         77
   109        252
   110         86
   111         78
   112        101
   113         37
   114         35
   115         96
   116         24
   117         55
   118         60
   119         93
   120        131
   121        195
   122        124
   123        101
   124         87
   125        108
   126         36
   127         27
   128         30
   129        315
   130         51
   131         53
   132         60
   133         71
   134         69
   135         64
   136        107
   137        118
   138         65
   139         50
   140         36
   141         33
   142         24
   143         78
   144         33
   145         58
   146         52
   147         72
   148         88
   149         76
   150         98
   151         61
   152         37
   153         48
   154         26
   155        863
   156        103
   157         58
   158         50
   159         95
   160         54
   161         80
   162         88
   163         52
   164         40
   165         52
   166         30
   167         45
   168         30
   169         31
   170         63
   171         77
   172        141
   173        148
   174         61
   175         69
   176         61
   177         63
   178         43
   179         67
   180         27
   181         29
   182         20
   183         49
   184         25
   185         53
   186         55
   187         72
   188         52
   189         53
   190         44
   191         34
   192         44
   193         28
   194         23
   195         40
   196         43
   197         56
   198         54
   199        101
   200         67
   201         63
   202         48
   203         53
   204        400
   205        242
   206         65
   207         41
   208         44
   209         48
   210         42
   211         48
   212         31
   213         80
   214         52
   215         92
   216         50
   217         52
   218         31
   219         26
   220         35
   221         44
   222         48
   223         53
   224         61
   225         70
   226         38
   227         73
   228         49
   229         33
   230         36
   231         50
   232        852
   233        166
   234         77
   235         42
   236         34
   237         55
   238         37
   239         47
   240         45
   241         63
   242         38
   243         35
   244         21
   245         23
   246         18
   247         27
   248         43
   249         98
   250        134
   251         70
   252         44
   253         60
   254         48
   255         37
   256         18
   257         25
   258         21
   259         36
   260         21
   261         31
   262         21
   263         40
   264         44
   265         56
   266         61
   267         90
   268         44
   269         37
   270         31
   271         33
   272         23
   273         16
   274         16
   275         29
   276         42
   277         50
   278         25
   279         40
   280         25
   281         51
   282        128
   283         67
   284         35
   285         35
   286         17
   287         11
   288          7
   289          7
   290         11
   291         26
   292        151
   293         98
   294         77
   295         63
   296         35
   297         29
   298         20
   299         40
   300         54
   301         21
   302          8
   303          7
   304          7
   305          5
   306          4
   307          6
   308         27
   309         84
   310        610
   311        315
   312        102
   313         37
   314         17
   315          8
   316         11
   317          9
   318          6
   319          6
   320          5
   321          4
   322          6
   323         10
   324          8
   325         10
   326         31
   327        103
   328        189
   329         63
   330         23
   331          9
   332          6
   333          7
   334          4
   335          4
   336          5
   337          6
   338          4
   339          4
   340          6
   341          6
   342          7
   343          8
   344         11
   345         31
   346         22
   347          7
   348          5
   349          4
   350          6
   351          6
   352          4
   353          5
   354          4
   355          6
   356          5
   357          8
   358         10
   359         22
   360          9
   361          5
   362          7
   363          4
   364          3
   365          3
   366          3
   367          5
   368         16
   369         10
   370         14
   371         18
   372         11
   373         34
   374         11
   375          8
   376         15
   377          8
   378         29
   379          9
   380          4
   381          6
   382          6
   383          9
   384          7
   385          8
   386         12
   387          9
   388          5
   389          7
   390          5
   391          6
   392          4
   393          4
   394          2
   395          4
   396          6
   397          6
   398          5
   399          6
   400          5
   401          4
   402          7
   403         12
   404         10
   405          7
   406          4
   407          8
   408          4
   409          5
   410          4
   411          4
   412          4
   413         11
   414          6
   415          2
   416          5
   417          4
   418          3
   419          4
   420          7
   421         50
   422         18
   423          7
   424          5
   425          7
   426          6
   427          4
   428          3
   429          2
   430          3
   431          4
   432          4
   433          5
   434          4
   435          5
   436         18
   437         10
   438         16
   439          9
   440          6
   441          6
   442          5
   443          3
   444          2
   445          2
   446          5
   447          4
   448          6
   449          6
   450          5
   451          5
   452         10
   453         10
   454         35
   455         17
   456          6
   457          8
   458          3
   459          2
   460          2
   461          1
   462          2
   463          8
   464         70
   465         37
   466         27
   467         23
   468         16
   469          7
   470          6
   471          5
   472          6
   473          2
   474          2
   475          1
   476          1
   477          1
   478          2
   479          4
   480         21
   481         25
   482        357
   483        134
   484         52
   485         18
   486          6
   487          2
   488          2
   489          1
   490          1
   491          1
   492          1
   493          1
   494          2
   495          1
   496          6
   497          8
   498         35
   499         58
   500         58
   501         17
   502          5
   503          2
   504          1
   505          0
   506          1
   507          0
   508          1
   509          1
   510          3
   511          2
   512          3
   513          1
   514          5
   515          2
   516          5
   517          3
   518          3
   519          1
   520          1
   521          0
   522          1
   523          0
   524          2
   525          1
   526          2
   527          1
   528          1
   529          1
   530          1
   531          2
   532          5
   533          2
   534          1
   535          1
   536          0
   537          1
   538          0
   539          1
   540          3
   541          2
   542          4
   543          3
   544          1
   545          1
   546          1
   547          1
   548          1
   549          0
   550          1
   551          1
   552          1
   553          1
   554          1
   555          1
   556          1
   557          1
   558          2
   559          2
   560          2
   561          7
   562          3
   563          2
   564          1
   565          1
   566          1
   567          0
   568          1
   569          1
   570          1
   571          1
   572          1
   573          1
   574          0
   575          6
   576          2
   577          2
   578          2
   579          1
   580          1
   581          1
   582          1
   583          1
   584          1
   585          1
   586          0
   587          0
   588          1
   589          1
   590          1
   591          2
   592          2
   593          1
   594          2
   595          1
   596          1
   597          1
   598          1
   599          1
   600          1
   601          1
   602          1
   603          1
   604          1
   605          1
   606          2
   607          2
   608          4
   609          2
   610          2
   611          2
   612          1
   613          1
   614          1
   615          0
   616          1
   617          1
   618          2
   619          2
   620          3
   621          2
   622          2
   623          2
   624          2
   625          2
   626          4
   627          2
   628          1
   629          1
   630          1
   631          5
   632          3
   633          1
   634          1
   635          1
   636         18
   637          7
   638         10
   639          6
   640          4
   641          2
   642          1
   643          1
   644          0
   645          0
   646          0
   647          0
   648          0
   649          0
   650          1
   651          2
   652         24
   653         12
   654         80
   655        134
   656         58
   657         16
   658          3
   659          1
   660          0
   661          0
   662          0
   663          0
   664          0
   665          0
   666          1
   667          1
   668          1
   669          1
   670          3
   671         11
   672          6
   673          2
   674          1
   675          0
   676          0
   677          0
   678          0
   679          0
   680          1
   681          2
   682          1
   683          1
   684          1
   685          0
   686          1
   687          1
   688          1
   689          1
   690          0
   691          0
   692          0
   693          0
   694          0
   695          0
   696          0
   697          0
   698          0
   699          3
   700          2
   701          1
   702          0
   703          0
   704          0
   705          0
   706          0
   707          0
   708          0
   709          0
   710          0
   711          0
   712          0
   713          0
   714          0
   715          1
   716          0
   717          0
   718          0
   719          0
   720          0
   723          0
   727          0
   728          0
   729          1
   730          1
   731          1
   732          0
   733          0
   734          0
   735          0
   736          0
   738          0
   749          0
   750          0
   757          0
   758          0
   764          0
   765          0
   768          0
   782          0
   785          0
   789          0
   790          0
   791          0
   792          0
   808          1
   809          1
   810          0
   811          0
   812          0
   813          0
   824          0
   825          0
   826         10
   827          5
   828          1
   829          0
   830          0