##TITLE=Library Entry 72158
##JCAMP-DX=Revision 4.10 
##DATA TYPE=MASS SPECTRUM
##SAMPLE DESCRIPTION=Japan AIST/NIMC Database- Spectrum MS-NW-9868
##NAMES=HP
##CAS NAME=2,5,6-Trimethoxy-3(2H)-pyridazinone
##MOLFORM=C7H10N2O4
##CAS REGISTRY NO=2096-18-6
##MP= -300
##BP= -300
##MW= 186
##$RETENTION INDEX=0
##$CONDENSED SPECTRUM=NO
##NPOINTS= 95
##XYDATA=(XY..XY) 1 
    13          3
    14          8
    15        193
    16          3
    17         20
    18        121
    24          1
    25          8
    26         18
    27         52
    28        127
    29         50
    30         95
    31         25
    32          3
    33          2
    37          5
    38          5
    39         19
    40          7
    41         64
    42         24
    43         51
    44          6
    45         23
    46          1
    47        175
    48          3
    51          6
    52         10
    53        127
    54         17
    55         24
    56         89
    57         10
    58         15
    59         65
    60          1
    65          1
    66          1
    67          7
    68         12
    69        827
    70         42
    71          7
    72         31
    73          1
    75          9
    78          2
    80          5
    81         12
    82         12
    83         35
    84         68
    85         13
    86          2
    93          2
    96          9
    97          3
    98          4
    99        999
   100         55
   101          7
   108          2
   109         11
   110        105
   111         53
   112         20
   113         12
   114          1
   115        613
   116         33
   117          4
   124          3
   125          5
   126         78
   127         33
   128          3
   138          1
   140         17
   141         93
   142         13
   143        236
   144         17
   145          2
   155         12
   156         50
   157          4
   170          4
   171        111
   172          8
   173          1
   186        781
   187         87
   188          9