##TITLE=Library Entry 59529
##JCAMP-DX=Revision 4.10 
##DATA TYPE=MASS SPECTRUM
##SAMPLE DESCRIPTION=NIST Mass Spectrometry Data Center, 1994
##NAMES=HP
##CAS NAME=3-Benzyloxyphenylacetonitrile
##MOLFORM=C15H13NO
##CAS REGISTRY NO=20967-96-8
##MP= -300
##BP= -300
##MW= 223
##$RETENTION INDEX=0
##$CONDENSED SPECTRUM=NO
##NPOINTS= 62
##XYDATA=(XY..XY) 1 
    26          5
    27         14
    28          2
    29          2
    37          5
    38         22
    39        102
    40          8
    41         21
    42          1
    46          1
    50         34
    51         76
    52         19
    53          4
    54          1
    55          0
    61          4
    62         20
    63         67
    64         34
    65        179
    66         11
    73          0
    74          6
    75          9
    76         18
    77         74
    78         19
    79          2
    82          0
    86          2
    87          2
    89         41
    91        999
    92         82
    93          3
    97          1
    98          1
   102          5
   103          6
   104         13
   105          6
   111          0
   114          0
   115          1
   116          3
   128          0
   132          7
   133          1
   151          0
   152          2
   153          1
   154          2
   165          1
   166          0
   167          1
   181          2
   182          0
   183          1
   223         29
   224          5