##TITLE=Library Entry 29535
##JCAMP-DX=Revision 4.10 
##DATA TYPE=MASS SPECTRUM
##SAMPLE DESCRIPTION=Japan AIST/NIMC Database- Spectrum MS-IW-7763
##NAMES=HP
##CAS NAME=3-Thiosemicarbazidopyridazine 1-oxide
##MOLFORM=C5H7N5OS
##CAS REGISTRY NO=2096-29-9
##MP= -300
##BP= -300
##MW= 185
##$RETENTION INDEX=0
##$CONDENSED SPECTRUM=NO
##NPOINTS= 123
##XYDATA=(XY..XY) 1 
    12          3
    13          3
    14          5
    15          5
    16        165
    17        213
    18        285
    25          3
    26         37
    27        106
    28        177
    29         21
    30         33
    31         10
    32        247
    33         22
    34         57
    35          3
    36          8
    37         14
    38         53
    39         74
    40         26
    41         53
    42         60
    43         74
    44         81
    45         10
    46          9
    47          5
    48          6
    50         13
    51         68
    52         80
    53         68
    54         28
    55         18
    56          8
    57         10
    58         88
    59        999
    60         85
    61         32
    62          6
    63          6
    64         78
    65         27
    66         16
    67         25
    68         30
    69         33
    70          9
    71          3
    73          2
    74          7
    76        206
    77         36
    78         92
    79         22
    80         65
    81         10
    82          5
    83          5
    84          6
    85          3
    91          2
    92          2
    93          7
    94          8
    95         59
    96         34
    97          8
    98          3
    99          7
   103          2
   104          2
   105          2
   106          3
   107          2
   108          2
   109         26
   110         10
   111        205
   112         22
   113          3
   115          2
   119          2
   120         12
   121          7
   123          3
   124          6
   125          5
   126         32
   127          4
   128          6
   135        128
   136         59
   137         10
   138          2
   140          2
   144          2
   149          4
   150          5
   151         30
   152        203
   153         17
   154          7
   156          2
   158          3
   159          2
   160         15
   162          4
   166          1
   167         20
   168        122
   169         11
   170          6
   171          1
   181          1
   183          9
   184         14
   185         29
   186          4