##TITLE=Library Entry 79575
##JCAMP-DX=Revision 4.10 
##DATA TYPE=MASS SPECTRUM
##SAMPLE DESCRIPTION=Japan AIST/NIMC Database- Spectrum MS-IW-7295
##NAMES=HP
##CAS NAME=1-Benzoyl-3,4-epoxypyrrolidine
##MOLFORM=C11H11NO2
##CAS REGISTRY NO=20965-14-4
##MP= -300
##BP= -300
##MW= 189
##$RETENTION INDEX=0
##$CONDENSED SPECTRUM=NO
##NPOINTS= 63
##XYDATA=(XY..XY) 1 
    15          1
    26          1
    27          9
    28          9
    29          2
    30          2
    38          2
    39          6
    40          2
    41          6
    42          5
    43          2
    50         14
    51         60
    52          4
    53          1
    54          2
    55          2
    56          3
    63          1
    64          1
    65          1
    67         29
    68         14
    69          1
    70         11
    74          4
    75          5
    76         12
    77        323
    78         22
    79          1
    84        115
    85          6
    89          1
    91          2
    94          1
   103          1
   104          5
   105        999
   106         82
   107          5
   110          2
   115          1
   117          1
   118          1
   120          4
   132          2
   133          1
   145          1
   146          9
   147          2
   160         21
   161          5
   171         50
   172         10
   173          6
   174          2
   175          1
   188         63
   189        169
   190         21
   191          2