##TITLE=Library Entry 4810
##JCAMP-DX=Revision 4.10 
##DATA TYPE=MASS SPECTRUM
##SAMPLE DESCRIPTION=A.A.Kutin, Moscow, Russia
##NAMES=HP
##CAS NAME=Coumarin, 5,6,7,8-tetrafluoro-4-hydroxy-3-(1-iminoethyl)-
##MOLFORM=C11H5F4NO3
##CAS REGISTRY NO=209736-53-8
##MP= -300
##BP= -300
##MW= 275
##$RETENTION INDEX=0
##$CONDENSED SPECTRUM=NO
##NPOINTS= 199
##XYDATA=(XY..XY) 1 
    33          2
    34          0
    35          0
    36         10
    37         72
    38        154
    39        245
    40         72
    41        419
    42        999
    43        111
    44         53
    45         26
    47         19
    48          5
    50         19
    51        101
    52        257
    53        148
    54        491
    55        547
    56         31
    57         21
    58          2
    59          2
    60          6
    61         15
    62         24
    63          8
    65         20
    66         94
    67        260
    68        789
    69        120
    71         83
    72          6
    74         69
    75         33
    76          7
    77          5
    78          6
    79         98
    80         28
    81         21
    83        292
    84         18
    86         99
    87         14
    88          4
    89          2
    90          2
    91         13
    92         13
    93         89
    94         14
    95         29
    96          5
    98        115
    99         71
   100          7
   101          2
   102          2
   103          8
   104          6
   105         18
   106          7
   107          4
   108          1
   109          4
   110         22
   111          7
   112          7
   113          3
   114          5
   115          3
   117        265
   118         20
   119          7
   120          1
   122          4
   123         10
   124         10
   125          5
   126          4
   127          1
   128          0
   129         17
   130          8
   131          2
   132          2
   133          4
   134          2
   136        173
   137         45
   138          5
   139          1
   141          9
   142          1
   143          5
   144          2
   145         10
   146          3
   148         57
   149         11
   150          3
   151          1
   152          1
   155          1
   156          2
   157          3
   158          1
   159          1
   160          5
   161          6
   162          4
   164        118
   165          9
   166          2
   168          1
   169          0
   170          1
   171          8
   172          5
   173          2
   174          4
   175          1
   176          8
   177         11
   178          4
   179          2
   180          1
   181          0
   182          0
   184          1
   185          1
   186          1
   187          2
   188          7
   189          1
   190          4
   191          4
   192         68
   193         30
   194          2
   196          0
   197          0
   198          1
   199         30
   200          9
   201          3
   202          5
   203          6
   204          2
   205          9
   206          2
   207          1
   208          0
   209          0
   210          0
   211          0
   213          0
   215          0
   216          3
   217          1
   218         10
   219          8
   220          0
   225          0
   226          0
   227          8
   228          9
   229          1
   230         17
   231         11
   232          4
   233          0
   234          0
   235          0
   236          0
   237          0
   241          0
   244          0
   245          0
   246          0
   247         15
   248          2
   255          3
   256          2
   257          0
   258          4
   259          0
   260          1
   265          0
   273          1
   274          2
   275         76
   276         11
   277          1
   284          0