##TITLE=Library Entry 35113
##JCAMP-DX=Revision 4.10 
##DATA TYPE=MASS SPECTRUM
##SAMPLE DESCRIPTION=Chemical Concepts
##NAMES=HP
##CAS NAME=4-Hexen-3-one, 2,2-dimethyl-
##MOLFORM=C8H14O
##CAS REGISTRY NO=20971-19-1
##MP= -300
##BP= -300
##MW= 126
##$RETENTION INDEX=0
##$CONDENSED SPECTRUM=NO
##NPOINTS= 47
##XYDATA=(XY..XY) 1 
    26          3
    27         30
    28          7
    29        101
    30          2
    31          2
    37          2
    38          9
    39        139
    40         19
    41        321
    42         25
    43         35
    44          2
    45          9
    50          3
    51          6
    52          2
    53         10
    54          2
    55         45
    56         33
    57        372
    58         16
    59          2
    65          2
    67          5
    68         46
    69        999
    70         69
    71         32
    77          5
    79          1
    81          2
    83         33
    84          3
    85         34
    87          7
    91          2
    93          2
    95          3
    96          2
    98         57
    99          5
   111         14
   126         62
   127          6