##TITLE=Library Entry 50914
##JCAMP-DX=Revision 4.10 
##DATA TYPE=MASS SPECTRUM
##SAMPLE DESCRIPTION=A.A.Kutin, Moscow, Russia
##NAMES=HP
##CAS NAME=Isoxazolo[4,5-c]coumarin, 6,7,8,9-tetrafluoro-3-methyl-
##MOLFORM=C11H3F4NO3
##CAS REGISTRY NO=209736-46-9
##MP= -300
##BP= -300
##MW= 273
##$RETENTION INDEX=0
##$CONDENSED SPECTRUM=NO
##NPOINTS= 187
##XYDATA=(XY..XY) 1 
    33          5
    34          5
    36          3
    37         11
    38         31
    39         23
    40        131
    41         20
    42          5
    43         47
    44         16
    45          2
    46          0
    47          1
    48          1
    49          1
    50          9
    51         59
    52        174
    53        196
    54         20
    55         22
    56          4
    57          3
    58          0
    59          0
    60          3
    61          8
    62          8
    63          8
    64          2
    65          2
    66         18
    67         18
    68         39
    69         27
    71         30
    72          1
    73          2
    74         43
    75         12
    76          1
    78          8
    79         79
    80        318
    81        999
    82         46
    83          5
    84          3
    85          9
    86         99
    87         10
    88          1
    90          0
    91          5
    92         10
    93         77
    94         18
    95         18
    96          1
    98        133
    99         22
   100          6
   101          1
   102          1
   103          7
   104          6
   105         16
   106          2
   107          0
   108          1
   109          2
   110         21
   111          5
   112          5
   113          2
   114          1
   115          1
   117        293
   118         19
   119          3
   120          0
   122          7
   123          9
   124         26
   125          2
   126          2
   127          1
   128          3
   129         17
   130          2
   131          0
   132          0
   133          1
   134          2
   136        314
   137         31
   139          1
   140          1
   141         18
   142          3
   143          4
   144          1
   145          9
   146          2
   148        192
   149         15
   150          3
   151          0
   154          0
   155          3
   156          2
   157          3
   158          0
   160         10
   161         10
   162         17
   164        326
   165         23
   166          2
   167          7
   168          2
   169          4
   170          5
   171          0
   172          0
   173          5
   174          7
   175          2
   176         33
   177         12
   178          2
   179          0
   180          0
   181          0
   185          7
   186          9
   187          5
   188          8
   189         29
   190         13
   192        776
   193         79
   194          6
   195          0
   197          2
   198          2
   199          0
   201          4
   202         35
   203          4
   204          2
   205          2
   206          0
   213          0
   214          0
   215          7
   216          4
   217         35
   218          7
   219          0
   225         15
   226          3
   227          0
   228          0
   229          1
   230          6
   231          0
   232          1
   242          1
   243          4
   244          2
   245         23
   246          4
   247          0
   254          4
   255          0
   258          1
   266          0
   268          0
   269          1
   270          2
   271          4
   273        745
   274         98
   275         10
   276          0