##TITLE=Library Entry 63510
##JCAMP-DX=Revision 4.10 
##DATA TYPE=MASS SPECTRUM
##SAMPLE DESCRIPTION=Exported from NIST MS Search
##NAMES=HP
##CAS NAME=Bufa-20,22-dienolide, 14,15-epoxy-3-hydroxy-19-oxo-, (3.beta.,5.b
eta.,15.beta.)-
##MOLFORM=C24H30O5
##CAS REGISTRY NO=20987-24-0
##MP= -300
##BP= -300
##MW= 398
##$RETENTION INDEX=0
##$CONDENSED SPECTRUM=NO
##NPOINTS= 311
##XYDATA=(XY..XY) 1 
    40        278
    41         19
    42         85
    43        495
    44          9
    51         71
    52         28
    53        154
    54          9
    55        238
    56         47
    57         47
    58         19
    75          9
    76         19
    77        504
    78        142
    79        666
    80         95
    81        595
    82         76
    83         66
    84          9
    85         19
    89         47
    90         19
    91        999
    92        154
    93        452
    94        185
    95        226
    96         38
    97         66
    98          9
    99          9
   101         19
   102         40
   103         76
   104         66
   105        714
   106        166
   107        435
   108        100
   109        247
   110         66
   111         40
   112          9
   115        226
   116         95
   117        316
   118        104
   119        347
   120         76
   121        247
   122        195
   123        285
   124        114
   125         47
   126         19
   127         88
   128        195
   129        245
   130        123
   131        397
   132        104
   133        247
   134        142
   135        173
   136         85
   137         66
   138         28
   139         47
   140         47
   141        173
   142        119
   143        300
   144        114
   145        357
   146        123
   147        214
   148         57
   149         76
   150         40
   151         66
   152         76
   153        104
   154         57
   155        171
   156         95
   157        266
   158         76
   159        173
   160         76
   161         95
   162         47
   163         59
   164          9
   165         88
   166         47
   167         76
   168         59
   169        166
   170         66
   171        142
   172         88
   173        114
   174         95
   175         76
   176         47
   177         47
   178         59
   179         66
   180         66
   181        171
   182         95
   183        238
   184         76
   185        207
   186         95
   187        114
   188         95
   189         95
   190         76
   191        114
   192         66
   193         66
   194         47
   195        107
   196         57
   197        195
   198         66
   199        185
   200        142
   201        976
   202        214
   203         66
   204        135
   205         66
   206         28
   207         95
   208         76
   209        247
   210         95
   211        297
   212        157
   213        142
   214         95
   215        135
   216         59
   217         95
   218         40
   219        897
   220        166
   221         66
   222         47
   223         57
   224         47
   225         95
   226         66
   227        104
   228        142
   229        166
   230        114
   231         95
   232         47
   233         59
   234         47
   235         59
   236         28
   237         47
   238         28
   239         59
   240         95
   241        166
   242         66
   243        102
   244         88
   245         76
   246         47
   247        285
   248        107
   249         88
   250         28
   251         40
   252         40
   253         40
   254         28
   255         28
   256         47
   257         47
   258         61
   259        135
   260         47
   261         47
   262         40
   263         40
   264         40
   265         47
   266         42
   267         19
   268         11
   269         19
   270         19
   271         40
   272         19
   273         28
   274         47
   275        104
   276         59
   277         95
   278         66
   279         66
   280         47
   281         42
   282         19
   283         40
   284         28
   285         47
   286         19
   287         59
   288         40
   289         61
   290         47
   291         90
   292         47
   293         61
   294         28
   295         47
   296         47
   297         47
   298         28
   299         28
   300         19
   301         71
   302         19
   303         47
   304         19
   305         76
   306         88
   307         76
   308         71
   309         47
   310         40
   311         40
   312         95
   313         19
   314         11
   315         28
   316         61
   317         28
   318         19
   319         52
   320          9
   321          9
   322          9
   323         47
   324         61
   325         61
   326         47
   327         19
   328         19
   329         71
   330         19
   331         95
   332         47
   333        316
   334        376
   335        114
   336        176
   337        114
   338         47
   339         40
   340          9
   341          9
   342         40
   343         11
   344        119
   345         40
   346         40
   347         66
   348         19
   349         66
   350         47
   351        566
   352        476
   353        104
   354         47
   355         40
   356          9
   360         47
   361         19
   362        547
   363        171
   364         85
   365         66
   366          9
   367         19
   368         19
   369        135
   370        142
   371         38
   378         40
   379         19
   380        864
   381        309
   382         66
   383          9
   396         19
   398        190
   399         47
   400         19