##TITLE=Library Entry 18088
##JCAMP-DX=Revision 4.10 
##DATA TYPE=MASS SPECTRUM
##SAMPLE DESCRIPTION=NIST Mass Spectrometry Data Center
##NAMES=HP
##CAS NAME=Ethyl 5-bromonicotinate
##MOLFORM=C8H8BrNO2
##CAS REGISTRY NO=20986-40-7
##MP= -300
##BP= -300
##MW= 229
##$RETENTION INDEX=0
##$CONDENSED SPECTRUM=NO
##NPOINTS= 101
##XYDATA=(XY..XY) 1 
    13          6
    14         36
    15         89
    16         13
    17          6
    18         10
    19          4
    25         16
    26        120
    27        400
    28        213
    29        652
    30         73
    31         12
    32         21
    36          5
    37         46
    38         86
    39         40
    40          9
    41          8
    42         19
    43         73
    45        294
    46          8
    49        195
    50        999
    51        172
    52         45
    53         68
    54          3
    61          6
    62          9
    63          9
    64          7
    65          8
    66         22
    67         10
    75        121
    76        459
    77        233
    78         84
    79         31
    80          6
    81         14
    82          4
    91          7
    92          7
    93          8
    94         28
    95          3
   104         53
   105         56
   106         48
   107         14
   108         20
   116          2
   117          8
   118          3
   119          8
   122         18
   123          2
   127          3
   128         31
   129        160
   130         41
   131        141
   132         15
   144          2
   145          4
   146          2
   147          4
   150         72
   151          7
   156        558
   157        149
   158        558
   159        102
   160          8
   172          8
   173          4
   174          8
   175          4
   183        191
   184        810
   185        281
   186        819
   187         93
   188         10
   201        821
   203        835
   204         65
   205          4
   210          2
   212          4
   228         97
   229        413
   230        131
   231        357
   232         36
   233          3