##TITLE=Library Entry 95410
##JCAMP-DX=Revision 4.10 
##DATA TYPE=MASS SPECTRUM
##SAMPLE DESCRIPTION=Exported from NIST MS Search
##NAMES=HP
##CAS NAME=Benzo[b]selenophene, 2-methyl-
##MOLFORM=C9H8Se
##CAS REGISTRY NO=20984-22-9
##MP= -300
##BP= -300
##MW= 196
##$RETENTION INDEX=0
##$CONDENSED SPECTRUM=NO
##NPOINTS= 21
##XYDATA=(XY..XY) 1 
    63        117
    74         35
    75         37
    76         17
    89        140
    97         66
    98         60
   113         71
   114         66
   115        999
   116        206
   117         80
   191        133
   192        237
   193        417
   194        375
   195        588
   196        671
   197        164
   198        144
   199         31