##TITLE=Library Entry 22995
##JCAMP-DX=Revision 4.10 
##DATA TYPE=MASS SPECTRUM
##SAMPLE DESCRIPTION=M.He. ET AL, Org.Mass Spectrom.,27,636 (1992)
##NAMES=HP
##CAS NAME=3-Hydroxy-17-.beta.-aminoestra-1,3,5(10)-triene
##MOLFORM=C18H25NO
##CAS REGISTRY NO=20989-33-7
##MP= -300
##BP= -300
##MW= 271
##$RETENTION INDEX=0
##$CONDENSED SPECTRUM=NO
##NPOINTS= 40
##XYDATA=(XY..XY) 1 
    30        130
    36         87
    38         33
    39         22
    43         55
    52         14
    56        999
    58        173
    68          9
    77         22
    92         35
   107         48
   113         40
   114         26
   122         18
   128         24
   131         37
   133         85
   148         78
   149         67
   158         68
   159        108
   160         65
   173         35
   174         14
   197         63
   198         14
   199         31
   200         11
   212        137
   213        242
   214         61
   226         65
   227         11
   236         14
   237          3
   254        247
   255         37
   271        374
   272         94