##TITLE=Library Entry 7504
##JCAMP-DX=Revision 4.10 
##DATA TYPE=MASS SPECTRUM
##SAMPLE DESCRIPTION=CARL DJERASSI DEPT OF CHEM STANFORD UNIV STANFORD CALIF
 94305
##NAMES=HP
##CAS NAME=Thiocyanic acid, 2.alpha.-methyl-5.alpha.-cholestan-3.beta.-yl es
ter
##MOLFORM=C29H49NS
##CAS REGISTRY NO=20997-56-2
##MP= -300
##BP= -300
##MW= 443
##$RETENTION INDEX=0
##$CONDENSED SPECTRUM=NO
##NPOINTS= 173
##XYDATA=(XY..XY) 1 
    41        730
    42        130
    43        999
    44        140
    45        680
    51         20
    53         60
    54         40
    55        970
    56        200
    57        920
    58        200
    59        100
    60        250
    67        450
    68        150
    69        860
    70        160
    71        480
    73         80
    77        200
    78         20
    79        280
    80         40
    81        760
    82        160
    83        420
    84        100
    85        180
    91        240
    92         40
    93        460
    94        180
    95        660
    96        140
    97        360
    98        110
    99         60
   100         10
   101         60
   103         20
   104         40
   105        450
   106        130
   107        440
   108        350
   109        400
   110         70
   111        220
   112         50
   113         50
   115         30
   117         20
   118         20
   119        230
   120        150
   121        500
   122        270
   123        320
   124         60
   125         80
   126         40
   127         40
   129         50
   131         50
   132         20
   133        140
   134         80
   135        200
   136        110
   137        120
   138         30
   139         40
   140         30
   141         20
   143         10
   145         50
   146         10
   147        130
   148         50
   149        140
   150         20
   151         50
   152         30
   153         30
   154         50
   155         50
   157         20
   159         80
   160         20
   161        200
   162         80
   163        120
   164         20
   165         30
   167         10
   168         10
   173         40
   174         30
   175         90
   176         80
   177         50
   179         20
   180         10
   181         10
   182        100
   183        180
   184         20
   185         10
   187         30
   188         20
   189         50
   190         20
   191         20
   193         20
   201         30
   202         30
   203         90
   208         20
   215         80
   216         20
   217         30
   220        160
   221         40
   229        350
   230        280
   231        230
   232         80
   233         30
   234         20
   242         20
   243         30
   244        110
   245         60
   246         30
   247         40
   248         30
   250         40
   256         60
   257         30
   260        100
   261         40
   262         50
   263         70
   264         30
   271         80
   272         20
   274         40
   275         40
   276         20
   287         20
   288        330
   289        460
   290        130
   291         30
   301         20
   303         60
   313         20
   314         20
   315         40
   316        160
   317         40
   369        170
   370         60
   384        560
   385        240
   386         80
   428        120
   429         50
   443        950
   444        330
   445        100
   446         50