##TITLE=Library Entry 22733
##JCAMP-DX=Revision 4.10 
##DATA TYPE=MASS SPECTRUM
##SAMPLE DESCRIPTION=Chemical Concepts
##NAMES=HP
##CAS NAME=1,3-Cyclohexanedione, 2,4,6-trimethyl-
##MOLFORM=C9H14O2
##CAS REGISTRY NO=20990-16-3
##MP= -300
##BP= -300
##MW= 154
##$RETENTION INDEX=0
##$CONDENSED SPECTRUM=NO
##NPOINTS= 70
##XYDATA=(XY..XY) 1 
    26         27
    27        218
    28        278
    29        117
    30          6
    31         10
    35          7
    38         13
    39        184
    40         38
    41        410
    42        118
    43        163
    44         10
    45         23
    50         13
    51         26
    52         14
    53         70
    54         22
    55        373
    56        999
    57        156
    58         11
    59          5
    63         10
    65         22
    66         16
    67         93
    68         27
    69        675
    70        218
    71         32
    72          6
    74          4
    77         25
    78         28
    79         15
    81         14
    82         14
    83        164
    84        119
    85        192
    86         17
    91         15
    93         28
    94         12
    95         14
    96          8
    97         97
    98        143
    99         18
   107          5
   108          6
   109         11
   110          9
   111        806
   112        572
   113         53
   114          5
   124          5
   125         47
   126        228
   127         26
   128          8
   137          5
   139         17
   154        439
   155         49
   156          5