##TITLE=Library Entry 7340
##JCAMP-DX=Revision 4.10 
##DATA TYPE=MASS SPECTRUM
##SAMPLE DESCRIPTION=CARL DJERASSI DEPT OF CHEM STANFORD UNIV STANFORD CALIF
 94305
##NAMES=HP
##CAS NAME=Cholestane, 3-thiocyanato-, (3.alpha.,5.alpha.)-
##MOLFORM=C28H47NS
##CAS REGISTRY NO=20997-49-3
##MP= -300
##BP= -300
##MW= 429
##$RETENTION INDEX=0
##$CONDENSED SPECTRUM=NO
##NPOINTS= 147
##XYDATA=(XY..XY) 1 
    41        690
    42         70
    43        999
    44         30
    53        110
    54         30
    55        880
    56        100
    57        520
    58         20
    59         50
    65         40
    66         20
    67        620
    68        250
    69        470
    70         70
    71        190
    72         10
    77        130
    78         30
    79        470
    80        120
    81        720
    82        150
    83        290
    84         20
    85         30
    91        340
    92         70
    93        500
    94        180
    95        690
    96         90
    97        150
    98         10
   104         10
   105        290
   106        160
   107        500
   108        250
   109        380
   110         50
   111         80
   115         20
   117         50
   118         30
   119        200
   120        160
   121        330
   122        130
   123        220
   124         30
   125         20
   126         20
   127         10
   128         20
   129         20
   130         10
   131         70
   132         20
   133        190
   134        100
   135        230
   136         60
   137         60
   143         10
   145         90
   146         30
   147        200
   148         90
   149        180
   150         30
   151         30
   152         30
   154         10
   159         80
   160         50
   161        150
   162         80
   163         70
   164         10
   165         10
   168         10
   173         60
   174         70
   175         90
   176         30
   177         20
   187         50
   188         90
   189         50
   190         10
   191         10
   192         10
   201        140
   202         50
   203         70
   204         10
   206        100
   207         30
   208         10
   215        660
   216        690
   217        340
   218         70
   219         10
   229         30
   230        210
   231         90
   232         10
   233         20
   234         10
   243         10
   244         10
   246         20
   247         10
   257        100
   258         20
   260         60
   261         10
   262         30
   263         20
   273         20
   274        620
   275        260
   276        100
   277         10
   285         20
   288         10
   289         60
   290         10
   301         10
   315         10
   316         40
   328         20
   355        110
   356         30
   370        400
   371        160
   372         40
   414        130
   415         40
   416         20
   429        340
   430        120
   431         40