##TITLE=Library Entry 66396
##JCAMP-DX=Revision 4.10 
##DATA TYPE=MASS SPECTRUM
##SAMPLE DESCRIPTION=P.S.ENGEL NATIONAL INST. OF HEALTH, BETHESDA, MARYLAND,
 USA
##NAMES=HP
##CAS NAME=2-Indanone, 4,5,6,7-tetrahydro-
##MOLFORM=C9H12O
##CAS REGISTRY NO=20990-33-4
##MP= -300
##BP= -300
##MW= 136
##$RETENTION INDEX=0
##$CONDENSED SPECTRUM=NO
##NPOINTS= 13
##XYDATA=(XY..XY) 1 
    39        301
    41        153
    54        114
    67        127
    79        642
    80        338
    81         35
    93        999
    94         96
   108        904
   109         88
   136        435
   137         48