##TITLE=Library Entry 34115
##JCAMP-DX=Revision 4.10 
##DATA TYPE=MASS SPECTRUM
##SAMPLE DESCRIPTION=CARL DJERASSI DEPT OF CHEM STANFORD UNIV STANFORD CALIF
 94305
##NAMES=HP
##CAS NAME=Thiocyanic acid, 4.alpha.-methyl-5.alpha.-cholestan-3.alpha.-yl e
ster
##MOLFORM=C29H49NS
##CAS REGISTRY NO=20997-64-2
##MP= -300
##BP= -300
##MW= 443
##$RETENTION INDEX=0
##$CONDENSED SPECTRUM=NO
##NPOINTS= 179
##XYDATA=(XY..XY) 1 
    41        950
    42        180
    43        870
    44         30
    45        480
    46        200
    47         10
    51         10
    53        160
    54         90
    55        760
    56        230
    57        660
    58         20
    59         20
    60        250
    61         50
    65         60
    66         20
    67        470
    68        450
    69        999
    70        290
    71        360
    73        260
    74         10
    77        130
    78         30
    79        240
    80         90
    81        720
    82        220
    83        390
    84         90
    85        160
    87         40
    91        180
    92         50
    93        320
    94        160
    95        500
    96        110
    97        270
    98         80
    99         40
   101         30
   103         10
   104         10
   105        130
   106         40
   107        280
   108         90
   109        340
   110         80
   111        150
   112         40
   113         40
   114         10
   115         30
   117         10
   119        120
   120         60
   121        310
   122        100
   123        270
   124         90
   125         70
   126         20
   127         20
   129         80
   131         20
   133         70
   134         80
   135        170
   136        290
   137        300
   138         60
   139         30
   140         10
   141         10
   143         10
   145         20
   147         90
   148         30
   149        190
   150         50
   151         50
   152         30
   153         20
   154         10
   155         10
   157         20
   159         20
   161         80
   162         30
   163         70
   164         10
   165         30
   166         10
   167         10
   171         20
   173         10
   175         60
   176         20
   177         50
   178         10
   179         20
   181        240
   182         20
   183         10
   185         20
   187         10
   189         50
   190         20
   191         70
   192         40
   193         10
   194         10
   195         10
   196        100
   197         10
   199         10
   201         10
   203         30
   204         10
   205         30
   208         10
   213         30
   215         30
   217         30
   218         40
   228         30
   229         90
   230        120
   231        130
   232        140
   233         90
   234         10
   236         30
   242         40
   243         10
   244         30
   245         20
   246         10
   247         20
   256        190
   257         40
   259         10
   260         20
   261         10
   270         10
   271         30
   273         20
   274         10
   275         10
   279         10
   284         20
   288         60
   289         30
   341         20
   342         10
   355         30
   368         40
   369         90
   370         20
   371         20
   372         10
   382         10
   384        480
   385        160
   386        230
   387        200
   388         50
   410         50
   411         10
   428         30
   443        520
   444        160
   445         40