##TITLE=Library Entry 19135
##JCAMP-DX=Revision 4.10 
##DATA TYPE=MASS SPECTRUM
##SAMPLE DESCRIPTION=Exported from NIST MS Search
##NAMES=HP
##CAS NAME=4-Pentenal
##MOLFORM=C5H8O
##CAS REGISTRY NO=2100-17-6
##MP= -300
##BP= -300
##MW= 84
##$RETENTION INDEX=820
##$CONDENSED SPECTRUM=NO
##NPOINTS= 60
##XYDATA=(XY..XY) 1 
    13          3
    14         12
    15         34
    17          6
    18         23
    19          4
    25          6
    26         72
    27        422
    28        270
    29        544
    30         15
    31         30
    32         10
    36          2
    37         28
    38         54
    39        466
    40         71
    41        613
    42        253
    43        202
    44        133
    45        108
    46          3
    48          2
    49         13
    50         51
    51         56
    52         19
    53        157
    54         65
    55        999
    56        551
    57        102
    58         17
    59          2
    60          4
    61          5
    62          5
    63          5
    65         28
    66         41
    67         16
    68         16
    69        118
    70          8
    71          2
    72          3
    73          1
    75         20
    76          1
    77          3
    79          1
    81          7
    82          3
    83        289
    84        149
    85         13
    86          3