##TITLE=Library Entry 63606
##JCAMP-DX=Revision 4.10 
##DATA TYPE=MASS SPECTRUM
##SAMPLE DESCRIPTION=Institute of Organic Chemistry, Novosibirsk, USSR 1988
##NAMES=HP
##CAS NAME=5-Methyl-2-benzylimino-1,3-thiazolidine
##MOLFORM=C11H14N2S
##CAS REGISTRY NO=21018-34-8
##MP= -300
##BP= -300
##MW= 206
##$RETENTION INDEX=0
##$CONDENSED SPECTRUM=NO
##NPOINTS= 84
##XYDATA=(XY..XY) 1 
    38         23
    39        159
    40         40
    41        175
    42         60
    43         33
    44         58
    45         67
    50         41
    51         94
    52         30
    53         22
    54         16
    55        149
    56         31
    57         22
    58         36
    59         76
    60         69
    61         36
    62         20
    63         69
    64         23
    65        264
    66         19
    68          9
    69         17
    70         12
    71         14
    72         36
    73         23
    74         75
    75         22
    76         34
    77         94
    78         44
    79         49
    80         10
    81         10
    89         61
    90         35
    91        999
    92        203
    93         17
   100         14
   101         22
   102         15
   103         24
   104         98
   105         79
   106        319
   107         29
   109          8
   115         13
   116         18
   117         29
   118         66
   119         10
   121         22
   122         39
   123          8
   128          7
   129         19
   130          7
   131         25
   132         16
   133          6
   135         26
   136         10
   145         69
   146         27
   148         15
   149         14
   163         12
   164         23
   165          8
   178         12
   182         11
   191          8
   203         22
   205        249
   206        509
   207         80
   208         27