##TITLE=Library Entry 58769
##JCAMP-DX=Revision 4.10 
##DATA TYPE=MASS SPECTRUM
##SAMPLE DESCRIPTION=MINISTRY OF DEFENCE ERDE, WALTHAM ABBEY, ESSEX, UK
##NAMES=HP
##CAS NAME=Benzene, 1-azido-3-bromo-
##MOLFORM=C6H4BrN3
##CAS REGISTRY NO=2101-89-5
##MP= -300
##BP= -300
##MW= 197
##$RETENTION INDEX=0
##$CONDENSED SPECTRUM=NO
##NPOINTS= 41
##XYDATA=(XY..XY) 1 
    25         10
    26         40
    27         30
    28         70
    36         20
    37        150
    38        190
    39        360
    40         30
    45         60
    49         30
    50        140
    51         60
    52         30
    60         10
    61         70
    62        130
    63        430
    64        200
    65         20
    73         10
    74         40
    75         40
    76         30
    79         20
    80         20
    81         30
    82         20
    87         20
    88         30
    89         30
    90        999
    91         70
   117         10
   119         10
   169        230
   170         20
   171        230
   172         20
   197         70
   199         60