##TITLE=Library Entry 51551
##JCAMP-DX=Revision 4.10 
##DATA TYPE=MASS SPECTRUM
##SAMPLE DESCRIPTION=LAC, NIDDK, NIH, Bethesda, MD 20892
##NAMES=HP
##CAS NAME=N(.alpha.)-Tosylhistidine
##MOLFORM=C13H15N3O4S
##CAS REGISTRY NO=21013-92-3
##MP= -300
##BP= -300
##MW= 309
##$RETENTION INDEX=0
##$CONDENSED SPECTRUM=NO
##NPOINTS= 174
##XYDATA=(XY..XY) 1 
    41         53
    42         16
    43         18
    44        159
    45         56
    46          6
    47          4
    48         19
    49          7
    50         37
    51         73
    52         44
    53         39
    54        122
    55         48
    56         22
    57         14
    58          4
    59          3
    60          4
    61          9
    62         27
    63         93
    64         68
    65        318
    66         32
    67         21
    68          9
    69         38
    70          9
    71         15
    72          1
    73          6
    74         12
    75          7
    76          6
    77         90
    78         31
    79         56
    80         31
    81        715
    82        999
    83         78
    84         10
    85          8
    86          8
    87          5
    88          3
    89         73
    90         37
    91        856
    92        244
    93         42
    94         24
    95         15
    96          4
    97         10
    98          3
    99          3
   102          1
   103          2
   104          1
   105          4
   106         15
   107         78
   108        119
   109        177
   110        439
   111         37
   112          3
   113          2
   115          3
   116          2
   117          2
   118          4
   119          8
   120        106
   121         61
   122         19
   123        171
   124         32
   125         10
   126          4
   127          2
   128          0
   129          2
   130          4
   131          1
   133          2
   134          0
   135         12
   136         12
   137          4
   138         27
   139        331
   140         28
   141         15
   142          2
   143          2
   144          3
   145          1
   149          2
   151          1
   152          1
   153         15
   154         10
   155        191
   156        160
   157         28
   158          8
   159          1
   163          1
   165          3
   166          2
   167          3
   168          0
   169          1
   170          1
   171         49
   172         17
   173          7
   174          0
   176          0
   178          1
   179          0
   181          2
   182          5
   183          3
   184          8
   185          1
   186          0
   187          0
   191          0
   194          2
   195          1
   197          5
   198          6
   199          8
   200          4
   201          1
   203          2
   204          1
   205          0
   209          1
   210          2
   211         17
   212          3
   213          4
   214          4
   215          0
   226          0
   228          3
   231          5
   232          0
   236          2
   241          1
   242          0
   246        127
   247         18
   248          9
   249          0
   263          4
   264        197
   265         32
   266         12
   267          1
   270          4
   271          0
   291          7
   292          2
   308          8
   309         17
   310          3
   311          0