##TITLE=Library Entry 42376
##JCAMP-DX=Revision 4.10 
##DATA TYPE=MASS SPECTRUM
##SAMPLE DESCRIPTION=NIST Mass Spectrometry Data Center, 2008
##NAMES=HP
##CAS NAME=Hydroxylamine, 3TMS derivative
##MOLFORM=C9H27NOSi3
##CAS REGISTRY NO=21023-20-1
##MP= -300
##BP= -300
##MW= 249
##$RETENTION INDEX=1125
##$CONDENSED SPECTRUM=NO
##NPOINTS= 122
##XYDATA=(XY..XY) 1 
    15          3
    27          2
    28          1
    29          5
    30          1
    31          8
    42          3
    43         28
    44         11
    45        111
    46          8
    47          9
    52          1
    53          1
    55          4
    56          5
    57          9
    58         34
    59        165
    60         16
    61          8
    64          1
    65          3
    69          1
    70         17
    71          8
    72         74
    73        999
    74         95
    75         55
    76          3
    77          1
    79          3
    80          1
    83          1
    84          4
    85         12
    86        157
    87         46
    88         45
    89          8
    90          2
    91          1
    94         11
    98          1
    99         11
   100        125
   101         22
   102         28
   103         18
   104          6
   105          8
   106          1
   107          1
   110          1
   111          1
   112          1
   113         30
   114         32
   115         28
   116         37
   117         51
   118         16
   119        485
   120         67
   121         37
   122          3
   123          1
   127          3
   128          4
   129         10
   130        267
   131        111
   132         61
   133        998
   134        149
   135         77
   136          7
   137          2
   142          2
   143          2
   144         10
   146        561
   147        392
   148         91
   149         28
   150          3
   151          1
   158          6
   159          2
   160         21
   161         47
   162         12
   163          4
   164          1
   171          6
   172          4
   173          3
   174          5
   175          2
   176          2
   177          2
   187          5
   188         16
   189          5
   190          5
   191          7
   192          2
   193          1
   204         21
   205         19
   206          6
   207          2
   218          1
   234          9
   235          2
   236          1
   249        269
   250         70
   251         35
   252          6
   253          1