##TITLE=Library Entry 18436
##JCAMP-DX=Revision 4.10 
##DATA TYPE=MASS SPECTRUM
##SAMPLE DESCRIPTION=Chemical Concepts
##NAMES=HP
##CAS NAME=1-Butyne, 3-chloro-
##MOLFORM=C4H5Cl
##CAS REGISTRY NO=21020-24-6
##MP= -300
##BP= -300
##MW= 88
##$RETENTION INDEX=0
##$CONDENSED SPECTRUM=NO
##NPOINTS= 55
##XYDATA=(XY..XY) 1 
    25          2
    26         32
    27        122
    28          1
    29          1
    34          0
    35          7
    36          5
    37         31
    38         31
    39         15
    40          1
    41          1
    42          0
    43          2
    44          0
    45          0
    47          4
    48          7
    49         49
    50        127
    51        186
    52        117
    53        999
    54         44
    55          2
    56          0
    57          1
    58          0
    59          0
    60          3
    61          8
    62         23
    63          4
    64          7
    65          1
    66          0
    67          0
    68          0
    69          1
    70          0
    71          1
    72          8
    73        120
    74          7
    75         46
    76          1
    77          0
    85          1
    86          1
    87          4
    88         13
    89          7
    90          4
    91          2