##TITLE=Library Entry 47089
##JCAMP-DX=Revision 4.10 
##DATA TYPE=MASS SPECTRUM
##SAMPLE DESCRIPTION=Albert Lebedev, Moscow State University, Russia
##NAMES=HP
##CAS NAME=N-[2-(1-Methylcyclopropyl)phenyl]benzamide
##MOLFORM=C17H17NO
##CAS REGISTRY NO=210297-36-2
##MP= -300
##BP= -300
##MW= 251
##$RETENTION INDEX=0
##$CONDENSED SPECTRUM=NO
##NPOINTS= 97
##XYDATA=(XY..XY) 1 
    38          6
    39         45
    40          6
    41         14
    42          5
    43          6
    50         60
    51        217
    52         30
    53         17
    54          5
    55          5
    61          3
    62         11
    63         42
    64         17
    65         53
    66          9
    67          3
    74         17
    75         28
    76         70
    77        999
    78        102
    79         15
    80          4
    87          4
    88          5
    89         52
    90         37
    91         74
    92         11
    93          7
    94          3
   101          8
   102         20
   103         42
   105        776
   106         83
   107          6
   110          1
   112         11
   113          2
   114          3
   115         36
   116         20
   117         56
   118         41
   119         17
   120          8
   121          1
   122          4
   126          2
   127         13
   128         32
   129         27
   130        232
   131        208
   132         36
   133          5
   134          1
   142          4
   143         12
   144         40
   145         34
   146        365
   147         43
   148          3
   178          3
   179          3
   180         14
   181          3
   194         11
   195          3
   196          4
   203          1
   204          5
   205          1
   206          6
   208        250
   209         38
   210          4
   220          5
   221          3
   222         61
   223        584
   224         91
   225          9
   233          1
   234          3
   235          1
   236         10
   237          2
   250         23
   251        148
   252         31
   253          3