##TITLE=Library Entry 32369
##JCAMP-DX=Revision 4.10 
##DATA TYPE=MASS SPECTRUM
##SAMPLE DESCRIPTION=NIST Mass Spectrometry Data Center
##NAMES=HP
##CAS NAME=4-Methyl-2-pentyne
##MOLFORM=C6H10
##CAS REGISTRY NO=21020-27-9
##MP= -300
##BP= -300
##MW= 82
##$RETENTION INDEX=594
##$CONDENSED SPECTRUM=NO
##NPOINTS= 46
##XYDATA=(XY..XY) 1 
    12          2
    13          5
    14         16
    15        123
    16          3
    26         37
    27        201
    29         23
    31         10
    33          2
    36          5
    37         47
    38        101
    39        609
    40        135
    41        925
    42         75
    43         19
    48          2
    49         14
    50         83
    51        117
    52         40
    53        131
    54         91
    55         37
    56         10
    60          3
    61         25
    62         52
    63         84
    65        335
    66         92
    67        999
    68         54
    73          3
    74          9
    75          2
    76          1
    77         32
    78          5
    79         53
    80         18
    81         67
    82        466
    83         30