##TITLE=Library Entry 67449
##JCAMP-DX=Revision 4.10 
##DATA TYPE=MASS SPECTRUM
##SAMPLE DESCRIPTION=NIST Mass Spectrometry Data Center
##NAMES=HP
##CAS NAME=3-Tigloyloxy-6-isovaleroyloxy-7-hydroxytropane
##MOLFORM=C18H29NO5
##CAS REGISTRY NO=21030-85-3
##MP= -300
##BP= -300
##MW= 339
##$RETENTION INDEX=2299
##$CONDENSED SPECTRUM=NO
##NPOINTS= 56
##XYDATA=(XY..XY) 1 
    29         26
    39         13
    41         52
    42         68
    44         16
    52          7
    53         19
    54         15
    55        154
    56         33
    57        246
    58         21
    68         15
    69         30
    70         63
    73         18
    81         46
    83        128
    84         32
    85         70
    86         14
    94        999
    95        500
    96         95
    97         33
    99         14
   107         14
   108        101
   109         37
   110         48
   111         38
   112         25
   113         13
   114         12
   120         74
   121         15
   126         18
   136        121
   137        578
   138        789
   139         68
   154         54
   155          7
   156          9
   194          7
   210         30
   211          7
   220          9
   222         10
   237         50
   240         39
   241          9
   256         12
   310          3
   324          8
   339          6