##TITLE=Library Entry 100504
##JCAMP-DX=Revision 4.10 
##DATA TYPE=MASS SPECTRUM
##SAMPLE DESCRIPTION=A.A.Kutin, Moscow, Russia
##NAMES=HP
##CAS NAME=Benzoic acid, 2-(2-methoxycarbonylphenylaminomethylamino)-, methy
l ester
##MOLFORM=C17H18N2O4
##CAS REGISTRY NO=21038-62-0
##MP= -300
##BP= -300
##MW= 314
##$RETENTION INDEX=0
##$CONDENSED SPECTRUM=NO
##NPOINTS= 178
##XYDATA=(XY..XY) 1 
    33          9
    34         11
    36          5
    37         21
    38         54
    39        125
    40        162
    41         67
    42         23
    43         38
    44         46
    45         17
    46          9
    48          5
    50        112
    51        175
    52         74
    53         26
    54         12
    55         25
    56         11
    57         26
    58          3
    59         12
    60         11
    61         13
    62         30
    63        102
    64         90
    65        275
    66         22
    67          6
    68         22
    69         37
    70         57
    71         16
    72          4
    73         10
    74         54
    75         58
    76        118
    77        462
    78        118
    79         24
    80         10
    81          9
    82          5
    83         13
    84          8
    85          3
    86          2
    87          4
    88          5
    89         16
    90         44
    91        157
    92        444
    93         58
    94         14
    95          4
    96          3
    97         16
    98          7
    99          4
   101          5
   102         38
   103        107
   104        160
   105        293
   106         39
   107         14
   108         10
   109          8
   110          7
   111         14
   112         19
   113         12
   114          5
   115         10
   116          7
   117         14
   119        999
   120        321
   121         29
   122          1
   123          6
   124          4
   125         40
   126         12
   127         12
   128          7
   129         11
   130        100
   131         68
   132        556
   133         61
   134         10
   135         54
   136         18
   137          5
   139          6
   140         12
   141         30
   142         30
   143          3
   144          2
   145          2
   146         15
   148        493
   149         53
   151        953
   152         92
   153         13
   154          4
   155          7
   156          7
   157          3
   158          1
   159          1
   160          5
   161          1
   163        242
   164         82
   165         16
   166          3
   167          7
   168          5
   169          9
   170         10
   171         24
   172          1
   173          3
   174          1
   176          4
   178          2
   180          6
   181          2
   182          4
   183          5
   184          1
   185          1
   189          2
   193          2
   195          2
   196          7
   198         15
   199          2
   201          2
   202          0
   207          0
   208          2
   209          2
   210         76
   211         10
   212          6
   213         14
   214          1
   221          1
   222          2
   223          0
   224         10
   225          4
   239         11
   241          3
   245          0
   249          2
   254          1
   256          1
   258          1
   277         23
   278          4
   279          1
   283          3
   301          0
   307          1
   308          6
   314         21
   315          2