##TITLE=Library Entry 68741
##JCAMP-DX=Revision 4.10 
##DATA TYPE=MASS SPECTRUM
##SAMPLE DESCRIPTION=A.A.Kutin, Moscow, Russia
##NAMES=HP
##CAS NAME=Furazano[3,4-b]pyrazine, 5,6-di(2-fluorophenylamino)-
##MOLFORM=C16H10F2N6O
##CAS REGISTRY NO=210302-17-3
##MP= -300
##BP= -300
##MW= 340
##$RETENTION INDEX=0
##$CONDENSED SPECTRUM=NO
##NPOINTS= 229
##XYDATA=(XY..XY) 1 
    33         13
    36          1
    37         13
    38         34
    39         86
    41         20
    42         43
    43         59
    45         51
    46          9
    49          3
    50        114
    51        106
    53        212
    54         12
    57        215
    58         18
    59          8
    60          4
    61         12
    62         36
    63         93
    64         52
    65         25
    66          4
    68         90
    69        121
    70         57
    71          6
    72          2
    73         12
    75        813
    76         71
    77         23
    78          9
    80          6
    81         58
    82         87
    83        303
    84         35
    86          1
    87          4
    88          9
    89         53
    90        199
    91         22
    92         10
    93         23
    94        238
    95        999
    96        124
    98          3
    99          6
   100         22
   102        184
   103         15
   104          1
   105          3
   106          6
   107          7
   108         43
   109        106
   110        110
   111        108
   112          6
   113          2
   114          2
   115         13
   116         26
   117         41
   119          7
   121        290
   122        396
   123         17
   124          3
   125          0
   127          8
   128          6
   129          6
   130          1
   132          3
   133          6
   135         87
   136        135
   137        152
   138          8
   140          2
   141          5
   142         32
   143         10
   144         11
   145          6
   147        877
   148         65
   149         14
   150          2
   151          4
   153          1
   155         16
   157          0
   158          0
   159          1
   160          8
   162        362
   163         33
   165          3
   167          1
   168          1
   169          9
   170         16
   171          2
   172          3
   173          2
   174         17
   175          2
   176          1
   177          1
   178          3
   182          1
   183          0
   184          1
   185          2
   186          1
   187         13
   189         87
   190         10
   191          1
   194          1
   195          1
   196          4
   197          1
   198          0
   199          2
   200          3
   201          0
   202          0
   203          1
   204          0
   209          0
   210          0
   211          0
   212          0
   213          0
   214          8
   215          3
   216          6
   217          2
   218          0
   219          0
   222          0
   223          0
   225          0
   226          0
   228          8
   229          9
   230          8
   231          3
   235          0
   236          1
   237          3
   238         23
   239          5
   240          0
   241          3
   242          4
   243          1
   244          1
   245          2
   246          2
   247         12
   248          2
   249          1
   250          0
   251          0
   252          0
   253          1
   254          1
   255          2
   256         25
   257          6
   258          7
   259          1
   263         22
   264          3
   265          2
   266          1
   268         23
   269         19
   270          5
   271          2
   272          1
   278          1
   279          1
   280          1
   281         10
   283         37
   284         10
   285          1
   288          0
   289          3
   290        109
   291         32
   292          4
   293          0
   295          0
   296          1
   297          0
   298          1
   299          0
   300          0
   301         14
   302          2
   303          8
   304          4
   305          0
   308          9
   309         12
   310         15
   311          3
   319          4
   320         41
   321        279
   322         51
   323          6
   339        188
   340        516
   341        103
   342         10
   343          0