##TITLE=Library Entry 44883
##JCAMP-DX=Revision 4.10 
##DATA TYPE=MASS SPECTRUM
##SAMPLE DESCRIPTION=R.SELF FOOD RESEARCH INSTITUTE, NORWICH, UK
##NAMES=HP
##CAS NAME=Nonanedioic acid, monomethyl ester
##MOLFORM=C10H18O4
##CAS REGISTRY NO=2104-19-0
##MP= -300
##BP= -300
##MW= 202
##$RETENTION INDEX=0
##$CONDENSED SPECTRUM=NO
##NPOINTS= 88
##XYDATA=(XY..XY) 1 
    26         17
    27        129
    28        103
    29        130
    30         11
    31         46
    32         16
    39        103
    40         22
    41        303
    42        123
    43        353
    44         69
    45        192
    53         35
    54         28
    55        438
    56         46
    57         58
    58         28
    59        161
    60        123
    61         10
    67         67
    68         65
    69        223
    70         29
    71         30
    72         18
    73        246
    74        999
    75         84
    77         10
    79         22
    80         30
    81         66
    82         80
    83        300
    84        284
    85         28
    87        257
    88         47
    89         33
    92         10
    93         19
    95         24
    96         68
    97        130
    98        188
    99         22
   100         14
   101         58
   102         10
   103         12
   107         23
   109         13
   110         56
   111        300
   112         28
   113         21
   114         35
   115         23
   116         10
   123         16
   124        161
   125         76
   126         20
   127         12
   128         32
   129         30
   130         10
   134         14
   135         10
   137         17
   138         16
   140         10
   141         11
   143        100
   144         10
   151         10
   152        923
   153         88
   154         10
   156         25
   171        261
   172         27
   184         36
   185         13