##TITLE=Library Entry 31007
##JCAMP-DX=Revision 4.10 
##DATA TYPE=MASS SPECTRUM
##SAMPLE DESCRIPTION=James Little,Eastman Chem.Co.,Kingsport,TN
##NAMES=HP
##CAS NAME=Serine, methyl ester
##MOLFORM=C4H9NO3
##CAS REGISTRY NO=2104-89-4
##MP= -300
##BP= -300
##MW= 119
##$RETENTION INDEX=1034
##$CONDENSED SPECTRUM=NO
##NPOINTS= 31
##XYDATA=(XY..XY) 1 
    28        336
    29        174
    30        256
    31        190
    32        129
    33        132
    42        327
    43         84
    44        115
    45         26
    46         23
    56         20
    57         67
    58         49
    59         70
    60        999
    61         39
    70         16
    71         24
    72         19
    74        110
    85         38
    86        104
    87         18
    88        648
    89        163
    90         13
    99         21
   100         47
   101         41
   105         13