##TITLE=Library Entry 7690
##JCAMP-DX=Revision 4.10 
##DATA TYPE=MASS SPECTRUM
##SAMPLE DESCRIPTION=R.T.HOLMAN,UNIVERSITY OF MINNESOTA
##NAMES=HP
##CAS NAME=Malonic acid, thio-, S-ester with N-(2-mercaptoethyl)octanamide
##MOLFORM=C13H23NO4S
##CAS REGISTRY NO=21044-08-6
##MP= -300
##BP= -300
##MW= 289
##$RETENTION INDEX=0
##$CONDENSED SPECTRUM=NO
##NPOINTS= 162
##XYDATA=(XY..XY) 1 
    26         15
    27        190
    28        140
    29        260
    30        650
    31         14
    32          5
    33          3
    34          5
    35         15
    36          5
    37          3
    38          5
    39         95
    40         22
    41        390
    42        130
    43        999
    44        710
    45         45
    46         39
    47         26
    48          6
    49          3
    50          3
    51          6
    52          4
    53         26
    54         24
    55        260
    56         49
    57        810
    58         50
    59         63
    60        150
    61         87
    62          6
    63          6
    64          1
    65          4
    66          3
    67         30
    68         11
    69         43
    70         18
    71         21
    72         68
    73         20
    74         17
    75         12
    76        150
    77         39
    78         42
    79          8
    80          5
    81         14
    82         10
    83         33
    84         24
    85         43
    86         23
    87         12
    88         12
    89          5
    90          6
    91          3
    92          1
    93          2
    95          3
    96          4
    97         15
    98         27
    99          7
   100         12
   101         12
   102         17
   103         12
   104         40
   105          4
   106          3
   107          2
   108          1
   109         28
   110          5
   111          3
   112          6
   113          2
   114          8
   115          8
   116          3
   117          3
   118        100
   119        220
   120         31
   121         12
   122          2
   123          1
   124          2
   125          4
   126          7
   127        410
   128         38
   129          5
   130          3
   131          1
   132         88
   133         11
   134          6
   135          2
   138          2
   139          1
   140          3
   141          4
   142          3
   143          2
   144        260
   145         25
   146         22
   147          6
   148          2
   149          1
   152          1
   154          2
   155          1
   156         55
   157          8
   158          2
   160         12
   161        140
   162         12
   163          8
   164          1
   168          3
   169          6
   170         64
   171          8
   172          2
   174         27
   175          4
   176          2
   185          3
   186         39
   187          6
   188          9
   189          2
   190          1
   198          2
   199          1
   200          1
   202        390
   203        270
   204         48
   205         15
   206          2
   216          4
   217          1
   241          1
   244          1
   245         18
   246          4
   247          2
   256          1