##TITLE=Library Entry 16892
##JCAMP-DX=Revision 4.10 
##DATA TYPE=MASS SPECTRUM
##SAMPLE DESCRIPTION=A.A.Kutin, Moscow, Russia
##NAMES=HP
##CAS NAME=Thiazole, 2-amino-4-(p-methoxyphenyl)-
##MOLFORM=C10H10N2OS
##CAS REGISTRY NO=2104-04-3
##MP= -300
##BP= -300
##MW= 206
##$RETENTION INDEX=0
##$CONDENSED SPECTRUM=NO
##NPOINTS= 133
##XYDATA=(XY..XY) 1 
    33         59
    34          8
    35          2
    37         98
    38        203
    39        311
    40         66
    41         81
    42        362
    43        571
    45        999
    47        100
    49         52
    50        292
    51        301
    52         74
    53        102
    54         19
    55         22
    56         11
    57         72
    58         33
    59         33
    60        143
    61         77
    62        218
    63        399
    64        168
    65         69
    66         30
    67         17
    69        221
    70         57
    71         58
    72         19
    73         36
    74        144
    75        130
    76        158
    77        437
    78         47
    79         24
    81         74
    82         66
    83         11
    84          9
    85         27
    86         32
    87         43
    88         35
    89        145
    90         91
    91         87
    92         64
    93        169
    94         86
    95         81
    96         16
    97          9
    98         13
    99          8
   100          3
   101          8
   102         32
   103         57
   104         32
   105         23
   106         19
   107         12
   108         19
   109         17
   110          3
   112          1
   114          4
   115          8
   116          8
   117         22
   118         19
   119         60
   120         82
   121        422
   122         46
   123         22
   124          6
   126          0
   127          2
   128          5
   129          5
   130          6
   131          7
   132         19
   133         24
   134         75
   135         38
   136         44
   137          7
   139          1
   141          0
   142          0
   143          0
   145          0
   146         23
   147         15
   148         33
   149        272
   150         39
   151         21
   152          3
   159          1
   160          0
   161          8
   163         76
   164         70
   165          7
   166          3
   167          0
   173          0
   174          5
   175          5
   176          0
   178          1
   179          1
   181          0
   189          4
   191        134
   192         11
   193          5
   203          4
   204          8
   206        327
   207         34
   208         16
   209          1