##TITLE=Library Entry 11372
##JCAMP-DX=Revision 4.10 
##DATA TYPE=MASS SPECTRUM
##SAMPLE DESCRIPTION=Japan AIST/NIMC Database- Spectrum MS-NW-3828
##NAMES=HP
##CAS NAME=2-Propen-1-ol, 3-phenyl-, acetate, (E)-
##MOLFORM=C11H12O2
##CAS REGISTRY NO=21040-45-9
##MP= -300
##BP= -300
##MW= 176
##$RETENTION INDEX=1446
##$CONDENSED SPECTRUM=NO
##NPOINTS= 99
##XYDATA=(XY..XY) 1 
    13          1
    14          9
    15         45
    16          1
    17          1
    18          3
    26          4
    27         28
    28         14
    29         11
    31          3
    32          1
    37          3
    38          9
    39         65
    40          5
    41          9
    42          9
    43        999
    44         22
    45          4
    49          2
    50         30
    51         78
    52         18
    53          7
    54          1
    55         29
    56          7
    57         22
    58          6
    59          1
    60          2
    61          5
    62         14
    63         39
    64          8
    65         34
    66          3
    69          1
    73          2
    74         12
    75         12
    76         14
    77        110
    78         85
    79         55
    80          4
    81          1
    83          1
    85          2
    86          4
    87          6
    88          5
    89         28
    90          9
    91        134
    92        236
    93         18
    94          1
    98          1
   100          1
   101          5
   102         26
   103         60
   104         25
   105        286
   106         42
   107          8
   108          1
   111          1
   113          3
   114          9
   115        506
   116        342
   117        277
   118         33
   119          4
   120          1
   128          1
   129          2
   130          2
   131         23
   132          9
   133        270
   134        375
   135         35
   136          3
   141          1
   142          1
   143          1
   145          1
   147          9
   148          9
   149          3
   150          1
   176        221
   177         28
   178          3