##TITLE=Library Entry 21066
##JCAMP-DX=Revision 4.10 
##DATA TYPE=MASS SPECTRUM
##SAMPLE DESCRIPTION=M.C. HAMMING CONTINENTAL OIL CO., PONCA CITY, OKLA, USA
##NAMES=HP
##CAS NAME=Cyclohexanemethanol, 2-methyl-
##MOLFORM=C8H16O
##CAS REGISTRY NO=2105-40-0
##MP= -300
##BP= -300
##MW= 128
##$RETENTION INDEX=0
##$CONDENSED SPECTRUM=NO
##NPOINTS= 87
##XYDATA=(XY..XY) 1 
    25          0
    26         14
    27        171
    28         64
    29        236
    30         12
    31        244
    32          9
    33          0
    36          0
    37          5
    38         17
    39        235
    40         39
    41        358
    42         59
    43        109
    44         13
    45          9
    46          0
    47          0
    48          0
    49          0
    50         12
    51         28
    52         12
    53         82
    54         80
    55        999
    56         69
    57         54
    58          5
    59          2
    60          0
    61          1
    62          2
    63          6
    64          1
    65         15
    66         18
    67        147
    68        120
    69        111
    70         11
    71          7
    72          0
    73          2
    74          0
    75          0
    76          0
    77         17
    78          4
    79         19
    80         10
    81        177
    82        120
    83         14
    84          1
    85          1
    86          0
    87          1
    88          2
    89          0
    91          6
    92          0
    93          5
    94          2
    95        168
    96         68
    97        674
    98         53
    99          1
   101          2
   102          0
   105          0
   107          0
   108          0
   109          9
   110        140
   111         14
   112          0
   113          0
   122          0
   124          3
   125          1
   127          0
   128          0