##TITLE=Library Entry 72497
##JCAMP-DX=Revision 4.10 
##DATA TYPE=MASS SPECTRUM
##SAMPLE DESCRIPTION=Japan AIST/NIMC Database- Spectrum MS-IW-4727
##NAMES=HP
##CAS NAME=Ethyl 4-hydroxy-5-oxo-2,5-dihydro-3-furoate
##MOLFORM=C7H8O5
##CAS REGISTRY NO=21053-75-8
##MP= -300
##BP= -300
##MW= 172
##$RETENTION INDEX=0
##$CONDENSED SPECTRUM=NO
##NPOINTS= 89
##XYDATA=(XY..XY) 1 
    12          1
    13          5
    14         22
    15         46
    16          1
    18          1
    24          1
    25          9
    26        117
    27        444
    28         99
    29        468
    30         14
    31         61
    32          1
    37          3
    38          4
    39          7
    40          9
    41         99
    42        131
    43        132
    44         48
    45        375
    46         16
    47         39
    48          1
    52          7
    53         67
    54        344
    55        351
    56        131
    57         18
    58         66
    59          6
    60          7
    61          2
    66          1
    68         28
    69        406
    70        247
    71        203
    72        392
    73        197
    74          9
    75          1
    80          3
    81          4
    82         86
    83         29
    84         10
    85         41
    86         52
    87         65
    88        176
    89         10
    90          1
    93          2
    97        105
    98         21
    99        999
   100        709
   101         45
   102          4
   109          1
   110         36
   111          3
   113          1
   115         84
   116         38
   117          5
   120          1
   121          1
   125          2
   126         21
   127        725
   128        696
   129         50
   130          5
   143         13
   144         39
   145          6
   154          4
   155          1
   157          2
   172        630
   173        182
   174         18
   175          2