##TITLE=Library Entry 31384
##JCAMP-DX=Revision 4.10 
##DATA TYPE=MASS SPECTRUM
##SAMPLE DESCRIPTION=NIST Mass Spectrometry Data Center, 1994
##NAMES=HP
##CAS NAME=Methyl 2-isothiocyanato-4-(methylthio)butyrate
##MOLFORM=C7H11NO2S2
##CAS REGISTRY NO=21055-47-0
##MP= -300
##BP= -300
##MW= 205
##$RETENTION INDEX=0
##$CONDENSED SPECTRUM=NO
##NPOINTS= 102
##XYDATA=(XY..XY) 1 
    14         13
    15        248
    16          4
    18          3
    26         23
    27        203
    28         55
    29         54
    30         11
    31         11
    32         13
    33          7
    34          3
    35        114
    37         13
    38         29
    39        216
    40         44
    41        232
    42         41
    43         14
    44         46
    45        273
    46        110
    47        162
    48         22
    49         28
    51          6
    52          7
    53         16
    54         37
    55         63
    56         16
    57         15
    58         83
    59        237
    60          6
    61        999
    62         95
    63         50
    64          5
    66          4
    67         22
    68         25
    69         28
    70         42
    71        110
    72        123
    73         27
    74         78
    75        172
    76         19
    77          9
    80          3
    82          4
    83         13
    84         89
    85         66
    86         28
    87         84
    88         20
    89          6
    90         18
    91          7
    97         75
    98        178
    99        233
   100        295
   101         31
   102         44
   103         39
   104         12
   105          6
   112         96
   113          6
   114         49
   115          5
   116          9
   117          6
   125         59
   126         27
   127         18
   128          6
   129          5
   130         67
   131         71
   132          9
   142          8
   144         83
   145         44
   146         41
   147          5
   157         20
   159        641
   160         47
   161         34
   173         60
   174          7
   175          6
   205         62
   206          5
   207          5