##TITLE=Library Entry 58850
##JCAMP-DX=Revision 4.10 
##DATA TYPE=MASS SPECTRUM
##SAMPLE DESCRIPTION=Exported from NIST MS Search
##NAMES=HP
##CAS NAME=1H-Benzotriazole, 1-chloro-
##MOLFORM=C6H4ClN3
##CAS REGISTRY NO=21050-95-3
##MP= -300
##BP= -300
##MW= 153
##$RETENTION INDEX=0
##$CONDENSED SPECTRUM=NO
##NPOINTS= 30
##XYDATA=(XY..XY) 1 
    34         40
    35        220
    36         80
    38        120
    39        230
    40         10
    44         20
    49         10
    50         30
    51         20
    52         10
    61         40
    62         70
    63        250
    64        150
    65         10
    87         10
    88         20
    89         70
    90        999
    91         40
    98         30
   118         10
   125        180
   126         10
   127         60
   153        370
   154         30
   155        130
   156         10