##TITLE=Library Entry 50899
##JCAMP-DX=Revision 4.10 
##DATA TYPE=MASS SPECTRUM
##SAMPLE DESCRIPTION=Japan AIST/NIMC Database- Spectrum MS-NW-9951
##NAMES=HP
##CAS NAME=Benzene, 1,2,4-trifluoro-5-nitro-
##MOLFORM=C6H2F3NO2
##CAS REGISTRY NO=2105-61-5
##MP= -300
##BP= -300
##MW= 177
##$RETENTION INDEX=0
##$CONDENSED SPECTRUM=NO
##NPOINTS= 88
##XYDATA=(XY..XY) 1 
    20          3
    28         19
    30        421
    31         90
    32          1
    36          3
    37         22
    38          5
    44          7
    45          1
    46         20
    48          1
    49          5
    50         21
    51         27
    52          1
    55          9
    56         27
    57         39
    58          1
    60          4
    61         68
    62         75
    63          8
    64          2
    67          1
    68         39
    69         69
    70          3
    71          1
    72          2
    73          5
    74         20
    75        101
    76          9
    77          1
    79         18
    80         78
    81        999
    82         57
    83          1
    85          2
    86         18
    87         19
    88          3
    91         15
    92         20
    93         26
    94         11
    95         10
    97          3
    98          4
    99         57
   100         13
   101          2
   105          3
   106          2
   110          5
   111         18
   112         29
   113          5
   117          1
   118          8
   119        353
   120         19
   126          2
   127          2
   128          1
   129          2
   130         61
   131        681
   132         45
   133          1
   135          1
   144          1
   145          4
   146          1
   147        249
   148         16
   149          6
   158          1
   159          2
   161         69
   162          5
   163          1
   177        969
   178         67
   179          6