##TITLE=Library Entry 44512
##JCAMP-DX=Revision 4.10 
##DATA TYPE=MASS SPECTRUM
##SAMPLE DESCRIPTION=TNO Volatile Compounds in Food - Chemical Concepts
##NAMES=HP
##CAS NAME=4-Octenoic acid, methyl ester, (Z)-
##MOLFORM=C9H16O2
##CAS REGISTRY NO=21063-71-8
##MP= -300
##BP= -300
##MW= 156
##$RETENTION INDEX=1097
##$CONDENSED SPECTRUM=NO
##NPOINTS= 85
##XYDATA=(XY..XY) 1 
    25         10
    26          6
    27        191
    28         55
    29        187
    30          5
    31          7
    32          4
    33         14
    37         17
    38          8
    39        178
    40          7
    41        385
    42         87
    43        323
    44          6
    45         18
    47          3
    48          6
    49          9
    50          3
    51          1
    52         11
    53         63
    54         94
    55        381
    56         48
    57        105
    59        199
    60          5
    62          6
    63          2
    64          8
    65         12
    66          1
    67        154
    68         31
    69         43
    70          9
    71         24
    72         13
    73         27
    74        999
    75         48
    76          4
    77          8
    78          3
    79         10
    80          5
    81         56
    82        173
    83         74
    84         16
    85         67
    87        249
    88         27
    93          6
    95         17
    96         84
    97         27
    98         11
    99          3
   101         27
   103          2
   105          3
   107          2
   108          6
   111          8
   113          8
   114          4
   115         27
   116          5
   122          1
   124         72
   125         33
   126          4
   127         47
   128          5
   129         10
   133          6
   141          3
   142          6
   155          2
   156          5