##TITLE=Library Entry 5867
##JCAMP-DX=Revision 4.10 
##DATA TYPE=MASS SPECTRUM
##SAMPLE DESCRIPTION=R.T.HOLMAN,UNIVERSITY OF MINNESOTA
##NAMES=HP
##CAS NAME=8,11,14-Eicosatrienoic acid, methyl ester, (Z,Z,Z)-
##MOLFORM=C21H36O2
##CAS REGISTRY NO=21061-10-9
##MP= -300
##BP= -300
##MW= 320
##$RETENTION INDEX=0
##$CONDENSED SPECTRUM=NO
##NPOINTS= 284
##XYDATA=(XY..XY) 1 
    28         30
    29        325
    30        387
    31         65
    32         91
    33          3
    34          1
    35          2
    36          4
    37         10
    38         24
    39        294
    40         53
    41        821
    42        620
    43        999
    44         72
    45         22
    46          3
    47          3
    48          3
    49          3
    50         15
    51         26
    52         15
    53         89
    54        112
    55        472
    56        170
    57        356
    58         19
    59        147
    60          8
    61          6
    62          5
    63         10
    64          5
    65         48
    66         66
    67        480
    68        100
    69        174
    70        108
    71        263
    72         46
    73         17
    74        124
    75         18
    76          3
    77        131
    78         75
    79        410
    80        348
    81        294
    82         69
    83         59
    84         22
    85         44
    86         26
    87        124
    88         11
    89          6
    90          3
    91        178
    92         49
    93        240
    94        131
    95        178
    96         55
    97         39
    98         20
    99         13
   100         22
   101         34
   102          5
   103         10
   104         10
   105         68
   106         34
   107         95
   108         44
   109         52
   110         27
   111         18
   112          6
   113         18
   114          6
   115         20
   116          7
   117         22
   118          7
   119         40
   120         20
   121         67
   122         29
   123         31
   124         20
   125         12
   126          4
   127          9
   128          8
   129         16
   130          6
   131         18
   132         32
   133         37
   134         16
   135         58
   136         27
   137         39
   138         13
   139          6
   140          3
   141         10
   142          5
   143         13
   144          4
   145         43
   146          8
   147         22
   148         17
   149         34
   150        131
   151         21
   152          7
   153          5
   154          4
   155          6
   156          3
   157         10
   158          4
   159         12
   160          9
   161         17
   162         12
   163         37
   164         20
   165          8
   166          5
   167          5
   168          4
   169          7
   170          4
   171          8
   172          4
   173         10
   174          4
   175         19
   176          9
   177         34
   178         13
   179          5
   180          3
   181          3
   182          3
   183          6
   184          2
   185          6
   186          2
   187          6
   188         10
   189         13
   190          7
   191         13
   192          6
   193          5
   194          6
   195          3
   196          3
   197          4
   198          1
   199          4
   200          1
   201          5
   202          2
   203         20
   204          6
   205         39
   206          7
   207          5
   208          4
   209          6
   210          3
   211          3
   212          1
   213          2
   214          1
   215          3
   216          4
   217          6
   218          3
   219          4
   220         13
   221          6
   222         34
   223          7
   224          2
   225          2
   226          1
   227          3
   228          2
   229          6
   230          2
   231          2
   232          1
   233          2
   234          2
   235          6
   236          5
   237          3
   238          2
   239          3
   240          1
   241          2
   242          2
   243          3
   244          2
   245          2
   246          2
   247          3
   248          3
   249          6
   250          3
   251          2
   252          2
   253          2
   254          1
   255          2
   256          2
   257          3
   258          2
   259          2
   260          1
   261          3
   262          1
   263          5
   264          3
   265          2
   266          3
   267          3
   268          1
   269          2
   270          4
   271          3
   272          1
   273          1
   274          1
   275          2
   276          1
   277          2
   278          1
   279          2
   280          9
   281          3
   282          1
   283          1
   284          2
   285          1
   286          1
   287          3
   288          2
   289         13
   290          3
   291          2
   292          3
   293          3
   294          2
   295          1
   296          1
   297          1
   298          3
   299          1
   307          3
   308          2
   309          1
   310          1
   315          3
   316          1
   317          1
   318          3
   319         39
   320         11
   321          3
   322          1