##TITLE=Library Entry 72330
##JCAMP-DX=Revision 4.10 
##DATA TYPE=MASS SPECTRUM
##SAMPLE DESCRIPTION=Chemical Concepts
##NAMES=HP
##CAS NAME=Pregn-8-ene-3,11,20-trione, cyclic 3,20-bis(1,2-ethanediyl acetal
), (5.alpha.)-
##MOLFORM=C25H36O5
##CAS REGISTRY NO=21063-94-5
##MP= -300
##BP= -300
##MW= 416
##$RETENTION INDEX=0
##$CONDENSED SPECTRUM=NO
##NPOINTS= 94
##XYDATA=(XY..XY) 1 
    27          2
    28          6
    29          6
    39          4
    40         14
    41         24
    42          9
    43         94
    44         10
    45         17
    53          8
    54          3
    55         60
    56         12
    57         22
    58          4
    60          5
    61          2
    65          5
    66          2
    67         14
    68         11
    69         25
    70          7
    71         17
    72          3
    73         17
    77         13
    78          5
    79         18
    80          3
    81         18
    82          5
    83         13
    84          9
    85         15
    86         38
    87        696
    88         43
    89          8
    91         29
    92          5
    93         16
    94          3
    95         12
    96          3
    97         10
    98          7
    99        999
   100        116
   101         36
   102          3
   103          5
   104          4
   105         21
   106          4
   107         10
   108          3
   109          8
   110          3
   111          5
   112        416
   113         56
   114          6
   115         11
   117          4
   119          5
   121          9
   125         29
   126          5
   128          1
   129          9
   131          5
   133          2
   141         12
   143          1
   145          6
   147          0
   154         13
   155          1
   159          0
   185          3
   315          6
   316         64
   317         27
   318          4
   400          1
   401         60
   402         16
   403          3
   415          2
   416         62
   417         17
   418          3