##TITLE=Library Entry 48557
##JCAMP-DX=Revision 4.10 
##DATA TYPE=MASS SPECTRUM
##SAMPLE DESCRIPTION=NIST Mass Spectrometry Data Center
##NAMES=HP
##CAS NAME=Acetyl chloride, 2,2'-oxybis-
##MOLFORM=C4H4Cl2O3
##CAS REGISTRY NO=21062-20-4
##MP= -300
##BP= -300
##MW= 170
##$RETENTION INDEX=1053
##$CONDENSED SPECTRUM=NO
##NPOINTS= 49
##XYDATA=(XY..XY) 1 
    14          4
    15          3
    25          2
    26          4
    27          1
    28          9
    29         80
    30         11
    31          2
    35         13
    36          3
    37          5
    40          2
    41         16
    42        164
    43         14
    44         52
    45          1
    47          8
    48         12
    49        361
    50         13
    51        144
    52          2
    53          5
    56          5
    59          1
    60          4
    61          7
    62          2
    63         70
    64          1
    65         22
    76          1
    77         15
    79        999
    80         26
    81        351
    82          8
    83          1
   106          3
   107        131
   108          5
   109         44
   110          1
   127          1
   134          2
   136          1
   171          1