##TITLE=Library Entry 8491
##JCAMP-DX=Revision 4.10 
##DATA TYPE=MASS SPECTRUM
##SAMPLE DESCRIPTION=NIST Mass Spectrometry Data Center, 2010
##NAMES=HP
##CAS NAME=3-Pentanol, 2-methyl-, trifluoroacetate
##MOLFORM=C8H13F3O2
##CAS REGISTRY NO=2107-23-5
##MP= -300
##BP= -300
##MW= 198
##$RETENTION INDEX=0
##$CONDENSED SPECTRUM=NO
##NPOINTS= 73
##XYDATA=(XY..XY) 1 
    15          9
    26          9
    27        145
    28         27
    29        130
    30          5
    31         12
    33          3
    37          2
    39        155
    40          5
    41        834
    42        256
    43        999
    44         36
    45          9
    47         38
    48          1
    50         22
    51         16
    52          4
    53         41
    54          1
    55        568
    56         71
    57        133
    58         19
    59         45
    60          8
    61         60
    62          3
    63          3
    65          8
    66          2
    67         24
    69        854
    70         27
    71         37
    72          3
    73          2
    75          1
    77          3
    78         16
    81          1
    84        536
    85        570
    86         37
    87          1
    91          1
    93          1
    95          2
    97         39
    99        136
   100          4
   106          2
   107          1
   112          3
   113         32
   114          2
   115          5
   121          1
   125         26
   126          3
   140          3
   141         13
   154        221
   155        294
   156        343
   157         36
   158          3
   168         27
   169         24
   170          1