##TITLE=Library Entry 83614
##JCAMP-DX=Revision 4.10 
##DATA TYPE=MASS SPECTRUM
##SAMPLE DESCRIPTION=J.RONTANI, CENT. OCEANOL., FAC. SCI. DE LUMINY, MARSEIL
LE, FR.
##NAMES=HP
##CAS NAME=1-Phenyl-1-decanol
##MOLFORM=C16H26O
##CAS REGISTRY NO=21078-95-5
##MP= -300
##BP= -300
##MW= 234
##$RETENTION INDEX=0
##$CONDENSED SPECTRUM=NO
##NPOINTS= 10
##XYDATA=(XY..XY) 1 
    27         34
    29         66
    43         48
    77        144
    79        328
    91         58
   105         39
   107        999
   108         74
   234         24