##TITLE=Library Entry 24117
##JCAMP-DX=Revision 4.10 
##DATA TYPE=MASS SPECTRUM
##SAMPLE DESCRIPTION=D.HENNEBERG, MAX-PLANCK INSTITUTE, MULHEIM, WEST GERMAN
Y
##NAMES=HP
##CAS NAME=1-Decanol, 2-ethyl-
##MOLFORM=C12H26O
##CAS REGISTRY NO=21078-65-9
##MP= -300
##BP= -300
##MW= 186
##$RETENTION INDEX=1966
##$CONDENSED SPECTRUM=NO
##NPOINTS= 90
##XYDATA=(XY..XY) 1 
    22          1
    24          2
    26          8
    27         92
    28         52
    29        210
    30          8
    31         72
    33          4
    35          0
    36          0
    37          3
    39         55
    40         10
    41        372
    42        104
    43        851
    44          8
    45         11
    46          1
    49          1
    50          2
    51          4
    52          0
    53         18
    54         27
    55        388
    56        216
    57        999
    58         38
    59          7
    63          1
    65          2
    66          5
    67         34
    68         27
    69        219
    70        346
    71        384
    72         46
    73          4
    74          1
    77          1
    78          2
    79          4
    80          1
    81         17
    82         38
    83        212
    84        101
    85        191
    86         11
    87          5
    88          0
    91          9
    93          2
    94          0
    95          8
    96         17
    97         94
    98         55
    99         41
   100          2
   103          0
   104          1
   105          0
   107          1
   109          8
   110          8
   111         50
   112         29
   113         17
   115          0
   116          0
   117          0
   121          4
   125         23
   126         15
   127          1
   128          2
   131          0
   133          4
   135          4
   138          0
   139         13
   140          8
   141          2
   154          4
   155          2
   168          3