##TITLE=Library Entry 35498
##JCAMP-DX=Revision 4.10 
##DATA TYPE=MASS SPECTRUM
##SAMPLE DESCRIPTION=NIST Mass Spectrometry Data Center, 1990.
##NAMES=HP
##CAS NAME=5-Tetradecanol
##MOLFORM=C14H30O
##CAS REGISTRY NO=21078-83-1
##MP= -300
##BP= -300
##MW= 214
##$RETENTION INDEX=1672
##$CONDENSED SPECTRUM=NO
##NPOINTS= 44
##XYDATA=(XY..XY) 1 
    27        119
    28         81
    29        262
    31         41
    39         81
    41        518
    42        102
    43        345
    44         67
    45         59
    53         28
    54         38
    55        388
    56         93
    57        403
    58         97
    59         18
    67         52
    69        999
    70        102
    71         98
    72         17
    81         44
    83        528
    84         59
    85         74
    86         82
    87        523
    88         31
    95         22
    96         30
    97        235
    98         28
   100         17
   101         12
   110         16
   111         32
   112         14
   113         12
   125         12
   155         24
   157        137
   158         19
   196         35