##TITLE=Library Entry 34409
##JCAMP-DX=Revision 4.10 
##DATA TYPE=MASS SPECTRUM
##SAMPLE DESCRIPTION=NIST Mass Spectrometry Data Center, 1994
##NAMES=HP
##CAS NAME=5-Hexadecanol
##MOLFORM=C16H34O
##CAS REGISTRY NO=21078-87-5
##MP= -300
##BP= -300
##MW= 242
##$RETENTION INDEX=0
##$CONDENSED SPECTRUM=NO
##NPOINTS= 73
##XYDATA=(XY..XY) 1 
    15          4
    17          2
    18          5
    19          5
    27        169
    28         56
    29        402
    30         12
    31         53
    32          6
    39        100
    41        709
    42        124
    43        534
    44         77
    45         65
    46          2
    51          3
    52          2
    53         30
    54         38
    55        398
    56         95
    57        392
    58         78
    59          3
    65          5
    66          5
    67         66
    68          2
    69        999
    70         98
    71        109
    72         12
    77          3
    79          7
    80          3
    81         33
    82         33
    83        242
    84         30
    85         93
    86         84
    87        545
    88         32
    89          2
    95         22
    96         21
    97        258
    98         30
    99          8
   100         11
   101          9
   109          9
   110         11
   111        154
   112         22
   113          9
   123          3
   124          6
   125         35
   126          7
   127          3
   138          6
   139          6
   140          4
   154          2
   167          2
   183          9
   185         88
   186         11
   224         10
   225          2