##TITLE=Library Entry 20499
##JCAMP-DX=Revision 4.10 
##DATA TYPE=MASS SPECTRUM
##SAMPLE DESCRIPTION=NIST Mass Spectrometry Data Center, 1990.
##NAMES=HP
##CAS NAME=3-Hepten-1-ol, (E)-
##MOLFORM=C7H14O
##CAS REGISTRY NO=2108-05-6
##MP= -300
##BP= -300
##MW= 114
##$RETENTION INDEX=0
##$CONDENSED SPECTRUM=NO
##NPOINTS= 45
##XYDATA=(XY..XY) 1 
    14         12
    26         22
    27        166
    28         58
    29        152
    30         12
    31        174
    32          4
    38         28
    39        291
    40         66
    41        510
    42        135
    43        123
    44         49
    45         13
    50         26
    51         47
    52         27
    53        132
    54        254
    55        999
    56        165
    57        125
    58         14
    63         11
    65         42
    66         29
    67        265
    68        182
    69        106
    70         40
    71         32
    77         18
    79         62
    81        595
    82         51
    83         69
    84         25
    85         12
    86         27
    95         28
    96        205
    97         19
   114         25