##TITLE=Library Entry 100103
##JCAMP-DX=Revision 4.10 
##DATA TYPE=MASS SPECTRUM
##SAMPLE DESCRIPTION=Exported from NIST MS Search
##NAMES=HP
##CAS NAME=Benzoic acid, 4-methyl-, (4-methylphenyl)methyl ester
##MOLFORM=C16H16O2
##CAS REGISTRY NO=21086-87-3
##MP= -300
##BP= -300
##MW= 240
##$RETENTION INDEX=0
##$CONDENSED SPECTRUM=NO
##NPOINTS= 113
##XYDATA=(XY..XY) 1 
    69          1
    70          1
    71          1
    72          1
    73          1
    74          7
    75          9
    76          9
    77        129
    78         59
    79         68
    80          4
    81          1
    82          1
    83          1
    84          1
    85          1
    86          3
    87          4
    88          3
    89         47
    90         31
    91        269
    92         29
    93         26
    94          2
    95          1
    96          1
    97          1
    98          1
    99          1
   101          3
   102         11
   103         77
   104        134
   105        807
   106         72
   107          5
   108          1
   111          1
   112          1
   113          1
   115          1
   116          1
   117          1
   118          5
   119        999
   120         99
   121         77
   122          7
   123          1
   125          1
   126          1
   127          1
   128          1
   129          1
   131          1
   132          1
   133          2
   134          1
   135          3
   136          1
   137          1
   139          1
   140          1
   141          1
   142          1
   143          1
   147          1
   148          6
   149          3
   150          1
   151          1
   152          1
   153          2
   154          1
   155          1
   163          1
   164          1
   165          4
   166          4
   167          1
   168          1
   176          1
   177          1
   178          2
   179          4
   180          3
   181          6
   182          3
   183          1
   195          6
   196          3
   197          1
   205          1
   206          1
   207          6
   208          2
   209          1
   210          1
   211          1
   221          1
   222         26
   223          5
   224          1
   225         12
   226          2
   227          1
   238          2
   239          2
   240        274
   241         48
   242          5