##TITLE=Library Entry 77724
##JCAMP-DX=Revision 4.10 
##DATA TYPE=MASS SPECTRUM
##SAMPLE DESCRIPTION=A. SHOEB
##NAMES=HP
##CAS NAME=1,2,4-Oxadiazol-3(2H)-one, 5-phenyl-
##MOLFORM=C8H6N2O2
##CAS REGISTRY NO=21084-84-4
##MP= -300
##BP= -300
##MW= 162
##$RETENTION INDEX=0
##$CONDENSED SPECTRUM=NO
##NPOINTS= 8
##XYDATA=(XY..XY) 1 
    51        300
    77        600
    91         90
   103        400
   104        999
   105        430
   119        260
   162        980