##TITLE=Library Entry 15834
##JCAMP-DX=Revision 4.10 
##DATA TYPE=MASS SPECTRUM
##SAMPLE DESCRIPTION=ATLAS OF MASS SPECTRA OF ORGANIC COMPOUNDS, V. A. KOPTY
UG, ED.
##NAMES=HP
##CAS NAME=2-Butenal, 2-methyl-, dimethylhydrazone
##MOLFORM=C7H14N2
##CAS REGISTRY NO=21083-08-9
##MP= -300
##BP= -300
##MW= 126
##$RETENTION INDEX=0
##$CONDENSED SPECTRUM=NO
##NPOINTS= 54
##XYDATA=(XY..XY) 1 
    26         13
    28        325
    29        270
    30        298
    31         11
    37         11
    38          3
    39        270
    40         65
    41        298
    42        760
    43        515
    44        999
    45        300
    46        176
    49         10
    50         24
    51         35
    52         38
    53        222
    54        116
    55        406
    56        214
    57         57
    58        111
    59         81
    63         62
    65         46
    66         22
    67        270
    68         90
    69         32
    70        214
    71         54
    72         46
    80         13
    81        257
    82        930
    83        227
    84        108
    85         11
    94         46
    95         68
    96        102
    97         46
    98         35
   108          7
   109         32
   110        243
   111        460
   112         38
   125         30
   126        676
   127         66