##TITLE=Library Entry 73021
##JCAMP-DX=Revision 4.10 
##DATA TYPE=MASS SPECTRUM
##SAMPLE DESCRIPTION=NIST Mass Spectrometry Data Center
##NAMES=HP
##CAS NAME=4-(2-Hydroxypropyl)morpholine
##MOLFORM=C7H15NO2
##CAS REGISTRY NO=2109-66-2
##MP= -300
##BP= -300
##MW= 145
##$RETENTION INDEX=0
##$CONDENSED SPECTRUM=NO
##NPOINTS= 57
##XYDATA=(XY..XY) 1 
    14          2
    15         56
    18          4
    19          9
    26          6
    27         51
    28        101
    29         85
    30         41
    31         32
    38          1
    39         14
    40          5
    41         65
    42        150
    43        105
    44         39
    45         51
    46          1
    51          1
    52          2
    53          1
    54         14
    55         12
    56        201
    57         21
    58         21
    59          7
    60          1
    67          1
    68          5
    69          4
    70         76
    71         10
    72         34
    73          2
    82          3
    83          1
    84          4
    85          4
    86          8
    87          1
    96          1
    98          7
   100        999
   101         60
   102          6
   111          1
   112          1
   114          1
   126          3
   128          4
   130         38
   131          3
   144          5
   145         42
   146          3