##TITLE=Library Entry 1374
##JCAMP-DX=Revision 4.10 
##DATA TYPE=MASS SPECTRUM
##SAMPLE DESCRIPTION=Asinex Ltd, Moscow, Russia
##NAMES=HP
##CAS NAME=[1,2,5]-Oxadiazolo[3,4-E][2,1,3]-benzoxadiazole
##MOLFORM=C6H2N4O2
##CAS REGISTRY NO=211-15-4
##MP= -300
##BP= -300
##MW= 162
##$RETENTION INDEX=0
##$CONDENSED SPECTRUM=NO
##NPOINTS= 51
##XYDATA=(XY..XY) 1 
    30        999
    32         13
    37        100
    38         60
    39         13
    40          4
    42          2
    43          1
    48          6
    49         21
    50         45
    51        122
    52         98
    54         39
    55          7
    56          4
    60          5
    61          6
    62         19
    63         29
    64         91
    65         29
    68         19
    73          3
    74         13
    75         55
    76         28
    77         16
    78          2
    80         32
    82         20
    84         55
    86          0
    88          2
    89          0
    94          7
   100          5
   101         12
   102         24
   104        114
   105          6
   110         11
   111          0
   112          1
   114          1
   132         27
   133          0
   160          0
   162        325
   163         22
   164          1