##TITLE=Library Entry 2768
##JCAMP-DX=Revision 4.10 
##DATA TYPE=MASS SPECTRUM
##SAMPLE DESCRIPTION=CARL DJERASSI DEPT OF CHEM STANFORD UNIV STANFORD CALIF
 94305
##NAMES=HP
##CAS NAME=2(1H)-Naphthalenone, octahydro-1-methyl-, (1.alpha.,4a.beta.,8a.a
lpha.)-
##MOLFORM=C11H18O
##CAS REGISTRY NO=21102-88-5
##MP= -300
##BP= -300
##MW= 166
##$RETENTION INDEX=0
##$CONDENSED SPECTRUM=NO
##NPOINTS= 67
##XYDATA=(XY..XY) 1 
    38         20
    39        590
    40        130
    41        999
    42        220
    43        320
    44         20
    45         30
    50         30
    51         90
    52         60
    53        330
    54        240
    55        770
    56        100
    57         90
    63         10
    65        100
    66         60
    67        730
    68        260
    69        480
    70         80
    71         50
    72         10
    73         10
    77        100
    78         30
    79        230
    80         80
    81        580
    82        190
    83        100
    84         40
    85         10
    91         90
    92         20
    93        200
    94        260
    95        590
    96        260
    97         90
    98         20
   105         20
   106         30
   107        110
   108        160
   109        330
   110        220
   111         90
   119        100
   120         30
   121         10
   122        410
   123        120
   124         60
   125         30
   133         50
   137        160
   138        190
   139         20
   148         90
   149         10
   151         30
   152         10
   166        430
   167         60