##TITLE=Library Entry 29686
##JCAMP-DX=Revision 4.10 
##DATA TYPE=MASS SPECTRUM
##SAMPLE DESCRIPTION=Japan AIST/NIMC Database- Spectrum MS-NW-2106
##NAMES=HP
##CAS NAME=Propanoic acid, 2-hydroxy-2-methyl-, methyl ester
##MOLFORM=C5H10O3
##CAS REGISTRY NO=2110-78-3
##MP= -300
##BP= -300
##MW= 118
##$RETENTION INDEX=1118
##$CONDENSED SPECTRUM=NO
##NPOINTS= 44
##XYDATA=(XY..XY) 1 
    13          1
    14          7
    15         86
    16          1
    17          1
    18          7
    26          5
    27         16
    28         22
    29         24
    30          4
    31        212
    32          9
    33         12
    37          3
    38          4
    39         27
    40          5
    41        106
    42         14
    43        350
    44         15
    45         14
    53          1
    55          3
    56          1
    57          8
    58         32
    59        999
    60         32
    61          6
    69          9
    70          5
    72          1
    73         23
    75         11
    84          1
    85          2
   100          3
   101          3
   102          1
   103         23
   104          2
   117          1