##TITLE=Library Entry 12391
##JCAMP-DX=Revision 4.10 
##DATA TYPE=MASS SPECTRUM
##SAMPLE DESCRIPTION=V.A.Korolev, Moscow, Russia
##NAMES=HP
##CAS NAME=4-Amino-6-sulfanyl-5H-1,3,5-triazin-2-one
##MOLFORM=C3H4N4OS
##CAS REGISTRY NO=21119-81-3
##MP= -300
##BP= -300
##MW= 144
##$RETENTION INDEX=0
##$CONDENSED SPECTRUM=NO
##NPOINTS= 34
##XYDATA=(XY..XY) 1 
    33         54
    34         25
    40         25
    41        134
    42        323
    43        999
    44        160
    46         65
    47         41
    48         22
    58         81
    59        317
    60         84
    61         11
    68        135
    69        310
    70         39
    73         21
    74         20
    75         12
    84         14
    85        276
    86         98
   100         10
   101         24
   102          2
   111         28
   112          2
   117         69
   118          6
   119          4
   144        762
   145         46
   146         39