##TITLE=Library Entry 49812
##JCAMP-DX=Revision 4.10 
##DATA TYPE=MASS SPECTRUM
##SAMPLE DESCRIPTION=Chemical Concepts
##NAMES=HP
##CAS NAME=Bicyclo[2.2.1]heptan-2-one, 7-(bromomethyl)-1,7-dimethyl-, anti-
##MOLFORM=C10H15BrO
##CAS REGISTRY NO=2111-66-2
##MP= -300
##BP= -300
##MW= 230
##$RETENTION INDEX=0
##$CONDENSED SPECTRUM=NO
##NPOINTS= 99
##XYDATA=(XY..XY) 1 
    26         26
    27        315
    28         64
    29        165
    30          3
    37          8
    38         34
    39        446
    40        110
    41        669
    42        101
    43        157
    44         32
    45          6
    50         38
    51        108
    52         66
    53        270
    54         71
    55        326
    56         24
    57         47
    58          7
    59          7
    60          5
    61          6
    62         10
    63         29
    64         10
    65        105
    66         46
    67        423
    68         94
    69        389
    70         25
    71          6
    73          3
    74          5
    75          7
    77        163
    78         38
    79        212
    80         42
    81        999
    82        191
    83         20
    84          4
    85          3
    89          6
    90          3
    91        147
    92         25
    93        204
    94         53
    95        386
    96         39
    97         22
   103          6
   105         28
   106         31
   107        605
   108        379
   109        451
   110         49
   111          4
   117          3
   119         28
   120          3
   121         19
   122         55
   123        248
   124         25
   125          5
   133         24
   135         15
   137         72
   138          7
   147          3
   148          2
   149          5
   150          5
   151        103
   152         12
   161         14
   163         15
   173         34
   174          4
   175         43
   176          3
   177         10
   186        163
   187         24
   188        162
   189         23
   190          4
   230         80
   231          9
   232         79
   233          9