##TITLE=Library Entry 11556
##JCAMP-DX=Revision 4.10 
##DATA TYPE=MASS SPECTRUM
##SAMPLE DESCRIPTION=LAC, NIDDK, NIH, Bethesda, MD 20892
##NAMES=HP
##CAS NAME=Imidazole, 5-bromo-1,2-dimethyl-4-nitro-
##MOLFORM=C5H6BrN3O2
##CAS REGISTRY NO=21117-52-2
##MP= -300
##BP= -300
##MW= 219
##$RETENTION INDEX=0
##$CONDENSED SPECTRUM=NO
##NPOINTS= 63
##XYDATA=(XY..XY) 1 
    41        112
    42        235
    43        999
    44         22
    45          3
    46         60
    47         11
    48          3
    50          8
    51         94
    52        183
    53         95
    54         34
    55         19
    56        214
    57         11
    63          3
    64         15
    65          9
    66         41
    67        181
    68         45
    69          8
    71          9
    77         28
    78          6
    79         72
    81         12
    82          4
    83        178
    84         25
    91         12
    93         71
    94         75
    95         21
   105         25
   106         13
   107         26
   108         11
   109          3
   110          9
   117         17
   119         19
   120        301
   121          5
   122        299
   123          7
   124         50
   130          8
   131          6
   132         43
   133          7
   134         36
   147          6
   148         17
   149          6
   150         18
   173         10
   175          9
   219        180
   220         16
   221        173
   222         16