##TITLE=Library Entry 33592
##JCAMP-DX=Revision 4.10 
##DATA TYPE=MASS SPECTRUM
##SAMPLE DESCRIPTION=Exported from NIST MS Search
##NAMES=HP
##CAS NAME=1-Cyclohexene-1-carboxaldehyde, 4-(1-methylethenyl)-
##MOLFORM=C10H14O
##CAS REGISTRY NO=2111-75-3
##MP= -300
##BP= -300
##MW= 150
##$RETENTION INDEX=1272
##$CONDENSED SPECTRUM=NO
##NPOINTS= 88
##XYDATA=(XY..XY) 1 
    14          5
    15         11
    16          5
    18         19
    26         16
    27        311
    28        115
    29        184
    31         11
    37          7
    38         31
    39        476
    40        135
    41        422
    42         61
    43         93
    44          6
    45          6
    50         61
    51        180
    52         96
    53        456
    54         61
    55        153
    56         15
    57         13
    58         15
    59         19
    60          6
    61          7
    62         16
    63         49
    64         12
    65        128
    66        176
    67        542
    68        999
    69         94
    70         10
    71          7
    74         12
    75         17
    76         13
    77        367
    78        107
    79        600
    80        137
    81        172
    82         44
    83         19
    89         15
    90         14
    91        302
    92        103
    93        351
    94        151
    95        183
    96         23
   102          5
   103         31
   104         24
   105        172
   106        179
   107        438
   108        206
   109         84
   110          7
   115         30
   116          7
   117         92
   118         13
   119         47
   120         13
   121        222
   122        283
   123         29
   131         15
   132         45
   133         31
   134          8
   135        225
   136         19
   145         17
   146         13
   148         17
   149         11
   150        328
   151         29