##TITLE=Library Entry 93731
##JCAMP-DX=Revision 4.10 
##DATA TYPE=MASS SPECTRUM
##SAMPLE DESCRIPTION=Exported from NIST MS Search
##NAMES=HP
##CAS NAME=1,3-Oxathiole, 4-methyl-5-phenyl-, 3,3-dioxide
##MOLFORM=C10H10O3S
##CAS REGISTRY NO=21120-04-7
##MP= -300
##BP= -300
##MW= 210
##$RETENTION INDEX=0
##$CONDENSED SPECTRUM=NO
##NPOINTS= 14
##XYDATA=(XY..XY) 1 
    77        122
    78         79
    89        112
    94        213
   104         53
   105        182
   114         41
   115        999
   116        619
   117         41
   132        162
   210        534
   211         61
   212         27