##TITLE=Library Entry 38983
##JCAMP-DX=Revision 4.10 
##DATA TYPE=MASS SPECTRUM
##SAMPLE DESCRIPTION=RADIAN CORP
##NAMES=HP
##CAS NAME=Cyclohexanol, 1-methyl-4-(1-methylethyl)-
##MOLFORM=C10H20O
##CAS REGISTRY NO=21129-27-1
##MP= -300
##BP= -300
##MW= 156
##$RETENTION INDEX=1178
##$CONDENSED SPECTRUM=NO
##NPOINTS= 64
##XYDATA=(XY..XY) 1 
    15          4
    27         90
    29        115
    30          3
    31         31
    38          4
    39        150
    40         27
    41        469
    42         76
    43        352
    44         51
    45         30
    50          4
    51         18
    52         10
    53        102
    54         52
    55        453
    56        202
    57        320
    58         33
    59         19
    63          4
    65         26
    66         12
    67        325
    68        126
    69        319
    70        129
    71        999
    72         57
    73         14
    77         31
    78          7
    79         56
    80         94
    81        724
    82        323
    83        116
    84         32
    85         86
    86         35
    87          4
    91         17
    93         43
    94         50
    95        614
    96        223
    97         43
    98          3
    99         33
   100          4
   109         99
   110         54
   111         13
   112         12
   113         10
   123        248
   124         25
   137          4
   138        110
   139         16
   141          4