##TITLE=Library Entry 89519
##JCAMP-DX=Revision 4.10 
##DATA TYPE=MASS SPECTRUM
##SAMPLE DESCRIPTION=Japan AIST/NIMC Database- Spectrum MS-IW- 667
##NAMES=HP
##CAS NAME=2-Thiopheneacetic acid, .alpha.-amino-, (.+/-.)-
##MOLFORM=C6H7NO2S
##CAS REGISTRY NO=21124-40-3
##MP= -300
##BP= -300
##MW= 157
##$RETENTION INDEX=0
##$CONDENSED SPECTRUM=NO
##NPOINTS= 85
##XYDATA=(XY..XY) 1 
    15          1
    16          3
    17         20
    18        101
    26          3
    27          8
    28          7
    29          7
    30          7
    32          4
    34          2
    36          4
    37          6
    38         11
    39         59
    40          5
    41         20
    42          3
    43          2
    44         41
    45        121
    46          5
    47          6
    49          2
    50          9
    51         16
    52         18
    53          9
    54          7
    55          3
    56          9
    57         15
    58         30
    59          9
    60          4
    61          2
    62          2
    63          4
    64          2
    65          3
    66          5
    67          5
    68          4
    69         17
    70         12
    71          3
    72          1
    73          1
    74          3
    75          2
    76          2
    77          1
    78          7
    79          6
    80          4
    81          6
    82          8
    83         18
    84         18
    85        419
    86         22
    87         18
    88          1
    93          2
    95          6
    96         17
    97         37
    98          5
    99          2
   109         17
   110         90
   111         60
   112        999
   113        113
   114         48
   115          5
   123          4
   124          5
   125          1
   139          3
   140          2
   141          5
   142          6
   157          7
   158          1