##TITLE=Library Entry 85357
##JCAMP-DX=Revision 4.10 
##DATA TYPE=MASS SPECTRUM
##SAMPLE DESCRIPTION=Exported from NIST MS Search
##NAMES=HP
##CAS NAME=Benzene, 1-(2-chloroethoxy)-2-methyl-
##MOLFORM=C9H11ClO
##CAS REGISTRY NO=21120-79-6
##MP= -300
##BP= -300
##MW= 170
##$RETENTION INDEX=0
##$CONDENSED SPECTRUM=NO
##NPOINTS= 87
##XYDATA=(XY..XY) 1 
    14          1
    15          2
    17          1
    18          4
    26          7
    27        119
    28         34
    29          4
    32          7
    36          3
    37          3
    38         10
    39         64
    40          6
    41         10
    42          1
    43          5
    44          2
    45          2
    49          4
    50         26
    51         66
    52         38
    53         33
    54          3
    55          6
    60          1
    61          4
    62         10
    63        232
    64         14
    65        127
    66         10
    67          2
    68          2
    69          1
    73          1
    74          6
    75          4
    76          4
    77        174
    78         61
    79        117
    80         62
    81          6
    86          1
    87          2
    89         29
    90         93
    91        245
    92         22
    93         28
    94          7
   103          2
   104          1
   105         10
   106          7
   107        388
   108        999
   109         79
   110          5
   115          4
   116          2
   117          9
   118          3
   119          7
   120          2
   121        208
   122         19
   123          1
   125          1
   126          1
   133          6
   134          9
   135         30
   136          3
   139          2
   152          7
   156          1
   161          2
   162          1
   169          2
   170        557
   171         57
   172        182
   173         18
   174          1