##TITLE=Library Entry 76536
##JCAMP-DX=Revision 4.10 
##DATA TYPE=MASS SPECTRUM
##SAMPLE DESCRIPTION=Chemical Concepts
##NAMES=HP
##CAS NAME=Bicyclo[4.2.0]octa-1,3,5-triene, 7-bromo-
##MOLFORM=C8H7Br
##CAS REGISTRY NO=21120-91-2
##MP= -300
##BP= -300
##MW= 182
##$RETENTION INDEX=0
##$CONDENSED SPECTRUM=NO
##NPOINTS= 67
##XYDATA=(XY..XY) 1 
    26          8
    27         24
    36          1
    37         15
    38         32
    39         45
    40          0
    41          1
    43          0
    48          1
    49         13
    50        104
    51        170
    52         32
    53          7
    58          2
    60          2
    61         14
    62         31
    63         61
    64          7
    65          6
    66          0
    72          1
    73          9
    74         46
    75         40
    76         57
    77        270
    78         30
    79         10
    80         18
    81         10
    82         17
    85          1
    86          3
    87          7
    88          2
    89          5
    90          1
    91         21
    92          6
    97          1
    98          6
    99          2
   100          1
   101         14
   102        102
   103        999
   104        109
   105         11
   106          7
   113          0
   114          0
   115         11
   116         11
   117          2
   118          0
   119          0
   128          0
   165          0
   178          1
   179          0
   182         70
   183          6
   184         68
   185          6