##TITLE=Library Entry 86015
##JCAMP-DX=Revision 4.10 
##DATA TYPE=MASS SPECTRUM
##SAMPLE DESCRIPTION=NIST Mass Spectrometry Data Center
##NAMES=HP
##CAS NAME=(1R,3S,4S)-1,3-Dimethyl-3-(4-methylpent-3-en-1-yl)-2-oxabicyclo[2
.2.2]oct-5-ene
##MOLFORM=C15H24O
##CAS REGISTRY NO=211237-38-6
##MP= -300
##BP= -300
##MW= 220
##$RETENTION INDEX=1473
##$CONDENSED SPECTRUM=NO
##NPOINTS= 95
##XYDATA=(XY..XY) 1 
    27         17
    29         17
    38          2
    39         66
    40         15
    41        184
    42         11
    43        405
    44          8
    45         33
    50          5
    51         29
    52         13
    53         66
    54          9
    55         59
    56         10
    58         13
    59         13
    63          9
    64          3
    65         46
    66         18
    67         70
    68         24
    69        187
    70          9
    71         32
    74          1
    76          2
    77        200
    78         42
    79        528
    80         78
    81        109
    82         30
    83         51
    84         27
    86          2
    89          4
    91        161
    92         37
    93        389
    94        771
    95        175
    96         15
    97         10
   103          9
   104          3
   106         19
   107         64
   108        115
   109        999
   110         88
   115          8
   116          4
   117         12
   118          3
   122         21
   123         36
   124          6
   125         43
   126         38
   127         70
   128         10
   129          5
   130          2
   131         15
   132         79
   133         43
   134        102
   135         30
   136         10
   137        147
   138         59
   139          3
   145          8
   146          6
   149         30
   150          4
   151          7
   159         20
   160          5
   162         23
   163          6
   164          2
   177         55
   178          7
   187          4
   192         13
   202          7
   203          1
   205          8
   206          2
   220          5