##TITLE=Library Entry 61578
##JCAMP-DX=Revision 4.10 
##DATA TYPE=MASS SPECTRUM
##SAMPLE DESCRIPTION=A. Brossi, LC, NIDDK, NIH, Bethesda, MD 20892
##NAMES=HP
##CAS NAME=1-Triazene, 1-methyl-3-(4-methylphenyl)-
##MOLFORM=C8H11N3
##CAS REGISTRY NO=21124-13-0
##MP= -300
##BP= -300
##MW= 149
##$RETENTION INDEX=0
##$CONDENSED SPECTRUM=NO
##NPOINTS= 109
##XYDATA=(XY..XY) 1 
    41         41
    42         44
    43        108
    44         20
    45          4
    47          0
    48          0
    49          2
    50         32
    51         66
    52         39
    53         20
    54          5
    55          6
    56          3
    57          6
    58          2
    59          5
    60          2
    61          4
    62         15
    63         58
    64         21
    65        281
    66         19
    67          3
    68          1
    69          4
    70          2
    71          3
    72          2
    73          1
    74          7
    75          7
    76         12
    77         93
    78         51
    79         67
    80          9
    81          3
    82          2
    83          3
    84          1
    85          3
    86          2
    87          3
    88          2
    89         46
    90         32
    91        999
    92        110
    93         11
    94          2
    95          2
    96          1
    97          3
    98          1
    99          1
   101          0
   102          2
   103          4
   104         31
   105         23
   106        130
   107        162
   108         14
   109          2
   110          1
   111          3
   112          1
   113          1
   115          2
   116          2
   117          6
   118         64
   119        553
   120        166
   121         37
   122          4
   123          1
   124          3
   125          1
   126          0
   127          1
   128          0
   129          0
   130          1
   131          5
   132          5
   133          5
   134         41
   135         15
   136          2
   137          1
   138          0
   139          1
   140          0
   141          0
   142          0
   143          0
   144          0
   145          0
   146          2
   147          7
   148         10
   149         81
   150         19
   151          2
   152          1