##TITLE=Library Entry 76100
##JCAMP-DX=Revision 4.10 
##DATA TYPE=MASS SPECTRUM
##SAMPLE DESCRIPTION=Exported from NIST MS Search
##NAMES=HP
##CAS NAME=1,3-Oxathiole, 5-phenyl-, 3,3-dioxide
##MOLFORM=C9H8O3S
##CAS REGISTRY NO=21120-03-6
##MP= -300
##BP= -300
##MW= 196
##$RETENTION INDEX=0
##$CONDENSED SPECTRUM=NO
##NPOINTS= 16
##XYDATA=(XY..XY) 1 
    74         79
    75         71
    76        196
    77        152
    78         47
    89         57
    90         81
    94         85
   102        999
   103        101
   105        192
   118        615
   119         49
   196        536
   197         59
   198         33