##TITLE=Library Entry 64515
##JCAMP-DX=Revision 4.10 
##DATA TYPE=MASS SPECTRUM
##SAMPLE DESCRIPTION=ATLAS OF MASS SPECTRA OF ORGANIC COMPOUNDS, V. A. KOPTY
UG, ED.
##NAMES=HP
##CAS NAME=Benzaldehyde, bis(phenylmethyl)hydrazone
##MOLFORM=C21H20N2
##CAS REGISTRY NO=21136-32-3
##MP= -300
##BP= -300
##MW= 300
##$RETENTION INDEX=0
##$CONDENSED SPECTRUM=NO
##NPOINTS= 33
##XYDATA=(XY..XY) 1 
    27         10
    29          8
    39         28
    41         22
    42          8
    43         20
    51         26
    55         13
    57         26
    63         15
    65         95
    71         16
    77         46
    89         41
    90         67
    91        999
    92         95
   103         90
   104         19
   153         15
   165         56
   166        113
   167         22
   178         10
   179         36
   180         14
   181        223
   182         36
   209         21
   223         14
   300        564
   301        144
   302         16