##TITLE=Library Entry 61548
##JCAMP-DX=Revision 4.10 
##DATA TYPE=MASS SPECTRUM
##SAMPLE DESCRIPTION=Chemical Concepts
##NAMES=HP
##CAS NAME=1-Bromo-1-phenylpropane
##MOLFORM=C9H11Br
##CAS REGISTRY NO=2114-36-5
##MP= -300
##BP= -300
##MW= 198
##$RETENTION INDEX=0
##$CONDENSED SPECTRUM=NO
##NPOINTS= 85
##XYDATA=(XY..XY) 1 
    26         11
    27         44
    28          9
    29          5
    36          1
    37          4
    38         18
    39        104
    40          7
    41        114
    42          6
    43          0
    45          1
    49          2
    50         52
    51        107
    52         28
    53          6
    54          0
    55          1
    57         41
    59          2
    61          7
    62         24
    63         63
    64         12
    65         61
    66          5
    67          0
    69          0
    73          3
    74         16
    75         13
    76         18
    77         70
    78         67
    79         26
    80         13
    81          8
    82         11
    83          0
    84          1
    85          2
    86          5
    87          8
    88          3
    89         49
    90         31
    91        999
    92         71
    93          3
    94          0
    98          2
    99          2
   101          1
   102         18
   103         48
   104         83
   105          7
   106          0
   107          0
   108          0
   110          0
   113          1
   115         70
   116         14
   117         85
   118         46
   119        456
   120         47
   121          2
   141          0
   142          0
   143          0
   144          0
   156          0
   158          0
   169         13
   170          1
   171         12
   172          1
   198          2
   199          0
   200          2
   202          0