##TITLE=Library Entry 15776
##JCAMP-DX=Revision 4.10 
##DATA TYPE=MASS SPECTRUM
##SAMPLE DESCRIPTION=RADIAN CORP
##NAMES=HP
##CAS NAME=Carbamic acid, 2-chloroethyl ester
##MOLFORM=C3H6ClNO2
##CAS REGISTRY NO=2114-18-3
##MP= -300
##BP= -300
##MW= 123
##$RETENTION INDEX=0
##$CONDENSED SPECTRUM=NO
##NPOINTS= 43
##XYDATA=(XY..XY) 1 
    14          7
    15         18
    16         22
    17          9
    18          8
    19          4
    26         31
    27        165
    28         68
    29         62
    30         20
    31        201
    32         17
    35          4
    36          2
    40          2
    41          3
    42         27
    43        126
    44        999
    45        221
    46          6
    47          5
    48          9
    49         59
    50         13
    51         19
    52          1
    58          5
    61         14
    62        558
    63         46
    64        175
    65         11
    74        748
    75         18
    76          2
    79         29
    80          5
    81          9
    87         20
    88        139
    89          3