##TITLE=Library Entry 20825
##JCAMP-DX=Revision 4.10 
##DATA TYPE=MASS SPECTRUM
##SAMPLE DESCRIPTION=Japan AIST/NIMC Database- Spectrum MS-NW-6804
##NAMES=HP
##CAS NAME=Cyclohexane, 2-propenyl-
##MOLFORM=C9H16
##CAS REGISTRY NO=2114-42-3
##MP= -300
##BP= -300
##MW= 124
##$RETENTION INDEX=921
##$CONDENSED SPECTRUM=NO
##NPOINTS= 55
##XYDATA=(XY..XY) 1 
    15          4
    26          6
    27         87
    28          9
    29         70
    30          1
    36          3
    37          3
    38          7
    39        143
    40         20
    41        423
    42         22
    43         36
    44          2
    45          1
    50          7
    51         18
    52         10
    53         60
    54         75
    55        999
    56         51
    57          4
    58          1
    62          2
    63          5
    64          1
    65         17
    66         21
    67        219
    68         47
    69         17
    70          1
    74          1
    75          1
    77         17
    78          5
    79         29
    80         20
    81        105
    82        628
    83        982
    84         64
    85          2
    91          5
    93          3
    94          2
    95         20
    96         69
    97          5
   109          6
   123          2
   124         63
   125          7