##TITLE=Library Entry 61682
##JCAMP-DX=Revision 4.10 
##DATA TYPE=MASS SPECTRUM
##SAMPLE DESCRIPTION=Japan AIST/NIMC Database- Spectrum MS-NW-9935
##NAMES=HP
##CAS NAME=Benzene, (2-bromopropyl)-
##MOLFORM=C9H11Br
##CAS REGISTRY NO=2114-39-8
##MP= -300
##BP= -300
##MW= 198
##$RETENTION INDEX=0
##$CONDENSED SPECTRUM=NO
##NPOINTS= 66
##XYDATA=(XY..XY) 1 
    26          2
    27         15
    28          1
    37          1
    38          5
    39         45
    40          4
    41         54
    42          2
    43          1
    49          1
    50         20
    51         52
    52         11
    53          3
    57         22
    58         17
    59          6
    61          2
    62          9
    63         25
    64          6
    65         55
    66          4
    73          1
    74          7
    75          6
    76          7
    77         38
    78         28
    79         12
    80          2
    81          1
    82          2
    85          1
    86          2
    87          2
    88          1
    89         20
    90          9
    91        999
    92         87
    93          3
    98          1
    99          1
   101          1
   102          8
   103         20
   104         20
   105         22
   106          2
   107          2
   109          1
   115         37
   116          9
   117         62
   118         43
   119        353
   120         35
   121          1
   169          2
   171          2
   198        135
   199         13
   200        131
   201         12