##TITLE=Library Entry 8603
##JCAMP-DX=Revision 4.10 
##DATA TYPE=MASS SPECTRUM
##SAMPLE DESCRIPTION=NIST Mass Spectrometry Data Center, 2009
##NAMES=HP
##CAS NAME=5-Methylisoxazol-3-trifluoroacetylamine
##MOLFORM=C6H5F3N2O2
##CAS REGISTRY NO=211429-86-6
##MP= -300
##BP= -300
##MW= 194
##$RETENTION INDEX=1081
##$CONDENSED SPECTRUM=NO
##NPOINTS= 126
##XYDATA=(XY..XY) 1 
    14          4
    15         27
    16          1
    20          1
    25          4
    26         22
    27         45
    28        125
    29         25
    30         38
    31         14
    36          2
    37         25
    38         67
    39        209
    40         53
    41        100
    42        101
    43        999
    44         38
    46          5
    47          4
    48          1
    49          4
    50         61
    51         38
    52         74
    53         46
    54        107
    55        100
    56        138
    57         18
    58          7
    59          2
    62          3
    63          8
    64         19
    65         28
    66        110
    67        125
    68         97
    69        999
    70        163
    71          9
    72          2
    73          2
    74          1
    75          1
    76          8
    77          6
    78          9
    79         11
    80          6
    81        107
    82         35
    83         68
    84          4
    85          1
    87          1
    88          1
    89          5
    90          3
    91          4
    92          3
    94         19
    95          4
    96         79
    97        632
    98         31
    99         12
   100          1
   101          1
   102          1
   103          7
   104         17
   105          2
   107          3
   108          1
   109          4
   110          3
   111          6
   112          1
   114         50
   115          2
   116          3
   117          1
   118          2
   119          1
   120          1
   121          1
   122          1
   123         11
   124        123
   125        365
   126         25
   127          4
   131          3
   132          1
   134          3
   136          2
   137          1
   138          1
   139          9
   140          1
   142          1
   145          1
   146         11
   147          2
   151        338
   152         57
   153          7
   154          1
   162          5
   163          3
   164          1
   165          5
   166          1
   175          1
   176          3
   179        110
   180          7
   181          1
   192          1
   194        827
   195         59
   196          5