##TITLE=Library Entry 78769
##JCAMP-DX=Revision 4.10 
##DATA TYPE=MASS SPECTRUM
##SAMPLE DESCRIPTION=NIST Mass Spectrometry Data Center, 1992
##NAMES=HP
##CAS NAME=1-Propanone, 2-bromo-1-phenyl-
##MOLFORM=C9H9BrO
##CAS REGISTRY NO=2114-00-3
##MP= -300
##BP= -300
##MW= 212
##$RETENTION INDEX=0
##$CONDENSED SPECTRUM=NO
##NPOINTS= 91
##XYDATA=(XY..XY) 1 
    12          0
    13          0
    14          1
    15          3
    16          0
    17          1
    18          8
    24          0
    26         29
    27        114
    28         63
    29          4
    31          0
    37          7
    38         18
    39         29
    40          1
    41          1
    42          0
    43          1
    49         11
    50        111
    51        241
    52         19
    53          7
    54          0
    55         34
    56         18
    57          1
    60          0
    61          4
    62         11
    63         16
    64          2
    65          3
    66          2
    67          0
    73          6
    74         32
    75         24
    76         51
    77        490
    78         40
    79         25
    80          2
    81          4
    82          2
    84          0
    85          1
    86          2
    87          2
    88          0
    89          5
    90          1
    91          2
    92          0
    93          0
    94          0
    97          0
    98          0
   101          0
   102          4
   103         19
   104          0
   105        999
   106         77
   107         10
   108          1
   109          6
   110          0
   113          0
   115          4
   116          0
   117          0
   118          0
   130          0
   131          3
   132          3
   133          1
   134          1
   135          0
   155          0
   156          0
   157          0
   183          0
   185          0
   210          0
   212         15
   213          2
   214         14
   215          1