##TITLE=Library Entry 97827
##JCAMP-DX=Revision 4.10 
##DATA TYPE=MASS SPECTRUM
##SAMPLE DESCRIPTION=Japan AIST/NIMC Database- Spectrum MS-NW-9476
##NAMES=HP
##CAS NAME=Amidinothiourea
##MOLFORM=C2H6N4S
##CAS REGISTRY NO=2114-02-5
##MP= -300
##BP= -300
##MW= 118
##$RETENTION INDEX=0
##$CONDENSED SPECTRUM=NO
##NPOINTS= 55
##XYDATA=(XY..XY) 1 
    16          2
    17          8
    18         23
    26          1
    27          6
    28         30
    29          2
    31          3
    32         23
    33         19
    34         50
    35          1
    36          3
    39          1
    40          1
    41         10
    42         43
    43        349
    44         51
    45          1
    46          3
    47          4
    48          7
    53          6
    56          1
    58          5
    59         37
    60         44
    61          2
    62          2
    67          9
    68         65
    69          3
    70          2
    73          1
    74          5
    75         18
    76          9
    77          2
    84        164
    85        213
    86         12
    87          2
    90          7
   100          1
   101          5
   102        172
   103          7
   104          8
   116          8
   117          9
   118        999
   119         58
   120         46
   121          2