##TITLE=Library Entry 43099
##JCAMP-DX=Revision 4.10 
##DATA TYPE=MASS SPECTRUM
##SAMPLE DESCRIPTION=RADIAN CORP
##NAMES=HP
##CAS NAME=Trifluoroacetamide, 2TMS derivative
##MOLFORM=C8H18F3NOSi2
##CAS REGISTRY NO=21149-38-2
##MP= -300
##BP= -300
##MW= 257
##$RETENTION INDEX=0
##$CONDENSED SPECTRUM=NO
##NPOINTS= 74
##XYDATA=(XY..XY) 1 
    15          6
    27          5
    29          7
    30          1
    41          1
    42          6
    43         54
    44         26
    45        136
    46         10
    47         22
    49         14
    50          1
    53          4
    54          3
    55         10
    56          8
    57         12
    58         17
    59         27
    60          3
    61          3
    62          3
    63         13
    68          1
    69          6
    70         35
    71          9
    72         72
    73        999
    74         88
    75         42
    76          8
    77        128
    78         10
    79          6
    81          5
    85          4
    86          5
    87          6
    89          4
    90          2
    91          2
    99          1
   100         84
   101          9
   102          4
   103          4
   104          4
   105          3
   113          1
   114          1
   115          3
   117          3
   122          2
   131          8
   133          4
   135          2
   147         21
   148          4
   149          2
   151          3
   176          4
   188        147
   189         27
   190         12
   192        141
   193         24
   194         11
   242         19
   243          3
   244          1
   257         18
   258          4