##TITLE=Library Entry 69617
##JCAMP-DX=Revision 4.10 
##DATA TYPE=MASS SPECTRUM
##SAMPLE DESCRIPTION=R RYHAGE MS-LAB KAROLINSKA INSTITUTET STOCKHOLM SWEDEN
##NAMES=HP
##CAS NAME=Dendroban-12-one
##MOLFORM=C16H25NO2
##CAS REGISTRY NO=2115-91-5
##MP= -300
##BP= -300
##MW= 263
##$RETENTION INDEX=0
##$CONDENSED SPECTRUM=NO
##NPOINTS= 68
##XYDATA=(XY..XY) 1 
    14          1
    27         31
    29         36
    39         36
    40         19
    41        110
    42        109
    43         48
    44          5
    53         29
    55         58
    56         17
    57         24
    58         40
    65         15
    67         30
    68         15
    69         23
    70         22
    77         32
    79         41
    80         20
    81         87
    82         37
    83         20
    84         11
    91         43
    93         26
    94         66
    95         40
    96        999
    97         79
   105         15
   107         20
   108        175
   109        176
   110         35
   117         11
   119         11
   120         19
   121         13
   122         44
   132         18
   134         30
   135         23
   136        158
   137         39
   146         12
   148         10
   149         18
   150         17
   164         83
   165          9
   176         15
   178        144
   179         17
   192        101
   193         13
   206        110
   207         79
   220        882
   221        127
   235        108
   236         26
   248         14
   262         70
   263        364
   264         65