##TITLE=Library Entry 37140
##JCAMP-DX=Revision 4.10 
##DATA TYPE=MASS SPECTRUM
##SAMPLE DESCRIPTION=A.Pleshkova, Nesmeyanov Inst.Org.Elem.Cpds, Moscow
##NAMES=HP
##CAS NAME=1,2-Dimethyl-3-ethyldiaziridine
##MOLFORM=C5H12N2
##CAS REGISTRY NO=211568-96-6
##MP= -300
##BP= -300
##MW= 100
##$RETENTION INDEX=0
##$CONDENSED SPECTRUM=NO
##NPOINTS= 36
##XYDATA=(XY..XY) 1 
    26         33
    27        164
    28         73
    29         71
    30         65
    37         15
    38         35
    39        174
    40         60
    41        172
    42        845
    43        384
    44        126
    45         22
    52         23
    53         11
    54         62
    55         70
    56        309
    57        124
    58        155
    59         47
    60          6
    68        142
    69         83
    70        999
    71        445
    72         27
    73          5
    83         22
    85        617
    86         28
    87          3
    99        121
   100         54
   101         16