##TITLE=Library Entry 30669
##JCAMP-DX=Revision 4.10 
##DATA TYPE=MASS SPECTRUM
##SAMPLE DESCRIPTION=Chemical Concepts
##NAMES=HP
##CAS NAME=3-[2-Ethoxycarbonyl-2-methyl)propylthio]-2,2-dimethylpropionic ac
id, ethyl ester
##MOLFORM=C14H26O4S
##CAS REGISTRY NO=21153-32-2
##MP= -300
##BP= -300
##MW= 290
##$RETENTION INDEX=0
##$CONDENSED SPECTRUM=NO
##NPOINTS= 118
##XYDATA=(XY..XY) 1 
    37          1
    38          3
    39         41
    40          9
    41        125
    42         19
    43         99
    44         13
    45         62
    46         10
    47         23
    48          2
    49          1
    50          2
    51          3
    52          1
    53         34
    54         17
    55        175
    56        102
    57         32
    58          7
    59        999
    60         40
    61         23
    62          2
    63          6
    65          1
    67         20
    68          2
    69         22
    70          9
    71          8
    72          6
    73         43
    74          2
    75          8
    76          0
    77          2
    78          0
    79          1
    81          3
    82          1
    83         18
    84          5
    85         25
    86         11
    87        107
    88         31
    89         15
    90          1
    91          2
    93          1
    95          0
    97          1
    98          1
    99          8
   100          5
   101        212
   102         17
   103         96
   104          7
   105          9
   107          1
   109         25
   110          2
   113          2
   114          5
   115         25
   116          9
   117         23
   118          1
   119          1
   127          4
   128          1
   129         54
   130          7
   131         38
   132          3
   133         28
   134          2
   135          1
   141          1
   142          1
   143         66
   144          6
   145         16
   146          1
   147          4
   155          1
   160          4
   161         15
   162          4
   163          1
   168          0
   169          0
   170          8
   171         68
   172          7
   173          3
   175        233
   176         23
   177         11
   178          1
   188          0
   198          0
   216         61
   217         47
   218          8
   219          2
   229          1
   234          0
   245         15
   246          2
   247          0
   290         54
   291          8
   292          3