##TITLE=Library Entry 86407
##JCAMP-DX=Revision 4.10 
##DATA TYPE=MASS SPECTRUM
##SAMPLE DESCRIPTION=W.T.RAINEY OAK RIDGE NATIONAL LABORATORY,OAK RIDGE,TN.U
SA
##NAMES=HP
##CAS NAME=Benzeneacetic acid, .alpha.-hydroxy-3-methoxy-
##MOLFORM=C9H10O4
##CAS REGISTRY NO=21150-12-9
##MP= -300
##BP= -300
##MW= 182
##$RETENTION INDEX=0
##$CONDENSED SPECTRUM=NO
##NPOINTS= 39
##XYDATA=(XY..XY) 1 
    29         41
    31         12
    38         30
    39        105
    40         30
    41         19
    45         67
    50         51
    51         94
    52         20
    53         26
    62         24
    63         69
    64         50
    65        122
    66        144
    74         20
    75         15
    76         21
    77        386
    78         63
    79         55
    91         35
    92         59
    93         25
    94        368
    95         30
   105         37
   107         57
   108         19
   109        999
   110         75
   135         56
   136         30
   137        883
   138         93
   182        555
   183         54
   184          6