##TITLE=Library Entry 41827
##JCAMP-DX=Revision 4.10 
##DATA TYPE=MASS SPECTRUM
##SAMPLE DESCRIPTION=V.G.Zaikin, TIPS, Russian Acad. Sci.
##NAMES=HP
##CAS NAME=Aziridine, TMS derivative
##MOLFORM=C5H13NSi
##CAS REGISTRY NO=2116-90-7
##MP= -300
##BP= -300
##MW= 115
##$RETENTION INDEX=0
##$CONDENSED SPECTRUM=NO
##NPOINTS= 23
##XYDATA=(XY..XY) 1 
    29         50
    30         10
    41         15
    43        130
    44         20
    45        220
    46         20
    56         30
    59        260
    60         20
    72         50
    73        999
    74         90
    75         40
    84         10
    86         10
   100        400
   101         30
   102         20
   114         50
   115        210
   116         24
   117          8