##TITLE=Library Entry 25378
##JCAMP-DX=Revision 4.10 
##DATA TYPE=MASS SPECTRUM
##SAMPLE DESCRIPTION=AP-2114
##NAMES=HP
##CAS NAME=Hexadecane, 7,9-dimethyl-
##MOLFORM=C18H38
##CAS REGISTRY NO=21164-95-4
##MP= -300
##BP= -300
##MW= 254
##$RETENTION INDEX=0
##$CONDENSED SPECTRUM=NO
##NPOINTS= 93
##XYDATA=(XY..XY) 1 
    40         11
    41        360
    42        110
    43        769
    44         27
    50          2
    51          2
    52          2
    53         20
    54         14
    55        250
    56        170
    57        999
    58         47
    59          1
    63          1
    65          3
    66          2
    67         19
    68         16
    69        124
    70        111
    71        779
    72         46
    73          1
    77          2
    78          1
    79          3
    80          1
    81          7
    82         16
    83         61
    84         90
    85        440
    86         30
    87          1
    91          1
    93          1
    95          3
    96          5
    97         38
    98         22
    99          8
   109          1
   110          4
   111         24
   112         80
   113         82
   114          7
   115          1
   123          1
   124          3
   125         16
   126         91
   127         65
   128          6
   138          1
   139          2
   140         30
   141         28
   142          3
   153          2
   154         26
   155        106
   156         13
   157          1
   159          1
   167          1
   168         22
   169        100
   170         13
   171         17
   172          1
   182          2
   183          5
   184          1
   196          1
   197          4
   198          1
   210          1
   211          4
   212          1
   224          1
   225          4
   226          1
   238          1
   239         15
   240          3
   241          1
   252          1
   253          1
   254         13
   255          2