##TITLE=Library Entry 51926
##JCAMP-DX=Revision 4.10 
##DATA TYPE=MASS SPECTRUM
##SAMPLE DESCRIPTION=D.HENNEBERG, MAX-PLANCK INSTITUTE, MULHEIM, WEST GERMAN
Y
##NAMES=HP
##CAS NAME=Cyclopropane, 1-chloro-1,2,2-trimethyl-
##MOLFORM=C6H11Cl
##CAS REGISTRY NO=21181-46-4
##MP= -300
##BP= -300
##MW= 118
##$RETENTION INDEX=0
##$CONDENSED SPECTRUM=NO
##NPOINTS= 80
##XYDATA=(XY..XY) 1 
    26         27
    27        189
    28         22
    29         74
    30          1
    31          1
    34          0
    35          1
    36          8
    37         14
    38         36
    39        385
    40         69
    41        710
    42         58
    43        108
    44          5
    45          2
    47          1
    49         10
    50         21
    51         44
    52         14
    53         78
    54         23
    55        635
    56         36
    57          6
    58          2
    59          7
    60          1
    61         11
    62         11
    63         41
    64          3
    65         72
    66         11
    67        435
    68         26
    69         10
    70          1
    71          0
    72          0
    73          5
    74          1
    75         82
    76         26
    77         35
    78         12
    79         14
    80          1
    81         17
    82         11
    83        999
    84         64
    85          3
    86          0
    87          2
    88          0
    89         15
    90          2
    91          5
    92          1
    93          2
    95          0
    99          0
   101          0
   102          1
   103        220
   104         14
   105         77
   106          3
   107          0
   108          1
   112          0
   117          0
   118         16
   119          1
   120          5
   121          0