##TITLE=Library Entry 47075
##JCAMP-DX=Revision 4.10 
##DATA TYPE=MASS SPECTRUM
##SAMPLE DESCRIPTION=Japan AIST/NIMC Database- Spectrum MS-NW-8214
##NAMES=HP
##CAS NAME=5-Carboxy-2,3-diphenyl-2H-tetrazolium chloride
##MOLFORM=C14H11ClN4O2
##CAS REGISTRY NO=2118-40-3
##MP= -300
##BP= -300
##MW= 302
##$RETENTION INDEX=0
##$CONDENSED SPECTRUM=NO
##NPOINTS= 187
##XYDATA=(XY..XY) 1 
    12          1
    13          1
    14          2
    15          5
    16          2
    17          5
    18          2
    26          5
    27         20
    28         44
    29         15
    30          2
    35         15
    36         79
    37          9
    38         27
    39         18
    40          6
    41         17
    42         50
    43        144
    44         13
    45          4
    49          2
    50         36
    51        168
    52         22
    53          3
    54          2
    55          6
    56          3
    57          8
    59          2
    60          2
    61          4
    62          8
    63         33
    64         62
    65         46
    66          9
    67          3
    68          2
    69          6
    70          3
    71          4
    73          4
    74          8
    75          9
    76         20
    77        999
    78         89
    79          6
    80          1
    81          2
    82          2
    83          4
    84          3
    85          3
    86          1
    87          2
    88          3
    89          5
    90         12
    91        182
    92         61
    93         17
    94          2
    95          2
    96          1
    97          3
    98          3
    99          1
   101          2
   102          6
   103          6
   104         15
   105        413
   106         32
   107          2
   109          1
   110          1
   111          2
   112          5
   113          2
   114          3
   115         12
   116          3
   117         18
   118        111
   119         16
   120          2
   121          1
   125          2
   126          5
   127          9
   128         10
   129          3
   131          2
   132          1
   133          4
   138          1
   139          9
   140          4
   141          3
   143          2
   144          1
   145         10
   146          1
   147          1
   149          1
   150          3
   151         17
   152         77
   153        117
   154         28
   155          4
   161         10
   162          2
   164          1
   165          3
   166         12
   167         34
   168         14
   169         14
   170          4
   178          1
   179          3
   180          5
   181          9
   182        220
   183         30
   184          2
   188          1
   189          1
   190          2
   191          1
   192          3
   193         12
   194         33
   195          8
   196          3
   197         10
   198          2
   199          4
   202          2
   203          2
   204          2
   207          1
   208          1
   215          2
   220          4
   221        173
   222        111
   223         20
   224          9
   225          2
   226          4
   227          4
   228         10
   229         16
   230          6
   231          1
   236          1
   237          7
   238          1
   241          3
   242          2
   243          4
   244          3
   245          6
   246          1
   255          1
   256          2
   257         14
   258         34
   259          7
   260          1
   264          1
   265          3
   266          1
   267          5
   268          1
   269          3
   270          4
   271          2
   273          3
   275          1