##TITLE=Library Entry 78097
##JCAMP-DX=Revision 4.10 
##DATA TYPE=MASS SPECTRUM
##SAMPLE DESCRIPTION=Japan AIST/NIMC Database- Spectrum MS-NW-9593
##NAMES=HP
##CAS NAME=2-Methyl-3-thiosemicarbazide
##MOLFORM=C2H7N3S
##CAS REGISTRY NO=21185-13-7
##MP= -300
##BP= -300
##MW= 105
##$RETENTION INDEX=0
##$CONDENSED SPECTRUM=NO
##NPOINTS= 46
##XYDATA=(XY..XY) 1 
    14          2
    15         16
    16          5
    17          4
    18         18
    27          8
    28        111
    29         17
    30         75
    31        114
    32         12
    33          9
    34          3
    35          1
    40          1
    41          2
    42         13
    43         29
    44         13
    45        266
    46        610
    47         13
    48          3
    53          4
    54          1
    55         13
    56         15
    57         30
    58          4
    59         27
    60        256
    61         17
    62         13
    70          1
    71         13
    72          7
    73          6
    74          3
    76          2
    88         10
    89         14
    90          2
   105        999
   106         84
   107         45
   108          3