##TITLE=Library Entry 64366
##JCAMP-DX=Revision 4.10 
##DATA TYPE=MASS SPECTRUM
##SAMPLE DESCRIPTION=Chemical Concepts
##NAMES=HP
##CAS NAME=2-Benzyloxazolo[4,5-c]quinolin-4(5H)-one
##MOLFORM=C17H12N2O2
##CAS REGISTRY NO=211874-80-5
##MP= -300
##BP= -300
##MW= 276
##$RETENTION INDEX=0
##$CONDENSED SPECTRUM=NO
##NPOINTS= 110
##XYDATA=(XY..XY) 1 
    34         11
    37         22
    38         58
    39        186
    40        160
    41         67
    43         74
    44         85
    45         27
    50        140
    51        166
    52         67
    53         17
    54          7
    55         11
    56          5
    57          9
    60          9
    61         15
    62         48
    63        128
    64        110
    65        296
    68          8
    69          7
    70          6
    71          5
    74         41
    75         78
    76        137
    77        108
    78         22
    79          5
    82          6
    83          7
    86          6
    87          9
    88         21
    89         85
    91        999
    92        141
    93         11
    95         10
    96          9
    99          5
   100          7
   102        153
   103         61
   104         27
   105         11
   109         16
   110          9
   114         13
   115         21
   116         30
   117         25
   118         20
   119         64
   120         88
   121          8
   123          9
   124          5
   125          5
   127          6
   128         34
   129         60
   130         50
   131          7
   132         14
   138        119
   142         11
   143          8
   145        198
   146         44
   147          7
   156          5
   157         31
   158         14
   165          6
   169          4
   170         16
   171         12
   172          5
   176         11
   191          4
   199         10
   200         17
   203          5
   204          6
   207          7
   213          6
   217          5
   219        121
   220         32
   221          7
   229         12
   230          7
   231         21
   232          8
   245          6
   247        149
   248         29
   257          5
   258          5
   270          5
   272          9
   275        163
   276        570
   277        110
   278         11