##TITLE=Library Entry 2142
##JCAMP-DX=Revision 4.10 
##DATA TYPE=MASS SPECTRUM
##SAMPLE DESCRIPTION=A.A.Kutin, Moscow, Russia
##NAMES=HP
##CAS NAME=4-Pentamethylenethiosemicarbazide
##MOLFORM=C6H13N3S
##CAS REGISTRY NO=21198-50-5
##MP= -300
##BP= -300
##MW= 159
##$RETENTION INDEX=0
##$CONDENSED SPECTRUM=NO
##NPOINTS= 108
##XYDATA=(XY..XY) 1 
    33         34
    34         14
    35          8
    36          9
    37         19
    38         36
    39        539
    41        999
    42        329
    43        177
    45        254
    46         34
    47         35
    48         26
    49          7
    50         32
    51         43
    52         32
    53         89
    55        407
    56        341
    57         74
    59        151
    60        138
    61         14
    62         13
    63          7
    64          7
    65         16
    67         68
    69        360
    70         47
    72        307
    74         58
    75         52
    76          9
    77          7
    79         29
    80         98
    81         41
    82         91
    83        156
    84        367
    85         32
    86         40
    88         12
    89          1
    90          0
    91          3
    92          2
    93          4
    94          6
    95          8
    96         16
    97          6
    98         11
    99          7
   100          7
   101          6
   102          4
   104          1
   105          2
   106          1
   107          1
   108          0
   109          8
   110          5
   111         20
   112          5
   113          4
   114          6
   115          4
   116         12
   117          1
   119          1
   120          0
   121          1
   122          0
   123          1
   124          0
   125          1
   126          5
   128        119
   129         19
   130          6
   131          1
   133          0
   135          0
   137          0
   138          1
   139          0
   140          3
   142         77
   143         21
   144         10
   145          1
   146          0
   149          1
   151          1
   152          0
   153          0
   154          0
   155          0
   158          1
   159         97
   160          6
   161          5
   162          0