##TITLE=Library Entry 59449
##JCAMP-DX=Revision 4.10 
##DATA TYPE=MASS SPECTRUM
##SAMPLE DESCRIPTION=V.A.Korolev, Moscow, Russia
##NAMES=HP
##CAS NAME=Benzyl 3-[(carbamothioylamino)imino]butanoate
##MOLFORM=C12H15N3O2S
##CAS REGISTRY NO=21192-72-3
##MP= -300
##BP= -300
##MW= 265
##$RETENTION INDEX=0
##$CONDENSED SPECTRUM=NO
##NPOINTS= 86
##XYDATA=(XY..XY) 1 
    33         11
    37          5
    38         22
    39        234
    40         49
    41        214
    42        108
    43        241
    44         31
    45         44
    46          5
    47         11
    48         16
    50         32
    51         86
    52         29
    53         11
    54         28
    55         25
    56         13
    57         23
    58         12
    59         49
    60        470
    61         18
    62         35
    63         48
    64         18
    65        213
    66         12
    67          5
    68          4
    69          7
    70          8
    71         71
    72          9
    73          2
    74         14
    75         29
    76         10
    77        119
    78         31
    79         63
    80          3
    82          2
    83          2
    84         13
    88          2
    89        101
    90         57
    91        999
    92         85
    93          2
    96          2
    97         10
    98         22
    99         15
   100          3
   102          8
   104          4
   105         24
   106         17
   107         20
   108         13
   114          2
   115         18
   116        452
   117         26
   118         24
   121          3
   122         12
   123         15
   130          3
   131         10
   132          6
   140          6
   156          2
   157          2
   159          6
   174          3
   200          2
   239          3
   250          5
   251          2
   265         31
   266          3