##TITLE=Library Entry 67862
##JCAMP-DX=Revision 4.10 
##DATA TYPE=MASS SPECTRUM
##SAMPLE DESCRIPTION=Philip Morris R&D
##NAMES=HP
##CAS NAME=8-Methyloctahydrocoumarin
##MOLFORM=C10H16O2
##CAS REGISTRY NO=21197-56-8
##MP= -300
##BP= -300
##MW= 168
##$RETENTION INDEX=0
##$CONDENSED SPECTRUM=NO
##NPOINTS= 44
##XYDATA=(XY..XY) 1 
    36         44
    39        258
    40         44
    41        775
    42        179
    43        460
    44         56
    45         56
    53        101
    54         22
    55        820
    56        292
    57        213
    58        168
    59         11
    67        280
    68        584
    69        269
    70        168
    71        123
    73         33
    79        101
    81        629
    82        269
    83        404
    84        134
    85         33
    88         11
    89         89
    93         56
    94         11
    95        999
    96        516
    97        146
    98         44
   107         11
   108        191
   109         22
   111        393
   112         78
   117         11
   124         78
   139         11
   168         67