##TITLE=Library Entry 62142
##JCAMP-DX=Revision 4.10 
##DATA TYPE=MASS SPECTRUM
##SAMPLE DESCRIPTION=NIST Mass Spectrometry Data Center
##NAMES=HP
##CAS NAME=p-Mentha-1,5,8-triene
##MOLFORM=C10H14
##CAS REGISTRY NO=21195-59-5
##MP= -300
##BP= -300
##MW= 134
##$RETENTION INDEX=1111
##$CONDENSED SPECTRUM=NO
##NPOINTS= 71
##XYDATA=(XY..XY) 1 
    26          3
    27         27
    29          8
    37          2
    38         11
    39        123
    40         16
    41        142
    42          6
    43         27
    50         34
    51         92
    52         33
    53         55
    54          5
    55         23
    56          2
    58         20
    59          3
    60          1
    61          5
    62         23
    63         77
    64         31
    65        151
    66         24
    67         23
    73          1
    74         12
    75         14
    76         11
    77        197
    78         77
    79        164
    80         19
    86          4
    87          6
    88          2
    89         35
    90         10
    91        999
    92        170
    93         78
    94          7
    99          1
   101          3
   102         17
   103         76
   104         53
   105        220
   106         97
   107         12
   113          1
   114          2
   115        128
   116         33
   117        166
   118         31
   119        519
   120         49
   126          1
   127          4
   128         10
   129          5
   130          1
   131          8
   132          5
   133         21
   134        886
   135         92
   136          5