##TITLE=Library Entry 43464
##JCAMP-DX=Revision 4.10 
##DATA TYPE=MASS SPECTRUM
##SAMPLE DESCRIPTION=Tox21 Consortium/NIST Mass Spectrometry Data Center, 20
12
##NAMES=HP
##CAS NAME=Chloramphenicol, 2TMS derivative
##MOLFORM=C17H28Cl2N2O5Si2
##CAS REGISTRY NO=21196-84-9
##MP= -300
##BP= -300
##MW= 466
##$RETENTION INDEX=0
##$CONDENSED SPECTRUM=NO
##NPOINTS= 301
##XYDATA=(XY..XY) 1 
    15          1
    27          1
    28          4
    29          2
    30          5
    31          1
    35          1
    36          2
    38          1
    39          1
    41          2
    42          3
    43         15
    44         12
    45         58
    46          5
    47         13
    48          2
    49          1
    50          2
    51          3
    52          1
    53          1
    54          4
    55          4
    56          2
    57          4
    58         17
    59         27
    60          4
    61         12
    62          2
    63          5
    64          1
    65          4
    66          1
    67          1
    68          1
    69          1
    70         16
    71          4
    72         22
    73        999
    74         91
    75        189
    76         24
    77         19
    78         12
    79         13
    80          2
    81          4
    82          5
    83         12
    84          3
    85         10
    86          4
    87          4
    88         12
    89         20
    90         17
    91         10
    92          5
    93         81
    94          7
    95         37
    96          3
    97          4
    98          6
    99          3
   100         20
   101         10
   102         14
   103         69
   104         17
   105         13
   106         21
   107          9
   108          4
   109          3
   110          1
   111          2
   112          2
   113          4
   114          5
   115         37
   116         53
   117         19
   118         12
   119         10
   120         12
   121          4
   122          2
   123          3
   124          2
   125          2
   126          2
   127          2
   128          6
   129         11
   130         10
   131         25
   132          9
   133         23
   134         11
   135          9
   136         31
   137          4
   138          1
   139          1
   140          5
   141          2
   142          8
   143          8
   144          6
   145          7
   146          4
   147         66
   148         18
   149         19
   150         20
   151          8
   152          8
   153          3
   154          3
   155          1
   156          7
   157          5
   158          8
   159          3
   160          4
   161          9
   162         13
   163         25
   164         10
   165          4
   166          2
   167          9
   168          2
   169          4
   170          2
   171          1
   172          4
   173          2
   174          3
   175          5
   176          9
   177          8
   178         47
   179         12
   180          6
   181          2
   182          1
   183          1
   184          7
   185          1
   186          6
   187          2
   188          2
   189          2
   190          9
   191          7
   192         11
   193          4
   194         81
   195         17
   196          9
   197          1
   198          4
   199          2
   200          3
   201          1
   202          2
   203          2
   204          4
   205          2
   206          4
   207          7
   208        371
   209         71
   210         21
   211          3
   212          3
   213          1
   214          2
   215          1
   216          1
   217          3
   218          1
   219          1
   220          2
   221          2
   222          4
   223          3
   224        135
   225        998
   226        173
   227         54
   228          9
   229          2
   230          1
   232          1
   233          1
   234          1
   235          1
   236          1
   237          2
   238          1
   239          1
   240          1
   241          2
   242         53
   243          8
   244         36
   245          5
   246          7
   247          1
   248          1
   249          1
   250          3
   251          2
   252          3
   253          1
   257          1
   258          1
   259          1
   261          1
   263          2
   264          1
   265          2
   266          1
   267          1
   273          1
   274          1
   275          1
   276          1
   279          1
   280          4
   281          1
   282          2
   283          1
   285          1
   287          2
   289          1
   292          1
   293          3
   294          1
   295          1
   297          2
   298          1
   311          1
   312          1
   313          1
   314         10
   315          3
   316          7
   317          3
   318          2
   319          1
   322          7
   323          2
   324          1
   325          1
   327          1
   331         11
   332          2
   333          7
   334          1
   335          1
   338          1
   339          5
   340          2
   341          2
   342          1
   345          1
   346          1
   347          5
   348          1
   349          3
   350          1
   351          1
   353          2
   354          1
   361         25
   362          6
   363         22
   364          4
   365          6
   366          1
   367          1
   383          6
   384          2
   385          1
   417          1
   421          1
   423          1
   451         21
   452          6
   453         16
   454          4
   455          4
   456          1