##TITLE=Library Entry 49344
##JCAMP-DX=Revision 4.10 
##DATA TYPE=MASS SPECTRUM
##SAMPLE DESCRIPTION=Exported from NIST MS Search
##NAMES=HP
##CAS NAME=2(1H)-Quinolinone, 1,4-dihydroxy-
##MOLFORM=C9H7NO3
##CAS REGISTRY NO=21201-44-5
##MP= -300
##BP= -300
##MW= 177
##$RETENTION INDEX=0
##$CONDENSED SPECTRUM=NO
##NPOINTS= 65
##XYDATA=(XY..XY) 1 
    26         20
    27         50
    28         30
    29         40
    30         20
    37         50
    38        100
    39        200
    40         20
    41         50
    42         60
    43         70
    49         20
    50        220
    51        270
    52        250
    53         50
    61         40
    62        110
    63        230
    64        200
    65        150
    66         30
    69        170
    73         20
    74         90
    75        130
    76        310
    77        370
    78        100
    79        999
    85         50
    86         20
    87         30
    88         40
    89         80
    90        100
    91        260
    92        120
    93         20
   101         30
   102         70
   103        150
   104        120
   105         90
   106         20
   107        110
   114         20
   115         20
   118         30
   119         70
   120         30
   125         30
   129         60
   130         30
   132        130
   133         30
   134         20
   135        590
   136         50
   148         30
   161         50
   177        680
   178         80
   179          7