##TITLE=Library Entry 35163
##JCAMP-DX=Revision 4.10 
##DATA TYPE=MASS SPECTRUM
##SAMPLE DESCRIPTION=L.E. Slivon, Battelle Columbus Laboratories, Columbus,
 Ohio 43201
##NAMES=HP
##CAS NAME=Pentanedioic acid, 2,4-dimethyl-, dimethyl ester
##MOLFORM=C9H16O4
##CAS REGISTRY NO=2121-68-8
##MP= -300
##BP= -300
##MW= 188
##$RETENTION INDEX=0
##$CONDENSED SPECTRUM=NO
##NPOINTS= 91
##XYDATA=(XY..XY) 1 
    40         49
    41        541
    42        113
    43        135
    44         14
    45         88
    46          6
    47          1
    48          4
    49          5
    50          8
    51         16
    52          7
    53         80
    54         18
    55        281
    56        411
    57        212
    58         18
    59        878
    60         31
    61          6
    62          6
    63          5
    64          5
    65         18
    66          5
    67         65
    68         42
    69        999
    70         83
    71         17
    72         31
    73        480
    74         32
    75          8
    76          5
    77          3
    78          1
    79          3
    81         22
    82          6
    83          7
    84          0
    85         34
    86         20
    87         77
    88        449
    89         23
    90          4
    91          1
    92          0
    94          1
    95         19
    96         39
    97        125
    98         13
    99         11
   100          8
   101        237
   102         32
   108          3
   109          1
   110          0
   111          4
   112          5
   113        453
   114        115
   115          6
   119          0
   124          4
   126          7
   127         13
   128        814
   129        435
   130         39
   131          3
   139          3
   141          3
   142          3
   146         19
   151          2
   155          4
   156         63
   157        223
   158         22
   159          1
   168          0
   171          3
   185          1
   187          0