##TITLE=Library Entry 35106
##JCAMP-DX=Revision 4.10 
##DATA TYPE=MASS SPECTRUM
##SAMPLE DESCRIPTION=Japan AIST/NIMC Database- Spectrum MS-IW-1101
##NAMES=HP
##CAS NAME=2,4-Dimethylglutaric acid
##MOLFORM=C7H12O4
##CAS REGISTRY NO=2121-67-7
##MP= -300
##BP= -300
##MW= 160
##$RETENTION INDEX=0
##$CONDENSED SPECTRUM=NO
##NPOINTS= 90
##XYDATA=(XY..XY) 1 
    15          7
    17          4
    18         15
    26          9
    27        101
    28        121
    29         90
    30         26
    31         29
    32          1
    35          1
    36          1
    37          1
    38          4
    39         73
    40         13
    41        391
    42         56
    43        120
    44         12
    45        351
    46          9
    47          5
    49          1
    50          2
    51          5
    52          2
    53         19
    54          4
    55         98
    56        807
    57        100
    58         11
    59        100
    60          6
    61          1
    63          2
    65          4
    66          1
    67         20
    68         17
    69        999
    70         70
    71         31
    72         15
    73        131
    74        584
    75         20
    76          3
    77          2
    79          2
    81          7
    82          2
    83          3
    84          1
    85          6
    86          5
    87        158
    88          8
    89          1
    91          1
    95          8
    96         15
    97         59
    98          9
    99         47
   100         71
   101          5
   108          1
   109          1
   110          1
   111          1
   112          1
   113          7
   114        681
   115         89
   116          8
   117          1
   118          7
   124          2
   127          2
   135          2
   141          1
   142         72
   143         44
   144          3
   145          1
   149          1
   160          7
   161          2