##TITLE=Library Entry 82224
##JCAMP-DX=Revision 4.10 
##DATA TYPE=MASS SPECTRUM
##SAMPLE DESCRIPTION=LAC, NIDDK, NIH, Bethesda, MD 20892
##NAMES=HP
##CAS NAME=Sprio[(2,6-di-t-butyl-2,5-cyclohexadienone)-4',5-(3-benzoylamino-
dihydro-2(5H)-furanone)]
##MOLFORM=C24H29NO4
##CAS REGISTRY NO=212135-41-6
##MP= -300
##BP= -300
##MW= 395
##$RETENTION INDEX=0
##$CONDENSED SPECTRUM=NO
##NPOINTS= 140
##XYDATA=(XY..XY) 1 
    41         45
    42          5
    43         31
    44         12
    47         13
    48          4
    52          1
    53         11
    55         20
    57         71
    63          3
    65         11
    67         19
    69          9
    70         11
    76          3
    77        237
    78         20
    79         15
    81          8
    82          3
    83          3
    88          9
    91         35
    92          1
    93         23
    95         13
    97          6
   103          7
   104         13
   105        999
   106         65
   107         17
   108          6
   109          7
   111          5
   115         11
   116          3
   117          9
   118          5
   119         17
   120          1
   121         26
   122         29
   123          7
   127          3
   128          7
   129          9
   130          5
   131          8
   132          1
   133         11
   134         12
   135         22
   136         13
   137          9
   138          5
   141          6
   143          1
   145          9
   146         14
   147         16
   148         55
   149         35
   150          6
   151          1
   153         14
   154          1
   155          2
   158          1
   159          8
   160          1
   161         26
   162          9
   163         48
   164         31
   165          6
   167          1
   173          4
   174         90
   175         27
   176          6
   177         33
   178          7
   179         10
   187          8
   188          7
   189         23
   190         26
   191         12
   192          9
   193          2
   194         16
   203         16
   204         24
   205         20
   206         12
   207          1
   215         20
   216          4
   217         38
   218         24
   219         19
   220         24
   221          8
   230         55
   231         18
   232         10
   233          7
   234         13
   235          5
   236          4
   246         15
   247          3
   259         21
   260          1
   262          1
   263         11
   264          3
   274         28
   275          6
   295          5
   296          3
   297          1
   310         16
   311         22
   312          5
   336          7
   338         15
   339         38
   340          8
   349          1
   351        246
   352         67
   353         18
   355          1
   367          1
   380          8
   395         30
   396          9