##TITLE=Library Entry 2429
##JCAMP-DX=Revision 4.10 
##DATA TYPE=MASS SPECTRUM
##SAMPLE DESCRIPTION=Chemical Concepts
##NAMES=HP
##CAS NAME=2-Undecanone 2,4-dinitrophenylhydrazone
##MOLFORM=C17H26N4O4
##CAS REGISTRY NO=2121-90-6
##MP= -300
##BP= -300
##MW= 350
##$RETENTION INDEX=2988
##$CONDENSED SPECTRUM=NO
##NPOINTS= 112
##XYDATA=(XY..XY) 1 
    36          5
    39        252
    41        999
    42        394
    43        895
    45          5
    50         24
    51         46
    52         36
    53         60
    55        427
    56         65
    57        189
    59          4
    62         32
    63         44
    64         26
    65         26
    66         17
    67         53
    68         58
    69        127
    70         33
    71         86
    74         19
    75         37
    76         34
    77         60
    78         54
    79         50
    80         20
    81         41
    82         54
    83        178
    84         14
    85          9
    88          6
    89         12
    90         21
    91         30
    92         26
    93         17
    94         16
    95         43
    97        297
    98         18
   103         42
   104         56
   105         16
   106         10
   107          8
   108          7
   109          9
   111         75
   112          7
   115         19
   116         22
   117         22
   118          9
   119          9
   120         18
   121          9
   122         22
   128          5
   129          7
   130          9
   131         11
   132         10
   133          9
   134          5
   135          7
   137          4
   143          4
   144          8
   145          9
   146          6
   147          5
   149         46
   150         19
   151         18
   152         46
   153         42
   154          5
   161         11
   162          9
   163          6
   164          7
   165         14
   166          6
   167          5
   168          5
   176          4
   177         14
   178         49
   180         32
   181         13
   183          6
   190          7
   191         13
   192          4
   196         11
   198          9
   207          9
   217          4
   219          5
   220          6
   237          5
   238         14
   315          6
   316          1
   350         17
   351          4