##TITLE=Library Entry 13658
##JCAMP-DX=Revision 4.10 
##DATA TYPE=MASS SPECTRUM
##SAMPLE DESCRIPTION=Asinex Ltd, Moscow, Russia
##NAMES=HP
##CAS NAME=1-(5-Acetyl-2,6-dimethyl-4-phenyl-pyridin-3-yl)-ethanone
##MOLFORM=C17H17NO2
##CAS REGISTRY NO=21225-61-6
##MP= -300
##BP= -300
##MW= 267
##$RETENTION INDEX=0
##$CONDENSED SPECTRUM=NO
##NPOINTS= 138
##XYDATA=(XY..XY) 1 
    39          8
    40          2
    42         20
    43        999
    44        277
    45          8
    49          0
    51         14
    52          9
    53          5
    54          6
    55         10
    56          1
    57         13
    58          1
    62          1
    63         15
    64          6
    65         11
    66          4
    67          3
    68          2
    69          6
    70          3
    71          0
    75          4
    76          5
    77         20
    78          6
    80          0
    81          0
    83          2
    84          0
    87          2
    88          1
    89          9
    90          2
    91         13
    92          4
    96          0
    98          0
    99          1
   101          3
   102          6
   103          7
   104          6
   105         20
   106          4
   111          0
   113          9
   114         13
   115         73
   116         34
   117          6
   118          1
   119          2
   122          0
   123          0
   124          0
   125         13
   126         19
   127         28
   128         23
   129         15
   130          4
   132          0
   133          0
   138          4
   139        139
   140         65
   141         19
   142          8
   150          0
   151         13
   152         45
   153         41
   154         16
   155         14
   156          4
   163          0
   164          7
   165         29
   166         21
   167         61
   168         30
   169          9
   176          1
   177          0
   178          4
   179          4
   180         49
   181         27
   182         29
   183          7
   184          0
   189          0
   190         10
   191          6
   192          1
   193         10
   194         11
   195         10
   196          9
   197          0
   204          2
   205          0
   206          4
   207         10
   208         25
   209         42
   210        685
   211        273
   212         33
   213          0
   219          0
   221          1
   222          4
   223          0
   224         51
   225         27
   226          4
   233          0
   234         99
   235         41
   236          3
   237          1
   248          0
   249          0
   250         16
   251         14
   252        470
   253         88
   254         28
   255          1
   266         12
   267        276
   268         55
   269         16