##TITLE=Library Entry 98946
##JCAMP-DX=Revision 4.10 
##DATA TYPE=MASS SPECTRUM
##SAMPLE DESCRIPTION=V.G. Zaikin, R.S.Borisov, TIPS RAS, Moscow, Russia
##NAMES=HP
##CAS NAME=Benzoic acid, 4-methyl-, 3-methyl-2-butyl ester
##MOLFORM=C13H18O2
##CAS REGISTRY NO=212261-12-6
##MP= -300
##BP= -300
##MW= 206
##$RETENTION INDEX=1530
##$CONDENSED SPECTRUM=NO
##NPOINTS= 33
##XYDATA=(XY..XY) 1 
    27          4
    29          5
    39         10
    41         14
    42          6
    43         27
    51          3
    55         24
    63          7
    64          2
    65         42
    66          2
    69          2
    70        213
    71         17
    77          2
    87         17
    89         14
    90         11
    91        153
    92         15
    93          6
   107          2
   118          3
   119        999
   120         90
   121          5
   135          5
   136         26
   137        101
   138          8
   162          2
   163          6