##TITLE=Library Entry 100414
##JCAMP-DX=Revision 4.10 
##DATA TYPE=MASS SPECTRUM
##SAMPLE DESCRIPTION=V.Zaikin,Inst.Petrochem.Synth.,RAS,Moscow
##NAMES=HP
##CAS NAME=p-Toluic acid, 2-pentyl ester
##MOLFORM=C13H18O2
##CAS REGISTRY NO=212260-73-6
##MP= -300
##BP= -300
##MW= 206
##$RETENTION INDEX=0
##$CONDENSED SPECTRUM=NO
##NPOINTS= 91
##XYDATA=(XY..XY) 1 
    25          4
    26         25
    27        137
    28         20
    29        125
    30          5
    36         20
    37         11
    38         34
    39        200
    40         36
    41        213
    42        156
    43        369
    44          2
    45          5
    50         44
    51         79
    52         32
    53         31
    54          8
    55        298
    56         17
    57          8
    58          4
    59          8
    61          8
    62         36
    63        103
    64         32
    65        325
    66         21
    67          7
    68          5
    69         27
    70        809
    71         65
    72          3
    73          3
    74          8
    75         11
    76          9
    77         38
    78          8
    79         22
    80          4
    81          6
    82          4
    83          8
    84          2
    85          5
    86         10
    87        169
    88         17
    89         88
    90         70
    91        825
    92        111
    93         88
    94          6
    95          3
    96          2
    97          3
   104          6
   105         20
   106          2
   107         19
   108          5
   109          3
   113          3
   115          3
   117         11
   118         23
   119        999
   120        261
   121         22
   131          2
   133          2
   134          4
   135         33
   136        352
   137        905
   138        104
   139         10
   145          2
   149          5
   163         25
   164          6
   205          3
   206         28
   207          5