##TITLE=Library Entry 86809
##JCAMP-DX=Revision 4.10 
##DATA TYPE=MASS SPECTRUM
##SAMPLE DESCRIPTION=CARL DJERASSI DEPT OF CHEM STANFORD UNIV STANFORD CALIF
 94305
##NAMES=HP
##CAS NAME=Aspidofractinine, 17-methoxy-
##MOLFORM=C20H26N2O
##CAS REGISTRY NO=2122-34-1
##MP= -300
##BP= -300
##MW= 310
##$RETENTION INDEX=0
##$CONDENSED SPECTRUM=NO
##NPOINTS= 138
##XYDATA=(XY..XY) 1 
    41        191
    42        101
    43         40
    44         70
    50         10
    51         30
    52         10
    53         50
    54         30
    55         60
    56         30
    57         30
    58         20
    63         20
    64         10
    65         30
    66         10
    67         50
    68         10
    69         10
    70         20
    71         10
    76         10
    77         70
    78         30
    79         30
    80         40
    81         90
    82         20
    83         10
    84         10
    85         10
    89         20
    90         10
    91         50
    92         10
    93         10
    94         10
    96         30
   101         10
   102         10
   103         20
   104         10
   105         10
   106         20
   107         40
   108        191
   109        999
   110        121
   111         10
   115         30
   116         10
   117         10
   119         10
   121         40
   122         40
   123         10
   124        393
   125         30
   126         10
   127         20
   128         10
   129         10
   130         30
   131         10
   132         10
   133         20
   136         80
   137         10
   139         10
   140         50
   141         20
   142         10
   143         10
   144         20
   145         10
   147         30
   154         50
   155        131
   156         10
   157         10
   158         20
   159         10
   160         20
   161         10
   166         10
   167         10
   168         10
   170         10
   171         10
   172         30
   173         70
   174         50
   175         10
   182         10
   183         10
   184         20
   185         20
   186         70
   187        141
   188        292
   189         40
   194         10
   196         20
   197         20
   198         20
   199         20
   200         10
   201         10
   210         30
   211         10
   212         20
   213         10
   224         20
   225         30
   226         10
   227         10
   237         10
   238         20
   239         40
   251         10
   252         10
   253         20
   254         40
   265         20
   267         30
   279         10
   280         10
   281         40
   282        585
   283        111
   295         20
   307         20
   308         70
   309         80
   310        393
   311         90
   312         10