##TITLE=Library Entry 48111
##JCAMP-DX=Revision 4.10 
##DATA TYPE=MASS SPECTRUM
##SAMPLE DESCRIPTION=V.A.Korolev, Moscow, Russia
##NAMES=HP
##CAS NAME=3-[4-(Pyridin-3-yloxy)phenoxy]pyridine
##MOLFORM=C16H12N2O2
##CAS REGISTRY NO=212387-35-4
##MP= -300
##BP= -300
##MW= 264
##$RETENTION INDEX=0
##$CONDENSED SPECTRUM=NO
##NPOINTS= 122
##XYDATA=(XY..XY) 1 
    37         12
    38         81
    39        278
    40         37
    41         68
    42         17
    43         94
    44          4
    49          7
    50        179
    51        763
    52        109
    53         26
    54         29
    55         59
    56         21
    57         80
    58          2
    61          2
    62         18
    63         94
    64         57
    65         29
    66         38
    67         23
    68          8
    69         31
    70         15
    71         39
    72          2
    74         12
    75         24
    76         44
    77         56
    78        999
    79         99
    80          8
    81         23
    82         16
    83         22
    84          9
    85         27
    86          2
    87          3
    88          6
    89         31
    90          4
    91          3
    92         11
    93          5
    94          4
    95         13
    96          7
    97         19
    98          5
    99          7
   101          4
   102         19
   103         23
   104         20
   105          5
   106          5
   107          2
   109         12
   110          4
   111          9
   112          4
   113         11
   114         13
   115         61
   116         23
   117          4
   122          1
   123          2
   125          4
   126          2
   127          3
   128         10
   129         11
   130         53
   131         17
   132         18
   133          2
   135          2
   139          1
   140         14
   141         37
   142         51
   143          7
   149          6
   152          2
   153          1
   154          2
   155          6
   156          6
   157          5
   158         51
   159          6
   168          2
   169         17
   170         23
   171          5
   179          1
   180          2
   181          1
   182          2
   186        160
   187         32
   188          2
   191          1
   197          1
   204          1
   207          4
   208          1
   209          3
   235          9
   236          1
   259          1
   263         12
   264        376
   265         68
   266          6