##TITLE=Library Entry 54432
##JCAMP-DX=Revision 4.10 
##DATA TYPE=MASS SPECTRUM
##SAMPLE DESCRIPTION=Chuck Anderson, Aldrich Chemical Co.
##NAMES=HP
##CAS NAME=Phenol, 4-methyl-2-(1-piperidinylmethyl)-
##MOLFORM=C13H19NO
##CAS REGISTRY NO=21236-74-8
##MP= -300
##BP= -300
##MW= 205
##$RETENTION INDEX=0
##$CONDENSED SPECTRUM=NO
##NPOINTS= 119
##XYDATA=(XY..XY) 1 
    15          3
    18          1
    26          5
    27         39
    28         61
    29         52
    30         44
    31          2
    32          0
    36          1
    37          0
    38          4
    39         40
    40          7
    41         57
    42         61
    43         33
    44         50
    45          2
    46          0
    50          4
    51         15
    52          9
    53         17
    54          9
    55         35
    56         61
    57         39
    58          2
    59          0
    60          1
    61          1
    62          2
    63          8
    64          3
    65         36
    66          6
    67         10
    68         10
    69         10
    70         30
    71          1
    73          1
    74          4
    75          3
    76          2
    77         89
    78         18
    79          9
    80          6
    81          3
    82         17
    83         10
    84        999
    85        188
    86         12
    88          1
    89          7
    90          2
    91        128
    92         33
    93         14
    94          3
    95          0
    96          4
    97          9
    98         95
    99          6
   102          9
   103          5
   104          3
   105          8
   106          3
   107         18
   108          2
   109          1
   115          1
   116          1
   117          1
   118          2
   119          7
   120         27
   121        143
   122         41
   123          3
   130          0
   131          1
   132          4
   133          4
   134         15
   135          4
   136          1
   144          0
   145          2
   146          4
   147          1
   148         13
   149          3
   150          3
   158          0
   159          0
   160          9
   161          1
   162         18
   163          3
   164          0
   174          0
   176          5
   177          0
   186          1
   188         13
   189          1
   190          4
   202          1
   203          2
   204         69
   205        253
   206         37
   207          3