##TITLE=Library Entry 25944
##JCAMP-DX=Revision 4.10 
##DATA TYPE=MASS SPECTRUM
##SAMPLE DESCRIPTION=R. GREENHALGH, AGRIC. CAN., PLANT RES. CENT., OTTAWA, C
AN.
##NAMES=HP
##CAS NAME=Trichothec-9-ene-3-.alpha.,4-.beta.,8-.alpha.,15-tetrol, 12,13-ep
oxy-, 3,4,15-triacetate,8-isovalerate
##MOLFORM=C26H36O10
##CAS REGISTRY NO=21259-21-2
##MP= -300
##BP= -300
##MW= 508
##$RETENTION INDEX=0
##$CONDENSED SPECTRUM=NO
##NPOINTS= 50
##XYDATA=(XY..XY) 1 
    55        204
    57        999
    69        159
    85        766
    94        237
    95        206
   105        422
   107        205
   120        249
   121        744
   122        301
   124        487
   125        324
   138        228
   145        133
   157        107
   159        101
   167        104
   173        139
   180        431
   185        336
   186        241
   201        107
   205        123
   213        100
   218         91
   227        174
   231         93
   244         43
   245         63
   261         20
   273         79
   275         56
   287         90
   288         17
   303         22
   305         17
   320         32
   321          7
   333          6
   346         13
   347         11
   363          6
   364          8
   375          1
   378          2
   389          3
   406         68
   407         16
   424          7