##TITLE=Library Entry 7945
##JCAMP-DX=Revision 4.10 
##DATA TYPE=MASS SPECTRUM
##SAMPLE DESCRIPTION=VERIFIN - Methodology B3-1982
##NAMES=HP
##CAS NAME=T-2 Mycotoxin
##MOLFORM=C24H34O9
##CAS REGISTRY NO=21259-20-1
##MP= -300
##BP= -300
##MW= 466
##$RETENTION INDEX=3135
##$CONDENSED SPECTRUM=NO
##NPOINTS= 46
##XYDATA=(XY..XY) 1 
    41        230
    43        999
    44         70
    57        600
    58         80
    60        100
    69         90
    77        110
    79        120
    82        110
    83         80
    85        500
    91        200
    93         80
    95        150
    96         90
    97         90
   105        260
   107         80
   119         90
   120        130
   121        500
   122        290
   123        120
   124        190
   125        190
   135         90
   138        140
   142         70
   145         90
   147         80
   157        100
   161         80
   173        150
   175         70
   180        120
   185         90
   189         60
   203         50
   213         50
   231         80
   262         40
   278         40
   304         40
   305         30
   364         20