##TITLE=Library Entry 32514
##JCAMP-DX=Revision 4.10 
##DATA TYPE=MASS SPECTRUM
##SAMPLE DESCRIPTION=Asinex Ltd, Moscow, Russia
##NAMES=HP
##CAS NAME=3-(1-Hydroxymethyl-cyclohexyl)-5-trifluoromethyl-4,5-dihydro-isox
azol-5-ol
##MOLFORM=C11H16F3NO3
##CAS REGISTRY NO=212615-88-8
##MP= -300
##BP= -300
##MW= 267
##$RETENTION INDEX=0
##$CONDENSED SPECTRUM=NO
##NPOINTS= 198
##XYDATA=(XY..XY) 1 
    33         10
    34         26
    35         23
    36        114
    37         13
    38         79
    39        470
    40        312
    41        915
    42        307
    43        201
    44        170
    45         67
    46         16
    47          9
    48          2
    50         60
    51        140
    52         97
    53        329
    54        285
    55        387
    56         76
    57         89
    58         19
    59         14
    60          7
    61         11
    62         12
    63         41
    64         29
    65        155
    67        999
    68        160
    69        217
    70         40
    71         17
    72          5
    73          9
    74          8
    75         14
    77        206
    78         65
    79        300
    80        144
    81        475
    82        139
    83         76
    84         22
    85         12
    86         52
    87          7
    88         16
    89         14
    90         22
    91        202
    92         63
    93        133
    94        127
    95        248
    96         71
    97         33
    98         20
    99         22
   100         18
   101         11
   102          6
   103         24
   104         21
   105         71
   106         66
   107         76
   108        178
   109         60
   110         31
   111         64
   112         28
   113          9
   114          6
   115         15
   116          6
   117         17
   118         15
   119         35
   120        102
   121         50
   122        427
   123         57
   124         41
   125         19
   126         17
   127          9
   128          9
   129          4
   130          4
   131          5
   132         10
   133         14
   134         37
   135         27
   136         19
   137         22
   138         52
   139         10
   140         16
   141          4
   142          1
   143          2
   144          4
   145          3
   146          5
   147         10
   148         87
   149        109
   150         78
   151         15
   152         15
   153         10
   154          4
   155          6
   156         29
   157          3
   158          1
   159          6
   160          4
   161          9
   162         39
   163         18
   164         41
   165          7
   166         18
   167          8
   168         43
   169         29
   170          7
   171          2
   172          2
   173          2
   174          3
   175          4
   176          7
   177         23
   178         13
   179          7
   180         28
   181          7
   182         37
   183          6
   185          7
   187         16
   188         14
   190        245
   191         42
   192         18
   193          6
   194         20
   195          8
   196          8
   197          8
   198          8
   199          1
   200          6
   201          3
   202         12
   203         12
   204         12
   205         14
   206         13
   207          9
   208         49
   209          5
   212          0
   214          2
   215          0
   217         17
   219        296
   220         94
   221         16
   222          4
   227          0
   229          5
   230         18
   231         19
   232         11
   233          5
   234          8
   235         29
   236        209
   237        685
   238         75
   239          5
   248         12
   249         17
   250          4
   256          0
   266          0
   267         15
   268          1