##TITLE=Library Entry 90682
##JCAMP-DX=Revision 4.10 
##DATA TYPE=MASS SPECTRUM
##SAMPLE DESCRIPTION=Chemical Concepts
##NAMES=HP
##CAS NAME=Fumaric acid, monomethyl ester, [(7S)10,10-dimethyl-5-thia-4-azat
ricyclo[5.2.1.0(3,7)]decane-5,5-dioxo]amide
##MOLFORM=C15H21NO5S
##CAS REGISTRY NO=212690-53-4
##MP= -300
##BP= -300
##MW= 327
##$RETENTION INDEX=0
##$CONDENSED SPECTRUM=NO
##NPOINTS= 185
##XYDATA=(XY..XY) 1 
    25          1
    26         43
    27         68
    28         31
    29         52
    30         24
    31          8
    38          2
    39         99
    40          3
    41        170
    42         21
    43         41
    44         12
    45          3
    48          4
    50          2
    51         11
    52         10
    53         71
    54         65
    55         65
    56         13
    57          7
    58          6
    59        129
    60          2
    63          3
    64          3
    65         25
    66         12
    67         68
    68         20
    69         27
    70          7
    71          3
    77         43
    78         12
    79         95
    80         26
    81         38
    82         66
    83         10
    84          4
    85        132
    86         11
    87          2
    89          1
    91         81
    92         34
    93        108
    94         43
    95         22
    96         17
    97          2
    98         13
    99          8
   100          4
   103          2
   104          2
   105         28
   106         23
   107         85
   108         91
   109         41
   110         11
   111          3
   112          2
   113        999
   114        128
   115         14
   116          2
   117          7
   118          6
   119         63
   120         20
   121         21
   122         21
   123         11
   124         11
   125          3
   126          1
   127         14
   128          3
   129          1
   130         27
   131          6
   132         12
   133         42
   134        153
   135        162
   136         52
   137          7
   138          5
   139          1
   142          2
   143          4
   144          2
   145          4
   146          8
   147          4
   148         17
   149          7
   150        109
   151         18
   152          9
   153          1
   154          3
   155          4
   156          9
   157          1
   158          2
   159          2
   160         12
   161          6
   162          9
   163          4
   164          1
   165          6
   166          2
   168          1
   169          2
   170          4
   172          3
   174          5
   175         17
   176         42
   177          7
   178          2
   179          1
   180          3
   181          1
   182          3
   184          1
   186          2
   187          2
   188         17
   189          5
   190         45
   191          7
   192          3
   194          3
   195          3
   196          1
   197          2
   198          1
   199          3
   202          3
   203         42
   204        176
   205         27
   206         10
   207          3
   208          2
   214         42
   215          6
   216         11
   217          1
   218          1
   220         26
   221          4
   222          1
   230          2
   231         65
   232         11
   233          1
   234          4
   235          4
   236          1
   248         55
   249          9
   262          3
   263         45
   264          8
   268         33
   269          4
   270          1
   280          2
   296         22
   297          3
   298          1
   312          1
   327         13
   328          3
   329          1