##TITLE=Library Entry 13613
##JCAMP-DX=Revision 4.10 
##DATA TYPE=MASS SPECTRUM
##SAMPLE DESCRIPTION=Japan AIST/NIMC Database- Spectrum MS-IW-2104
##NAMES=HP
##CAS NAME=Tris(3-(p-nitrophenyl)-2,4-pentanedionato)iron(iii)
##MOLFORM=C33H30FeN3O12
##CAS REGISTRY NO=21264-20-0
##MP= -300
##BP= -300
##MW= 716
##$RETENTION INDEX=0
##$CONDENSED SPECTRUM=NO
##NPOINTS= 227
##XYDATA=(XY..XY) 1 
    12          2
    13          1
    14         13
    15         47
    16          8
    17         48
    18         23
    26          5
    27         31
    28         97
    29         15
    30         22
    31          4
    32          2
    37          5
    38         11
    39         56
    40          6
    41         16
    42         33
    43        999
    44        197
    45         30
    46          6
    49          3
    50         39
    51         69
    52         23
    53         18
    54          6
    55         99
    56          9
    57          7
    58          2
    59          1
    60         21
    61          9
    62         34
    63         78
    64         18
    65         40
    66         10
    67          5
    68          2
    69          6
    70          2
    71          5
    73          4
    74         18
    75         25
    76         34
    77        122
    78         53
    79         24
    80          4
    81          3
    82          2
    83          3
    84          2
    85          8
    86         10
    87         14
    88         16
    89         68
    90         27
    91         46
    92         18
    93         10
    94          7
    95          3
    96          2
    97          3
    98          3
    99          2
   100          3
   101          8
   102         32
   103        108
   104         64
   105         50
   106         45
   107         14
   108          2
   109          2
   110          2
   111          2
   112          1
   113          7
   114         12
   115         65
   116         20
   117         21
   118         52
   119         23
   120         53
   121         10
   122          2
   126          1
   127          6
   128         15
   129          8
   130         80
   131        154
   132        385
   133         73
   134         13
   135          4
   136          2
   137          9
   138          1
   139          1
   140          2
   141          2
   142          4
   143          7
   144         11
   145         34
   146         25
   147         30
   148        111
   149         50
   150         14
   151          4
   152          1
   153          1
   154          1
   155          4
   156          5
   157          4
   158          6
   159         14
   160         43
   161        117
   162         38
   163         27
   164          8
   165          2
   167          1
   169          1
   170          2
   171          2
   172          7
   173         21
   174         24
   175         11
   176          9
   177          3
   178         13
   179        169
   180         16
   181          2
   182          1
   183          5
   184          1
   185          3
   186          4
   187          9
   188          8
   189         38
   190         30
   191        106
   192         14
   193          1
   197          1
   199          2
   200          3
   201          4
   202          4
   203         23
   204          9
   205         57
   206        604
   207         70
   208          8
   209          1
   215          2
   216          1
   217          6
   218          2
   219         14
   220          8
   221        439
   222         54
   223          7
   227          1
   228          2
   229          8
   230          7
   231          3
   232          1
   233          2
   245          1
   246          3
   247          1
   248          2
   258          1
   261          1
   263          1
   274          4
   276         31
   277          5
   278          3
   291          1
   293         11
   294          1
   375          3
   389          1
   403          1
   419          5
   420          2
   433          1
   434          6
   435          1
   448          1
   449          6
   450          6
   451          2
   466          8
   467          2
   478          2
   480          5
   481          5
   482          1
   494          3
   496         46
   497         13
   498          2