##TITLE=Library Entry 50087
##JCAMP-DX=Revision 4.10 
##DATA TYPE=MASS SPECTRUM
##SAMPLE DESCRIPTION=Asinex Ltd, Moscow, Russia
##NAMES=HP
##CAS NAME=3-Hydroxy-3-trifluoromethyl-2-oxa-spiro[5.5]undecan-5-one
##MOLFORM=C11H15F3O3
##CAS REGISTRY NO=212615-81-1
##MP= -300
##BP= -300
##MW= 252
##$RETENTION INDEX=0
##$CONDENSED SPECTRUM=NO
##NPOINTS= 135
##XYDATA=(XY..XY) 1 
    33         14
    34         22
    35          1
    36         22
    37          4
    39        669
    40        557
    41        860
    42        288
    43        627
    44        156
    45         71
    46          7
    47          9
    50         41
    51        121
    52         58
    53        356
    54        447
    55        845
    56        124
    57         96
    58         15
    59         13
    60          2
    61          2
    62          3
    63         27
    64         47
    65        105
    66        107
    67        956
    68        682
    69        440
    70        112
    71         93
    72          4
    73          9
    74          1
    75         11
    77        141
    78         45
    79        315
    80        216
    81        999
    82        146
    83        351
    84         60
    85         56
    87         33
    89         14
    90          1
    91         82
    92         49
    93        113
    94        169
    95        813
    96        393
    97        136
    98         32
    99         39
   101          1
   103          9
   104          5
   105         19
   106          2
   107         22
   108         13
   109         88
   110        107
   111         65
   112        137
   113         31
   115          8
   117          3
   119         22
   120          8
   122        107
   123         85
   124         10
   125          8
   127          8
   135          9
   136          4
   137         20
   139         93
   140         19
   141         64
   142          3
   147          6
   149          6
   150          1
   151          6
   153         13
   154          6
   155          1
   157          3
   163          4
   165        110
   166         30
   167          9
   170          3
   175          1
   176          2
   179         39
   180          3
   181          3
   183         69
   184          7
   188          1
   189          0
   191         35
   192         12
   193          4
   197         54
   198          1
   202          1
   205         17
   206         13
   209         97
   210         50
   211         31
   212          8
   214          1
   216         22
   217          6
   219          7
   222          9
   223         13
   232          5
   234        208
   235         22
   242          4
   252        108
   253          9