##TITLE=Library Entry 90748
##JCAMP-DX=Revision 4.10 
##DATA TYPE=MASS SPECTRUM
##SAMPLE DESCRIPTION=A.A.Kutin, Moscow, Russia
##NAMES=HP
##CAS NAME=Oxirane, 2,2-dimethyl-3-(2-phenylethynyl)-
##MOLFORM=C12H12O
##CAS REGISTRY NO=212687-71-3
##MP= -300
##BP= -300
##MW= 172
##$RETENTION INDEX=0
##$CONDENSED SPECTRUM=NO
##NPOINTS= 79
##XYDATA=(XY..XY) 1 
    33          1
    34          0
    37          8
    39        127
    41         49
    43        147
    47          0
    50         42
    51         59
    52         11
    53          3
    55          3
    57          1
    58          5
    59          1
    61         18
    62         84
    63        103
    64         33
    65          8
    67          1
    69          1
    70          1
    71          0
    74         59
    75         53
    76         22
    77         34
    78          5
    79          0
    81          0
    85         11
    86         35
    87         53
    88        125
    89         17
    91          5
    92          0
    94          0
    95          0
    98          8
    99          4
   101         11
   102         36
   103         18
   105         50
   106          1
   109          2
   110          4
   111          4
   114        999
   119          1
   120          0
   121          0
   122          0
   123          0
   127         25
   128         44
   129         79
   131          4
   132          0
   137          0
   139          3
   141          6
   143         26
   144          4
   150          0
   151          0
   152          1
   153          1
   154          1
   155          2
   156          5
   157          7
   158          0
   159          0
   172         47
   173          4
   174          0