##TITLE=Library Entry 3029
##JCAMP-DX=Revision 4.10 
##DATA TYPE=MASS SPECTRUM
##SAMPLE DESCRIPTION=Asinex Ltd, Moscow, Russia
##NAMES=HP
##CAS NAME=3-tert-Butyl-5-trifluoromethyl-4,5-dihydro-isoxazol-5-ol
##MOLFORM=C8H12F3NO2
##CAS REGISTRY NO=212615-90-2
##MP= -300
##BP= -300
##MW= 211
##$RETENTION INDEX=0
##$CONDENSED SPECTRUM=NO
##NPOINTS= 118
##XYDATA=(XY..XY) 1 
    33         11
    34         20
    36         14
    37         13
    38         41
    39        377
    40        325
    41        999
    42        463
    43        126
    44        122
    45         34
    46         13
    47          8
    48         10
    49          4
    50         33
    51         61
    52         33
    53         91
    54         38
    55        112
    56         93
    57        476
    58         48
    59         47
    60          5
    61          3
    62          4
    63         13
    64         15
    65         22
    66         23
    67         64
    68         87
    69        177
    70         13
    71          6
    72          1
    73          3
    74          1
    75          5
    76          2
    77         18
    78          5
    79         12
    80         15
    82        374
    83         45
    84         27
    85          5
    86         16
    87          3
    88          3
    89          4
    90          8
    91         14
    92          5
    93          5
    94          6
    95         13
    96         75
    97        138
    98         59
    99          8
   100          7
   101          2
   103          9
   104          1
   105          2
   106          0
   107          1
   108         11
   109          6
   110         34
   111          4
   112          3
   113          3
   114          2
   115          5
   117          1
   118          5
   119          3
   120          3
   122          0
   123          3
   124         36
   125          4
   126          6
   127          2
   128          0
   130          2
   131          3
   135          2
   138        114
   139          6
   140          2
   142        179
   143         13
   144          0
   145          0
   148          5
   149          2
   150          1
   151          0
   153          4
   163          1
   164          2
   169          0
   174          6
   178         62
   179          6
   190          0
   193          1
   194          8
   196        118
   197          7
   211          2