##TITLE=Library Entry 90819
##JCAMP-DX=Revision 4.10 
##DATA TYPE=MASS SPECTRUM
##SAMPLE DESCRIPTION=A.A.Kutin, Moscow, Russia
##NAMES=HP
##CAS NAME=Oxirane, 2-(2-phenylethynyl)-3-methoxymethyl-
##MOLFORM=C12H12O2
##CAS REGISTRY NO=212687-72-4
##MP= -300
##BP= -300
##MW= 188
##$RETENTION INDEX=0
##$CONDENSED SPECTRUM=NO
##NPOINTS= 88
##XYDATA=(XY..XY) 1 
    37          2
    38          9
    39         40
    40         17
    41          3
    42          8
    43         29
    45        495
    46         12
    47          0
    50         27
    51         49
    52         11
    53          3
    55          1
    58        122
    59          8
    60          0
    61         11
    62         55
    63         86
    64         26
    65         18
    66          0
    69          1
    73          3
    74         37
    75         41
    76         21
    77         37
    78          5
    79          0
    83          3
    84          0
    85          7
    86         24
    87         36
    88         88
    89         33
    90          2
    91          8
    92          0
    98          5
    99          3
   100          1
   101         10
   102         52
   103         14
   105         13
   106          0
   109          0
   110          2
   111          2
   113        121
   114        999
   115        244
   116         22
   117          9
   118          1
   125          0
   126          9
   127         39
   128         75
   129         88
   130         22
   131          9
   132          0
   139          2
   141          2
   142          3
   143          4
   144          8
   145         84
   146         10
   147          0
   155          4
   156         16
   157         28
   158         10
   159         30
   160          5
   171          1
   172          2
   173         10
   174          1
   187          7
   188         37
   189          4