##TITLE=Library Entry 16961
##JCAMP-DX=Revision 4.10 
##DATA TYPE=MASS SPECTRUM
##SAMPLE DESCRIPTION=Div. of Experiment Therapeutics WRAIR, WRAMC, Washingto
n DC 20307
##NAMES=HP
##CAS NAME=Ethyl 8-p-[[[diethylsulfamyl]phenethyl]amino]-3-methylpyrido[2,3-
b]pyrazine-6-carbamate
##MOLFORM=C23H30N6O4S
##CAS REGISTRY NO=21271-98-7
##MP= -300
##BP= -300
##MW= 486
##$RETENTION INDEX=0
##$CONDENSED SPECTRUM=NO
##NPOINTS= 90
##XYDATA=(XY..XY) 1 
    41         24
    42         89
    43        167
    44        116
    45        999
    46        437
    47         62
    48          3
    49         28
    51         10
    52          6
    54          8
    56         14
    57          2
    58         11
    62          5
    63          2
    64          8
    65          7
    66         11
    67          4
    70         24
    71          1
    72         11
    77         12
    78          8
    79          4
    84         17
    86         10
    88         10
    89         11
    90         36
    91         25
    92          7
    93          4
   103         13
   104          9
   105          5
   106          6
   107          3
   116          3
   117         25
   118         11
   119          5
   120          1
   130          2
   131          5
   132          7
   133          5
   134         14
   138          3
   139          5
   144          6
   145          2
   146          5
   147          2
   158          5
   159         11
   160          8
   161          4
   167          3
   175          1
   185          1
   186          9
   187          6
   188         32
   189          4
   200          9
   201          2
   202          1
   212          6
   213          2
   214        293
   215         35
   216          1
   236          2
   260        158
   261         23
   267          1
   279         53
   280          9
   305        152
   306         28
   307          2
   351         76
   352         15
   369          2
   415          5
   441         10
   486          6