##TITLE=Library Entry 16943
##JCAMP-DX=Revision 4.10 
##DATA TYPE=MASS SPECTRUM
##SAMPLE DESCRIPTION=Div. of Experiment Therapeutics WRAIR, WRAMC, Washingto
n DC 20307
##NAMES=HP
##CAS NAME=Ethyl 3-methyl-8-[p-sulfamylbenzylamino]pyrido[2,3-b]pyrazin-6-ca
rbamate
##MOLFORM=C18H20N6O4S
##CAS REGISTRY NO=21271-88-5
##MP= -300
##BP= -300
##MW= 416
##$RETENTION INDEX=0
##$CONDENSED SPECTRUM=NO
##NPOINTS= 79
##XYDATA=(XY..XY) 1 
    41        146
    42        415
    43        389
    44        878
    45        999
    46        416
    47        107
    48        106
    51          4
    52         44
    53         29
    54         14
    55         12
    56         26
    57         14
    58         68
    59         23
    60         47
    63          9
    64        179
    65         35
    66         44
    67        101
    68         11
    69         12
    70         12
    71         13
    72         65
    73        545
    74        106
    75         14
    76          9
    77         23
    79         38
    80         25
    81         11
    85         68
    86        419
    87         43
    88         11
    89         18
    90         10
    91         50
    93         10
    94         11
   100         12
   101         33
   102         41
   103         15
   106         25
   107         50
   108         25
   115         14
   117         20
   118         25
   119         30
   120          9
   131         28
   132         13
   133         21
   134         11
   135        142
   136         19
   142          9
   145         12
   146         15
   147         62
   148        115
   149         42
   159         56
   160         58
   161         12
   162         25
   174         68
   175        551
   176         75
   201         10
   202         33
   204         10