##TITLE=Library Entry 16958
##JCAMP-DX=Revision 4.10 
##DATA TYPE=MASS SPECTRUM
##SAMPLE DESCRIPTION=Div. of Experiment Therapeutics WRAIR, WRAMC, Washingto
n DC 20307
##NAMES=HP
##CAS NAME=Ehtyl 8-[p-chloroanilino]-2,3-diphenylpyido[2,3-b]pyrazine-6-carb
amate
##MOLFORM=C28H22ClN5O2
##CAS REGISTRY NO=21271-82-9
##MP= -300
##BP= -300
##MW= 495
##$RETENTION INDEX=0
##$CONDENSED SPECTRUM=NO
##NPOINTS= 80
##XYDATA=(XY..XY) 1 
    41         50
    42         82
    43        222
    44         79
    45        999
    46        431
    47         22
    49         24
    50         50
    51         75
    52         36
    56         10
    61         23
    62         60
    63        126
    64         57
    65         10
    70         13
    73         10
    75         77
    76         50
    77        152
    89         78
    90        159
    91         57
    98         10
    99         23
   102          9
   103         58
   104         99
   111         81
   113         33
   114         20
   115          9
   125        162
   126         54
   127         87
   128         39
   142         10
   152         25
   153        309
   154         45
   155        126
   165         53
   176         28
   177         26
   178         37
   180        126
   181         23
   185         49
   189         49
   190         26
   191          9
   193         33
   194         25
   203         22
   206         26
   207         36
   214         58
   215         21
   216         25
   217          9
   225         31
   243         10
   338         39
   345          9
   369         21
   422        155
   423        170
   424         86
   425         57
   448        143
   449        250
   450        122
   451         97
   452          9
   453         24
   495        142
   496         40
   497         47