##TITLE=Library Entry 47370
##JCAMP-DX=Revision 4.10 
##DATA TYPE=MASS SPECTRUM
##SAMPLE DESCRIPTION=Div. of Experiment Therapeutics WRAIR, WRAMC, Washingto
n DC 20307
##NAMES=HP
##CAS NAME=1-[Phenylsulfonyl]-1-nitropropane
##MOLFORM=C9H11NO4S
##CAS REGISTRY NO=21272-84-4
##MP= -300
##BP= -300
##MW= 229
##$RETENTION INDEX=0
##$CONDENSED SPECTRUM=NO
##NPOINTS= 66
##XYDATA=(XY..XY) 1 
    41         87
    42         31
    43          7
    44         26
    45         14
    46          5
    47          4
    48          3
    49         28
    50         50
    51        222
    52         13
    53         11
    54          8
    55          5
    56          3
    57         26
    58          3
    62          2
    63          7
    64          3
    65         32
    66         10
    67          1
    69          5
    70          4
    71         45
    72         23
    73          3
    74         10
    75          8
    76         14
    77        999
    78         84
    79          7
    81          6
    82          2
    83          2
    84         21
    86         12
    88          5
    91         20
    92          3
    93          8
    94         68
    95          6
    96          0
    97         31
    98          4
    99          0
   108          3
   109          4
   115          0
   117          2
   125         65
   126          5
   127          3
   141        433
   142         31
   143         22
   152          3
   158         15
   159         16
   166          3
   167          0
   229          3