##TITLE=Library Entry 74219
##JCAMP-DX=Revision 4.10 
##DATA TYPE=MASS SPECTRUM
##SAMPLE DESCRIPTION=Exported from NIST MS Search
##NAMES=HP
##CAS NAME=Butanoic acid, 4-phenoxy-, methyl ester
##MOLFORM=C11H14O3
##CAS REGISTRY NO=21273-27-8
##MP= -300
##BP= -300
##MW= 194
##$RETENTION INDEX=0
##$CONDENSED SPECTRUM=NO
##NPOINTS= 32
##XYDATA=(XY..XY) 1 
    41        192
    42         30
    43         25
    45         15
    50         25
    51         98
    56         25
    59        562
    60         25
    63         25
    64         15
    65        126
    66         53
    69        215
    70         17
    75         25
    77        205
    78         38
    79         30
    81         12
    91         25
    93         17
    94        417
    95         38
   101        999
   102         60
   106         48
   119         10
   121         12
   163        113
   164         12
   194         38