##TITLE=Library Entry 31822
##JCAMP-DX=Revision 4.10 
##DATA TYPE=MASS SPECTRUM
##SAMPLE DESCRIPTION=Div. of Experiment Therapeutics WRAIR, WRAMC, Washingto
n DC 20307
##NAMES=HP
##CAS NAME=6-Amino-2,3-diphenyl-8-(p-sulfamylphenethylamino)pyrido[2,3-b]qui
noxaline
##MOLFORM=C27H24N6O2S
##CAS REGISTRY NO=21271-96-5
##MP= -300
##BP= -300
##MW= 496
##$RETENTION INDEX=0
##$CONDENSED SPECTRUM=NO
##NPOINTS= 110
##XYDATA=(XY..XY) 1 
    41        178
    42         56
    43         86
    44         45
    45         29
    48        400
    49         45
    50        137
    51        211
    52        114
    53        120
    54         39
    55         11
    58         21
    59        100
    60         33
    62         40
    63        119
    64        999
    65        130
    66         92
    67        177
    68         11
    69         28
    74         48
    75         91
    76        145
    77        364
    78         63
    79        125
    80        157
    81         11
    84         30
    86         30
    87         11
    88         26
    89        127
    90        143
    91        232
    92         50
   101         24
   102        191
   103        415
   104        215
   105         44
   106         47
   107        201
   108         42
   109         10
   115         34
   116        131
   117         73
   118         69
   119         99
   120         88
   121         34
   128         20
   129         10
   132         26
   133         35
   134         44
   135         45
   136         14
   140         22
   142         26
   143         11
   148         13
   149         28
   151         26
   152         26
   155         46
   156        189
   157         72
   163         11
   165         48
   166         33
   167         93
   168         10
   170         28
   171         26
   176         38
   177         25
   178         40
   180         28
   182         49
   183        174
   184         33
   190         26
   193         24
   194         26
   196         26
   200         10
   201         55
   202         29
   203         25
   204         10
   209         50
   210         24
   219         14
   268         27
   295         33
   296         26
   312        643
   313        578
   314        123
   315         10
   326        289
   327         63
   416         23
   417         48