##TITLE=Library Entry 1655
##JCAMP-DX=Revision 4.10 
##DATA TYPE=MASS SPECTRUM
##SAMPLE DESCRIPTION=A.A.Kutin, Moscow, Russia
##NAMES=HP
##CAS NAME=Pyrrole, 2-(1-naphthyliminomethyl)-
##MOLFORM=C15H12N2
##CAS REGISTRY NO=212759-16-5
##MP= -300
##BP= -300
##MW= 220
##$RETENTION INDEX=0
##$CONDENSED SPECTRUM=NO
##NPOINTS= 97
##XYDATA=(XY..XY) 1 
    33          4
    37        164
    38        623
    39        999
    40         87
    41        315
    42         24
    43          8
    44          8
    45          2
    48          0
    49         23
    50        386
    51        517
    52        435
    53         58
    54         22
    55          4
    56          1
    57         14
    58         11
    60          2
    62        161
    63        262
    64        166
    65        222
    66        126
    67         77
    68          2
    69          1
    70          1
    74        155
    75        133
    76         98
    77        144
    78        186
    79         50
    80          7
    82          3
    83          2
    84          5
    85         11
    86         27
    87         78
    88         39
    89         61
    90         19
    92        441
    93         71
    94          3
    95          0
    96         16
    97          9
    98         41
   100         47
   101         85
   102         38
   103          7
   105        108
   106          5
   109         18
   110         35
   111         10
   113         51
   114         28
   115        198
   116         17
   117          4
   121          2
   122          2
   125         12
   126        154
   127        215
   128        149
   129          5
   138          2
   139         11
   140         26
   141          3
   151          1
   152         15
   153         12
   154          7
   163          7
   164         10
   165         17
   166          6
   167          3
   179          3
   190          9
   191         16
   192          9
   193          0
   218         28
   219        200
   220        115
   221         14