##TITLE=Library Entry 56993
##JCAMP-DX=Revision 4.10 
##DATA TYPE=MASS SPECTRUM
##SAMPLE DESCRIPTION=LAC, NIDDK, NIH, Bethesda, MD 20892
##NAMES=HP
##CAS NAME=6-Amino-2,3-bis[p-chlorophenyl]-8-[[4-[diethylamino]-1-methylbuty
l]amino]pyrido[2,3-b]pyrazine
##MOLFORM=C28H32Cl2N6
##CAS REGISTRY NO=21271-77-2
##MP= -300
##BP= -300
##MW= 522
##$RETENTION INDEX=0
##$CONDENSED SPECTRUM=NO
##NPOINTS= 103
##XYDATA=(XY..XY) 1 
    41         54
    42         42
    43         30
    44         42
    46         15
    53          7
    55         14
    56         27
    57         13
    58        101
    67         21
    68          3
    69         25
    70         20
    71         25
    72         26
    73         19
    74         11
    79         14
    80          3
    84         26
    86        999
    87         46
    89          8
    91          3
    98         16
    99         38
   105         13
   106          7
   107          8
   111          4
   112         93
   113         20
   114         25
   126         22
   132          3
   133          3
   138         14
   139         13
   140         20
   142         15
   148          4
   149          9
   162          4
   168          5
   169          4
   176          3
   186          4
   187         21
   197         14
   198         12
   204          3
   213         12
   224          3
   237          8
   238          3
   246         13
   248          3
   254          8
   366         16
   367         22
   368         14
   369          3
   380         20
   381         23
   382         59
   383         31
   384         41
   385         16
   394         29
   395          7
   396         15
   406         15
   407         23
   408        161
   409         72
   410        111
   411         47
   412         32
   413          4
   420         16
   421         15
   422         34
   423         15
   424         16
   434         13
   436         16
   447         16
   448         58
   449        236
   450         92
   451        157
   452         16
   453         24
   454         17
   493         29
   494          7
   495         19
   522        130
   523         38
   524         83
   525         12
   526         14