##TITLE=Library Entry 97145
##JCAMP-DX=Revision 4.10 
##DATA TYPE=MASS SPECTRUM
##SAMPLE DESCRIPTION=Chemical Concepts
##NAMES=HP
##CAS NAME=Benzenebutanoic acid, TMS derivative
##MOLFORM=C13H20O2Si
##CAS REGISTRY NO=21273-16-5
##MP= -300
##BP= -300
##MW= 236
##$RETENTION INDEX=1510
##$CONDENSED SPECTRUM=NO
##NPOINTS= 160
##XYDATA=(XY..XY) 1 
    25          1
    26          2
    27         21
    28          4
    29          6
    30          0
    31          2
    32          2
    33          0
    38          1
    39         31
    40          2
    41         23
    42         13
    43         49
    44         16
    45         80
    46          7
    47         48
    48          5
    49          3
    50          4
    51         22
    52          7
    53          3
    54          1
    55         52
    56          3
    57          3
    58         15
    59         13
    60          8
    61         49
    62          8
    63         14
    64          4
    65         62
    66          4
    67          0
    68          1
    69          0
    70          2
    71          3
    72         49
    73        329
    74         54
    75        771
    76         62
    77         57
    78         18
    79         10
    80          0
    82          0
    83          0
    85          1
    86          8
    87          3
    88          7
    89         19
    90         19
    91        213
    92         19
    93          2
    94          0
    95          1
    97          1
    98          1
    99          0
   100          0
   101         10
   102          5
   103         20
   104        239
   105         46
   106          3
   107          1
   108          1
   109          0
   110          1
   111          2
   112          0
   113          1
   114          1
   115         24
   116         71
   117        999
   118        108
   119         39
   120          1
   121          0
   122          0
   123          0
   124          0
   125          0
   126          0
   127          3
   128          3
   129         35
   130          7
   131          2
   132        185
   133         18
   134          7
   135          3
   136          0
   138          0
   140          0
   141          0
   142          0
   143          2
   144          1
   145          9
   146        197
   147         31
   148          4
   149          0
   150          0
   153          0
   155          0
   159          0
   160          0
   171          0
   173          1
   175          1
   177          0
   178          0
   179          0
   183          0
   185          1
   186          3
   187          4
   188          0
   189          0
   190          0
   191          1
   192          1
   193          0
   196          0
   199          0
   201          3
   202          0
   203         49
   204         10
   205          3
   210          0
   215          0
   217          0
   218          1
   219          1
   220          1
   221        360
   222         66
   223         21
   224          1
   225          0
   233          0
   235          1
   236        131
   237         26
   238          6