##TITLE=Library Entry 42813
##JCAMP-DX=Revision 4.10 
##DATA TYPE=MASS SPECTRUM
##SAMPLE DESCRIPTION=CARL DJERASSI DEPT OF CHEM STANFORD UNIV STANFORD CALIF
 94305
##NAMES=HP
##CAS NAME=3-Phenoxypropionic acid, TMS derivative
##MOLFORM=C12H18O3Si
##CAS REGISTRY NO=21273-09-6
##MP= -300
##BP= -300
##MW= 238
##$RETENTION INDEX=0
##$CONDENSED SPECTRUM=NO
##NPOINTS= 87
##XYDATA=(XY..XY) 1 
    40         10
    41         10
    42         10
    43         60
    44         30
    45         90
    46         20
    47         70
    49         10
    50         20
    51         70
    52         10
    53         10
    55        230
    56         10
    57         20
    58         40
    59         40
    60         20
    61         50
    62         10
    63         30
    64         10
    65        100
    66         40
    71         10
    72         30
    73        999
    74         80
    75        410
    76         40
    77        290
    78         40
    79         30
    85         10
    86         10
    91         70
    92         10
    93         10
    94        150
    95         20
   101         10
   103        650
   104         60
   105         30
   106         10
   107         80
   108         20
   111         50
   112         20
   115         10
   116         10
   117         30
   119         10
   120         20
   121         10
   129        100
   130         10
   131         20
   133         10
   135         50
   136         10
   137         20
   143         10
   145        330
   146         50
   147        240
   148         50
   149         30
   150         10
   151        950
   152        140
   153         50
   154         10
   163         10
   165         30
   166        250
   167         40
   168         10
   177         10
   179         10
   181         10
   223        120
   224         10
   238        290
   239         50
   240         30