##TITLE=Library Entry 98767
##JCAMP-DX=Revision 4.10 
##DATA TYPE=MASS SPECTRUM
##SAMPLE DESCRIPTION=Mark Whitten, Florida Museum of Natural History, U. of
 Florida
##NAMES=HP
##CAS NAME=Cubenol
##MOLFORM=C15H26O
##CAS REGISTRY NO=21284-22-0
##MP= -300
##BP= -300
##MW= 222
##$RETENTION INDEX=1642
##$CONDENSED SPECTRUM=NO
##NPOINTS= 82
##XYDATA=(XY..XY) 1 
    41        937
    43        919
    44         36
    45         54
    51         66
    53        264
    54         46
    55        528
    56         68
    57        120
    59        614
    60         27
    65        136
    66         51
    67        400
    68        137
    69        323
    70         60
    71        152
    72         46
    77        273
    78         68
    79        420
    80        121
    81        485
    82        260
    83        106
    84         47
    85         35
    91        392
    92        152
    93        634
    94        184
    95        406
    96         72
    97         68
   103         24
   105        586
   106        100
   107        404
   108        147
   109        236
   110        113
   111         91
   115         33
   117         48
   118         50
   119        999
   120        212
   121        288
   122        153
   123        197
   124         30
   128         17
   131         37
   133        171
   134         88
   135        181
   136         57
   137         63
   139         20
   145         29
   147        121
   148         70
   149         92
   150         18
   151         20
   153         28
   159         32
   161        909
   162        172
   163         70
   164         36
   175         27
   176         16
   179        167
   180         27
   189        184
   190         29
   204        406
   205         85
   207         32