##TITLE=Library Entry 15342
##JCAMP-DX=Revision 4.10 
##DATA TYPE=MASS SPECTRUM
##SAMPLE DESCRIPTION=Div. of Experiment Therapeutics WRAIR, WRAMC, Washingto
n DC 20307
##NAMES=HP
##CAS NAME=8-Bromoadenosine-N(1)-oxide
##MOLFORM=C10H12BrN5O5
##CAS REGISTRY NO=212847-53-5
##MP= -300
##BP= -300
##MW= 361
##$RETENTION INDEX=0
##$CONDENSED SPECTRUM=NO
##NPOINTS= 131
##XYDATA=(XY..XY) 1 
    42        305
    43        440
    44        999
    45        220
    46         94
    47         53
    53        144
    54         81
    55        147
    57        221
    58         33
    59         51
    60         77
    61         31
    63         16
    64         16
    65         33
    66         36
    67         17
    68         67
    69         69
    70         10
    71         76
    73         98
    74         24
    75          6
    76          5
    77         10
    78         24
    79        104
    80        217
    81        267
    86         31
    88         20
    89          5
    90          3
    91         10
    92         13
    93         18
    94          4
    95         38
    96         48
    97         32
    98         17
   100         37
   101         19
   102          4
   103          8
   104          2
   105         11
   106         30
   107         56
   108         26
   109         10
   110          1
   111         12
   112         15
   114         70
   115         11
   116          8
   117          3
   119         14
   120         10
   121         17
   122         17
   123          5
   124         16
   125          5
   126          5
   128         11
   130         17
   131          5
   132          1
   133         13
   135         27
   136         10
   138         25
   139          3
   141          1
   143          7
   144          8
   145          3
   146         19
   147          5
   148          6
   149         10
   150          3
   151         65
   152          5
   153          7
   158         10
   159          7
   160          3
   161          7
   162          2
   163          4
   164         10
   165          1
   166          4
   167          1
   171          5
   173          1
   174          1
   176          5
   177          2
   178          4
   179          8
   180          1
   184          5
   185          1
   186         43
   188         37
   192          9
   196          3
   197          1
   198          4
   199          1
   200          1
   201          1
   202          1
   206          1
   213        136
   215        147
   216         14
   222          1
   223          1
   229          4
   242          6
   244          5
   256         10
   258          9