##TITLE=Library Entry 86489
##JCAMP-DX=Revision 4.10 
##DATA TYPE=MASS SPECTRUM
##SAMPLE DESCRIPTION=Japan AIST/NIMC Database- Spectrum MS-NW-7156
##NAMES=HP
##CAS NAME=(+)-Camphor-10-sulfonyl chloride
##MOLFORM=C10H15ClO3S
##CAS REGISTRY NO=21286-54-4
##MP= -300
##BP= -300
##MW= 250
##$RETENTION INDEX=0
##$CONDENSED SPECTRUM=NO
##NPOINTS= 144
##XYDATA=(XY..XY) 1 
    15          6
    17          1
    18          4
    26          8
    27         84
    28         19
    29         60
    30          2
    31          5
    32          3
    34          1
    35          2
    36         13
    37          2
    38          9
    39        145
    40         43
    41        281
    42         21
    43        106
    44          5
    45          5
    46          2
    48         23
    49          2
    50         12
    51         37
    52         29
    53        131
    54         37
    55        158
    56          9
    57         37
    58          6
    59          8
    60          4
    61          3
    62          3
    63         12
    64         64
    65         49
    66         20
    67        284
    68         50
    69        141
    70         10
    71          5
    72          1
    73          1
    74          3
    75          2
    76          2
    77         92
    78         21
    79        167
    80         36
    81        515
    82         54
    83         26
    84          7
    85         25
    86          2
    87          1
    89          3
    90          3
    91        104
    92         18
    93        245
    94         42
    95        112
    96         14
    97         23
    98          3
    99          4
   100          1
   102          1
   103          5
   104          3
   105         26
   106         46
   107        264
   108        157
   109        999
   110         91
   111          6
   112          1
   115          6
   116          2
   117          9
   118          2
   119          6
   120          2
   121         21
   122         25
   123        398
   124         44
   125          4
   126          1
   127          2
   128          3
   129          2
   130          2
   131          3
   132          4
   133         75
   134          9
   135         44
   136          5
   137          8
   138          2
   139          1
   140          1
   141          1
   143          1
   145          1
   146          1
   147          1
   148          5
   149          4
   150         87
   151        695
   152        181
   153         65
   154          7
   155          1
   161          4
   162          1
   163          5
   167          2
   168         51
   169          8
   175         11
   176          2
   177          1
   186          1
   188         12
   189         12
   190          3
   191          1
   200          1
   214          2
   232         23
   233          4
   234          1