##TITLE=Library Entry 26427
##JCAMP-DX=Revision 4.10 
##DATA TYPE=MASS SPECTRUM
##SAMPLE DESCRIPTION=Chemical Concepts
##NAMES=HP
##CAS NAME=3-Nitrophthalic acid, bis-(2-ethyl-hexyl ester
##MOLFORM=C24H37NO6
##CAS REGISTRY NO=212896-24-7
##MP= -300
##BP= -300
##MW= 435
##$RETENTION INDEX=0
##$CONDENSED SPECTRUM=NO
##NPOINTS= 156
##XYDATA=(XY..XY) 1 
    26          8
    27        147
    28         33
    29        379
    30         17
    31          8
    37          3
    38          5
    39        100
    40         18
    41        572
    42        100
    43        652
    44         27
    45          7
    50         13
    51         16
    52          7
    53         40
    54         29
    55        411
    56        212
    57        999
    58         48
    59          6
    60          2
    62          5
    63         20
    64         13
    65         43
    66          6
    67         32
    68         28
    69        210
    70        625
    71        565
    72         37
    73          5
    74         18
    75        120
    76         40
    77         18
    78          6
    79          9
    80          3
    81         19
    82         39
    83        233
    84        116
    85         18
    87          2
    89         11
    90          7
    91         85
    92         38
    93          9
    94          2
    95          8
    96          3
    97         29
    98          8
    99          9
   101          2
   102          2
   103         59
   104         57
   105         12
   106          2
   107          7
   108          5
   109         15
   110         16
   111         37
   112        671
   113        426
   114         38
   115          4
   117          5
   118          2
   119         10
   120         14
   121         20
   122          5
   123          2
   127         13
   128          2
   129          5
   132          4
   133          6
   134          4
   135          4
   136          3
   137          4
   139          4
   145          3
   146          1
   147         13
   148         55
   149        134
   150         24
   151          6
   155         46
   156         12
   157         12
   158          1
   161          5
   162          3
   163          5
   164         16
   165          8
   166          1
   167         37
   168          4
   172          8
   173         18
   174          2
   175          2
   177         62
   178         36
   179         35
   180          6
   181         10
   182          2
   187          2
   194        366
   195        210
   196         24
   197          4
   199          2
   207          1
   208          4
   212        146
   213         17
   214          2
   225          6
   226          1
   266          2
   279         15
   280          3
   289          1
   290          1
   293          4
   294          1
   306         11
   307         13
   308          2
   324         38
   325          7
   326          1
   378          1
   405          3
   406          2
   418          4
   419          1
   435          4
   436          1