##TITLE=Library Entry 653
##JCAMP-DX=Revision 4.10 
##DATA TYPE=MASS SPECTRUM
##SAMPLE DESCRIPTION=Japan AIST/NIMC Database- Spectrum MS-IW- 855
##NAMES=HP
##CAS NAME=2-Butene-1,4-diol, 2,3-dibromo-, (E)-
##MOLFORM=C4H6Br2O2
##CAS REGISTRY NO=21285-46-1
##MP= -300
##BP= -300
##MW= 244
##$RETENTION INDEX=0
##$CONDENSED SPECTRUM=NO
##NPOINTS= 153
##XYDATA=(XY..XY) 1 
    12          1
    13          1
    14          8
    15         22
    16          1
    18          1
    24          2
    25         14
    26         96
    27        295
    28         64
    29        999
    30         41
    31        630
    32          9
    33          1
    34          2
    36          6
    37         55
    38        163
    39        864
    40        107
    41         83
    42         56
    43         72
    44          6
    45         10
    47         22
    48          1
    49          9
    50         46
    51         55
    52         16
    53         71
    54         23
    55        314
    56         42
    57        944
    58         43
    59          3
    60          1
    61          1
    65          2
    66         22
    67         46
    68        239
    69         43
    70          2
    71          8
    73          1
    74          2
    79         17
    80         42
    81         25
    82         43
    83         16
    84         17
    85        961
    86        401
    87         20
    88          2
    91          3
    92          2
    93         37
    94          3
    95         33
    96          1
    97          1
   103          3
   104         23
   105        100
   106         29
   107        133
   108          6
   109         54
   110          1
   111         16
   115          1
   116          9
   117        116
   118         67
   119        716
   120         78
   121        607
   122         26
   123         19
   124          6
   125          7
   129          2
   130          2
   131         12
   132          2
   133         43
   134          4
   135         90
   136          6
   137         59
   138          2
   139          4
   145          1
   146         15
   147        532
   148         40
   149        520
   150         23
   151          2
   161          1
   162          1
   163          5
   164          6
   165         94
   166          9
   167         90
   168          4
   169          1
   171          4
   173          7
   175          4
   182          4
   183         11
   184          9
   185         27
   186          5
   187         19
   189          4
   195          1
   196          4
   197         12
   198         14
   199         27
   200         17
   201         20
   202          7
   203          5
   212          1
   213         11
   215         20
   216          1
   217          9
   225          1
   226         28
   227          4
   228         56
   229          5
   230         26
   231          2
   244        383
   245         17
   246        749
   247         33
   248        367
   249         15
   250          2