##TITLE=Library Entry 17147
##JCAMP-DX=Revision 4.10 
##DATA TYPE=MASS SPECTRUM
##SAMPLE DESCRIPTION=James Little,Eastman Chem.Co.,Kingsport,TN
##NAMES=HP
##CAS NAME=Methyl 2-hydroxyethyl sulfoxide
##MOLFORM=C3H8O2S
##CAS REGISTRY NO=21281-74-3
##MP= -300
##BP= -300
##MW= 108
##$RETENTION INDEX=0
##$CONDENSED SPECTRUM=NO
##NPOINTS= 27
##XYDATA=(XY..XY) 1 
    13         58
    14        156
    15        404
    19        119
    26        118
    27        488
    28        128
    29        654
    31        185
    33         52
    43        338
    44        195
    45        999
    46        245
    47        374
    48        133
    61        154
    62         53
    63        313
    64        675
    65         60
    66         43
    77         13
    78         20
    79         16
   108         91
   109         13