##TITLE=Library Entry 27043
##JCAMP-DX=Revision 4.10 
##DATA TYPE=MASS SPECTRUM
##SAMPLE DESCRIPTION=R.K. BANSAL, DEP. CHEM., INDIAN INST. TECH., NEW DELHI,
 INDIA
##NAMES=HP
##CAS NAME=2-Isopropyl-2-phenylglycidic acid, tert-butyl ester
##MOLFORM=C16H22O3
##CAS REGISTRY NO=21297-92-7
##MP= -300
##BP= -300
##MW= 262
##$RETENTION INDEX=0
##$CONDENSED SPECTRUM=NO
##NPOINTS= 16
##XYDATA=(XY..XY) 1 
    57        999
    77        271
    91        434
   105        358
   116        326
   130        195
   135        543
   145        347
   147        358
   160        866
   161        298
   163        959
   187        307
   205        706
   206        886
   262          5