##TITLE=Library Entry 32793
##JCAMP-DX=Revision 4.10 
##DATA TYPE=MASS SPECTRUM
##SAMPLE DESCRIPTION=J.VOTH UNIV. OF CALIFORNIA, DAVIS, CALIFORNIA, 95616, U
SA
##NAMES=HP
##CAS NAME=5,7-Dodecadiene, (E,Z)-
##MOLFORM=C12H22
##CAS REGISTRY NO=21293-04-9
##MP= -300
##BP= -300
##MW= 166
##$RETENTION INDEX=0
##$CONDENSED SPECTRUM=NO
##NPOINTS= 106
##XYDATA=(XY..XY) 1 
     2          4
    12          0
    13          0
    14          2
    15         24
    16          0
    17          0
    18          2
    19          0
    25          0
    26         11
    27        239
    28         30
    29        130
    30          4
    31          3
    32          0
    37          1
    38          5
    39        135
    40         20
    41        319
    42         20
    43         71
    44          3
    45          3
    50         16
    51         51
    52         35
    53        113
    54        316
    55        226
    56         25
    57         26
    58          5
    59          0
    61          0
    62          4
    63         15
    64          4
    65         65
    66         16
    67        999
    68        197
    69         90
    70          8
    71          2
    73          0
    74          1
    75          2
    76          1
    77         97
    78         28
    79        162
    80         65
    81        503
    82        183
    83         28
    84          2
    85          0
    86          0
    87          0
    88          2
    89          2
    90          0
    91         40
    92          5
    93         21
    94          9
    95        134
    96         95
    97         12
    98          1
    99          0
   100          0
   102          0
   103          2
   104          0
   105          3
   106          0
   107          3
   108          2
   109         98
   110         67
   111          6
   112          1
   115          0
   117          0
   121          1
   122          0
   123         84
   124         11
   125          0
   126          0
   127          1
   136          0
   137         16
   138          2
   139          0
   151          0
   152          0
   153          0
   165          0
   166        180
   167         23
   168          1