##TITLE=Library Entry 68036
##JCAMP-DX=Revision 4.10 
##DATA TYPE=MASS SPECTRUM
##SAMPLE DESCRIPTION=J.VOTH UNIV. OF CALIFORNIA, DAVIS, CALIFORNIA, 95616, U
SA
##NAMES=HP
##CAS NAME=2,4-Hexadiene, 3,4-dimethyl-, (Z,Z)-
##MOLFORM=C8H14
##CAS REGISTRY NO=21293-01-6
##MP= -300
##BP= -300
##MW= 110
##$RETENTION INDEX=0
##$CONDENSED SPECTRUM=NO
##NPOINTS= 77
##XYDATA=(XY..XY) 1 
     2          7
    12          1
    13          1
    14          8
    15        113
    16          2
    17          0
    18          1
    25          1
    26         53
    27        522
    28         96
    29        254
    30          5
    31          0
    37         10
    38         32
    39        428
    40         71
    41        497
    42         40
    43         82
    44          3
    45          6
    46          3
    49          5
    50         58
    51        126
    52         57
    53        293
    54         85
    55        513
    56        151
    57         14
    61          5
    62         12
    63         82
    64          7
    65         77
    66         35
    67        639
    68         96
    69         37
    70         11
    71          0
    73          1
    74          6
    75          5
    76          2
    77        115
    78         26
    79        120
    80         51
    81        199
    82         23
    83         15
    84          1
    85          0
    86          1
    87          0
    89          3
    91         66
    92         18
    93         96
    94         32
    95        999
    96         76
    97          2
    98          1
   103          0
   105          2
   107          4
   108          2
   109         20
   110        603
   111         53
   112          2