##TITLE=Library Entry 19508
##JCAMP-DX=Revision 4.10 
##DATA TYPE=MASS SPECTRUM
##SAMPLE DESCRIPTION=Exported from NIST MS Search
##NAMES=HP
##CAS NAME=Cyclohexanone, 4-chloro-
##MOLFORM=C6H9ClO
##CAS REGISTRY NO=21299-26-3
##MP= -300
##BP= -300
##MW= 132
##$RETENTION INDEX=0
##$CONDENSED SPECTRUM=NO
##NPOINTS= 34
##XYDATA=(XY..XY) 1 
    41        217
    42        165
    43         20
    44         23
    49          8
    50         20
    51         20
    52          8
    53         62
    54        123
    55        999
    56         41
    57         12
    62         10
    63         12
    65          8
    67         41
    68        179
    69        115
    75         20
    76         58
    77         12
    78         12
    79         12
    80         16
    81         10
    94         20
    96         62
    97        123
    98         12
   104         20
   132        209
   133         20
   134         75