##TITLE=Library Entry 66941
##JCAMP-DX=Revision 4.10 
##DATA TYPE=MASS SPECTRUM
##SAMPLE DESCRIPTION=Chemical Concepts
##NAMES=HP
##CAS NAME=1-Propanesulfonic acid, 3-chloro-, phenyl ester
##MOLFORM=C9H11ClO3S
##CAS REGISTRY NO=21297-87-0
##MP= -300
##BP= -300
##MW= 234
##$RETENTION INDEX=0
##$CONDENSED SPECTRUM=NO
##NPOINTS= 80
##XYDATA=(XY..XY) 1 
    28          1
    29          1
    31          0
    35          0
    36          0
    37          3
    38         13
    39        135
    40         13
    41        176
    42          9
    43          1
    44          0
    45          1
    46          0
    47          0
    48          1
    49         17
    50          5
    51         16
    52          1
    53          1
    54          0
    55          5
    57          0
    59          0
    61          2
    62          4
    63         17
    64          9
    65         97
    66         51
    67          2
    68          0
    73          0
    74          0
    75          7
    76          2
    77         45
    78          3
    79         10
    80          0
    81          0
    91          1
    92          1
    93         19
    94        999
    95         68
    96          5
    97          0
   103          0
   105          0
   107          5
   108          1
   109          0
   115          0
   117          1
   119          0
   121          2
   122          0
   125          0
   127          0
   133          0
   134          0
   135          3
   141         29
   142          1
   143         11
   144          0
   145          0
   170          6
   171          0
   172          2
   207          0
   234        150
   235         17
   236         58
   237          6
   238          2
   239          0