##TITLE=Library Entry 53400
##JCAMP-DX=Revision 4.10 
##DATA TYPE=MASS SPECTRUM
##SAMPLE DESCRIPTION=Japan AIST/NIMC Database- Spectrum MS-NW-8965
##NAMES=HP
##CAS NAME=Didodecylphosphine oxide
##MOLFORM=C24H51O3P
##CAS REGISTRY NO=21302-09-0
##MP= -300
##BP= -300
##MW= 418
##$RETENTION INDEX=0
##$CONDENSED SPECTRUM=NO
##NPOINTS= 88
##XYDATA=(XY..XY) 1 
    27          2
    28          2
    29          9
    31          2
    39          2
    41         34
    42         11
    43         61
    44          2
    45          1
    53          1
    54          8
    55         75
    56         46
    57         82
    58          4
    65          2
    66          1
    67         13
    68         19
    69         75
    70         46
    71         45
    72          2
    79          2
    80          2
    81          9
    82         23
    83        999
    84         28
    85         30
    86          2
    93          1
    94          1
    95          4
    96         10
    97         81
    98         16
    99         10
   106          2
   108          1
   109          4
   110          6
   111         24
   112          9
   113          8
   119          2
   120          4
   121          1
   123          5
   124          2
   125          9
   126          5
   127          4
   133          3
   134          3
   135          1
   137          5
   138          2
   139          5
   140          8
   141          2
   147          3
   148          1
   149          1
   151          2
   153          1
   161          2
   165          1
   167          1
   168         10
   169         11
   170          1
   175          2
   189          2
   196          2
   197          3
   203          2
   221          1
   251        104
   252         13
   253          1
   279         14
   280          2
   305          1
   307          2
   418          1
   419          2