##TITLE=Library Entry 99371
##JCAMP-DX=Revision 4.10 
##DATA TYPE=MASS SPECTRUM
##SAMPLE DESCRIPTION=A.A.Kutin, Moscow, Russia
##NAMES=HP
##CAS NAME=Piperazine-2,5-dione, 1,4-(4-methylphenyl)-
##MOLFORM=C18H18N2O2
##CAS REGISTRY NO=21303-69-5
##MP= -300
##BP= -300
##MW= 294
##$RETENTION INDEX=0
##$CONDENSED SPECTRUM=NO
##NPOINTS= 92
##XYDATA=(XY..XY) 1 
    33          5
    34          2
    36          0
    39         64
    40         34
    41         26
    42         11
    43          4
    44         13
    45          1
    47          0
    50         13
    51         36
    52         17
    53         10
    54          4
    55          2
    56          7
    57          2
    58          3
    59          2
    62         10
    63         37
    65        165
    66          9
    67          2
    68          0
    69          1
    70          0
    71          1
    73          1
    74          1
    75          4
    76         10
    77         38
    78         26
    79         11
    80          2
    83          0
    87          2
    89         57
    91        564
    92         45
    93          5
    97          0
   102          3
   103          8
   105        381
   106         32
   107          7
   108          1
   111          0
   112          0
   113          0
   115          2
   116         13
   118        524
   119        999
   120        161
   121         14
   122          0
   125          0
   128          0
   130          3
   133        504
   134         37
   135          1
   144          1
   146         35
   147         35
   149          1
   158          0
   160          5
   161          6
   162          0
   171          1
   174          0
   175          3
   188          3
   189          0
   210          0
   263          2
   265         26
   266         14
   267          2
   288          0
   289          2
   291         11
   294        333
   295         51
   296          7
   297          0