##TITLE=Library Entry 65524
##JCAMP-DX=Revision 4.10 
##DATA TYPE=MASS SPECTRUM
##SAMPLE DESCRIPTION=Japan AIST/NIMC Database- Spectrum MS-IW-4292
##NAMES=HP
##CAS NAME=Acetamide, N-[4-[[(5-methyl-3-isoxazolyl)amino]sulfonyl]phenyl]-
##MOLFORM=C12H13N3O4S
##CAS REGISTRY NO=21312-10-7
##MP= -300
##BP= -300
##MW= 295
##$RETENTION INDEX=2648
##$CONDENSED SPECTRUM=NO
##NPOINTS= 183
##XYDATA=(XY..XY) 1 
    12          2
    13          3
    14         42
    15         30
    16          1
    24          2
    25          4
    26         21
    27         63
    28        102
    29         10
    30          5
    32          6
    33          3
    34          9
    36          2
    37          9
    38         26
    39        116
    40         36
    41         94
    42        225
    43        455
    44         23
    45          8
    46          6
    47          1
    48         17
    49          2
    50         13
    51         24
    52         45
    53         52
    54         32
    55         26
    56          7
    57         10
    58          3
    59          1
    60          4
    61          3
    62         13
    63         41
    64         77
    65        548
    66         95
    67         20
    68         27
    69         10
    70          7
    71          8
    72          2
    73          1
    74          3
    75          4
    76          7
    77          9
    78         12
    79         26
    80         67
    81         30
    82          8
    83         10
    84          7
    85          6
    86          1
    88          1
    89          2
    90         13
    91         50
    92        999
    93        283
    94         18
    95          8
    96          9
    97         19
    98         49
    99         12
   100          1
   102          1
   103          2
   104          3
   105         16
   106        153
   107         85
   108        711
   109        204
   110         15
   111          6
   112          3
   113          2
   114          1
   115          1
   116          1
   117          5
   118         33
   119        254
   120         28
   121          5
   122        117
   123        162
   124         45
   125        125
   126         10
   127          6
   128          1
   129          1
   130          2
   131          4
   132         14
   133          8
   134          8
   135          4
   136          1
   137          1
   138          1
   139          2
   140        111
   141         15
   142          6
   143          3
   144          3
   145         23
   146        267
   147        285
   148         41
   149          9
   150          2
   151          1
   152          1
   153          1
   154          5
   155          2
   156        930
   157         83
   158         47
   159          5
   160         25
   161          7
   162        126
   163         25
   164          2
   165          1
   167          2
   168          1
   169          1
   170          1
   171          2
   172          9
   173        207
   174        128
   175         22
   176          2
   179          1
   180          3
   181          2
   182          1
   183          1
   184          1
   188        103
   189        834
   190        101
   191          8
   192          1
   194          1
   196          1
   198          7
   199          1
   200          1
   210          1
   214          1
   216          2
   231        222
   232         31
   233          3
   236          1
   253         84
   254         15
   255          6
   256          1
   295         29
   296          9
   297          3