##TITLE=Library Entry 15791
##JCAMP-DX=Revision 4.10 
##DATA TYPE=MASS SPECTRUM
##SAMPLE DESCRIPTION=Darrick Lee, Cayman Chemical, Ann Arbor, MI
##NAMES=HP
##CAS NAME=AM3102
##MOLFORM=C21H41NO2
##CAS REGISTRY NO=213182-22-0
##MP= -300
##BP= -300
##MW= 339
##$RETENTION INDEX=0
##$CONDENSED SPECTRUM=NO
##NPOINTS= 173
##XYDATA=(XY..XY) 1 
    41        273
    42         68
    43        210
    44        999
    45         27
    46          5
    51          2
    52          2
    53         32
    54         72
    55        362
    56         75
    57        143
    58        273
    59         59
    60        127
    61          3
    65         13
    66         10
    67        160
    68         52
    69        188
    70         52
    71         28
    72         26
    73          6
    74         32
    76        624
    77         33
    78          7
    79         54
    80         23
    81        133
    82         41
    83         98
    84         54
    85         18
    86         71
    87         25
    88          5
    89          4
    91         13
    92          2
    93         27
    94         13
    95         75
    96         36
    97         65
    98         47
    99        403
   100        102
   101         10
   102         13
   103          2
   105         10
   107         13
   108          7
   109         33
   110         19
   112        508
   113         95
   114         25
   115          7
   117        282
   118         21
   119          7
   120          3
   121         16
   122          7
   123         15
   124         11
   125         12
   126         70
   127         13
   128         22
   130        413
   131         48
   132          3
   133          6
   134          2
   135          8
   136          6
   137          9
   138         18
   139         10
   140         18
   141          5
   142          8
   144         45
   145          5
   147          4
   148          2
   149          5
   150          4
   151          4
   152         13
   153          8
   154         44
   155         12
   156          9
   157          3
   158         13
   159          4
   163          2
   164          2
   165          4
   166         14
   168        120
   169         17
   170         13
   172         30
   173          5
   178          3
   179          2
   180          8
   181          3
   182         26
   183          4
   184         26
   185          4
   186         34
   187          5
   192          2
   194         19
   195          5
   196          6
   198         13
   200          6
   201          2
   208         30
   209          6
   210          6
   212         16
   213          4
   214          3
   222         77
   223         18
   224          6
   226         12
   227          2
   236         60
   237         17
   238          4
   240         11
   241          2
   242          2
   247          3
   250         13
   251          2
   252          2
   253          2
   254         11
   255          2
   264         30
   265         12
   266          2
   268          3
   278         23
   279          7
   280          4
   282         21
   283          3
   292          6
   293          2
   296          2
   306          3
   308         28
   309         10
   310          3
   320          4
   321          4
   339         12
   340          3