##TITLE=Library Entry 78712
##JCAMP-DX=Revision 4.10 
##DATA TYPE=MASS SPECTRUM
##SAMPLE DESCRIPTION=A.A.Kutin, Moscow, Russia
##NAMES=HP
##CAS NAME=Benzamide, N-(2-oxo-6-phenyl-2H-pyran-3-yl)-
##MOLFORM=C18H13NO3
##CAS REGISTRY NO=21316-75-6
##MP= -300
##BP= -300
##MW= 291
##$RETENTION INDEX=0
##$CONDENSED SPECTRUM=NO
##NPOINTS= 140
##XYDATA=(XY..XY) 1 
    33          0
    34          0
    36          0
    37          2
    38          8
    39         20
    40          5
    41          2
    42          1
    43          6
    44          4
    45          2
    46          0
    50         78
    51        220
    52         74
    53         69
    54          4
    55          2
    56          0
    57          1
    58          0
    59          0
    60          0
    61          2
    62          8
    63         16
    64          4
    65          5
    66          0
    67          0
    69          1
    70          1
    71          0
    73          2
    74         19
    75         22
    77        750
    78         58
    80        131
    81         19
    82          1
    83          0
    84          0
    85          0
    86          2
    87          3
    88          4
    89          7
    90          1
    91          1
    92          0
    93          0
    94          0
    95          0
    97          0
    98          0
    99          1
   100          0
   101          3
   102         13
   103         32
   105        999
   106         72
   107          4
   108          0
   109          0
   110          0
   111          0
   112          0
   113          3
   114          4
   115          8
   116          1
   117          0
   121          0
   122          0
   125          0
   126          0
   127          0
   128          2
   129          2
   130         21
   131          6
   132          0
   133          1
   138          0
   139          0
   140          3
   141          0
   142          0
   143          0
   144          0
   145          0
   150          0
   151          0
   152          0
   153          0
   154          0
   156          0
   157          1
   158         17
   159          2
   160          1
   165          0
   170          0
   171          0
   172          0
   174          0
   178          0
   179          0
   184          0
   185          0
   186          3
   187          1
   188          3
   189          0
   190          0
   191          0
   204          0
   205          0
   216          0
   217          0
   226          0
   229          0
   231          0
   235          0
   244          0
   245          0
   246          0
   262          0
   263         12
   264          2
   265          0
   287          0
   288          0
   291         80
   292         13
   293          1
   294          0