##TITLE=Library Entry 68641
##JCAMP-DX=Revision 4.10 
##DATA TYPE=MASS SPECTRUM
##SAMPLE DESCRIPTION=Humboldt-Universitat zu Berlin, Department of Chemistry
, Analytical Group
##NAMES=HP
##CAS NAME=2-Chloro-3-cyanocarbonyl-indole-1-carboxylic acid, 2,2,2-trichlor
oethyl ester
##MOLFORM=C13H6Cl4N2O3
##CAS REGISTRY NO=213197-83-2
##MP= -300
##BP= -300
##MW= 378
##$RETENTION INDEX=0
##$CONDENSED SPECTRUM=NO
##NPOINTS= 169
##XYDATA=(XY..XY) 1 
    12          7
    13          7
    14         19
    15          5
    16          4
    17          6
    18         22
    24          3
    25         25
    26        169
    27         50
    28         54
    29         92
    30         31
    31          4
    35         26
    36         30
    37         36
    38         62
    39        178
    40         12
    41         16
    42         12
    43         13
    44         24
    45         11
    47         46
    48         31
    49         56
    50         66
    51         49
    52         16
    53          8
    54         57
    55          7
    56         13
    57          9
    58          3
    60         97
    61        484
    62        205
    63        336
    64        107
    65         27
    66          4
    69          3
    70          7
    71          6
    72         26
    73         60
    74         53
    75         70
    76         42
    77         27
    78          6
    79          6
    82         50
    83         22
    84         67
    85         43
    86         95
    87        220
    88        225
    89         41
    90         21
    91          3
    95        999
    96        289
    97        690
    98        196
    99        155
   100         54
   101         12
   102          8
   108          8
   109          6
   110         11
   111         17
   112         33
   114        768
   115         79
   117         83
   119         81
   121         36
   122         19
   123         49
   124         30
   125         18
   126         15
   127          5
   128          5
   129          4
   131        837
   133        751
   134         27
   135        244
   137         28
   139         40
   140         75
   141         27
   142          7
   143          4
   144          3
   148        135
   149        107
   150        138
   151         50
   152         37
   153         11
   154          2
   168          6
   169          6
   170          3
   171          3
   172          2
   175        194
   177        467
   178        250
   179        140
   180         88
   181         14
   184          6
   186          4
   187          3
   188          3
   189          5
   191          2
   194          1
   197          5
   203        105
   204        413
   205         88
   206        140
   207         16
   208          2
   217          1
   219          1
   221          3
   222          2
   223          2
   224          1
   231         39
   232          6
   233         14
   234          2
   238          1
   247          1
   248          1
   249          0
   250          1
   343          3
   344          0
   345          2
   346          0
   347          0
   352          0
   353          0
   354          1
   355          0
   356          0
   357          0
   378         13
   379          2
   380         17
   381          3
   382          8
   383          1
   384          1
   385          0