##TITLE=Library Entry 10363
##JCAMP-DX=Revision 4.10 
##DATA TYPE=MASS SPECTRUM
##SAMPLE DESCRIPTION=Humboldt-Universitat zu Berlin, Department of Chemistry
, Analytical Group
##NAMES=HP
##CAS NAME=2-Chloro-3-(4-chloro-2--methyl-oxazol-5-yl)indole-1-carboxylic ac
id, 2,2,2-trichloroethyl ester
##MOLFORM=C15H9Cl5N2O3
##CAS REGISTRY NO=213197-82-1
##MP= -300
##BP= -300
##MW= 440
##$RETENTION INDEX=0
##$CONDENSED SPECTRUM=NO
##NPOINTS= 166
##XYDATA=(XY..XY) 1 
    12          7
    13          6
    14         29
    15        141
    16          6
    17          2
    18          6
    25         18
    26        150
    27        134
    28         19
    29         48
    30         21
    31          3
    35         24
    36         16
    37         12
    38         17
    39         39
    40          8
    41         13
    43        999
    44         31
    45         10
    47         64
    48         19
    49         40
    50         36
    51         45
    52         40
    53          5
    54          3
    60         58
    61        267
    62        161
    63        124
    64         46
    65          8
    71          2
    72          6
    73         13
    74         32
    75         43
    76         23
    77         11
    80          5
    82         20
    83          9
    84         23
    85         16
    86         27
    87         57
    88         54
    89         17
    90          6
    91          3
    95        352
    96        156
    97        243
    98        117
    99        139
   100         54
   101          9
   102          6
   108          6
   109         11
   110          6
   111         11
   112          8
   114        174
   115         33
   117         48
   119         43
   121         18
   122          5
   123         17
   124         12
   125         16
   126         82
   127         15
   128          3
   131        141
   133        141
   135         80
   136          7
   137         18
   138          5
   139          7
   140         54
   141         20
   142          4
   148          6
   149         34
   150         14
   151         15
   152         34
   153         23
   154          7
   161         92
   162         28
   163         32
   164          8
   165          4
   166          9
   167          8
   168          5
   169          4
   170          2
   174          4
   175          9
   176         20
   177         24
   178         16
   179          7
   180          3
   187         51
   188         10
   189         22
   190          4
   191          3
   196         68
   197         10
   198         44
   199          5
   200          8
   201         22
   202          9
   203         34
   204          7
   205         12
   215          2
   223         10
   224         11
   225          7
   226          6
   227          2
   228          1
   231          6
   232          1
   233          2
   237         11
   238          2
   239          7
   240          1
   241          1
   265        183
   266         41
   267        118
   268         23
   269         21
   270          4
   293          2
   295          1
   327          0
   329          0
   405          0
   407          0
   409          0
   440          8
   442         14
   443          3
   444          8
   445          2
   446          3
   447          0
   448          0