##TITLE=Library Entry 80375
##JCAMP-DX=Revision 4.10 
##DATA TYPE=MASS SPECTRUM
##SAMPLE DESCRIPTION=D.HENNEBERG, MAX-PLANCK INSTITUTE, MULHEIM, WEST GERMAN
Y
##NAMES=HP
##CAS NAME=Benzene, (1-methylhexyl)-
##MOLFORM=C13H20
##CAS REGISTRY NO=2132-84-5
##MP= -300
##BP= -300
##MW= 176
##$RETENTION INDEX=1300
##$CONDENSED SPECTRUM=NO
##NPOINTS= 52
##XYDATA=(XY..XY) 1 
    26          9
    27         87
    28         25
    29         70
    37          6
    38         10
    39         80
    40         13
    41         93
    42         17
    43         45
    50         18
    51         49
    52         16
    53         18
    55         21
    56         10
    57         10
    62          7
    63         18
    64          8
    65         24
    66          6
    69          7
    74          7
    75         10
    76         11
    77         93
    78         42
    79         67
    80          8
    82          0
    89         10
    90          6
    91        160
    92         18
   101          8
   102         15
   103         52
   104         59
   105        999
   106        122
   107         11
   115         21
   116         10
   117         18
   118         10
   119         14
   128          8
   154         10
   161         11
   176        112