##TITLE=Library Entry 55934
##JCAMP-DX=Revision 4.10 
##DATA TYPE=MASS SPECTRUM
##SAMPLE DESCRIPTION=Asinex Ltd, Moscow, Russia
##NAMES=HP
##CAS NAME=Acetic acid, 2-(4-morpholinosulfonylphenyl)-, methyl ester
##MOLFORM=C13H17NO5S
##CAS REGISTRY NO=213325-29-2
##MP= -300
##BP= -300
##MW= 299
##$RETENTION INDEX=0
##$CONDENSED SPECTRUM=NO
##NPOINTS= 142
##XYDATA=(XY..XY) 1 
    33          7
    34          2
    35          0
    36          4
    38          7
    39         34
    40         55
    41         35
    42         96
    43         14
    44         23
    45         12
    48          3
    49          0
    50          8
    51         18
    52          6
    53          4
    54         26
    56        693
    57         40
    58         14
    59         46
    60          3
    61          0
    62          9
    63         48
    64         24
    65         22
    66          3
    67          1
    68          1
    69          4
    70         10
    72         73
    73          2
    74          1
    75          2
    76          3
    77         26
    78         22
    79          5
    81          0
    82          0
    84         30
    86        999
    87         48
    89        156
    90        118
    91         81
    92          6
    93          1
    94          0
    95          0
    96          0
    97          0
   103          3
   104         15
   105         11
   106         10
   107          4
   109          1
   111          8
   112          0
   114         13
   115          1
   117         14
   118         14
   119          4
   120          2
   121         16
   122          2
   123          2
   124          0
   125          0
   130          0
   131          1
   132         15
   133          4
   134          7
   135          3
   136          0
   137          1
   138          7
   139          3
   140          1
   144          2
   145          1
   146          1
   147          0
   149        140
   150         23
   151          2
   152          1
   153          1
   154          4
   155          4
   163         10
   164         50
   165          6
   167          1
   168          0
   169          0
   171          0
   176         27
   177         12
   178          1
   179          0
   181          3
   182          1
   190          0
   191          1
   192          0
   195          6
   197         10
   198          0
   203          0
   204         10
   205         13
   206          1
   211          0
   213         68
   214          6
   215          3
   219          0
   225          0
   231          1
   234          2
   235          0
   240         24
   241          3
   242          2
   256         65
   257          8
   258          3
   268         18
   269          1
   270          0
   284          1
   299        106
   300         16
   301          6