##TITLE=Library Entry 80195
##JCAMP-DX=Revision 4.10 
##DATA TYPE=MASS SPECTRUM
##SAMPLE DESCRIPTION=Exported from NIST MS Search
##NAMES=HP
##CAS NAME=Zinc, bis(1,3-diphenyl-1,3-propanedionato-O,O')-, (T-4)-
##MOLFORM=C30H22O4Zn
##CAS REGISTRY NO=21333-45-9
##MP= -300
##BP= -300
##MW= 510
##$RETENTION INDEX=0
##$CONDENSED SPECTRUM=NO
##NPOINTS= 42
##XYDATA=(XY..XY) 1 
    51         19
    69         11
    76         11
    77        305
    78         19
    89         11
    90         19
   102         11
   105        999
   106         73
   141         11
   147         11
   152         11
   165         11
   166         11
   194         11
   223         19
   224         19
   255         19
   287         23
   288         11
   289         11
   291         11
   363         11
   433         42
   434          8
   435         31
   436         11
   437         19
   481         31
   482         11
   483         19
   484         11
   485         11
   509         46
   510        305
   511        115
   512        191
   513         84
   514        115
   515         31
   516         11