##TITLE=Library Entry 4075
##JCAMP-DX=Revision 4.10 
##DATA TYPE=MASS SPECTRUM
##SAMPLE DESCRIPTION=Dmitri Zagorevskii, Scientific Instruments & Applicatio
ns
##NAMES=HP
##CAS NAME=5-Amino-1-methyl-1H-imidazole-4-carbamide
##MOLFORM=C5H8N4O
##CAS REGISTRY NO=21343-04-4
##MP= -300
##BP= -300
##MW= 140
##$RETENTION INDEX=0
##$CONDENSED SPECTRUM=NO
##NPOINTS= 52
##XYDATA=(XY..XY) 1 
    26          5
    27         41
    28        580
    29         27
    30         45
    31        119
    37         14
    38         25
    39         56
    40         78
    41        999
    42         70
    43         76
    44         38
    51          4
    52          8
    53         45
    54         56
    55         91
    56         75
    57         90
    58          5
    65          6
    66         14
    67         34
    68         79
    69         37
    70         11
    71         18
    72          8
    73          4
    77          4
    79          3
    80          7
    81         14
    82          9
    83          3
    84          5
    93          3
    94          8
    95         78
    96         30
    97          6
    98          2
   105          5
   121          6
   123        493
   124        157
   125         10
   140        952
   141        109
   142          5