##TITLE=Library Entry 107710
##JCAMP-DX=Revision 4.10 
##DATA TYPE=MASS SPECTRUM
##SAMPLE DESCRIPTION=Chemical Concepts
##NAMES=HP
##CAS NAME=N-(2,2,6,6-Tetramethyl-4-piperidyl) phthalimide
##MOLFORM=C17H22N2O2
##CAS REGISTRY NO=213475-05-9
##MP= -300
##BP= -300
##MW= 286
##$RETENTION INDEX=0
##$CONDENSED SPECTRUM=NO
##NPOINTS= 133
##XYDATA=(XY..XY) 1 
    35          2
    36          2
    37          1
    39         31
    41        132
    42        183
    43         35
    44         17
    45          2
    47          5
    48          2
    50         26
    51         11
    52          4
    53         18
    54          9
    55         63
    56         41
    57         44
    58        140
    59          5
    63          3
    65         19
    66          8
    67         46
    68         21
    69         10
    70         16
    71         16
    72          3
    73          2
    74          6
    75         13
    76         74
    77         41
    78          5
    79         20
    80          8
    81         23
    82         62
    83         36
    84         10
    85         14
    87          2
    89          6
    90          9
    91         17
    92          6
    93          9
    94         11
    95         10
    96         16
    97         12
    98         33
    99         26
   100          2
   101          2
   102         22
   103         16
   104         47
   105         34
   106          6
   107         49
   108         38
   109         11
   110          7
   111          5
   112         20
   113          3
   114          1
   115          5
   116          3
   117          9
   118          4
   119          1
   120          2
   121          3
   122          9
   124        999
   125         90
   126          4
   127          2
   128          7
   129         15
   130         60
   131          7
   132          5
   133          7
   134          1
   135          2
   136          3
   137          1
   138          7
   139          1
   140          2
   141          3
   142          1
   143          2
   144          1
   145          5
   146          6
   147         11
   148          9
   149          4
   153          1
   154          1
   160         16
   161          2
   167          5
   168          1
   169          1
   170          1
   171          1
   172          4
   173         18
   174         30
   175          4
   182          1
   185          1
   186          1
   187          1
   196         13
   197          5
   198          1
   199          1
   210          1
   214         19
   215          7
   216          1
   230          3
   271        173
   272         28
   273          3