##TITLE=Library Entry 46919
##JCAMP-DX=Revision 4.10 
##DATA TYPE=MASS SPECTRUM
##SAMPLE DESCRIPTION=J. R. PLIMMER
##NAMES=HP
##CAS NAME=Carbamoselenothioic acid, phenyl-, S-methyl ester
##MOLFORM=C8H9NSSe
##CAS REGISTRY NO=21347-34-2
##MP= -300
##BP= -300
##MW= 231
##$RETENTION INDEX=0
##$CONDENSED SPECTRUM=NO
##NPOINTS= 29
##XYDATA=(XY..XY) 1 
    44         70
    45        210
    46         50
    47        400
    48        370
    49         70
    50        230
    51        400
    63         30
    64         30
    74         60
    75         80
    76        240
    77        999
    78         70
   103        560
   104         50
   124         50
   150         30
   156         40
   179         90
   180        100
   181        160
   183        500
   184         70
   185         90
   229         40
   231         70
   232         20