##TITLE=Library Entry 52191
##JCAMP-DX=Revision 4.10 
##DATA TYPE=MASS SPECTRUM
##SAMPLE DESCRIPTION=NIST Mass Spectrometry Data Center, 1990.
##NAMES=HP
##CAS NAME=4-Methyl-5-decanol
##MOLFORM=C11H24O
##CAS REGISTRY NO=213547-15-0
##MP= -300
##BP= -300
##MW= 172
##$RETENTION INDEX=0
##$CONDENSED SPECTRUM=NO
##NPOINTS= 54
##XYDATA=(XY..XY) 1 
    14          3
    15         10
    16          0
    18         14
    27        189
    28         60
    29        261
    30         12
    31         56
    32          6
    39        114
    40         34
    41        372
    42         66
    43        365
    44         90
    45        120
    51          6
    52          4
    53         44
    54          4
    55        882
    56        116
    57        164
    58         48
    59         92
    65          8
    67         32
    68         13
    69        110
    70         73
    71        102
    72         38
    73          7
    77          6
    79          6
    81         16
    82         90
    83        999
    84         92
    85         22
    86          4
    97         20
    98          6
    99         41
   100         90
   101        325
   102         18
   103          4
   110          4
   111         17
   112          5
   128          8
   154         13