##TITLE=Library Entry 12586
##JCAMP-DX=Revision 4.10 
##DATA TYPE=MASS SPECTRUM
##SAMPLE DESCRIPTION=V.A.Korolev, Moscow, Russia
##NAMES=HP
##CAS NAME=N-Methyl-N-(3-nitrophenyl)acetamide
##MOLFORM=C9H10N2O3
##CAS REGISTRY NO=21353-89-9
##MP= -300
##BP= -300
##MW= 194
##$RETENTION INDEX=0
##$CONDENSED SPECTRUM=NO
##NPOINTS= 65
##XYDATA=(XY..XY) 1 
    30        121
    37         18
    38         54
    39        136
    40         24
    41         38
    42        166
    43        999
    44         50
    45          3
    46         39
    49          4
    50        100
    51        101
    52         56
    53         17
    54         10
    55         10
    56         14
    57          2
    58          1
    61         10
    62         35
    63        155
    64         74
    65         88
    66         27
    67          6
    73          5
    74         35
    75         34
    76         72
    77        155
    78         85
    79        106
    80         17
    87          1
    88          4
    89          2
    90         24
    91         15
    92         22
    93          6
    94         45
    95          3
   102          1
   103          3
   104         83
   105         60
   106        177
   107         15
   108          2
   118          2
   122         17
   123          1
   148         20
   149          2
   150          1
   151         14
   152        316
   153         25
   154          2
   194         57
   195          5
   196          1