##TITLE=Library Entry 26385
##JCAMP-DX=Revision 4.10 
##DATA TYPE=MASS SPECTRUM
##SAMPLE DESCRIPTION=ORMSBG,10(3)196(1975); D. V. RAMANA
##NAMES=HP
##CAS NAME=Propanamide, 2,2-dimethyl-N-(4-methylphenyl)-
##MOLFORM=C12H17NO
##CAS REGISTRY NO=21354-40-5
##MP= -300
##BP= -300
##MW= 191
##$RETENTION INDEX=0
##$CONDENSED SPECTRUM=NO
##NPOINTS= 33
##XYDATA=(XY..XY) 1 
    40         10
    41        200
    42         20
    50         10
    51         20
    52         20
    53         20
    55         20
    56         10
    57        999
    58         40
    63         10
    65         40
    69         10
    77         80
    78         30
    79         50
    80         10
    85         80
    91         50
   104         20
   105         20
   106        380
   107        700
   108         80
   132         80
   133         40
   134         40
   135         30
   148         40
   149         10
   191        500
   192         70