##TITLE=Library Entry 24325
##JCAMP-DX=Revision 4.10 
##DATA TYPE=MASS SPECTRUM
##SAMPLE DESCRIPTION=R.T.HOLMAN,UNIVERSITY OF MINNESOTA
##NAMES=HP
##CAS NAME=Ethanol, 2-(hexadecyloxy)-
##MOLFORM=C18H38O2
##CAS REGISTRY NO=2136-71-2
##MP= -300
##BP= -300
##MW= 286
##$RETENTION INDEX=0
##$CONDENSED SPECTRUM=NO
##NPOINTS= 167
##XYDATA=(XY..XY) 1 
    26          4
    27         71
    28        123
    29        216
    30          6
    31         37
    32         24
    33          5
    39         38
    40         12
    41        444
    42        117
    43        796
    44         40
    45        456
    46         12
    47          2
    51          1
    52          1
    53         20
    54         45
    55        512
    56        197
    57        999
    58         50
    59          6
    60          4
    61          6
    62          6
    63        481
    64         11
    65          5
    66          7
    67         64
    68        135
    69        364
    70        160
    71        697
    72         40
    73          8
    74          1
    75        172
    76          6
    77          6
    78          1
    79          6
    80          3
    81         36
    82        172
    83        358
    84        108
    85        469
    86         30
    87          2
    88          1
    89          2
    90          3
    91          3
    92          1
    93          2
    94          1
    95         24
    96         54
    97        271
    98         66
    99        135
   100         10
   101          4
   102          1
   103          1
   104          1
   105          1
   106          1
   107          1
   108          1
   109         12
   110         22
   111        148
   112         46
   113         77
   114          7
   115          1
   116          7
   117         25
   118          3
   119          2
   120          1
   121          1
   122          1
   123          6
   124         13
   125         74
   126         32
   127         53
   128          6
   129          1
   130          1
   131          3
   132          1
   133          1
   134          1
   135          1
   136          1
   137          3
   138          9
   139         33
   140         23
   141         42
   142          5
   143          1
   145          1
   147          1
   148          1
   149          1
   151          1
   152          5
   153         19
   154         16
   155         32
   156          4
   157          1
   165          1
   166          3
   167         11
   168         12
   169         20
   170          3
   179          1
   180          1
   181          5
   182          5
   183          9
   184          1
   191          1
   194          2
   195          3
   196         55
   197          9
   198          1
   207          1
   208          1
   209          1
   210          1
   211          1
   212          1
   221          1
   222          2
   223          1
   224         52
   225         39
   226          7
   227          1
   238          1
   239          6
   240          1
   241          3
   242          1
   243          3
   244          1
   255         57
   256         11
   257          1
   280          1
   281          1
   285          1
   286          1
   287          1