##TITLE=Library Entry 58998
##JCAMP-DX=Revision 4.10 
##DATA TYPE=MASS SPECTRUM
##SAMPLE DESCRIPTION=TAT 1778
##NAMES=HP
##CAS NAME=5.alpha.-Androstan-17.beta.-ol, 2.beta.,3.beta.-epithio-
##MOLFORM=C19H30OS
##CAS REGISTRY NO=2136-25-6
##MP= -300
##BP= -300
##MW= 306
##$RETENTION INDEX=0
##$CONDENSED SPECTRUM=NO
##NPOINTS= 144
##XYDATA=(XY..XY) 1 
    41        968
    42         81
    43        371
    44         97
    45        113
    47         65
    51         65
    53        387
    54         81
    55        774
    56         81
    57        274
    58         32
    59         65
    64        290
    65        226
    66         97
    67        694
    68        145
    69        242
    70         32
    71        145
    72         16
    73         81
    77        548
    78        532
    79        952
    80        194
    81        758
    82         97
    83        113
    84         65
    85         97
    86         65
    87         65
    91        999
    92        242
    93        968
    94        258
    95        500
    96         81
    97        290
    98         81
    99        113
   100         81
   101        161
   103         81
   104         81
   105        823
   106        355
   107        645
   108        258
   109        258
   110        113
   111        177
   112         81
   113        177
   114         97
   115        113
   116         48
   117        194
   118        113
   119        387
   120        194
   121        290
   122        113
   123        194
   124         65
   125        113
   127         65
   128         65
   129         97
   131        258
   132         81
   133        274
   134        129
   135        177
   136         65
   137         81
   139        145
   140         97
   141         81
   142         48
   143         97
   144         48
   145        274
   146         97
   147        339
   148        145
   149        145
   151         97
   153         65
   157         81
   159        194
   160        113
   161        355
   162         97
   163         97
   164         65
   171         65
   173        194
   174         97
   175         97
   176        306
   177         97
   178         65
   179         97
   185         81
   187        226
   188         65
   189         65
   190         16
   191         81
   199        113
   201        161
   202        258
   203         81
   204         16
   205         97
   213         97
   215        194
   216         16
   217         81
   219         97
   220        661
   221        129
   222         16
   230         81
   239         65
   241         81
   247        129
   248         16
   255        113
   256        161
   257         65
   259         81
   262         81
   272         97
   273        177
   274        452
   275        113
   276         16
   291        290
   292         65