##TITLE=Library Entry 24333
##JCAMP-DX=Revision 4.10 
##DATA TYPE=MASS SPECTRUM
##SAMPLE DESCRIPTION=R.T.HOLMAN,UNIVERSITY OF MINNESOTA
##NAMES=HP
##CAS NAME=Ethanol, 2-(octadecyloxy)-
##MOLFORM=C20H42O2
##CAS REGISTRY NO=2136-72-3
##MP= -300
##BP= -300
##MW= 314
##$RETENTION INDEX=0
##$CONDENSED SPECTRUM=NO
##NPOINTS= 228
##XYDATA=(XY..XY) 1 
    25          3
    26         22
    27         98
    28        149
    29        244
    30         10
    31         39
    32         12
    36          3
    37          2
    38          3
    39         51
    40         15
    41        472
    42        125
    43        795
    44         49
    45        385
    46         17
    47          3
    50          3
    51          5
    52          3
    53         23
    54         51
    55        527
    56        204
    57        999
    58         48
    59         15
    60         10
    66         10
    67         77
    68        141
    69        385
    70        165
    71        637
    72         37
    73         17
    74          5
    75        137
    76          8
    77          7
    78          3
    79         11
    80          6
    81         51
    82        196
    83        377
    84        110
    85        433
    86         29
    87          5
    88          3
    89          2
    90          3
    91          7
    92          3
    93          5
    94          5
    95         36
    96         71
    97        299
    98         70
    99        133
   100         11
   101          4
   102          2
   103          2
   104          2
   105          4
   106          2
   107          3
   108          2
   109         17
   110         29
   111        157
   112         49
   113         79
   114          8
   115          4
   116          3
   117         12
   118          3
   119          3
   120          1
   121          2
   122          2
   123          9
   124         17
   125         78
   126         32
   127         53
   128          7
   129          3
   130          2
   131          3
   132          2
   133          3
   134          1
   135          2
   136          2
   137          6
   138         11
   139         36
   140         24
   141         40
   142          5
   143          2
   144          1
   145          2
   146          1
   147          2
   148          1
   149          4
   150          2
   151          3
   152          9
   153         23
   154         18
   155         31
   156          5
   157          1
   158          1
   159          1
   160          1
   161          1
   162          1
   163          1
   164          1
   165          3
   166          6
   167         15
   168         15
   169         24
   170          4
   171          1
   173          1
   174          1
   175          1
   176          1
   177          1
   178          1
   179          1
   180          4
   181          9
   182         11
   183         19
   184          3
   185          2
   186          1
   191          1
   192          1
   193          2
   194          3
   195          7
   196         11
   197         12
   198          3
   199          1
   200          1
   207          3
   208          3
   209          3
   210          4
   211          7
   212          2
   213          1
   214          1
   215          1
   216          1
   217          1
   218          1
   219          3
   220          1
   221          1
   222          3
   223          3
   224         44
   225         10
   226          2
   227          1
   228          1
   229          1
   236          1
   237          1
   238          1
   239          1
   240          1
   241          2
   242          1
   243          1
   248          1
   249          2
   250          3
   251          2
   252         44
   253         34
   254          7
   255          4
   256          2
   257          1
   258          1
   264          1
   265          1
   266          1
   267          5
   268          2
   269          4
   270          1
   271          4
   272          1
   273          1
   274          1
   278          1
   279          1
   283         51
   284         13
   285          3
   286          1
   296          1
   297          1
   298          1
   311          1
   312          1
   313          1
   314          1
   315          1