##TITLE=Library Entry 62923
##JCAMP-DX=Revision 4.10 
##DATA TYPE=MASS SPECTRUM
##SAMPLE DESCRIPTION=Chemical Concepts
##NAMES=HP
##CAS NAME=2-Pentynoic acid, 4-[(t-butoxycarbonyl)amino]-N-methoxycarbonyl-5
-phenyl-, methyl ester
##MOLFORM=C19H23NO6
##CAS REGISTRY NO=213696-68-5
##MP= -300
##BP= -300
##MW= 361
##$RETENTION INDEX=0
##$CONDENSED SPECTRUM=NO
##NPOINTS= 198
##XYDATA=(XY..XY) 1 
    25          3
    26         11
    27         55
    28          5
    29         66
    30          9
    31         44
    32          3
    33          2
    34          0
    36          1
    37         10
    38         25
    39        195
    40         37
    41        377
    42         45
    43          9
    44        264
    45         20
    46          1
    48          0
    49          6
    50         32
    51         68
    52         19
    53         92
    54         15
    55         84
    56        182
    57        318
    58         19
    59        163
    60          4
    61          4
    62         10
    63         37
    64         13
    65        144
    66         18
    67         12
    68         55
    69          7
    70          5
    71          2
    72          2
    73          4
    74          8
    75         11
    76          7
    77         31
    78         17
    79         10
    80         17
    81          0
    82          2
    83         14
    84          3
    85          7
    86          7
    87          5
    88          6
    89         32
    90         16
    91        999
    92        105
    93          7
    94         30
    95          2
    96          7
    97          2
    98         26
    99         21
   100          3
   101          8
   102         12
   103         12
   104          6
   105          5
   106          1
   107         20
   108          2
   109          2
   110          7
   111          3
   112          7
   113          7
   114          8
   115         72
   116         29
   117         18
   118          6
   119          3
   120          1
   121          3
   122          1
   123          1
   124          1
   125          2
   126         64
   127         75
   128         79
   129         37
   130         24
   131          9
   132          1
   133          0
   134          0
   135          0
   137          0
   138        103
   139         23
   140         19
   141         28
   142         57
   143         43
   144         18
   145         10
   146          7
   147          0
   148          0
   152          4
   153          1
   154          3
   155         61
   156         29
   157         13
   158         13
   159         32
   160          5
   161          0
   162          0
   165          0
   168          3
   169         54
   170        832
   171         91
   172         27
   173          6
   174          7
   175          3
   176          0
   177          0
   178          1
   179          0
   180          0
   182          0
   183          4
   184          3
   185          6
   186        150
   187         34
   188         10
   189          1
   190          0
   191          0
   196         10
   197         62
   198         23
   199          2
   200          4
   201         48
   202        164
   203         22
   204          4
   206          0
   211          0
   212          0
   213          0
   214          7
   215          1
   216          0
   218          0
   219          0
   227          5
   228         13
   229        132
   230         53
   231         11
   232          1
   235          0
   246          1
   247          0
   248          0
   250          0
   256          0
   259          0
   260          2
   261         35
   262          5
   263          0
   273          4
   274          5
   275          0
   288          2
   305         12
   306          1
   307          0