##TITLE=Library Entry 24339
##JCAMP-DX=Revision 4.10 
##DATA TYPE=MASS SPECTRUM
##SAMPLE DESCRIPTION=R.T.HOLMAN,UNIVERSITY OF MINNESOTA
##NAMES=HP
##CAS NAME=Ethanol, 2-(eicosyloxy)-
##MOLFORM=C22H46O2
##CAS REGISTRY NO=2136-73-4
##MP= -300
##BP= -300
##MW= 342
##$RETENTION INDEX=0
##$CONDENSED SPECTRUM=NO
##NPOINTS= 175
##XYDATA=(XY..XY) 1 
    26          6
    27         63
    28         24
    29        200
    30          6
    31         30
    32          3
    39         31
    40         10
    41        410
    42        100
    43        800
    44         40
    45        410
    46         12
    47          3
    51          2
    52          1
    53         16
    54         45
    55        510
    56        180
    57        999
    58         47
    59          6
    60          5
    61          6
    62          4
    63        570
    64         14
    65          6
    66          7
    67         71
    68        140
    69        400
    70        150
    71        690
    72         39
    73          6
    74          2
    75        160
    76          7
    77          5
    78          1
    79          6
    80          5
    81         49
    82        210
    83        430
    84        110
    85        490
    86         32
    87          3
    88          2
    89          1
    90          3
    91          2
    93          2
    94          3
    95         33
    96         75
    97        350
    98         73
    99        160
   100         12
   101          3
   105          3
   107          1
   108          1
   109         17
   110         29
   111        190
   112         49
   113        100
   114         10
   115          2
   117         13
   118          2
   119          2
   121          1
   122          2
   123          9
   124         18
   125        100
   126         35
   127         70
   128          7
   129          2
   131          2
   135          1
   136          2
   137          6
   138         15
   139         49
   140         26
   141         51
   142          6
   143          1
   151          3
   152         10
   153         29
   154         19
   155         37
   156          5
   157          1
   165          2
   166          7
   167         20
   168         16
   169         29
   170         40
   179          1
   180          6
   181         14
   182         13
   183         24
   184          3
   185          1
   193          1
   194          4
   195         10
   196         12
   197         21
   198         30
   199          1
   207          1
   208          4
   209          7
   210          9
   211         16
   212          3
   213          1
   221          1
   222          3
   223          5
   224          8
   225         10
   226          2
   227          1
   235          1
   236          2
   237          3
   238          3
   239          5
   240          2
   241          1
   250          2
   251          2
   252         43
   253          9
   254          2
   276          1
   277          2
   278          3
   279          3
   280         50
   281         41
   282          8
   283          1
   284          1
   285          1
   294          1
   295          4
   296          2
   297          4
   298          1
   299          4
   300          1
   301          1
   311         63
   312         15
   313          2
   340          1
   341          1
   342          1