##TITLE=Library Entry 24317
##JCAMP-DX=Revision 4.10 
##DATA TYPE=MASS SPECTRUM
##SAMPLE DESCRIPTION=Exported from NIST MS Search
##NAMES=HP
##CAS NAME=Ethanol, 2-(tetradecyloxy)-
##MOLFORM=C16H34O2
##CAS REGISTRY NO=2136-70-1
##MP= -300
##BP= -300
##MW= 258
##$RETENTION INDEX=0
##$CONDENSED SPECTRUM=NO
##NPOINTS= 109
##XYDATA=(XY..XY) 1 
    15          6
    17         15
    18         58
    19          9
    26          2
    27         71
    28         32
    29        203
    30          6
    31         57
    32          4
    39         43
    40         10
    41        453
    42        124
    43        760
    44         44
    45        264
    46          8
    53         23
    54         59
    55        615
    56        330
    57        999
    58         52
    59         12
    60          3
    61          5
    62          4
    63        249
    64          7
    65          6
    66          9
    67         92
    68        214
    69        539
    70        318
    71        621
    72         38
    73         20
    75        102
    76          5
    77          6
    79          7
    80          4
    81         52
    82        264
    83        588
    84        229
    85        403
    86         38
    87          8
    88          4
    89         11
    90          3
    91          3
    95         29
    96         93
    97        456
    98        145
    99        112
   100          9
   101          4
   103          2
   109         13
   110         43
   111        260
   112        103
   113         77
   114          7
   115          2
   117         10
   123          7
   124         24
   125        139
   126         67
   127         55
   128          6
   133          3
   137          4
   138         16
   139         55
   140         47
   141         40
   142          5
   152          8
   153         22
   154         26
   155         19
   156          3
   166          6
   167         11
   168         77
   169         12
   181          4
   182          5
   194          3
   195          3
   196         80
   197         35
   198          5
   211          6
   213          5
   215          4
   224         14
   225          4
   227         50
   228          9
   258          1