##TITLE=Library Entry 23704
##JCAMP-DX=Revision 4.10 
##DATA TYPE=MASS SPECTRUM
##SAMPLE DESCRIPTION=A.Mazepa, Phys.-Chem.Institute, Odessa, Ukraine
##NAMES=HP
##CAS NAME=(2,6-Dioxo-3,4,5,6-tetrahydro-2H-[1,3']bipyridinyl-3-yl)-carbamic
 acid tert-butyl ester
##MOLFORM=C15H19N3O4
##CAS REGISTRY NO=213742-12-2
##MP= -300
##BP= -300
##MW= 305
##$RETENTION INDEX=0
##$CONDENSED SPECTRUM=NO
##NPOINTS= 96
##XYDATA=(XY..XY) 1 
    30         28
    31         34
    32          9
    36          3
    37          5
    38         21
    39        104
    40         22
    41        368
    42         38
    43         50
    44        125
    45         10
    46          1
    50          7
    51         30
    52          7
    53          8
    54         17
    55        102
    56        158
    57        999
    58         37
    59         34
    60          1
    64         18
    65         13
    66         20
    67         15
    68          7
    69         16
    71          2
    78         46
    79          7
    80          2
    82          8
    83         17
    84        223
    85         61
    86          2
    87          6
    91          1
    92         11
    93         16
    94        330
    95         69
    96          3
   105         14
   106          4
   107          3
   108          2
   119          1
   120         20
   121        293
   122         41
   123          3
   124          1
   131          2
   132          3
   133         10
   134          9
   135          8
   136        105
   137        128
   138         11
   147          6
   148         12
   149         30
   150         22
   151          8
   160         13
   161         22
   162          9
   175          3
   176          9
   177         59
   178         30
   179          2
   188          5
   189          5
   190          4
   192          4
   193          3
   203          5
   204         76
   205         54
   206         26
   220         26
   221          7
   231         11
   232        114
   233         14
   249        264
   250         35
   251          1
   305          6