##TITLE=Library Entry 85761
##JCAMP-DX=Revision 4.10 
##DATA TYPE=MASS SPECTRUM
##SAMPLE DESCRIPTION=Chuck Anderson, Aldrich Chemical Co.
##NAMES=HP
##CAS NAME=1(2H)-Naphthalenone, octahydro-, trans-
##MOLFORM=C10H16O
##CAS REGISTRY NO=21370-71-8
##MP= -300
##BP= -300
##MW= 152
##$RETENTION INDEX=0
##$CONDENSED SPECTRUM=NO
##NPOINTS= 94
##XYDATA=(XY..XY) 1 
    15          7
    26         17
    27        211
    28         68
    29        128
    30          3
    31          4
    37          4
    38         21
    39        474
    40        105
    41        647
    42        124
    43         72
    44          5
    45          6
    46         10
    47          8
    48          4
    50         26
    51         75
    52         51
    53        256
    54        342
    55        477
    56         46
    57         29
    58          4
    59          2
    61          1
    62         10
    63         19
    64          7
    65         94
    66        111
    67        922
    68        301
    69         73
    70         40
    71         16
    74          2
    75          1
    76          3
    77        106
    78         65
    79        333
    80        105
    81        724
    82        121
    83         96
    84        185
    85         15
    89          2
    90          1
    91         90
    92         84
    93        151
    94         68
    95        156
    96         80
    97        371
    98         34
    99          2
   103          2
   104          2
   105         36
   106         36
   107         27
   108        262
   109        999
   110        496
   111         77
   112          6
   115          1
   117          1
   118          1
   119         77
   120          8
   121         15
   122          9
   123        211
   124        108
   125          9
   133         16
   134        126
   135         16
   136          2
   137         40
   138          4
   150          1
   151         47
   152        426
   153         49
   154          3