##TITLE=Library Entry 70108
##JCAMP-DX=Revision 4.10 
##DATA TYPE=MASS SPECTRUM
##SAMPLE DESCRIPTION=Japan AIST/NIMC Database- Spectrum MS-NW-5616
##NAMES=HP
##CAS NAME=2-Cyclohexen-1-ol, 3-methyl-
##MOLFORM=C7H12O
##CAS REGISTRY NO=21378-21-2
##MP= -300
##BP= -300
##MW= 112
##$RETENTION INDEX=1552
##$CONDENSED SPECTRUM=NO
##NPOINTS= 82
##XYDATA=(XY..XY) 1 
    14          1
    15         12
    16          1
    17          2
    18          7
    26         11
    27        125
    28         26
    29         54
    30          2
    31         20
    32          5
    33          4
    37          9
    38         25
    39        222
    40         46
    41        231
    42         26
    43        109
    44         14
    45         14
    46          8
    47          3
    48          1
    49          4
    50         29
    51         67
    52         29
    53         95
    54         40
    55        147
    56         66
    57         30
    58         10
    59          2
    60          1
    61          7
    62         13
    63         27
    64          7
    65         61
    66         52
    67         96
    68         19
    69        204
    70         19
    71         13
    72          1
    73          1
    74          4
    75          4
    76          2
    77        263
    78         45
    79        651
    80         51
    81         23
    82         34
    83        194
    84        312
    85         21
    86          3
    87          2
    89          5
    90          2
    91        126
    92         20
    93        102
    94        288
    95         56
    96          8
    97        999
    98         67
    99          4
   107          2
   108          2
   109          3
   110         11
   111         57
   112         94
   113          8