##TITLE=Library Entry 45506
##JCAMP-DX=Revision 4.10 
##DATA TYPE=MASS SPECTRUM
##SAMPLE DESCRIPTION=V.G. Zaikin, TIPS RAS, Moscow, Russia
##NAMES=HP
##CAS NAME=Dimethyl(isopropyl)silyloxycyclohexane
##MOLFORM=C11H24OSi
##CAS REGISTRY NO=213737-69-0
##MP= -300
##BP= -300
##MW= 200
##$RETENTION INDEX=0
##$CONDENSED SPECTRUM=NO
##NPOINTS= 87
##XYDATA=(XY..XY) 1 
    27        213
    28         24
    29         69
    30          9
    31         99
    33          5
    36          5
    37         29
    38         39
    39        275
    40         32
    41        261
    42         48
    43        271
    44         48
    45        182
    46          7
    47         77
    48          5
    49         15
    50         76
    51        129
    52         32
    53         41
    54         22
    55         99
    56         25
    57         22
    58         29
    59        231
    60         33
    61         89
    62         25
    63         44
    64         13
    65        135
    66         15
    67         25
    68          9
    69         16
    70          5
    71         22
    72          5
    73        161
    74         27
    75        999
    76         42
    77         95
    78         31
    79         49
    80          9
    81         29
    82          5
    83          9
    84          5
    85         29
    86          9
    87         31
    88          8
    89         29
    90         14
    91        339
    92        156
    93         22
    97          5
    98          5
    99         32
   101         66
   102         19
   103         37
   104         16
   105          9
   107         12
   108         14
   111          9
   113         19
   114          7
   115         21
   116          5
   122         55
   126          9
   128          9
   132          5
   157        259
   158         45
   159         12
   185          8