##TITLE=Library Entry 23667
##JCAMP-DX=Revision 4.10 
##DATA TYPE=MASS SPECTRUM
##SAMPLE DESCRIPTION=A.Mazepa, Phys.-Chem.Institute, Odessa, Ukraine
##NAMES=HP
##CAS NAME=(2,6-Dioxo-3,4,5,6-tetrahydro-2H-[1,4']bipyridinyl-3-yl)-carbamic
 acid tert-butyl ester
##MOLFORM=C15H19N3O4
##CAS REGISTRY NO=213742-13-3
##MP= -300
##BP= -300
##MW= 305
##$RETENTION INDEX=0
##$CONDENSED SPECTRUM=NO
##NPOINTS= 82
##XYDATA=(XY..XY) 1 
    30         14
    31         13
    32          7
    37          1
    38         10
    39         62
    40         17
    41        293
    42         47
    43         28
    44         60
    45          2
    50          6
    51         36
    52          8
    53          5
    54         15
    55         77
    56        147
    57        999
    58         42
    59         26
    64          4
    65          5
    66         11
    67         11
    68          3
    69         13
    78         38
    79          4
    82          6
    83         23
    84        274
    85         81
    86          2
    87          4
    92          3
    93          6
    94        186
    95         90
    96          4
   105          6
   106          3
   107          1
   120         11
   121        177
   122         49
   123         22
   131          1
   132          1
   133         10
   134          5
   136         31
   137         31
   148          2
   149          7
   150         11
   151          3
   160          4
   161          8
   162          1
   176         13
   177         29
   178         16
   179          2
   192          5
   193          6
   204          4
   205         36
   206         13
   220        113
   221         19
   222          3
   231          5
   232         88
   233          9
   249        177
   250         49
   251          3
   277          4
   305         31
   306          3