##TITLE=Library Entry 99919
##JCAMP-DX=Revision 4.10 
##DATA TYPE=MASS SPECTRUM
##SAMPLE DESCRIPTION=Div. of Experiment Therapeutics WRAIR, WRAMC, Washingto
n DC 20307
##NAMES=HP
##CAS NAME=2-Phenylcarbamoylimino-3-phenylcarbamoylthiazolidine
##MOLFORM=C17H16N4O2S
##CAS REGISTRY NO=21380-11-0
##MP= -300
##BP= -300
##MW= 340
##$RETENTION INDEX=0
##$CONDENSED SPECTRUM=NO
##NPOINTS= 86
##XYDATA=(XY..XY) 1 
    41         54
    42         27
    43         35
    45         75
    46         43
    47         11
    48          8
    49         38
    50         58
    51        114
    52         42
    53          6
    54          9
    55         95
    56         30
    57          5
    58         11
    59         74
    60        407
    61         58
    62         48
    63        115
    64        251
    65        120
    66         27
    67          6
    68          3
    69         40
    70         24
    73          9
    74         22
    75         13
    76         12
    77        109
    78         10
    79          6
    80          4
    82          4
    83          1
    84         17
    86         75
    87          5
    88          9
    89          3
    90         26
    91        422
    92         97
    93        900
    94         66
    95          2
   100          3
   101         44
   102        367
   103         32
   104         18
   105          4
   106         29
   107          4
   108          6
   111          8
   119        999
   120         95
   121          7
   124          1
   127          5
   129        262
   130         14
   131         12
   132          2
   134          1
   135          1
   150          2
   151         43
   152          4
   160          8
   167          2
   177          2
   179          9
   204          1
   221        218
   222         40
   223         13
   224          2
   248          0
   307          8
   340          1