##TITLE=Library Entry 34913
##JCAMP-DX=Revision 4.10 
##DATA TYPE=MASS SPECTRUM
##SAMPLE DESCRIPTION=NIST Mass Spectrometry Data Center
##NAMES=HP
##CAS NAME=8-Methyl-6-nonenoic acid
##MOLFORM=C10H18O2
##CAS REGISTRY NO=21382-25-2
##MP= -300
##BP= -300
##MW= 170
##$RETENTION INDEX=1373
##$CONDENSED SPECTRUM=NO
##NPOINTS= 104
##XYDATA=(XY..XY) 1 
    26          2
    27         47
    28         10
    29         41
    30          1
    31          5
    37          1
    38          5
    39        121
    40         22
    41        389
    42         42
    43        110
    44          4
    45         72
    46          2
    47          1
    50          7
    51         20
    52         11
    53         78
    54         38
    55        471
    56        389
    57         81
    58          6
    59         14
    60         46
    61          4
    62          2
    63          6
    64          1
    65         31
    66         14
    67        191
    68        157
    69        999
    70        143
    71         58
    72          4
    73         71
    74          5
    77         28
    78          5
    79         47
    80          9
    81        104
    82         55
    83         98
    84         48
    85         29
    86          5
    87         14
    88          2
    89          1
    91         13
    92          4
    93         44
    94          9
    95        150
    96         43
    97        111
    98         11
    99         15
   100         10
   101         42
   102          5
   103          2
   106          3
   107          6
   108         88
   109         87
   110         74
   111         21
   112          2
   113         17
   114         74
   115         67
   116          5
   117          1
   119         17
   123         35
   124         14
   125          2
   126          1
   127         26
   128          7
   129          1
   133          2
   134          2
   135          3
   137         96
   138          9
   139          1
   141          4
   142          3
   151          3
   152         51
   153          7
   154          1
   155          4
   170         60
   171          6
   172          1