##TITLE=Library Entry 98583
##JCAMP-DX=Revision 4.10 
##DATA TYPE=MASS SPECTRUM
##SAMPLE DESCRIPTION=V.A.Korolev, Moscow, Russia
##NAMES=HP
##CAS NAME=4-(4,5-Dihydro-1H-imidazol-2-yl)pyridine
##MOLFORM=C8H9N3
##CAS REGISTRY NO=21381-61-3
##MP= -300
##BP= -300
##MW= 147
##$RETENTION INDEX=0
##$CONDENSED SPECTRUM=NO
##NPOINTS= 62
##XYDATA=(XY..XY) 1 
    36          4
    37         49
    38         75
    39         78
    40         94
    41        114
    42        188
    43         79
    44         43
    45          3
    46          2
    49         25
    50        146
    51        358
    52         77
    53         18
    54          7
    55         10
    56         11
    57          6
    59          4
    60          9
    61         20
    62         41
    63         84
    64        107
    65         64
    66          9
    67         13
    68          4
    69          6
    70          2
    71          7
    73          2
    75         22
    76         50
    77         46
    78        276
    79         32
    80          2
    85          5
    86          2
    87          1
    88          2
    89          3
    90         15
    91        105
    92         35
    93          8
   103          4
   104         10
   105         65
   106         11
   107          3
   117         19
   118        999
   119        138
   120          8
   146        204
   147        551
   148         56
   149          2