##TITLE=Library Entry 65891
##JCAMP-DX=Revision 4.10 
##DATA TYPE=MASS SPECTRUM
##SAMPLE DESCRIPTION=Div. of Experiment Therapeutics WRAIR, WRAMC, Washingto
n DC 20307
##NAMES=HP
##CAS NAME=1-Phenylcarbamoyl-2,2-dimethylaziridine
##MOLFORM=C11H14N2O
##CAS REGISTRY NO=21383-74-4
##MP= -300
##BP= -300
##MW= 190
##$RETENTION INDEX=0
##$CONDENSED SPECTRUM=NO
##NPOINTS= 121
##XYDATA=(XY..XY) 1 
    41        183
    42        172
    43         51
    44          9
    45          6
    46          1
    47         61
    48         24
    49          2
    50         38
    51          1
    52         37
    53         21
    54         62
    55        338
    56        250
    57          9
    58          6
    59         11
    61          4
    62         10
    63         52
    64         53
    65        226
    66         91
    67         12
    68          5
    69          5
    70        281
    71        315
    72         80
    73          5
    74          7
    75          4
    76          8
    77        187
    78         18
    79          5
    80          1
    81          1
    82          9
    83          3
    84          1
    85          2
    86          1
    87          0
    88         17
    89          0
    90          5
    91         80
    92        137
    93        999
    94         94
    95          0
    96          2
    97          5
    98         34
    99         19
   100          3
   102          0
   103          1
   104         42
   105          8
   106         26
   107          4
   108          0
   109          0
   111          0
   112          1
   113          1
   115          1
   116          0
   117          3
   118          6
   119        181
   120         48
   121          5
   122          0
   123          0
   126          1
   127          1
   128          0
   129          0
   130          5
   131          7
   132         54
   133          6
   134        260
   135         36
   136          3
   137          0
   141          0
   143          0
   144          0
   146         12
   147        143
   148         19
   149          8
   150          5
   151          1
   156          1
   157          1
   158          0
   159          1
   161          0
   162          0
   163          1
   168          0
   170          0
   172          0
   173          5
   174          1
   175         11
   176          1
   178          0
   188          0
   189        136
   190        327
   191         39
   192          9
   193          1