##TITLE=Library Entry 32491
##JCAMP-DX=Revision 4.10 
##DATA TYPE=MASS SPECTRUM
##SAMPLE DESCRIPTION=CARL DJERASSI DEPT OF CHEM STANFORD UNIV STANFORD CALIF
 94305
##NAMES=HP
##CAS NAME=Naphth[2,3-b]oxirene, decahydro-
##MOLFORM=C10H16O
##CAS REGISTRY NO=21399-51-9
##MP= -300
##BP= -300
##MW= 152
##$RETENTION INDEX=0
##$CONDENSED SPECTRUM=NO
##NPOINTS= 69
##XYDATA=(XY..XY) 1 
    41        960
    42        200
    43         90
    44         20
    45         30
    50         40
    51        140
    52         90
    53        340
    54        380
    55        560
    56         40
    57        320
    58         20
    63         40
    64         10
    65        160
    66        120
    67        999
    68        200
    69         90
    70        280
    71        110
    77        260
    78        190
    79        680
    80        290
    81        670
    82        150
    83        140
    84         30
    85         10
    91        730
    92        410
    93        510
    94        200
    95        500
    96        360
    97        110
    98        180
   103         20
   104         40
   105        200
   106        150
   107         90
   108        580
   109        440
   110        120
   111         20
   115         20
   117         10
   119        200
   120         20
   121        150
   122         30
   123        160
   124         60
   125         10
   128         10
   132         10
   133         40
   134        310
   135         30
   136         70
   137        110
   150         20
   151         20
   152        270
   153         30