##TITLE=Library Entry 17768
##JCAMP-DX=Revision 4.10 
##DATA TYPE=MASS SPECTRUM
##SAMPLE DESCRIPTION=Div. of Experiment Therapeutics WRAIR, WRAMC, Washingto
n DC 20307
##NAMES=HP
##CAS NAME=Ethyl N,N-diethylsulfamylphenethylamino)pyrido[2,3-b]pyrazine-6-c
arbamate
##MOLFORM=C22H28N6O4S
##CAS REGISTRY NO=21395-46-0
##MP= -300
##BP= -300
##MW= 472
##$RETENTION INDEX=0
##$CONDENSED SPECTRUM=NO
##NPOINTS= 141
##XYDATA=(XY..XY) 1 
    41         43
    42        188
    43        206
    44        170
    45        999
    46        439
    47         73
    48         10
    49        114
    50         10
    51         49
    52         41
    53         16
    54         23
    55          7
    56         63
    57         13
    58         41
    59          1
    62         10
    63         15
    64         32
    65         27
    66         11
    67         18
    68          7
    69          6
    70         46
    71          9
    72         48
    73          7
    74          3
    75          2
    76         21
    77         54
    78         33
    79         23
    80          6
    81          3
    82          1
    83          3
    84         56
    86         37
    87          3
    88         18
    89         48
    90        143
    91         92
    92         27
    93          9
    94          6
    97          4
   100          1
   102          9
   103        115
   104         46
   105         20
   106         13
   107         17
   108          2
   111          1
   115          4
   116          9
   117         16
   118         54
   119         24
   120         28
   121          9
   122          1
   124          4
   125          1
   128          2
   130         24
   131         18
   132         19
   133          5
   134         16
   136          1
   138          4
   139          5
   143          2
   144         18
   145         37
   146         77
   147         30
   148          2
   151          5
   154         12
   155          3
   157          8
   158          5
   159          6
   160          4
   161          6
   162          9
   167         11
   171         11
   172         25
   173         16
   174        102
   175         13
   186          3
   187          5
   188          5
   192          1
   193          3
   198          8
   200        597
   201         67
   202          6
   206          3
   210         25
   211          8
   212          2
   229          2
   233          2
   246        236
   247         32
   248          5
   262          4
   263          4
   265         96
   266         16
   267         36
   268          5
   269          1
   282          3
   291        295
   292         56
   293          6
   337        143
   338         29
   339          4
   355          6
   372          1
   400          3
   401          6
   427         20
   428          4
   472         12
   473          2