##TITLE=Library Entry 39709
##JCAMP-DX=Revision 4.10 
##DATA TYPE=MASS SPECTRUM
##SAMPLE DESCRIPTION=Japan AIST/NIMC Database- Spectrum MS-IW-6858
##NAMES=HP
##CAS NAME=n-Hexanoyl-dl-norvaline
##MOLFORM=C11H21NO3
##CAS REGISTRY NO=21393-90-8
##MP= -300
##BP= -300
##MW= 215
##$RETENTION INDEX=0
##$CONDENSED SPECTRUM=NO
##NPOINTS= 123
##XYDATA=(XY..XY) 1 
    15          4
    17          1
    18          4
    26          4
    27         81
    28         56
    29        110
    30         74
    31          4
    38          2
    39         46
    40          9
    41        158
    42         62
    43        498
    44        128
    45          9
    46          2
    50          1
    51          2
    52          2
    53         14
    54         40
    55        135
    56         67
    57         54
    58          6
    59         65
    60         10
    61          1
    65          2
    66          1
    67         10
    68         14
    69         39
    70        121
    71        251
    72        999
    73         60
    74         27
    75         13
    76          6
    77          1
    79          2
    80          7
    81         11
    82         18
    83         27
    84         22
    85         84
    86         43
    87          7
    88         18
    89          4
    91          1
    93          2
    94          3
    95          2
    96         17
    97         10
    98         50
    99        310
   100         32
   101         10
   102          9
   104          1
   108          1
   109          2
   110         16
   111          4
   112         16
   113        191
   114         69
   115         21
   116         58
   117        182
   118         48
   119          4
   122          1
   123          1
   124         58
   125         10
   126         66
   127         10
   128         15
   129          3
   130         15
   131          7
   132          1
   138          6
   139          3
   140         27
   141        314
   142         44
   143          4
   144         14
   145          2
   152          2
   153          5
   154         33
   155         83
   156          9
   157          1
   159        174
   160         14
   161          1
   168         47
   169         12
   170         70
   171         19
   172         18
   173         91
   174          9
   175          1
   186          9
   187          2
   196          1
   197          8
   198          4
   200          2
   214          1
   215         14
   216          6