##TITLE=Library Entry 17682
##JCAMP-DX=Revision 4.10 
##DATA TYPE=MASS SPECTRUM
##SAMPLE DESCRIPTION=Div. of Experiment Therapeutics WRAIR, WRAMC, Washingto
n DC 20307
##NAMES=HP
##CAS NAME=Ethyl 8-[p-chloroanilino]-3-[p-chlorophenyl]pyrido[2,3-b]pyrazine
-6-carbamate
##MOLFORM=C22H17Cl2N5O2
##CAS REGISTRY NO=21395-43-7
##MP= -300
##BP= -300
##MW= 453
##$RETENTION INDEX=0
##$CONDENSED SPECTRUM=NO
##NPOINTS= 78
##XYDATA=(XY..XY) 1 
    41         39
    42         89
    43        215
    44         84
    45        999
    46        443
    47         47
    49         45
    50        107
    51         78
    52         46
    61         68
    62        124
    63        264
    64        118
    65         38
    67         11
    70         14
    72          9
    73         57
    74         54
    75        147
    76         75
    77         61
    87          9
    88         38
    89        114
    90        356
    91         39
    98         44
    99         43
   100         37
   101         36
   102         34
   111        104
   113         38
   114         30
   116         10
   125        377
   126         83
   127        176
   128         10
   136         36
   137         37
   138         57
   140         20
   150         39
   152         22
   153        820
   154         79
   155        269
   156         29
   162         20
   165         12
   169         22
   180         62
   186         36
   187         19
   188         11
   214         62
   330          9
   372          9
   380        201
   381        142
   382        124
   383         97
   384         27
   406         24
   407        288
   408        148
   409        194
   410        102
   411         37
   453        191
   454         63
   455        126
   456         26
   457          9