##TITLE=Library Entry 32818
##JCAMP-DX=Revision 4.10 
##DATA TYPE=MASS SPECTRUM
##SAMPLE DESCRIPTION=R.Herzschuh ET AL. J.Prakt.Chem.,322,450(1980)
##NAMES=HP
##CAS NAME=Bicyclo[5.4.0]undecane (trans)
##MOLFORM=C11H20
##CAS REGISTRY NO=21394-30-9
##MP= -300
##BP= -300
##MW= 152
##$RETENTION INDEX=1206
##$CONDENSED SPECTRUM=NO
##NPOINTS= 48
##XYDATA=(XY..XY) 1 
    39        178
    40         31
    41        597
    42         47
    43         58
    51         16
    52         10
    53         97
    54        173
    55        660
    56         50
    57         10
    65         31
    66         63
    67        999
    68        487
    69        196
    70         21
    71          5
    72         34
    77         10
    78         79
    79         32
    80        419
    81        927
    82        332
    83         29
    84          5
    91         16
    93         26
    94         24
    95        296
    96        466
    97         97
   109          8
   110          5
   111         13
   123        170
   124        113
   125         10
   136         34
   137         42
   138          5
   140          5
   151          5
   152        275
   153         34
   154          3