##TITLE=Library Entry 17684
##JCAMP-DX=Revision 4.10 
##DATA TYPE=MASS SPECTRUM
##SAMPLE DESCRIPTION=LAC, NIDDK, NIH, Bethesda, MD 20892
##NAMES=HP
##CAS NAME=Ethyl 8-[p-chloroanilino]-2,3-bis[p-chlorophenyl]pyrido[2,3-b]pyr
azine-6-carbamate
##MOLFORM=C28H20Cl3N5O2
##CAS REGISTRY NO=21395-44-8
##MP= -300
##BP= -300
##MW= 563
##$RETENTION INDEX=0
##$CONDENSED SPECTRUM=NO
##NPOINTS= 154
##XYDATA=(XY..XY) 1 
    41         23
    42         68
    43        182
    45        999
    46        337
    47         27
    49         36
    50         49
    51         38
    52         24
    61         38
    62         79
    63        162
    64         64
    65         10
    66          7
    70         38
    72         12
    73         42
    74         30
    75         93
    77         71
    78         17
    84         19
    86         20
    87         15
    88         27
    89         52
    90        217
    91         15
    97          4
    98         23
    99         25
   100         12
   101         10
   102         38
   111         85
   113         39
   114         32
   116          5
   123         22
   124         10
   125        368
   127        170
   128         15
   134         16
   137         80
   138         52
   139         22
   140         26
   141         16
   149          5
   150          9
   151         18
   153        827
   154         25
   155        328
   156         17
   157          9
   161         19
   162          9
   163         31
   164          6
   165         19
   170          4
   173          6
   174          4
   175         16
   176         38
   177         19
   178         13
   179         15
   180        123
   181         23
   184         34
   187         10
   188         25
   189         31
   190         45
   191         13
   192          5
   193          6
   199         16
   201         25
   202         28
   204          4
   205          8
   206         46
   207          6
   208         12
   210          5
   214         84
   215         35
   216         36
   217         19
   223         43
   224         24
   225         15
   227          5
   228         21
   229          9
   234         11
   237         26
   241         29
   242         13
   243         33
   245         23
   246         32
   248         10
   258          5
   259          5
   260         17
   317         17
   353          6
   379         23
   380          4
   381         10
   398          6
   403         14
   405         23
   406         39
   407         17
   408         25
   433          8
   435          7
   437         18
   439         15
   456          4
   477         10
   482         59
   483         14
   484         56
   485         17
   486          4
   490         52
   491         60
   492         49
   493         48
   494         27
   495         22
   516        218
   517        803
   518        461
   519        791
   520        184
   521        235
   522         54
   523         19
   563         87
   564         23
   565         86
   566         22
   567         28
   568          4