##TITLE=Library Entry 109498
##JCAMP-DX=Revision 4.10 
##DATA TYPE=MASS SPECTRUM
##SAMPLE DESCRIPTION=Exported from NIST MS Search
##NAMES=HP
##CAS NAME=Cytidine, 5-methyl-
##MOLFORM=C10H15N3O5
##CAS REGISTRY NO=2140-61-6
##MP= -300
##BP= -300
##MW= 257
##$RETENTION INDEX=0
##$CONDENSED SPECTRUM=NO
##NPOINTS= 149
##XYDATA=(XY..XY) 1 
    25        155
    26        144
    27        491
    28        702
    29        338
    30        105
    31        208
    32         50
    36          8
    37         19
    38         52
    39        175
    40         83
    41        130
    42        172
    43        436
    44        194
    45         94
    46          8
    47         19
    50          5
    51         41
    52        127
    53        158
    54        333
    55        500
    56        208
    57        211
    58         66
    59         19
    60         97
    61         86
    62         16
    64          8
    65          8
    66         33
    67         19
    68         63
    69        122
    70        319
    71        119
    72         33
    73        163
    74         83
    75         11
    76         11
    77         16
    78         11
    79         33
    80         38
    81        222
    82        105
    83        152
    84         55
    85         63
    86         33
    87         16
    91          8
    93         22
    94         22
    95         33
    96         63
    97        141
    98         47
    99          8
   100          8
   101          8
   102          8
   103          8
   105          8
   106          2
   107          8
   108         75
   109         77
   110         77
   111         22
   112          8
   113         13
   114         22
   115         33
   116         13
   119          8
   120          8
   121          8
   122          8
   123          8
   124         44
   125        999
   126        705
   127         97
   128         11
   132          8
   133         33
   134         16
   135         11
   136         22
   137         11
   138         11
   139         11
   142         19
   143          8
   144          8
   145          8
   146          8
   148         16
   149         55
   150         33
   151         58
   152         13
   153         33
   154        166
   155         25
   157         16
   161         13
   162         13
   163         13
   164          5
   165         88
   166          8
   167          8
   168         27
   169          8
   174         11
   175         11
   176         11
   177         11
   178          8
   179         22
   180          8
   181          8
   183          8
   184         22
   185          5
   190          8
   191          8
   192          5
   203         11
   205          8
   206          8
   209          8
   214          8
   215          8
   222         11
   232          8
   239          8
   240         75
   241         11
   257          8
   258          8