##TITLE=Library Entry 292
##JCAMP-DX=Revision 4.10 
##DATA TYPE=MASS SPECTRUM
##SAMPLE DESCRIPTION=Exported from NIST MS Search
##NAMES=HP
##CAS NAME=Guanosine, N-methyl-
##MOLFORM=C11H15N5O5
##CAS REGISTRY NO=2140-77-4
##MP= -300
##BP= -300
##MW= 297
##$RETENTION INDEX=0
##$CONDENSED SPECTRUM=NO
##NPOINTS= 122
##XYDATA=(XY..XY) 1 
    25          4
    26        102
    27        669
    28        999
    29         96
    30        133
    31         41
    36          4
    37          4
    38         37
    39         58
    40         58
    41        104
    42        108
    43        221
    44        221
    45         14
    46          4
    50          4
    51         12
    52         29
    53        156
    54        146
    55        121
    56         58
    57        205
    58         52
    59          6
    60         12
    61          6
    63          6
    64          6
    65         20
    66         37
    67         69
    68         77
    69         37
    70         12
    71          4
    72          6
    73          6
    75          6
    76          8
    77          6
    78         14
    79         23
    80         37
    81        104
    82         58
    83         66
    84         14
    85          4
    86         10
    91         23
    92          4
    93         35
    94         20
    95         29
    96         14
    97          4
    98          4
    99          4
   103          4
   104          4
   105          4
   106         12
   107         18
   108        179
   109        177
   110        251
   111         20
   112          4
   113          4
   114          4
   115          4
   118          6
   119         16
   120         25
   121         14
   122         37
   123         20
   124         14
   133          2
   134         23
   135        173
   136        284
   137        110
   138         14
   146          4
   147          2
   148         14
   149         41
   150         18
   151         41
   152          4
   163         14
   164         62
   165        774
   166         79
   167          6
   175          4
   176          2
   177          2
   178          2
   179         50
   180          2
   188          2
   189         20
   190          2
   191          2
   202          2
   203         12
   204          2
   205          4
   217          2
   218          2
   219          2
   239          2
   240          2
   241          2
   243          2
   255          2