##TITLE=Library Entry 30781
##JCAMP-DX=Revision 4.10 
##DATA TYPE=MASS SPECTRUM
##SAMPLE DESCRIPTION=R RYHAGE MS-LAB KAROLINSKA INSTITUTET STOCKHOLM SWEDEN
##NAMES=HP
##CAS NAME=2,4,6,8-Tetrathiaadamantane-1-carboxylic acid, 3,5,7-trimethyl-
##MOLFORM=C10H14O2S4
##CAS REGISTRY NO=21404-62-6
##MP= -300
##BP= -300
##MW= 294
##$RETENTION INDEX=0
##$CONDENSED SPECTRUM=NO
##NPOINTS= 270
##XYDATA=(XY..XY) 1 
    12          3
    13          0
    15         10
    25          2
    26         15
    27         41
    28         12
    29         20
    30          5
    31          4
    32          2
    33         23
    34         58
    35          8
    36         44
    37          6
    38         19
    39        123
    40         21
    41        135
    42         13
    43         61
    44         10
    45        161
    46         11
    47         25
    48          3
    49          3
    50         11
    51         22
    52         10
    53         36
    54          8
    55         31
    56         11
    57         22
    58         87
    59        999
    60         46
    61         59
    62          6
    63         10
    64          9
    65         49
    66         16
    67         44
    68          8
    69         31
    70         10
    71         38
    72         10
    73        103
    74         38
    75         16
    76         11
    77         24
    78          9
    79         22
    80          4
    81         10
    82          8
    83         29
    84         33
    85         87
    86         11
    87         16
    88          3
    89          7
    90          5
    91         50
    92         23
    93         15
    94          4
    95          7
    96          5
    97         60
    98         43
    99        100
   100         25
   101         27
   102          6
   103         28
   104          4
   105         15
   106          4
   107          8
   108          5
   109          9
   110         16
   111        112
   112         44
   113         67
   114          8
   115         19
   116         20
   117        330
   118         27
   119         39
   120          5
   121         16
   122          3
   123         11
   124         14
   125        152
   126        127
   127         71
   128         13
   129         27
   130         26
   131        271
   132         31
   133         50
   134         12
   135         14
   136          6
   137         14
   138         22
   139         66
   140         11
   141         14
   142          9
   143         86
   144         65
   145         44
   146         11
   147         86
   148          8
   149         27
   150         19
   151         42
   152         64
   153         16
   154          8
   155         56
   156         11
   157        114
   158         33
   159         22
   160          4
   161        104
   162         27
   163         18
   164          5
   165         11
   166          3
   167         11
   168          8
   169        152
   170         24
   171         19
   172          3
   173          3
   174          1
   175          7
   176          2
   177          3
   178          2
   179          3
   180          3
   181         11
   182          7
   183         66
   184         42
   185        194
   186         27
   187         71
   188         63
   189         64
   190         11
   191         10
   192          2
   193          2
   194          3
   195         13
   196         22
   197         11
   198          7
   199          3
   200          1
   201          4
   202          2
   203          5
   204          1
   205          1
   206          1
   207          1
   208          0
   209          0
   210          1
   211         39
   212          6
   213          6
   214          1
   215          2
   216          9
   217         57
   218          9
   219         10
   220          1
   221          4
   222          0
   223          0
   224          0
   225          0
   226          0
   227          4
   228         11
   229        228
   230         36
   231         24
   232          4
   233          5
   234          0
   235          1
   236          0
   237          0
   238          0
   239          0
   240          0
   241          0
   242          0
   243          0
   244          0
   245          0
   246          0
   247          0
   248          0
   249          0
   250        101
   251         13
   252         20
   253          2
   254          1
   255          0
   256          0
   257          0
   258          0
   259          0
   260          1
   261        144
   262         21
   263         20
   264          3
   265          1
   266         16
   267          2
   268          3
   269          0
   270          0
   271          0
   272          0
   273          0
   274          0
   275          0
   276          0
   277          0
   278          1
   279          0
   280          2
   281          0
   282          0
   283          0
   284          0
   285          0
   294        678
   295         94
   296        135
   297         16
   298         11
   299          1