##TITLE=Library Entry 86221
##JCAMP-DX=Revision 4.10 
##DATA TYPE=MASS SPECTRUM
##SAMPLE DESCRIPTION=Exported from NIST MS Search
##NAMES=HP
##CAS NAME=1-Propene, 1,1,2-trichloro-
##MOLFORM=C3H3Cl3
##CAS REGISTRY NO=21400-25-9
##MP= -300
##BP= -300
##MW= 144
##$RETENTION INDEX=0
##$CONDENSED SPECTRUM=NO
##NPOINTS= 116
##XYDATA=(XY..XY) 1 
    12          7
    13          3
    14          5
    15         11
    16          1
    17          2
    18          9
    19          1
    20          1
    24          7
    25         15
    26         35
    27         41
    28         20
    29          5
    30          1
    31          1
    32          4
    35         73
    36        160
    37        213
    38        173
    39        158
    40          7
    41         11
    42          1
    43          3
    44          2
    45          4
    47        103
    48         20
    49        161
    50          8
    51         41
    52          1
    53         20
    54         22
    55         11
    56          1
    57          1
    59         12
    60         22
    61         68
    62         15
    63         24
    64          3
    65          2
    66          1
    67          1
    69          1
    70          2
    71         25
    72         83
    73        116
    74         54
    75        149
    76         12
    77         10
    78          1
    79          1
    80          1
    82         41
    83        326
    84         33
    85        205
    86          7
    87         33
    88          1
    89          1
    91          1
    94         19
    95         10
    96         21
    97         81
    98          9
    99         50
   100          2
   101          8
   105          6
   106          2
   107         41
   108         19
   109        999
   110         47
   111        656
   112         23
   113        119
   114          4
   115          3
   116          1
   117          5
   119          5
   121          1
   123          1
   124          1
   125          1
   126          1
   129          8
   130          4
   131         10
   132          4
   133          4
   134          2
   135          1
   136          1
   139          1
   140          1
   141          1
   142          1
   143         31
   144        256
   145         43
   146        242
   147         18
   148         77
   149          8