##TITLE=Library Entry 48368
##JCAMP-DX=Revision 4.10 
##DATA TYPE=MASS SPECTRUM
##SAMPLE DESCRIPTION=Div. of Experiment Therapeutics WRAIR, WRAMC, Washingto
n DC 20307
##NAMES=HP
##CAS NAME=Thiobenzoic acid [2-pyridyl-1-ethylidene]hydrazide
##MOLFORM=C14H13N3S
##CAS REGISTRY NO=214001-05-5
##MP= -300
##BP= -300
##MW= 255
##$RETENTION INDEX=0
##$CONDENSED SPECTRUM=NO
##NPOINTS= 180
##XYDATA=(XY..XY) 1 
    42        442
    43        290
    45        287
    46          7
    47         17
    48          1
    49          9
    50        182
    51        645
    52        311
    53         87
    54         22
    55          4
    56          4
    57          7
    58         17
    59         75
    60        174
    61         22
    62         27
    63         93
    64         46
    65         51
    66         17
    67         25
    69         67
    70         12
    71         10
    72          3
    73         14
    74         62
    75         49
    76        142
    77        720
    78        999
    79        351
    80         65
    81         10
    82         17
    83         13
    84         13
    85          3
    86          5
    87          6
    88          6
    89         32
    90         42
    91        101
    92         51
    93         44
    94         14
    95          9
    96         14
    97          2
    98          1
    99          3
   100          2
   101          3
   102         14
   103        118
   104        485
   105        541
   106        317
   107         33
   108         18
   109         57
   110         11
   111         28
   112          9
   113          3
   114          1
   115         15
   116          9
   117         26
   118         32
   119         58
   120         20
   121        602
   122         70
   123         44
   124         12
   125          3
   126          1
   127          2
   128          3
   129          1
   130          1
   131          1
   133          2
   134         28
   135         83
   136         74
   137         41
   138         81
   139         11
   140          6
   141          2
   142          1
   143          2
   144          1
   145          1
   146          1
   147          5
   148         13
   149         22
   150        498
   151         74
   152         94
   153         11
   154          6
   155          1
   156          1
   157          1
   160          4
   162          7
   163         10
   164          9
   165         11
   166          6
   167         28
   168          8
   169          2
   176         33
   177        998
   178        114
   179         61
   180         23
   181         16
   182          5
   183          2
   184          2
   185          0
   186          1
   190          3
   191         16
   192         52
   193         78
   194        176
   195         26
   196          3
   197          0
   198          1
   199          0
   200          1
   206          0
   207          2
   208          1
   209          1
   210          7
   211          7
   212         60
   213         18
   214         22
   215          4
   216          1
   220          1
   221          9
   222         12
   223          7
   224          9
   225          2
   226        397
   227        341
   228         64
   229         18
   230          2
   237          0
   238         31
   239         20
   240        687
   241        117
   242         42
   243          6
   244          1
   253          2
   254          3
   255        381
   256         67
   257         22
   258          3