##TITLE=Library Entry 98717
##JCAMP-DX=Revision 4.10 
##DATA TYPE=MASS SPECTRUM
##SAMPLE DESCRIPTION=V.A. KOPTYUG, ATLAS OF MS OF ORG. CMPDS., ED. 2
##NAMES=HP
##CAS NAME=2-Oxo-1-methyl-4,6-diphenyl-1,2-dihydropyrimidine
##MOLFORM=C17H14N2O
##CAS REGISTRY NO=21418-80-4
##MP= -300
##BP= -300
##MW= 262
##$RETENTION INDEX=0
##$CONDENSED SPECTRUM=NO
##NPOINTS= 27
##XYDATA=(XY..XY) 1 
    39         17
    41         15
    43         19
    44        227
    47         13
    48         11
    69        202
    76         19
    77         57
    83         84
    85         46
    89         17
    90         11
    91         22
   102         20
   103         26
   104         15
   115         61
   116        179
   117        145
   118        999
   131         71
   185         15
   234         15
   261        290
   262        110
   263         21