##TITLE=Library Entry 90627
##JCAMP-DX=Revision 4.10 
##DATA TYPE=MASS SPECTRUM
##SAMPLE DESCRIPTION=V.A.Korolev, Moscow, Russia
##NAMES=HP
##CAS NAME=4-Phenyl-1,3-benzothiazol-2-amine
##MOLFORM=C13H10N2S
##CAS REGISTRY NO=21418-32-6
##MP= -300
##BP= -300
##MW= 226
##$RETENTION INDEX=0
##$CONDENSED SPECTRUM=NO
##NPOINTS= 153
##XYDATA=(XY..XY) 1 
    33          9
    34         11
    36         25
    37         21
    38         79
    39        312
    40        126
    41        233
    42         91
    43        259
    44        314
    45        198
    46          4
    47          6
    48          5
    49          4
    50        178
    51        303
    52         90
    53         21
    54         12
    55        229
    56        109
    57        345
    58         23
    59         14
    60        186
    61         48
    62        167
    63        354
    64         82
    65        107
    66         15
    67         24
    68         13
    69        245
    70        211
    71        223
    72         16
    73         19
    74        156
    75        175
    76        124
    77        444
    78         30
    79         34
    80         19
    81         34
    82         64
    83         69
    84         57
    85         49
    86         41
    87         65
    88         41
    89         72
    90         16
    91         52
    92         18
    93         38
    94         19
    95         22
    96         16
    97         29
    98         45
    99        141
   100         19
   101         35
   102         35
   103         11
   104         15
   105         12
   106         10
   107          5
   108          8
   109          7
   110         13
   111         28
   112        118
   113        999
   114        295
   115        401
   116         95
   117         81
   118         17
   119         21
   120         40
   121         51
   122         40
   123         24
   124         34
   125         77
   126        153
   127        291
   128        168
   129         81
   130         16
   132          7
   133          9
   134         14
   135          8
   137         56
   138        132
   139        797
   140        407
   141         75
   142          9
   144         12
   145         44
   146         24
   148         30
   149         16
   150         56
   151         67
   152        188
   153         79
   154        221
   155         43
   157          8
   158         10
   164        101
   165         57
   166        425
   167        992
   168        132
   169         18
   170         17
   171        343
   172         54
   173          8
   177         15
   178         11
   181         38
   182         96
   183         24
   184         18
   192         77
   193         30
   194        120
   195          9
   196          8
   197         19
   198         53
   199         63
   200          8
   208         11
   209         57
   210         12
   211          6
   225        349
   226        843
   227        127
   228         24