##TITLE=Library Entry 37192
##JCAMP-DX=Revision 4.10 
##DATA TYPE=MASS SPECTRUM
##SAMPLE DESCRIPTION=NIST Mass Spectrometry Data Center
##NAMES=HP
##CAS NAME=(-)-Menthylamine
##MOLFORM=C10H21N
##CAS REGISTRY NO=21411-81-4
##MP= -300
##BP= -300
##MW= 155
##$RETENTION INDEX=0
##$CONDENSED SPECTRUM=NO
##NPOINTS= 57
##XYDATA=(XY..XY) 1 
    15          4
    17          1
    18         19
    27         55
    28         99
    29         29
    30        119
    39         63
    40         14
    41        141
    42         57
    43        166
    44         27
    50          2
    51          6
    52          4
    53         25
    54         20
    55         70
    56        107
    57         17
    58          4
    63          1
    65          7
    67         45
    68         19
    70        999
    71         54
    72          3
    77          8
    79         10
    80          9
    81         63
    82         24
    83          9
    84         40
    85          3
    86          1
    91          4
    93          5
    94          8
    95         46
    96         13
    98         62
    99          6
   109          4
   110          3
   112         12
   113          1
   123         14
   124          2
   138         34
   139          5
   140         33
   141          3
   155         30
   156          4