##TITLE=Library Entry 14109
##JCAMP-DX=Revision 4.10 
##DATA TYPE=MASS SPECTRUM
##SAMPLE DESCRIPTION=H. Fales, LC, NHLBI, NIH, Bethesda, MD 20892
##NAMES=HP
##CAS NAME=O,O-Diacetylpancracine
##MOLFORM=C20H21NO6
##CAS REGISTRY NO=21416-16-0
##MP= -300
##BP= -300
##MW= 371
##$RETENTION INDEX=0
##$CONDENSED SPECTRUM=NO
##NPOINTS= 229
##XYDATA=(XY..XY) 1 
    42        351
    43        999
    44         65
    45         15
    46          0
    47          4
    48          1
    49         20
    50         11
    51         39
    52         10
    53         23
    54         18
    55         49
    56         21
    57         17
    58          5
    59          4
    60         10
    61          3
    62          6
    63         25
    64          9
    65         29
    66          7
    67         19
    68         11
    69         13
    70          8
    71          8
    72          3
    73          5
    74          4
    75         11
    76         19
    77         61
    78         18
    79         15
    80          7
    81         14
    82         31
    83         30
    84         19
    85          4
    86          9
    87          6
    88         10
    89         28
    90          3
    91        158
    92         14
    93          5
    94          4
    95          6
    96          2
    97         29
    98          3
    99          3
   100          1
   101          9
   102         18
   103         21
   104         12
   105          9
   106          7
   107          6
   108          1
   109          3
   110          1
   111         12
   112          2
   113          9
   114         16
   115         68
   116         25
   117         11
   118          7
   119          4
   120          3
   121          0
   122          1
   123          3
   124          4
   126         41
   127         37
   128         46
   129         21
   130         10
   131          8
   132          2
   133          2
   134          0
   135         36
   136          5
   137          1
   139         27
   140          6
   141         36
   142          9
   143          9
   144          4
   145          3
   146          3
   147          8
   148          7
   149         17
   150          4
   151         12
   152         60
   153         54
   154         24
   155         19
   156          8
   157          8
   158          1
   159          8
   160         10
   161         28
   162         18
   163         25
   164          4
   165        106
   166         31
   167         82
   168         18
   169         13
   170          3
   171         16
   172         20
   173          9
   174         65
   175         18
   176         13
   177          7
   178          4
   179          4
   180          7
   181         31
   182         11
   183         11
   184          1
   185         61
   186         13
   187          6
   188          3
   189          1
   190          1
   191          3
   192          6
   193         23
   194         19
   195         14
   196          3
   197         16
   198         12
   199         23
   200          9
   201          5
   202          3
   203          0
   204          4
   205          0
   207          0
   208          1
   209         15
   210         14
   211         43
   212         38
   213         18
   214         16
   215         10
   216          1
   218          0
   220          3
   221          6
   222         27
   223        252
   224         52
   225         27
   226         15
   227         11
   228          6
   229          1
   234          2
   235          3
   236          2
   237         12
   238         19
   239         22
   240         28
   241         19
   242         11
   243          5
   244          1
   248          0
   249          0
   250         80
   251        136
   252        946
   253        167
   254         19
   255          2
   256          3
   257          1
   266          4
   267          0
   268         38
   269         24
   270         18
   271          2
   283          3
   284          4
   285          2
   286          7
   287          2
   308          1
   310         17
   311         11
   312        680
   313        127
   314         17
   315          1
   328          3
   329          4
   370          5
   371        559
   372        122
   373         20
   374          2