##TITLE=Library Entry 42237
##JCAMP-DX=Revision 4.10 
##DATA TYPE=MASS SPECTRUM
##SAMPLE DESCRIPTION=M.ENDE, STAATLICHES CHEM. UNTERSUCHUNGS AMT, OLDENBURG,
 W.GE4
##NAMES=HP
##CAS NAME=Pimaric acid, TMS derivative
##MOLFORM=C23H38O2Si
##CAS REGISTRY NO=21414-46-0
##MP= -300
##BP= -300
##MW= 374
##$RETENTION INDEX=2287
##$CONDENSED SPECTRUM=NO
##NPOINTS= 121
##XYDATA=(XY..XY) 1 
    41        179
    43         53
    44         12
    45         53
    46          6
    47          6
    53         59
    54         12
    55        179
    56         15
    58         29
    59         12
    60          9
    65         24
    66         12
    67        119
    68         12
    69         89
    72         18
    73        999
    74         83
    75        209
    76         12
    77         53
    78         18
    79        149
    80         18
    81        179
    82         18
    83          6
    91        173
    92         47
    93        119
    94         29
    95         59
    96          6
    97         59
    99          6
   103         12
   104         12
   105        131
   106         29
   107        107
   108         29
   109        137
   110          6
   115         12
   116         16
   117        119
   118         12
   119        131
   120        299
   121        628
   122         83
   123        107
   124         12
   125         12
   128          6
   129         18
   130         12
   131         53
   132         12
   133        119
   134         47
   135         59
   136          6
   141          6
   142          6
   143         71
   144         18
   145         47
   146         18
   147         59
   148         83
   149         47
   150         18
   151         12
   157         12
   158         12
   159         47
   160         12
   161         71
   162         12
   163          6
   171         12
   172         29
   173         35
   174         12
   175         29
   176          6
   185         24
   186         12
   187         29
   188         12
   189          6
   199         15
   201         15
   213         18
   214         12
   215         12
   225         12
   226         18
   227         29
   228         18
   229         12
   237         12
   238        107
   239        113
   240         12
   241         71
   242         12
   250         12
   251         59
   252         18
   256         12
   257        239
   258         47
   359        149
   360         41
   374        107
   375         24