##TITLE=Library Entry 43635
##JCAMP-DX=Revision 4.10 
##DATA TYPE=MASS SPECTRUM
##SAMPLE DESCRIPTION=M.ENDE, STAATLICHES CHEM. UNTERSUCHUNGS AMT, OLDENBURG,
 W.GEZ
##NAMES=HP
##CAS NAME=Isopimaric acid, TMS
##MOLFORM=C23H38O2Si
##CAS REGISTRY NO=21414-47-1
##MP= -300
##BP= -300
##MW= 374
##$RETENTION INDEX=2315
##$CONDENSED SPECTRUM=NO
##NPOINTS= 109
##XYDATA=(XY..XY) 1 
    41        272
    42         18
    43        193
    44         12
    45         60
    53         48
    54         12
    55        272
    56         24
    57        169
    58         12
    59         18
    61         15
    65         24
    66         12
    67        121
    68         36
    69        193
    70         30
    71         90
    72         18
    73        999
    74         78
    75        272
    76         18
    77        109
    78         18
    79        169
    80         60
    81        254
    82         30
    83         42
    84          6
    85         54
    91        181
    92         60
    93        151
    94         15
    95         97
    96         12
    97         72
    98         15
   103         15
   104         15
   105        193
   106        109
   107        115
   108         48
   109        212
   110         15
   116         15
   117        121
   118         24
   119        169
   120         97
   121        175
   122         15
   123         60
   131        121
   132         36
   133        109
   134         30
   135         30
   142         18
   143        121
   144         15
   145         75
   146         36
   147         48
   148         75
   149         30
   157         39
   158         30
   159         78
   160         30
   161         42
   171         48
   172         24
   173         72
   174         24
   175         60
   184         12
   185         72
   186         60
   187        136
   188         45
   199         60
   200         30
   201        151
   202         12
   213         60
   214         30
   215         15
   216          9
   227        103
   228         36
   229         15
   241        606
   242        121
   243         12
   255         24
   256        727
   257        303
   258         60
   345         18
   359        181
   360         45
   374         60
   375         15