##TITLE=Library Entry 65003
##JCAMP-DX=Revision 4.10 
##DATA TYPE=MASS SPECTRUM
##SAMPLE DESCRIPTION=Chemical Concepts
##NAMES=HP
##CAS NAME=2-Butanol, 1-[(2-hydroxyethyl)thio]-
##MOLFORM=C6H14O2S
##CAS REGISTRY NO=21428-94-4
##MP= -300
##BP= -300
##MW= 150
##$RETENTION INDEX=0
##$CONDENSED SPECTRUM=NO
##NPOINTS= 91
##XYDATA=(XY..XY) 1 
    25          3
    26         29
    27        263
    28         20
    29        154
    30         10
    31        350
    33          1
    34          7
    35         20
    36         53
    37          2
    38         17
    39         55
    40         51
    41        208
    42         27
    43        141
    44        263
    45        413
    46        294
    47        230
    48        176
    49        240
    50         14
    51         14
    52          2
    53         22
    54         52
    55        266
    56         40
    57        166
    58         25
    59        333
    60         57
    61        775
    62        184
    63         50
    64         14
    65          1
    67         20
    68          5
    69          7
    70          6
    71         23
    72         41
    73         29
    74        122
    75        117
    76         18
    77         42
    78          3
    79          4
    81          4
    85         34
    86         16
    87         48
    88         38
    89         47
    90          8
    91         61
    92        999
    93         77
    94         45
    95          3
    97          1
    99          1
   100          4
   101         72
   102         34
   103        222
   104         35
   105         16
   106          2
   113          5
   115          4
   117          3
   118          1
   119         42
   120         44
   121          6
   122          5
   129          1
   131         12
   132         39
   133          9
   134          4
   135          2
   150        105
   151         11
   152          7