##TITLE=Library Entry 48877
##JCAMP-DX=Revision 4.10 
##DATA TYPE=MASS SPECTRUM
##SAMPLE DESCRIPTION=D.HENNEBERG, MAX-PLANCK INSTITUTE, MULHEIM, WEST GERMAN
Y
##NAMES=HP
##CAS NAME=Dispiro[2.0.2.2]octane
##MOLFORM=C8H12
##CAS REGISTRY NO=21426-37-9
##MP= -300
##BP= -300
##MW= 108
##$RETENTION INDEX=0
##$CONDENSED SPECTRUM=NO
##NPOINTS= 55
##XYDATA=(XY..XY) 1 
    26         26
    27        169
    28         62
    29         43
    30          1
    31          5
    32          3
    34          0
    37          0
    38         12
    39        329
    40        104
    41        211
    42         18
    43          5
    44          8
    45          1
    50         23
    51        108
    52        159
    53        175
    54        169
    55         32
    56          7
    57          1
    62          3
    63         18
    64          7
    65        144
    66        103
    67        149
    68         16
    69          5
    71          0
    75          5
    76          3
    77        497
    78        112
    79        999
    80        858
    81         66
    82          6
    89          2
    91        329
    92         33
    93        402
    94         33
    95          4
   103          5
   104          1
   105         19
   106          2
   107         26
   108         31
   109          3