##TITLE=Library Entry 63154
##JCAMP-DX=Revision 4.10 
##DATA TYPE=MASS SPECTRUM
##SAMPLE DESCRIPTION=A.J.BLACKMAN DEPT. CHEM., UNIV. TASMANIA, HOBART, TASMA
NIA
##NAMES=HP
##CAS NAME=3H-1,2,4-Triazole-3-thione, 1,2-dihydro-2-phenyl-
##MOLFORM=C8H7N3S
##CAS REGISTRY NO=21434-18-4
##MP= -300
##BP= -300
##MW= 177
##$RETENTION INDEX=0
##$CONDENSED SPECTRUM=NO
##NPOINTS= 16
##XYDATA=(XY..XY) 1 
    39         90
    50         80
    51        220
    63        110
    64        240
    65        110
    77        320
    89         90
    91        999
    92         80
   118         90
   149        100
   176        730
   177        890
   178        130
   179         50