##TITLE=Library Entry 22207
##JCAMP-DX=Revision 4.10 
##DATA TYPE=MASS SPECTRUM
##SAMPLE DESCRIPTION=NIST Mass Spectrometry Data Center, 1994
##NAMES=HP
##CAS NAME=(1S,2S)-(+)-1,2-Diaminocyclohexane
##MOLFORM=C6H14N2
##CAS REGISTRY NO=21436-03-3
##MP= -300
##BP= -300
##MW= 114
##$RETENTION INDEX=0
##$CONDENSED SPECTRUM=NO
##NPOINTS= 64
##XYDATA=(XY..XY) 1 
    15         65
    17          7
    18         39
    26         33
    27        182
    28        120
    29        146
    30        588
    31         35
    35          1
    36          1
    37          4
    39        117
    40         36
    41        211
    42        323
    43        914
    44        128
    45         81
    46          3
    47          1
    50          8
    51         16
    52         16
    53         32
    54         69
    55          1
    56        999
    57         90
    58         72
    59         59
    60          2
    62          2
    63          3
    64          2
    65         10
    66          9
    67         40
    68          2
    69        645
    70        246
    71        129
    72         77
    73          4
    77         18
    79         30
    80         22
    81         27
    82        128
    83         10
    84         34
    85         18
    86          7
    92          1
    93          2
    94          5
    95          1
    96        140
    97        441
    98         38
    99          1
   114        134
   115         11
   116          0