##TITLE=Library Entry 66848
##JCAMP-DX=Revision 4.10 
##DATA TYPE=MASS SPECTRUM
##SAMPLE DESCRIPTION=Chemical Concepts
##NAMES=HP
##CAS NAME=Propanamide, 3-iodo-N-phenyl-
##MOLFORM=C9H10INO
##CAS REGISTRY NO=21437-78-5
##MP= -300
##BP= -300
##MW= 275
##$RETENTION INDEX=0
##$CONDENSED SPECTRUM=NO
##NPOINTS= 99
##XYDATA=(XY..XY) 1 
    25          2
    26         30
    27        162
    28         63
    29          0
    30          0
    37         10
    38         28
    39        115
    41          7
    42          4
    44          0
    46          0
    49          1
    50         22
    51         53
    52         21
    53          4
    54          4
    55         74
    56         11
    57          3
    58          0
    61          4
    62         11
    63         37
    64         36
    65        150
    66         38
    67          3
    68          0
    73          0
    74          4
    75          4
    76          6
    77         94
    78         10
    79          2
    80          0
    81          0
    86          0
    87          0
    88          1
    89          1
    90          3
    91         32
    92         97
    93        999
    94         73
    95          2
   102          0
   103          2
   104          3
   105          3
   106         15
   107          7
   108          0
   116          0
   117          2
   118          5
   119         20
   120         59
   121          5
   122          0
   127         34
   128         10
   129          1
   130          1
   131          1
   132          0
   133          0
   135          0
   139          0
   140          0
   141          4
   145          0
   146          4
   147         12
   148        213
   149         22
   150          1
   152          0
   153          1
   155        205
   156          5
   175          0
   176          0
   181          0
   183         15
   184          0
   212          0
   213          0
   214          0
   255          0
   258          0
   275        818
   276         84
   277          6
   278          0