##TITLE=Library Entry 15727
##JCAMP-DX=Revision 4.10 
##DATA TYPE=MASS SPECTRUM
##SAMPLE DESCRIPTION=Humboldt-Universitat zu Berlin, Department of Chemistry
, Analytical Group
##NAMES=HP
##CAS NAME=3-Iodopropionamide
##MOLFORM=C3H6INO
##CAS REGISTRY NO=21437-81-0
##MP= -300
##BP= -300
##MW= 199
##$RETENTION INDEX=0
##$CONDENSED SPECTRUM=NO
##NPOINTS= 96
##XYDATA=(XY..XY) 1 
    12          2
    13          4
    14         13
    15         17
    16         43
    17         46
    18         95
    19          0
    24          2
    25         12
    26        119
    27        355
    28        202
    29         44
    30         21
    31          1
    32          0
    35          0
    36          0
    37          2
    38          4
    39          4
    40          6
    41         14
    42         28
    43         29
    44        999
    45         28
    46          4
    47          0
    50          1
    51          4
    52          8
    53          9
    54         12
    55         60
    56         13
    57          3
    58          0
    59          0
    60          0
    61          0
    63          0
    67          0
    68          0
    69          1
    70          2
    72        791
    73         32
    74          2
    77          0
    79          0
    80          0
    81          0
    82          0
    83          2
    84          0
    85          1
    87          0
    91          0
    95          0
    96          0
    97          1
    98          0
    99          0
   105          2
   109          0
   111          0
   112          1
   113          1
   122          0
   125          0
   127        174
   128         38
   129          3
   139          3
   140          2
   141          9
   142          1
   143          3
   144          0
   149          0
   151          0
   152          2
   153          3
   154          6
   155         54
   156          1
   170          1
   171          2
   172          1
   181          2
   182          0
   183          1
   199         56
   200          4