##TITLE=Library Entry 91253
##JCAMP-DX=Revision 4.10 
##DATA TYPE=MASS SPECTRUM
##SAMPLE DESCRIPTION=A.A.Kutin, Moscow, Russia
##NAMES=HP
##CAS NAME=Morpholine-4-carboxamide, N-[2-(5-nitro-2-furyl)ethenyl]-
##MOLFORM=C11H13N3O5
##CAS REGISTRY NO=21433-61-4
##MP= -300
##BP= -300
##MW= 267
##$RETENTION INDEX=0
##$CONDENSED SPECTRUM=NO
##NPOINTS= 91
##XYDATA=(XY..XY) 1 
    39          4
    40         18
    41         37
    42        211
    43         34
    44         20
    45         35
    50          3
    51         41
    52         45
    53         11
    54         16
    55         32
    56         65
    57         30
    58          7
    59         29
    62          5
    63         16
    64         11
    66          2
    67         15
    68          8
    69         16
    70        557
    71         26
    72         35
    73          4
    76          2
    77          8
    78         18
    79         54
    80         18
    81          4
    82          7
    83         12
    84          2
    85          6
    86         32
    87          8
    91          7
    92          6
    95          6
    96         15
    97          4
    98          5
   106         32
   107         23
   109          3
   111          4
   112         12
   113          6
   114        999
   115         44
   116          4
   120          2
   121         11
   124          2
   126          8
   134          1
   135         12
   148          0
   149          3
   150         12
   151         10
   152          9
   153          3
   154          3
   155         20
   164         17
   165         16
   166          7
   171         28
   179          2
   180          9
   181          2
   193          5
   194          2
   220          1
   221         24
   222          1
   223          1
   224          6
   235          9
   237          3
   241          3
   250         15
   251          4
   267        617
   268         95
   269         12