##TITLE=Library Entry 99255
##JCAMP-DX=Revision 4.10 
##DATA TYPE=MASS SPECTRUM
##SAMPLE DESCRIPTION=G. LUNN,ENVIRON. CONTROL,NATL. CANCER INST.,FREDERICK,M
D.,USA
##NAMES=HP
##CAS NAME=N-Isopropyl-p-toluamide
##MOLFORM=C11H15NO
##CAS REGISTRY NO=2144-17-4
##MP= -300
##BP= -300
##MW= 177
##$RETENTION INDEX=0
##$CONDENSED SPECTRUM=NO
##NPOINTS= 81
##XYDATA=(XY..XY) 1 
    37          2
    38          8
    39         68
    40         10
    41         47
    42         23
    43         22
    44         16
    45          3
    50         13
    51         24
    52          6
    53          4
    54          1
    55          0
    56          2
    57         14
    58         41
    59          2
    60          0
    61          1
    62         10
    63         39
    64         14
    65        168
    66         10
    68          0
    70          0
    73          1
    74          3
    75          3
    76          3
    77          8
    78          2
    79          2
    80          1
    81         12
    84          0
    86          2
    87          2
    88          2
    89         43
    90         34
    91        345
    92         30
    93          6
    94          0
   104          1
   105          7
   106          3
   107          1
   108          0
   115          0
   116          4
   117          7
   118         21
   119        999
   120        106
   121          8
   122          1
   123          0
   131          1
   132          1
   133          1
   134          2
   135         10
   136          2
   137          3
   148          5
   149          6
   150          0
   151          0
   159          3
   160          0
   162         31
   163          4
   167          1
   176         44
   177        155
   178         19
   179          1