##TITLE=Library Entry 22634
##JCAMP-DX=Revision 4.10 
##DATA TYPE=MASS SPECTRUM
##SAMPLE DESCRIPTION=SHELL RESEARCH LIMITED THORNTON RESEARCH CENTRE
##NAMES=HP
##CAS NAME=Furan, tetrahydro-2,5-dimethyl-, cis-
##MOLFORM=C6H12O
##CAS REGISTRY NO=2144-41-4
##MP= -300
##BP= -300
##MW= 100
##$RETENTION INDEX=0
##$CONDENSED SPECTRUM=NO
##NPOINTS= 18
##XYDATA=(XY..XY) 1 
    27         97
    28         97
    29        146
    39        106
    40         33
    41        745
    42         37
    43        549
    44         31
    45        166
    54         45
    55         94
    56        999
    57        148
    67         99
    85        862
    86         45
   100         83