##TITLE=Library Entry 47269
##JCAMP-DX=Revision 4.10 
##DATA TYPE=MASS SPECTRUM
##SAMPLE DESCRIPTION=K. T. POTTS
##NAMES=HP
##CAS NAME=1-Phthalazinecarbonitrile, 1,2-dihydro-2-(phenylsulfonyl)-
##MOLFORM=C15H11N3O2S
##CAS REGISTRY NO=21452-56-2
##MP= -300
##BP= -300
##MW= 297
##$RETENTION INDEX=0
##$CONDENSED SPECTRUM=NO
##NPOINTS= 52
##XYDATA=(XY..XY) 1 
    50        280
    51        350
    52         60
    62         30
    63         60
    64         30
    65         30
    66         20
    74         90
    75        160
    76        170
    77        999
    78        200
    87         20
    88         20
    94         30
    97         40
    99         30
   100        120
   101        310
   102        160
   103         40
   105        200
   110         40
   116         40
   125        180
   126         50
   127        330
   128        900
   129        160
   130         80
   131         40
   141        140
   142         80
   144         30
   155        450
   156        680
   157         80
   177         10
   178         50
   179         20
   190         80
   204        160
   205         90
   206         20
   207         20
   232         20
   233         20
   271         40
   297        360
   298         70
   299         30