##TITLE=Library Entry 32348
##JCAMP-DX=Revision 4.10 
##DATA TYPE=MASS SPECTRUM
##SAMPLE DESCRIPTION=Exported from NIST MS Search
##NAMES=HP
##CAS NAME=Cyclopentane, ethylidene-
##MOLFORM=C7H12
##CAS REGISTRY NO=2146-37-4
##MP= -300
##BP= -300
##MW= 96
##$RETENTION INDEX=771
##$CONDENSED SPECTRUM=NO
##NPOINTS= 74
##XYDATA=(XY..XY) 1 
    12          1
    13          1
    14          4
    15         34
    16          1
    24          1
    25          1
    26         24
    27        159
    28         33
    29         44
    30          1
    31          1
    32          1
    33          1
    36          1
    37          9
    38         26
    39        244
    40         57
    41        178
    42         24
    43          6
    44          1
    45          4
    46          5
    47          1
    48          1
    49          3
    50         25
    51         45
    52         23
    53        117
    54         91
    55        149
    56         12
    57          1
    60          1
    61          5
    62         10
    63         23
    64          3
    65         39
    66         67
    67        999
    68        136
    69          7
    70          1
    73          1
    74          2
    75          1
    76          1
    77         30
    78          8
    79         51
    80          9
    81        152
    82         12
    83          1
    84          1
    85          1
    86          1
    87          1
    88          1
    89          1
    90          1
    91         10
    92          1
    93          7
    94          2
    95         41
    96        224
    97         17
    98          1