##TITLE=Library Entry 33050
##JCAMP-DX=Revision 4.10 
##DATA TYPE=MASS SPECTRUM
##SAMPLE DESCRIPTION=NIST Mass Spectrometry Data Center, 1990.
##NAMES=HP
##CAS NAME=1-Ethylcyclopentene
##MOLFORM=C7H12
##CAS REGISTRY NO=2146-38-5
##MP= -300
##BP= -300
##MW= 96
##$RETENTION INDEX=749
##$CONDENSED SPECTRUM=NO
##NPOINTS= 32
##XYDATA=(XY..XY) 1 
    15         22
    26         12
    27         94
    28         14
    29         29
    37          8
    38         21
    39        171
    40         40
    41        136
    42         12
    50         24
    51         45
    52         23
    53         87
    54         46
    55         74
    62         11
    63         21
    65         78
    66         95
    67        999
    68         85
    77         55
    78         14
    79         89
    80         13
    81         86
    91         13
    95         31
    96        195
    97         15