##TITLE=Library Entry 18159
##JCAMP-DX=Revision 4.10 
##DATA TYPE=MASS SPECTRUM
##SAMPLE DESCRIPTION=A.A.Kutin, Moscow, Russia
##NAMES=HP
##CAS NAME=Methanone, phenyl(4-pyridyl)-, oxime
##MOLFORM=C12H10N2O
##CAS REGISTRY NO=2147-26-4
##MP= -300
##BP= -300
##MW= 198
##$RETENTION INDEX=0
##$CONDENSED SPECTRUM=NO
##NPOINTS= 91
##XYDATA=(XY..XY) 1 
    36          5
    37         21
    38         49
    39        181
    40         19
    41         32
    42         10
    43         16
    44         29
    45          2
    48          2
    49         18
    50        278
    51        999
    52        109
    53         20
    54         13
    61         12
    62         59
    63        105
    64         45
    65         56
    66         83
    67         29
    68         19
    69         17
    70         24
    74         77
    75         74
    77        829
    78        430
    79         49
    80          4
    86         29
    87         30
    88         23
    89         32
    90         80
    91         14
    94        158
    95         30
    96          3
   103         84
   104        131
   105         64
   106          6
   113         30
   114         20
   115         63
   116         14
   117         12
   118          2
   119          3
   120         11
   121          5
   126         19
   127         43
   128         18
   129          6
   139        128
   140         44
   141         32
   142         17
   143         22
   144          8
   145          1
   151          3
   152         20
   153         22
   154         27
   155          8
   156          1
   157          0
   158          0
   166         75
   167        134
   168         48
   169        136
   170        100
   171         14
   172          1
   181        482
   182        110
   183         12
   184          1
   185          0
   197        108
   198        636
   199         92
   200          7
   201          0