##TITLE=Library Entry 76254
##JCAMP-DX=Revision 4.10 
##DATA TYPE=MASS SPECTRUM
##SAMPLE DESCRIPTION=D.HENNEBERG, MAX-PLANCK INSTITUTE, MULHEIM, WEST GERMAN
Y
##NAMES=HP
##CAS NAME=Rhodium, di-.mu.-bromotetracarbonyldi-
##MOLFORM=C4Br2O4Rh2
##CAS REGISTRY NO=21475-96-7
##MP= -300
##BP= -300
##MW= 476
##$RETENTION INDEX=0
##$CONDENSED SPECTRUM=NO
##NPOINTS= 174
##XYDATA=(XY..XY) 1 
    27          0
    28        515
    29          5
    30          1
    32          0
    35          1
    36          7
    37          0
    38          2
    39          0
    40          0
    41          1
    42          0
    43          1
    44          1
    45          0
    50          0
    51          0
    52          0
    53          0
    54          0
    55          1
    56          0
    57          1
    60          0
    65          1
    66          0
    67          0
    68          0
    69          1
    70          0
    71          0
    73          0
    76          0
    77          0
    78          0
    79         19
    80         40
    81         18
    82         39
    83          0
    84          0
    85          0
    91          0
    92          0
    93          0
    95          0
    96          0
    97          0
    99          0
   103        999
   105          0
   107          0
   109          0
   110          0
   111          0
   113          0
   115          9
   117          0
   119          0
   123          1
   125          1
   128          0
   129          0
   131         70
   132          0
   135          0
   137          0
   138          0
   140          0
   145          0
   149          1
   150          0
   157          0
   159          0
   162          0
   165          1
   167          0
   175          0
   179          0
   182        112
   184         20
   189          0
   194          0
   196          0
   202          0
   203          0
   205          0
   206         25
   210          4
   211          0
   212          3
   218          6
   219          0
   222          0
   224          2
   225          3
   226          1
   234          0
   238          2
   239          1
   240          1
   241          1
   243          0
   261          8
   263          2
   265          1
   266          0
   268          0
   269          0
   285         55
   287         54
   289          1
   291          2
   293          1
   297          1
   299          1
   303          0
   313          1
   315          2
   317          0
   319          0
   320          2
   321          0
   322          3
   324          0
   340          0
   341          0
   343          0
   348          1
   350          2
   352          0
   364         43
   366         85
   368         41
   376         10
   378          2
   380          0
   392         23
   394         47
   395          0
   396         23
   397          0
   398          0
   404          2
   406          3
   407          0
   408          0
   419          0
   420         19
   421          0
   422         38
   423          0
   424         18
   425          0
   426          0
   432          2
   434          2
   435          0
   436          0
   448        190
   449          0
   450         70
   451          2
   452         34
   453          1
   454          0
   476         32
   477          0
   478         63
   479          2
   480         30
   481          1
   482          0