##TITLE=Library Entry 86359
##JCAMP-DX=Revision 4.10 
##DATA TYPE=MASS SPECTRUM
##SAMPLE DESCRIPTION=NIST Mass Spectrometry Data Center
##NAMES=HP
##CAS NAME=trans-Ascaridol glycol
##MOLFORM=C10H18O2
##CAS REGISTRY NO=21473-37-0
##MP= -300
##BP= -300
##MW= 170
##$RETENTION INDEX=1272
##$CONDENSED SPECTRUM=NO
##NPOINTS= 78
##XYDATA=(XY..XY) 1 
    27         27
    29         19
    31          4
    38          3
    39         57
    40         12
    41        158
    42         16
    43        268
    45         18
    50          5
    51         20
    52          9
    53         56
    54          9
    55        105
    56         13
    57         22
    58          8
    59         13
    61          3
    62          3
    63          8
    64          3
    65         43
    66         19
    67         88
    69        203
    70         22
    71        100
    77         42
    78          7
    79         70
    80          7
    81        304
    82         28
    83         83
    84         58
    85        130
    86          9
    87          4
    89          3
    91         59
    92          9
    93         25
    94         41
    95         72
    97         25
    98         16
    99         26
   100          2
   105          8
   107         28
   108          8
   109        999
   110         89
   111         37
   112         45
   113          7
   114          2
   115          6
   116          3
   117          7
   119         43
   120          5
   123         17
   124          3
   126          6
   127        548
   128         46
   129          4
   134         18
   135          6
   137         36
   138          4
   142          7
   155         14
   156          2