##TITLE=Library Entry 3734
##JCAMP-DX=Revision 4.10 
##DATA TYPE=MASS SPECTRUM
##SAMPLE DESCRIPTION=Chemical Concepts
##NAMES=HP
##CAS NAME=Hexanoic acid, 2-(hydroxyimino)-
##MOLFORM=C6H11NO3
##CAS REGISTRY NO=21486-55-5
##MP= -300
##BP= -300
##MW= 145
##$RETENTION INDEX=0
##$CONDENSED SPECTRUM=NO
##NPOINTS= 100
##XYDATA=(XY..XY) 1 
    26          9
    27        226
    28        197
    29        266
    30         26
    31         29
    33          1
    34          2
    36          6
    38          4
    39         73
    40         33
    41        999
    42        557
    43        722
    44        351
    45         70
    46         24
    47          1
    51          2
    52          8
    53         30
    54        419
    55        332
    56        163
    57        327
    58         44
    59         31
    60         15
    61          3
    64          2
    65         11
    66         11
    67         78
    68         75
    69         33
    70        100
    71         43
    72         46
    73         21
    74          6
    75          1
    76          0
    77          2
    78          1
    79          3
    80         21
    81         38
    82        393
    83         70
    84        107
    85        847
    86         49
    87         26
    88          4
    89          1
    90         12
    91          3
    92          1
    93          3
    94          5
    95          7
    96          6
    97          7
    98        158
    99         53
   100        114
   101         11
   102          2
   103        665
   104         31
   105          7
   106          1
   107          1
   108          2
   109          4
   110        102
   111         15
   112         14
   113          3
   114          2
   115          2
   116         52
   117          8
   118          1
   119          1
   120          1
   121          1
   122          1
   123          2
   124          2
   125          2
   126          5
   127         27
   128        192
   129         22
   130          3
   144          1
   145         20
   146          2