##TITLE=Library Entry 15655
##JCAMP-DX=Revision 4.10 
##DATA TYPE=MASS SPECTRUM
##SAMPLE DESCRIPTION=D.HENNEBERG, MAX-PLANCK INSTITUTE, MULHEIM, WEST GERMAN
Y
##NAMES=HP
##CAS NAME=Imidodicarbonic diamide, N-formyl-
##MOLFORM=C3H5N3O3
##CAS REGISTRY NO=2148-09-6
##MP= -300
##BP= -300
##MW= 131
##$RETENTION INDEX=0
##$CONDENSED SPECTRUM=NO
##NPOINTS= 38
##XYDATA=(XY..XY) 1 
    27         12
    28         61
    29        118
    30          4
    31         26
    32          1
    35          2
    38          0
    41          1
    42         36
    43        175
    44        999
    45        139
    46         15
    47          0
    59          9
    60        757
    61         14
    62          1
    69          2
    70         87
    71          3
    72          6
    85          0
    86         12
    87        119
    88         31
    89          3
    99          2
   103        271
   104          9
   105          0
   113          2
   114          0
   115          9
   130          3
   131         12
   132          3