##TITLE=Library Entry 82844
##JCAMP-DX=Revision 4.10 
##DATA TYPE=MASS SPECTRUM
##SAMPLE DESCRIPTION=Div. of Experiment Therapeutics WRAIR, WRAMC, Washingto
n DC 20307
##NAMES=HP
##CAS NAME=Dipropargylaminomethyl-9-phenanthryl ketoxime
##MOLFORM=C22H18N2O
##CAS REGISTRY NO=21489-42-9
##MP= -300
##BP= -300
##MW= 326
##$RETENTION INDEX=0
##$CONDENSED SPECTRUM=NO
##NPOINTS= 102
##XYDATA=(XY..XY) 1 
    41         17
    42         51
    43          7
    45          1
    47          1
    49          8
    51         18
    52          4
    53         25
    54         15
    55          0
    56          0
    57          2
    62          0
    63          4
    64          0
    65          4
    66         48
    67          6
    68         21
    69          2
    74          2
    75          2
    77         53
    78         19
    79          0
    80          4
    81          1
    82          2
    84          6
    86          4
    87          2
    88          4
    91          2
    92         10
    94          4
    95          2
    96          0
    98          4
    99          1
   100          1
   101          5
   106        999
   107         54
   108          1
   109          1
   113          1
   115          1
   117          1
   120          0
   122          1
   125          0
   126          1
   127          1
   131          0
   135          0
   139          1
   149          1
   150          6
   151          4
   152          3
   154          0
   163          3
   164          1
   165          3
   174          3
   175          6
   176         14
   177          8
   178          3
   187          2
   188          1
   189          7
   190          5
   191          4
   200          4
   201          5
   202         25
   203         42
   204          9
   206          0
   213          0
   214          3
   215          1
   216          8
   217          4
   218          2
   219          1
   226          1
   227          0
   230          0
   232          1
   240          3
   241          1
   254          1
   256          3
   269          2
   270          1
   309         21
   310          6
   326         14
   327          4