##TITLE=Library Entry 15683
##JCAMP-DX=Revision 4.10 
##DATA TYPE=MASS SPECTRUM
##SAMPLE DESCRIPTION=Japan AIST/NIMC Database- Spectrum MS-NW-8258
##NAMES=HP
##CAS NAME=N.omega.-Nitro-L-arginine
##MOLFORM=C6H13N5O4
##CAS REGISTRY NO=2149-70-4
##MP= -300
##BP= -300
##MW= 219
##$RETENTION INDEX=0
##$CONDENSED SPECTRUM=NO
##NPOINTS= 182
##XYDATA=(XY..XY) 1 
    12          2
    13          1
    14         17
    15         19
    16         86
    17        151
    18        308
    19          2
    26         11
    27         48
    28        333
    29         48
    30        298
    31         18
    32          2
    36          6
    37          4
    38         11
    39         62
    40         29
    41        201
    42        132
    43        331
    44        999
    45         26
    46         30
    47          4
    50          3
    51          7
    52         13
    53         24
    54         51
    55         75
    56        234
    57         79
    58        120
    59         29
    60         37
    61          2
    62          5
    63          1
    64          3
    65          5
    66         12
    67         46
    68        153
    69        346
    70        261
    71         31
    72         18
    73         10
    74         12
    75          7
    77          3
    78          8
    79          9
    80         25
    81         20
    82         40
    83         52
    84         44
    85         66
    86         29
    87         14
    88          4
    89          2
    91          2
    92          4
    93         15
    94         21
    95         30
    96         31
    97         48
    98         29
    99         26
   100         14
   101         10
   102          3
   103          3
   104         11
   105          3
   106          3
   107          6
   108          9
   109         17
   110         40
   111         37
   112         70
   113         44
   114         51
   115         11
   116          1
   117          4
   118          2
   119          5
   120          6
   121          7
   122          8
   123          9
   124          9
   125          7
   126          8
   127         19
   128          5
   129          5
   130          2
   131          3
   132          2
   133          4
   134          8
   135         15
   136         20
   137         30
   138         66
   139         26
   140         18
   141          6
   142         12
   143          9
   144          2
   145          2
   146          7
   147          6
   148          8
   149          8
   150          9
   151         11
   152          7
   153          6
   154          4
   155          4
   156         39
   157         15
   158          7
   159          2
   160          2
   161          4
   162          7
   163          9
   164         18
   165          9
   166          6
   167          2
   168          1
   170          2
   171          2
   172          3
   173          6
   174          5
   175         11
   176         14
   177          7
   178          7
   179          4
   180          2
   181          3
   182          7
   183          2
   184          1
   185          1
   186          2
   187          3
   188          4
   189         14
   190         29
   191         11
   192         11
   193          5
   194          2
   196          1
   197          4
   201          1
   202          3
   203          2
   204          2
   205          1
   215          1
   216          2
   217          2
   218          3
   219          2
   220          1