##TITLE=Library Entry 14863
##JCAMP-DX=Revision 4.10 
##DATA TYPE=MASS SPECTRUM
##SAMPLE DESCRIPTION=LAC, NIDDK, NIH, Bethesda, MD 20892
##NAMES=HP
##CAS NAME=3-Dehydroxyneosterol
##MOLFORM=C27H40
##CAS REGISTRY NO=21490-75-5
##MP= -300
##BP= -300
##MW= 364
##$RETENTION INDEX=0
##$CONDENSED SPECTRUM=NO
##NPOINTS= 108
##XYDATA=(XY..XY) 1 
    41        237
    43        999
    44         18
    49          9
    51          4
    53         21
    55        263
    57        153
    58          1
    61          4
    65          6
    67         36
    69        127
    71         99
    77         13
    79         19
    81         32
    83         61
    84          2
    85         24
    86          1
    91         24
    93         14
    95         29
    97         48
   103          5
   105         14
   107          6
   109         17
   111         12
   115         25
   116          2
   117         12
   119          9
   121          3
   123          4
   125          1
   127          4
   128         68
   129         34
   130          6
   131         13
   133          4
   137          1
   141        277
   142         69
   143         80
   144         14
   145         20
   146          1
   152         12
   153         53
   154         34
   155         71
   156         27
   157         28
   159         15
   165         64
   166         37
   167         88
   168         47
   169         87
   170         18
   171         13
   178         22
   179         44
   180         39
   181        106
   182        120
   183        344
   184         53
   185         32
   186          2
   191          8
   193         31
   195        490
   196        150
   197        118
   198         20
   199         10
   205          6
   207         15
   209         95
   210        192
   211         47
   212         22
   214          3
   221         30
   222         14
   223         16
   224          1
   235         13
   237        124
   238         23
   239         12
   249          5
   263          2
   264          5
   265          9
   322          3
   349         18
   350          1
   362          1
   363          6
   364        979
   365        265
   366         58
   367          9