##TITLE=Library Entry 18826
##JCAMP-DX=Revision 4.10 
##DATA TYPE=MASS SPECTRUM
##SAMPLE DESCRIPTION=Exported from NIST MS Search
##NAMES=HP
##CAS NAME=Propanoic acid, 3-chloro-2,2-dimethyl-, methyl ester
##MOLFORM=C6H11ClO2
##CAS REGISTRY NO=21491-96-3
##MP= -300
##BP= -300
##MW= 150
##$RETENTION INDEX=923
##$CONDENSED SPECTRUM=NO
##NPOINTS= 90
##XYDATA=(XY..XY) 1 
    12          8
    13         14
    14         54
    15        642
    16          9
    24          1
    25          5
    26         41
    27        291
    28         82
    29        354
    30         25
    31         20
    32          3
    33          9
    35          5
    36          8
    37         23
    38         51
    39        394
    40         63
    41        416
    42         60
    43         48
    44          6
    45         32
    46          1
    47          6
    48          6
    49         85
    50         25
    51         53
    52         12
    53         75
    54         46
    55        999
    56        595
    57         37
    58          2
    59        285
    60         12
    61         58
    62         10
    63        136
    64          6
    65         44
    66          2
    67          2
    68          2
    69         50
    70         22
    71         13
    72          7
    73        185
    74         12
    75         28
    76          3
    77         10
    78          1
    79          8
    81          5
    82         38
    83         56
    84          4
    85          3
    87          4
    88          2
    89          5
    90        227
    91        468
    92         76
    93        151
    94          7
    95          2
    97          1
   113          3
   114         66
   115        335
   116         23
   117          3
   119         67
   120          4
   121         22
   122          2
   135         14
   136          1
   137          5
   138          1
   150          1
   152          1