##TITLE=Library Entry 6319
##JCAMP-DX=Revision 4.10 
##DATA TYPE=MASS SPECTRUM
##SAMPLE DESCRIPTION=Div. of Experiment Therapeutics WRAIR, WRAMC, Washingto
n DC 20307
##NAMES=HP
##CAS NAME=o-Isopropyl-N-phenylthioimidocarbonic acid
##MOLFORM=C10H13NOS
##CAS REGISTRY NO=2150-31-4
##MP= -300
##BP= -300
##MW= 195
##$RETENTION INDEX=0
##$CONDENSED SPECTRUM=NO
##NPOINTS= 69
##XYDATA=(XY..XY) 1 
    41        448
    43        999
    44         74
    45         67
    47          8
    49          2
    50         55
    51        161
    52         51
    53         11
    54         12
    55          3
    56         17
    57          3
    58          3
    59         30
    60         11
    61         23
    62         14
    63         81
    64         78
    65        226
    66         84
    67          9
    69          9
    70         10
    72        139
    74          9
    75          9
    77        173
    78         19
    80         14
    87          9
    88          5
    90          8
    91         33
    92         97
    93        319
    94         22
    96          9
    97          9
   104         24
   106          6
   108          2
   109         18
   110         79
   111          6
   119         42
   120        159
   121         11
   124         19
   128          2
   134          4
   135          4
   136         39
   137         30
   138          7
   152         22
   153        142
   154         22
   155          6
   162         17
   164         16
   165          2
   179         37
   180          5
   195        111
   196         17
   197          6