##TITLE=Library Entry 74213
##JCAMP-DX=Revision 4.10 
##DATA TYPE=MASS SPECTRUM
##SAMPLE DESCRIPTION=Chemical Sci. & Tec. Lab., NIST, Gaithersburg, MD 20899
##NAMES=HP
##CAS NAME=2-Amino-2-thiazoline-4-carboxylic acid
##MOLFORM=C4H6N2O2S
##CAS REGISTRY NO=2150-55-2
##MP= -300
##BP= -300
##MW= 146
##$RETENTION INDEX=0
##$CONDENSED SPECTRUM=NO
##NPOINTS= 45
##XYDATA=(XY..XY) 1 
    41         19
    42         68
    43        164
    44         23
    45        106
    46         26
    47         15
    48          5
    49          8
    51          4
    53          8
    54         12
    55         16
    56          3
    57         21
    58         68
    59        237
    60         92
    61         16
    62          4
    64          0
    67          2
    69          6
    70          3
    71          3
    72          5
    73          7
    74         73
    75          4
    76          4
    82         11
    84          6
    85          2
    86         17
    87          2
    91          3
   100          8
   101        999
   102         73
   103         48
   104          3
   145          7
   146         18
   147          9
   148          2