##TITLE=Library Entry 46517
##JCAMP-DX=Revision 4.10 
##DATA TYPE=MASS SPECTRUM
##SAMPLE DESCRIPTION=Chemical Concepts
##NAMES=HP
##CAS NAME=Methanone, 1,3-dithian-2-ylphenyl-
##MOLFORM=C11H12OS2
##CAS REGISTRY NO=21504-07-4
##MP= -300
##BP= -300
##MW= 224
##$RETENTION INDEX=0
##$CONDENSED SPECTRUM=NO
##NPOINTS= 94
##XYDATA=(XY..XY) 1 
    25          5
    26         20
    27        121
    28        146
    29         48
    30          6
    34         66
    35          6
    36         15
    37         11
    38         29
    39        191
    40         32
    41        475
    42         80
    44        113
    45        751
    47        163
    48         18
    49         19
    50        175
    51        628
    52         56
    53         42
    54         24
    55        151
    56         54
    57        121
    58         41
    59        134
    60         59
    61         37
    62         24
    65         33
    66         16
    67         29
    68         24
    69        141
    70         39
    71         60
    72         33
    73        218
    74         90
    75        317
    76         98
    77        999
    78        112
    79         30
    80          9
    81         56
    82         16
    83         30
    84         19
    85        127
    86         30
    87         31
    88          7
    89         23
    90         15
    91        112
    92         14
    93         22
    94          8
    95         16
    96          7
    97         14
    98          9
    99          6
   101          5
   102         10
   103          7
   104          8
   105        242
   106         38
   107          8
   108          5
   109          8
   110          7
   111          5
   115         10
   116          4
   117          4
   118          4
   119        726
   120         53
   121         81
   122          7
   123          7
   124          4
   129          6
   135          5
   136          7
   137          4
   224          0