##TITLE=Library Entry 277
##JCAMP-DX=Revision 4.10 
##DATA TYPE=MASS SPECTRUM
##SAMPLE DESCRIPTION=R.L.FOLTZ BATTELLE COLUMBUS LAB., COLUMBUS, OHIO, USA
##NAMES=HP
##CAS NAME=Androst-1-ene-3,17-dione
##MOLFORM=C19H26O2
##CAS REGISTRY NO=21507-41-5
##MP= -300
##BP= -300
##MW= 286
##$RETENTION INDEX=0
##$CONDENSED SPECTRUM=NO
##NPOINTS= 139
##XYDATA=(XY..XY) 1 
    26         19
    27        123
    28        999
    29        235
    30         17
    31         15
    39        112
    40        111
    41        287
    42         15
    43        232
    44         36
    45         84
    50         15
    51         55
    52         50
    53        105
    54         12
    55        276
    56          3
    57         28
    58         13
    60         43
    62          4
    63         10
    65         42
    66         15
    67        189
    68         28
    69        235
    70          5
    72         29
    77        123
    78         36
    79        268
    80         94
    81        187
    82         29
    83         29
    84         10
    91        178
    92         36
    93        239
    94         72
    95        147
    96         23
    97        160
    98         24
   103          7
   104         19
   105        161
   106         47
   107        305
   108        139
   109        368
   110        150
   111         51
   115         13
   117         37
   118         24
   119        111
   120         47
   121        302
   122        999
   123        239
   124         35
   128         15
   129         19
   131         56
   132         27
   133        109
   134        139
   135        110
   136         48
   137         14
   143         26
   144         17
   145         73
   146         44
   147        154
   148         60
   149        115
   150         32
   151         29
   152         14
   155          3
   157         22
   158         11
   159         90
   160         31
   161         63
   162         20
   163         26
   164         17
   165         29
   169          4
   171         18
   172          7
   173         40
   174         33
   175         17
   176         11
   177         16
   183          7
   185         47
   186          4
   187         36
   188         14
   189         14
   197          3
   199         12
   201         30
   202        191
   203        107
   204         14
   211          5
   215         35
   216         50
   217          6
   227         21
   229         36
   230         16
   242         15
   243          8
   244        549
   245         97
   246         10
   253         12
   258         12
   268          8
   269         44
   270          4
   271         32
   276         15
   284         19
   285         22
   286        459
   287        153
   288         22