##TITLE=Library Entry 79271
##JCAMP-DX=Revision 4.10 
##DATA TYPE=MASS SPECTRUM
##SAMPLE DESCRIPTION=G.A.RUSSELL DEPT. OF CHEMISTRY, IOWA STATE UNIV., IOWA,
 USA
##NAMES=HP
##CAS NAME=2,2'-Bi-1,3-dioxolane, 2-phenyl-
##MOLFORM=C12H14O4
##CAS REGISTRY NO=21504-04-1
##MP= -300
##BP= -300
##MW= 222
##$RETENTION INDEX=0
##$CONDENSED SPECTRUM=NO
##NPOINTS= 28
##XYDATA=(XY..XY) 1 
    51        101
    73         94
    74          9
    75          9
    76         23
    77        458
    78         31
    79         40
    89          8
    90          6
    91         25
   104          9
   105        999
   106         87
   107          6
   122         86
   123        402
   124         35
   148          7
   149        109
   150         11
   162          8
   163          3
   194         22
   195          4
   222        121
   223         13
   224          2