##TITLE=Library Entry 84404
##JCAMP-DX=Revision 4.10 
##DATA TYPE=MASS SPECTRUM
##SAMPLE DESCRIPTION=Patti Price, Georgia Bureau of Investigation, Decatur,
 Georgia
##NAMES=HP
##CAS NAME=Pemoline
##MOLFORM=C9H8N2O2
##CAS REGISTRY NO=2152-34-3
##MP= -300
##BP= -300
##MW= 176
##$RETENTION INDEX=2068
##$CONDENSED SPECTRUM=NO
##NPOINTS= 68
##XYDATA=(XY..XY) 1 
    32          9
    37         16
    38         55
    39        134
    40         22
    41         49
    42        376
    43         77
    44        142
    45          7
    49         11
    50        141
    51        324
    52         73
    53         14
    54          4
    55         11
    56          5
    57         10
    58          3
    59          2
    61         22
    62         77
    63        233
    64         81
    65         10
    66          1
    67          4
    68          3
    69        103
    70        471
    71        180
    72          7
    74         38
    75         29
    76         34
    77        569
    78        111
    79        451
    80         32
    83          6
    85          8
    86         15
    87         16
    88         18
    89        632
    90        586
    91         56
    96          1
    97          4
   103          5
   104         88
   105        354
   106         62
   107        999
   108         91
   120         40
   121          4
   132         11
   133         33
   134         16
   135          2
   147         71
   148         46
   149         13
   167          2
   176        695
   177         68