##TITLE=Library Entry 49983
##JCAMP-DX=Revision 4.10 
##DATA TYPE=MASS SPECTRUM
##SAMPLE DESCRIPTION=S.A. Rang et al., IR & MS of Unsatd. Hydrocarbons, 1977
##NAMES=HP
##CAS NAME=Cyclohexene,4-butyl-
##MOLFORM=C10H18
##CAS REGISTRY NO=21524-26-5
##MP= -300
##BP= -300
##MW= 138
##$RETENTION INDEX=1042
##$CONDENSED SPECTRUM=NO
##NPOINTS= 72
##XYDATA=(XY..XY) 1 
    15          4
    16          1
    24          1
    25          4
    26         24
    27        217
    28         52
    29        178
    30          4
    37          2
    38          5
    39        263
    40         34
    41        487
    42         73
    43        112
    45          0
    50          6
    51         32
    52         24
    53        191
    54        707
    55        463
    56         85
    57         12
    58          0
    62          0
    63          6
    64          1
    65         55
    66         67
    67        536
    68        197
    69         53
    70          6
    71          2
    75          3
    76          1
    77        112
    78         30
    79        243
    80         98
    81        999
    82        382
    83         51
    84          8
    85          0
    91         30
    92          4
    93         15
    94         10
    95        191
    96        536
    97         65
    98          3
   103          1
   104          0
   105          1
   106          0
   107          2
   108          2
   109         79
   110         45
   111          3
   115          0
   123          7
   124          0
   136          1
   137          4
   138        184
   139         16
   140          0