##TITLE=Library Entry 27758
##JCAMP-DX=Revision 4.10 
##DATA TYPE=MASS SPECTRUM
##SAMPLE DESCRIPTION=ORMSBG,9(11)1124(1974); GAY
##NAMES=HP
##CAS NAME=Propanenitrile, 3-(ethylamino)-
##MOLFORM=C5H10N2
##CAS REGISTRY NO=21539-47-9
##MP= -300
##BP= -300
##MW= 98
##$RETENTION INDEX=0
##$CONDENSED SPECTRUM=NO
##NPOINTS= 22
##XYDATA=(XY..XY) 1 
    28         78
    29         52
    30        326
    40         47
    41         40
    42        354
    43         40
    44         37
    52         28
    53         23
    54        177
    55         30
    56        179
    57         40
    58        999
    59         54
    67         23
    68         30
    69         23
    83        264
    97         37
    98         78