##TITLE=Library Entry 66503
##JCAMP-DX=Revision 4.10 
##DATA TYPE=MASS SPECTRUM
##SAMPLE DESCRIPTION=Chemical Concepts
##NAMES=HP
##CAS NAME=Santolina triene
##MOLFORM=C10H16
##CAS REGISTRY NO=2153-66-4
##MP= -300
##BP= -300
##MW= 136
##$RETENTION INDEX=908
##$CONDENSED SPECTRUM=NO
##NPOINTS= 53
##XYDATA=(XY..XY) 1 
    27        168
    28          5
    39        271
    40         20
    41        337
    42         13
    43        199
    45          6
    50          6
    51         72
    52         23
    53        170
    54         24
    55        232
    56         11
    57         29
    62         15
    63          9
    65        101
    66         38
    67        398
    68         35
    69         24
    77        350
    78         52
    79        576
    80        248
    81        149
    82          2
    85          1
    91        442
    92        119
    93        999
    94        116
    95        196
    96         19
    97         10
   103         20
   104          1
   105        279
   106         54
   107        186
   108         51
   109         24
   110          1
   111          3
   119         61
   120          5
   121        694
   122         72
   123          1
   136         44
   137          5