##TITLE=Library Entry 89893
##JCAMP-DX=Revision 4.10 
##DATA TYPE=MASS SPECTRUM
##SAMPLE DESCRIPTION=ASES Database, Dalian Institute, P.R. China
##NAMES=HP
##CAS NAME=3-Methyl-4,5-diamino-1,2,4(4H)-triazole
##MOLFORM=C3H7N5
##CAS REGISTRY NO=21532-07-0
##MP= -300
##BP= -300
##MW= 113
##$RETENTION INDEX=0
##$CONDENSED SPECTRUM=NO
##NPOINTS= 13
##XYDATA=(XY..XY) 1 
    40        108
    41        147
    42        500
    43        746
    55         50
    57         98
    58         50
    71         61
    80         70
    82         59
    97         50
    98         49
   113        999