##TITLE=Library Entry 1086
##JCAMP-DX=Revision 4.10 
##DATA TYPE=MASS SPECTRUM
##SAMPLE DESCRIPTION=A.E.FONTAINE DYESTUFFS DIV., I.C.I., MANCHESTER
##NAMES=HP
##CAS NAME=Cyclopentanemethanamine, 2-amino-
##MOLFORM=C6H14N2
##CAS REGISTRY NO=21544-02-5
##MP= -300
##BP= -300
##MW= 114
##$RETENTION INDEX=0
##$CONDENSED SPECTRUM=NO
##NPOINTS= 92
##XYDATA=(XY..XY) 1 
    12          0
    13          0
    14          1
    15         29
    16         12
    17         21
    25          0
    26         46
    27        104
    28        288
    29         82
    30        999
    31         34
    32         17
    33          0
    35          0
    36          0
    37          4
    38         13
    39        105
    40         26
    41        153
    42        141
    43        331
    44        397
    45         57
    46          2
    47          3
    49          0
    50          7
    51         15
    52         15
    53         52
    54         68
    55         72
    56        832
    57        137
    58         66
    59         19
    60          1
    61          1
    62          2
    63          7
    64          8
    65         35
    66         44
    67        101
    68        115
    69        409
    70        113
    71         44
    72         15
    73          3
    74          0
    75          1
    76          1
    77         12
    78          8
    79        352
    80         39
    81         47
    82        236
    83         58
    84        704
    85         63
    86         11
    87         10
    88          9
    90          0
    91          2
    92         18
    93         26
    94         11
    95          9
    96        210
    97        572
    98         86
    99         11
   100          1
   104          0
   105          0
   106          1
   107          1
   108          2
   109          3
   110         18
   111         57
   112         19
   113          7
   114          3
   115         24
   116          1