##TITLE=Library Entry 73960
##JCAMP-DX=Revision 4.10 
##DATA TYPE=MASS SPECTRUM
##SAMPLE DESCRIPTION=NIST Mass Spectrometry Data Center
##NAMES=HP
##CAS NAME=3-Carboxy-2,2,5,5-tetramethyl-1-pyrolidinyloxy
##MOLFORM=C9H16NO3
##CAS REGISTRY NO=2154-68-9
##MP= -300
##BP= -300
##MW= 186
##$RETENTION INDEX=0
##$CONDENSED SPECTRUM=NO
##NPOINTS= 101
##XYDATA=(XY..XY) 1 
    15         22
    17          2
    18         21
    26          9
    27        103
    29         94
    30         36
    31         13
    38          9
    39        180
    40         35
    41        407
    42        202
    43        128
    44         34
    45         59
    46          3
    50          9
    51         27
    52         14
    53         95
    54         36
    55        199
    56        502
    57         70
    58         58
    59        110
    60          9
    63          6
    65         23
    66         10
    67         93
    68         27
    69        135
    70         44
    71         34
    72          8
    73         15
    74        171
    75          7
    77         25
    78          6
    79         31
    80         22
    81         54
    82         83
    83        216
    84         81
    85         57
    86         12
    88          9
    91         17
    92          5
    93         29
    94         43
    95        105
    96         98
    97         22
    98         45
    99         72
   100         54
   101        999
   102         52
   103          5
   106          3
   107          7
   108         42
   109         72
   110        110
   111         61
   112         37
   113         20
   114         32
   115          3
   120          9
   121          4
   122          5
   123          9
   124         11
   125          6
   126        393
   127         31
   128          5
   136          6
   137          7
   138         37
   139         11
   140         11
   141          4
   153          3
   154         41
   155         14
   156        422
   157         39
   158          3
   171        178
   172        150
   173         14
   186        213
   187         32
   188          3