##TITLE=Library Entry 79469
##JCAMP-DX=Revision 4.10 
##DATA TYPE=MASS SPECTRUM
##SAMPLE DESCRIPTION=A.A.Kutin, Moscow, Russia
##NAMES=HP
##CAS NAME=Ethanone, 2-(1H-benzimidazol-2-ylthio)-1-phenyl-
##MOLFORM=C15H12N2OS
##CAS REGISTRY NO=21547-79-5
##MP= -300
##BP= -300
##MW= 268
##$RETENTION INDEX=0
##$CONDENSED SPECTRUM=NO
##NPOINTS= 175
##XYDATA=(XY..XY) 1 
    33          7
    34          8
    36          1
    37         20
    38         43
    39        154
    40        114
    41         33
    42         23
    43         34
    44         31
    45         84
    46         22
    47          5
    48          2
    50        111
    51        287
    52         52
    53         11
    54          4
    55         11
    56          4
    57         14
    58          8
    59          6
    60          5
    61          9
    62         35
    63        120
    64         71
    65        111
    66          8
    67          3
    69         17
    70         22
    71          9
    72          6
    74         35
    75         29
    77        736
    78         91
    79          8
    81          5
    82          5
    83          6
    84          3
    85          2
    86          4
    87          4
    88          7
    89         24
    90         88
    91        128
    92         45
    93          5
    95         20
    96         13
    97          3
    98          3
    99          1
   100          1
   101          2
   102         15
   103         14
   105        999
   106         68
   107          6
   108          4
   109          4
   110          1
   111          1
   112          2
   113          1
   114          0
   115          3
   116          3
   117          7
   118         40
   119         98
   120         29
   122        135
   123         11
   124          6
   125          0
   126          0
   127          1
   129         13
   130          3
   131         14
   132          2
   134         30
   135          7
   136          2
   137          1
   138          0
   139          1
   140          1
   141          0
   143          1
   144          0
   145          1
   146          1
   147          4
   149         75
   150         22
   151          5
   152          4
   153          1
   154          0
   155          0
   157          0
   158          0
   159          0
   161          8
   163        374
   164         38
   165         18
   166          4
   167          3
   168          1
   169          0
   170          0
   171          3
   172          0
   177          1
   178          3
   179          0
   180          1
   181          0
   189          0
   191          6
   192          1
   193          2
   194          2
   195          1
   196          0
   197          0
   203          0
   204          0
   205          2
   206          3
   207         19
   208          3
   209          0
   212          0
   221          2
   222          1
   223          1
   225         16
   226         76
   227         13
   228          3
   229          0
   234          0
   235          3
   236          0
   237          1
   239          5
   240         56
   241          8
   242          3
   243          0
   248          0
   249          0
   250          1
   251          1
   253          0
   264          0
   265          0
   266          1
   267          4
   268        134
   269         23
   270          9
   271          1