##TITLE=Library Entry 89841
##JCAMP-DX=Revision 4.10 
##DATA TYPE=MASS SPECTRUM
##SAMPLE DESCRIPTION=NIST Mass Spectrometry Data Center, 1994
##NAMES=HP
##CAS NAME=Dibutyl itaconate
##MOLFORM=C13H22O4
##CAS REGISTRY NO=2155-60-4
##MP= -300
##BP= -300
##MW= 242
##$RETENTION INDEX=0
##$CONDENSED SPECTRUM=NO
##NPOINTS= 106
##XYDATA=(XY..XY) 1 
    12          0
    14          0
    15         14
    16          0
    24          0
    27        194
    28         78
    29        610
    30         19
    31         23
    34          0
    39        227
    40        220
    41        612
    42         48
    43         46
    44          7
    45         10
    46          0
    50          1
    51          3
    53         14
    54         15
    55         74
    56        185
    57        476
    58         33
    59          3
    60          1
    65          0
    67         25
    68         94
    69         15
    70          2
    71          4
    72          1
    73          3
    74          0
    75          1
    77          0
    79          0
    80          1
    81          1
    82          1
    85        219
    86        352
    87         35
    88          2
    89          0
    94          2
    95          6
    96          1
    97          1
    98          3
    99          2
   100          1
   101          2
   102          0
   107          0
   108          2
   109          1
   113        999
   114         76
   115          9
   116          0
   118          1
   119          0
   122          2
   123          2
   124          1
   125          2
   126          3
   127          3
   129          7
   131        139
   132          9
   133          1
   138          0
   139          2
   140          8
   141          8
   142         16
   143          2
   144          0
   150          4
   151          0
   153          0
   156          0
   157          2
   158          0
   168         28
   169        111
   170         12
   171          2
   172          0
   185          6
   186         29
   187         39
   188          4
   189          0
   196          0
   197          0
   213          0
   214          0
   242          8
   243          1