##TITLE=Library Entry 37692
##JCAMP-DX=Revision 4.10 
##DATA TYPE=MASS SPECTRUM
##SAMPLE DESCRIPTION=Albert Lebedev, Moscow State University, Russia
##NAMES=HP
##CAS NAME=4-(Pyrrolidin-2-ylmethyl)morpholine
##MOLFORM=C9H18N2O
##CAS REGISTRY NO=215503-90-5
##MP= -300
##BP= -300
##MW= 170
##$RETENTION INDEX=0
##$CONDENSED SPECTRUM=NO
##NPOINTS= 48
##XYDATA=(XY..XY) 1 
    39         13
    40          4
    41         50
    42         55
    43        100
    44         18
    45          4
    49          1
    51          1
    52          2
    53          7
    54         16
    55         25
    56         79
    57         23
    58          8
    67          6
    68         40
    69         17
    70        999
    71        158
    72         17
    73          2
    80          5
    81          3
    82         21
    83         12
    84         15
    85          2
    86         14
    87          7
    88          1
    94          1
    95          1
    96          1
    97          1
    98          4
    99         11
   100        286
   101        403
   102         28
   103          2
   109          1
   110          1
   111          1
   112          1
   126          2
   170          1