##TITLE=Library Entry 85428
##JCAMP-DX=Revision 4.10 
##DATA TYPE=MASS SPECTRUM
##SAMPLE DESCRIPTION=Chemical Concepts
##NAMES=HP
##CAS NAME=Diphenylvinylphosphine
##MOLFORM=C14H13P
##CAS REGISTRY NO=2155-96-6
##MP= -300
##BP= -300
##MW= 212
##$RETENTION INDEX=0
##$CONDENSED SPECTRUM=NO
##NPOINTS= 111
##XYDATA=(XY..XY) 1 
    26          5
    27         28
    28          2
    38          5
    39         65
    40          0
    41          9
    43          0
    44          0
    45          3
    50         37
    51        127
    52         17
    53          3
    55          2
    56         21
    57         81
    58          7
    62          7
    63         34
    64          8
    65         69
    66          5
    68          8
    69         19
    70          3
    74         13
    75         12
    76         15
    77         56
    78         24
    79          4
    80         21
    81         44
    82         20
    83         57
    84          4
    85          3
    87          3
    89         17
    90          4
    91        146
    92         21
    93          4
    95          3
   101          2
   102         18
   103         41
   104         12
   105          5
   106         22
   107        341
   108        999
   109        159
   110         11
   115         32
   116          5
   120          9
   121         11
   126          5
   127          4
   128         12
   129          2
   131          6
   132         12
   133        243
   134        431
   135         50
   136          3
   139         14
   140          2
   141          9
   144          3
   146          3
   150          2
   151          8
   152         61
   153         22
   154         42
   155          6
   157         30
   158          3
   159          4
   165         20
   166          4
   167         16
   168          3
   169          2
   170         20
   171          3
   177          2
   178         18
   179         29
   180         19
   181         12
   182          7
   183        316
   184         49
   185         32
   186          7
   195          2
   196          7
   197         39
   198          6
   207          4
   209          4
   210          9
   211        122
   212        788
   213        109
   214          8