##TITLE=Library Entry 16722
##JCAMP-DX=Revision 4.10 
##DATA TYPE=MASS SPECTRUM
##SAMPLE DESCRIPTION=Japan AIST/NIMC Database- Spectrum MS-NW-4338
##NAMES=HP
##CAS NAME=Propanoic acid, 2-hydroxy-, methyl ester, (.+/-.)-
##MOLFORM=C4H8O3
##CAS REGISTRY NO=2155-30-8
##MP= -300
##BP= -300
##MW= 104
##$RETENTION INDEX=751
##$CONDENSED SPECTRUM=NO
##NPOINTS= 42
##XYDATA=(XY..XY) 1 
    13          3
    14          9
    15         79
    16          2
    17          5
    18         21
    19          5
    25          3
    26         15
    27         72
    28         29
    29        112
    30         15
    31         32
    32          9
    33        152
    34          1
    39          2
    40          1
    41          4
    42         16
    43        134
    44         32
    45        999
    46         23
    47          2
    53          2
    55         13
    56          7
    57          1
    58          4
    59         31
    60          3
    61         33
    62          1
    69          2
    71          1
    72          1
    75          1
    76          2
    89         11
   104          2