##TITLE=Library Entry 41377
##JCAMP-DX=Revision 4.10 
##DATA TYPE=MASS SPECTRUM
##SAMPLE DESCRIPTION=MO-43
##NAMES=HP
##CAS NAME=Oleic Acid, (Z)-, TMS derivative
##MOLFORM=C21H42O2Si
##CAS REGISTRY NO=21556-26-3
##MP= -300
##BP= -300
##MW= 354
##$RETENTION INDEX=2218
##$CONDENSED SPECTRUM=NO
##NPOINTS= 120
##XYDATA=(XY..XY) 1 
    15         20
    26         19
    27         71
    28         56
    29        160
    39         58
    41        404
    42         72
    43        305
    44         26
    45         86
    47         43
    53         40
    54        129
    55        549
    56        100
    57        146
    58         22
    59         29
    61         63
    66         18
    67        257
    68        117
    69        247
    70         56
    71         42
    72         38
    73        999
    74        105
    75        881
    76         66
    77         58
    79         76
    80         54
    81        226
    82        136
    83        173
    84        189
    85         41
    89         32
    91         36
    93         54
    94         43
    95        165
    96        225
    97        150
    98        157
    99         33
   105         34
   107         34
   108         29
   109         94
   110         97
   111         69
   112         36
   116         69
   117        634
   118         67
   119         51
   121         41
   122         20
   123         78
   124         49
   125         29
   129        450
   130         63
   131         99
   132        208
   133         73
   134         29
   135         31
   137         53
   138         37
   139         16
   143         32
   145        299
   146         46
   147         38
   149         19
   151         34
   152         38
   155         29
   157         18
   159         28
   161         12
   165         21
   166         27
   169         21
   171         37
   172         18
   173         23
   180         58
   181         17
   183         20
   185         66
   186         21
   187         24
   194         12
   199         76
   200         18
   201         28
   213         18
   220         23
   221         24
   222         92
   223         20
   227         20
   236         19
   241         17
   255         13
   257         14
   264        100
   265         23
   272         10
   311         10
   339        437
   340        125
   341         36
   354         69
   355         25