##TITLE=Library Entry 22597
##JCAMP-DX=Revision 4.10 
##DATA TYPE=MASS SPECTRUM
##SAMPLE DESCRIPTION=Japan AIST/NIMC Database- Spectrum MS-NW-7705
##NAMES=HP
##CAS NAME=l-Alpha-amino-epsilon-caprolactam
##MOLFORM=C6H12N2O
##CAS REGISTRY NO=21568-87-6
##MP= -300
##BP= -300
##MW= 128
##$RETENTION INDEX=0
##$CONDENSED SPECTRUM=NO
##NPOINTS= 90
##XYDATA=(XY..XY) 1 
    14          3
    15         30
    16          3
    17          3
    18         10
    26         17
    27         92
    28        266
    29        103
    30        388
    31          9
    32          8
    33          1
    37          4
    38         10
    39         72
    40         17
    41        111
    42        127
    43        605
    44        161
    45         21
    46          8
    47          1
    48          1
    49          2
    50          7
    51         10
    52         11
    53         20
    54         46
    55         55
    56        999
    57        168
    58         64
    59         14
    60          1
    62          1
    63          1
    64          1
    65          5
    66         12
    67         19
    68         29
    69         18
    70        189
    71        147
    72        231
    73         13
    74          2
    75          5
    76          2
    77          6
    78          3
    79          5
    80          8
    81         36
    82        261
    83        700
    84        101
    85         13
    86          5
    87          1
    89          1
    91          4
    92          2
    93          4
    94          2
    95          2
    96          4
    97          3
    98          9
    99        138
   100         58
   101          4
   104          3
   105          2
   106          2
   107          4
   108          1
   109          2
   110         84
   111        179
   112         14
   113          3
   124          1
   126          2
   127          2
   128         34
   129          7