##TITLE=Library Entry 19628
##JCAMP-DX=Revision 4.10 
##DATA TYPE=MASS SPECTRUM
##SAMPLE DESCRIPTION=Vladimir Zaikin,TIPS RAS, Moscow, Russia
##NAMES=HP
##CAS NAME=Dodecyl acrylate
##MOLFORM=C15H28O2
##CAS REGISTRY NO=2156-97-0
##MP= -300
##BP= -300
##MW= 240
##$RETENTION INDEX=1675
##$CONDENSED SPECTRUM=NO
##NPOINTS= 71
##XYDATA=(XY..XY) 1 
    39        125
    40         23
    41        345
    42        140
    43        362
    44         65
    45         45
    49         10
    50         75
    51        105
    52         28
    53         42
    54         60
    55        999
    56        315
    57        250
    58         15
    62         11
    63         35
    64         25
    65         15
    67         60
    68        105
    69        320
    70        235
    71        105
    72        105
    73        332
    74         50
    75         50
    76         65
    77         38
    78         25
    79         15
    81         38
    82         92
    83        230
    84        143
    85         70
    86          9
    87          9
    91         10
    93          7
    94          6
    95         25
    96         40
    97        173
    98         95
    99         39
   100         11
   105         23
   106          4
   109         10
   110         30
   111         90
   112         39
   113         61
   114         11
   122         11
   123         11
   124         11
   125         28
   126         25
   127         85
   138          8
   139         12
   140         41
   141         11
   167          5
   168         39
   169          6