##TITLE=Library Entry 71161
##JCAMP-DX=Revision 4.10 
##DATA TYPE=MASS SPECTRUM
##SAMPLE DESCRIPTION=Japan AIST/NIMC Database- Spectrum MS-NW-2984
##NAMES=HP
##CAS NAME=2,4-Pentanedione dioxime
##MOLFORM=C5H10N2O2
##CAS REGISTRY NO=2157-56-4
##MP= -300
##BP= -300
##MW= 130
##$RETENTION INDEX=0
##$CONDENSED SPECTRUM=NO
##NPOINTS= 78
##XYDATA=(XY..XY) 1 
    12          1
    13          1
    14          9
    15        154
    16          5
    17          3
    18         10
    25          2
    26         28
    27        101
    28        166
    29         80
    30         47
    31        130
    32          3
    33         48
    34          2
    37          9
    38         27
    39        162
    40         77
    41        281
    42        411
    43        158
    44         42
    45          9
    46         28
    47          1
    49          1
    50          5
    51         11
    52         23
    53         23
    54        193
    55        254
    56        448
    57         44
    58        159
    59          6
    60          4
    61          1
    62          2
    63          3
    64          3
    65          7
    66         10
    67         19
    68         25
    69         11
    70          9
    71          9
    72        104
    73        471
    74         18
    75          1
    78          1
    79          2
    80         27
    81         19
    82         27
    83         18
    84          8
    85          7
    86        115
    87          6
    93          1
    94          2
    95         62
    96         67
    97         14
    98        999
    99         62
   100          5
   111          4
   112         14
   113        139
   114         12
   115          2