##TITLE=Library Entry 33969
##JCAMP-DX=Revision 4.10 
##DATA TYPE=MASS SPECTRUM
##SAMPLE DESCRIPTION=CATALOGUE OF MASS SPECTRA OF PESTICIDES, APRIL, 1975; J
. FREUDENTHAL & L. G. GRAMBERG, NAT'L INST. OF PUBLIC HEALTH, THE NETHERLAND
S
##NAMES=HP
##CAS NAME=Endosulfandiol
##MOLFORM=C9H8Cl6O2
##CAS REGISTRY NO=2157-19-9
##MP= -300
##BP= -300
##MW= 358
##$RETENTION INDEX=0
##$CONDENSED SPECTRUM=NO
##NPOINTS= 191
##XYDATA=(XY..XY) 1 
    27         26
    29         59
    31        686
    36         18
    39         74
    41        140
    42         38
    43         36
    45         23
    49         13
    50         12
    51         29
    53         11
    57         78
    61        100
    62         16
    63         21
    65         43
    67         13
    69        999
    70         93
    73         42
    74         16
    75         43
    77         15
    79         12
    83         48
    84         11
    85         63
    87         57
    89         22
    91         29
    96         21
    97         32
    98         13
    99         38
   102         12
   103         14
   105         14
   107         53
   108         28
   109         48
   111         26
   117         56
   118         15
   119         60
   120         26
   121         26
   122         15
   123         43
   124         10
   130         14
   131         18
   133         43
   135         26
   136         18
   141         43
   143         62
   144         12
   145         40
   146         12
   147         18
   148         14
   157         56
   158         16
   159         71
   160         18
   161         24
   165         15
   167         27
   169         38
   170         64
   171         34
   172         44
   173         10
   179         14
   180         37
   181         25
   182         22
   183         14
   184         14
   186         21
   187         16
   188         18
   191         69
   192         19
   193        183
   194         39
   195        147
   196         28
   197         51
   198         10
   201         25
   203         33
   204         54
   205         60
   206         62
   207         79
   208         27
   209         38
   210         14
   211         16
   214         25
   215         46
   216         65
   217         47
   218         24
   219         14
   220         26
   221         50
   222         18
   223         59
   224         13
   225         19
   226         25
   227        187
   228        100
   229        270
   230        118
   231        116
   232         59
   233         39
   234         27
   235        150
   236         31
   237        221
   238         30
   239        186
   240         52
   241        150
   242         67
   243         95
   244         33
   245         44
   247         12
   248         33
   250         33
   251        150
   252         42
   253        126
   254         23
   255         42
   256         53
   257        214
   258         83
   259        242
   260         60
   261        191
   262         43
   263        174
   264         51
   265         99
   266         37
   267         34
   268         14
   269         22
   270         74
   271         31
   272        159
   273         17
   274        110
   275        153
   276         69
   277        218
   278         29
   279        148
   280         17
   281         48
   291         26
   293         61
   294         17
   295         49
   296         11
   297         23
   305         78
   307        118
   308         18
   309         85
   310         12
   311         24
   312         11
   323         51
   325         87
   327         55
   329         22
   340         11
   342         28
   344         20
   358         15
   360         26
   362         26