##TITLE=Library Entry 37496
##JCAMP-DX=Revision 4.10 
##DATA TYPE=MASS SPECTRUM
##SAMPLE DESCRIPTION=NIST Mass Spectrometry Data Center
##NAMES=HP
##CAS NAME=2-Propenoic acid, 2-methyl-, octyl ester
##MOLFORM=C12H22O2
##CAS REGISTRY NO=2157-01-9
##MP= -300
##BP= -300
##MW= 198
##$RETENTION INDEX=1357
##$CONDENSED SPECTRUM=NO
##NPOINTS= 81
##XYDATA=(XY..XY) 1 
    15          1
    26          3
    27         53
    28          4
    29         99
    30          2
    31          5
    37          1
    38          7
    39        184
    40         41
    41        602
    42         82
    43        156
    44          6
    45          5
    50          1
    51          4
    52          2
    53         29
    54         27
    55        325
    56        208
    57        287
    58         16
    59         16
    65          4
    66          1
    67         23
    68         30
    69        960
    70        999
    71        145
    72         10
    73          4
    74          2
    77          2
    79          4
    81          9
    82         64
    83        284
    84        182
    85         38
    86          9
    87        160
    88         10
    89          1
    93          1
    95          7
    96          4
    97         48
    98         14
    99         69
   100         24
   101         10
   109          3
   110          6
   111         24
   112        408
   113         38
   114          2
   121          1
   123          3
   124          4
   125         11
   126          3
   127          2
   128          3
   129          3
   137          1
   138          4
   139          6
   140          2
   141          3
   142          2
   151          5
   152          1
   155          1
   156          3
   165          1
   169          7