##TITLE=Library Entry 18604
##JCAMP-DX=Revision 4.10 
##DATA TYPE=MASS SPECTRUM
##SAMPLE DESCRIPTION=CAR 0004
##NAMES=HP
##CAS NAME=Cycloheptanone, oxime
##MOLFORM=C7H13NO
##CAS REGISTRY NO=2158-31-8
##MP= -300
##BP= -300
##MW= 127
##$RETENTION INDEX=0
##$CONDENSED SPECTRUM=NO
##NPOINTS= 76
##XYDATA=(XY..XY) 1 
    15         97
    16        117
    24          6
    25         19
    26        148
    27        679
    30         95
    31         42
    36         19
    37         74
    38        120
    39        744
    41        143
    42        318
    43        277
    45         27
    46         63
    49          9
    50         53
    51        106
    52        140
    53        254
    54        999
    55        559
    56        201
    57        160
    58         23
    59        239
    60         16
    61          9
    62         13
    63         33
    64         34
    65         52
    66         99
    67        423
    68        297
    69        206
    70         53
    71         19
    72        116
    73        218
    74         16
    75          7
    76          6
    77         46
    78         36
    79         64
    80        103
    81        176
    82        428
    83        254
    84         79
    85         63
    86         37
    91         26
    92          9
    93         39
    94         62
    95        226
    96        158
    97         36
    98        122
    99        285
   100         26
   107          7
   108         42
   109         20
   110        181
   111         74
   112         92
   113         19
   125          7
   126         23
   127        236
   128         19