##TITLE=Library Entry 77013
##JCAMP-DX=Revision 4.10 
##DATA TYPE=MASS SPECTRUM
##SAMPLE DESCRIPTION=A.A.Kutin, Moscow, Russia
##NAMES=HP
##CAS NAME=.beta.-Phenylethylurea
##MOLFORM=C9H12N2O
##CAS REGISTRY NO=2158-04-5
##MP= -300
##BP= -300
##MW= 164
##$RETENTION INDEX=0
##$CONDENSED SPECTRUM=NO
##NPOINTS= 65
##XYDATA=(XY..XY) 1 
    37         11
    38         36
    39        212
    40         22
    41         50
    42         41
    43         65
    44        356
    45          2
    46          2
    48          3
    49          4
    50         78
    51        163
    52         40
    53         16
    54          3
    55          0
    56          7
    57          1
    58          2
    59          1
    60          1
    61         17
    62         34
    63        104
    64         27
    65        323
    66         26
    67          0
    69          3
    73        570
    74         31
    75         13
    76         13
    77        136
    78         90
    79         30
    80          4
    85          5
    86          4
    87          9
    89         74
    91        602
    92        125
    93         14
    94          2
   102         16
   103        107
   104        999
   105        101
   106          8
   116          5
   117          9
   118         33
   119         24
   120         19
   121          4
   122          1
   128          5
   147          6
   148          0
   149         20
   164        419
   165         43