##TITLE=Library Entry 1024
##JCAMP-DX=Revision 4.10 
##DATA TYPE=MASS SPECTRUM
##SAMPLE DESCRIPTION=Japan AIST/NIMC Database- Spectrum MS-IW- 837
##NAMES=HP
##CAS NAME=Urea, octadecyl-
##MOLFORM=C19H40N2O
##CAS REGISTRY NO=2158-08-9
##MP= -300
##BP= -300
##MW= 312
##$RETENTION INDEX=0
##$CONDENSED SPECTRUM=NO
##NPOINTS= 182
##XYDATA=(XY..XY) 1 
    15          2
    16          1
    17          8
    18        191
    26          3
    27         32
    28         30
    29        115
    30        999
    31         47
    32          5
    39         21
    40          4
    41        207
    42         49
    43        302
    44        470
    45        107
    46          7
    53          7
    54         11
    55        130
    56         55
    57        107
    58         30
    59         37
    60          6
    61         79
    62          1
    65          1
    66          1
    67         18
    68         12
    69         84
    70         38
    71         44
    72         37
    73        318
    74        191
    75          9
    77          1
    79          4
    80          1
    81         11
    82         18
    83         66
    84         24
    85         32
    86         78
    87        122
    88         80
    89          3
    91          1
    93          2
    94          1
    95          7
    96         17
    97         58
    98         28
    99         94
   100         54
   101         98
   102         73
   103          4
   107          1
   109          3
   110         13
   111         27
   112         48
   113         35
   114         29
   115        127
   116         75
   117          5
   122          1
   123          2
   124          9
   125         14
   126         23
   127         10
   128         23
   129        120
   130         40
   131          3
   137          1
   138          6
   139          6
   140          9
   141          5
   142         23
   143         68
   144         27
   145          2
   149          1
   151          1
   152          4
   153          4
   154          8
   155          3
   156         21
   157         55
   158         23
   159          2
   166          3
   167          3
   168          6
   169          3
   170         19
   171         59
   172         20
   173          2
   180          4
   181          3
   182          6
   183          2
   184         19
   185         49
   186         22
   187          2
   194          4
   195          3
   196          5
   197          3
   198         20
   199         45
   200         19
   201          2
   208          4
   209          2
   210          5
   211          3
   212         19
   213         42
   214         19
   215          2
   222          5
   223          2
   224          6
   225          2
   226         16
   227         40
   228         16
   229          2
   236          3
   237          1
   238          4
   239          2
   240         17
   241         37
   242         16
   243          2
   250          1
   251          1
   252          6
   253          2
   254         10
   255         35
   256         14
   257          2
   265          1
   266          3
   267          2
   268         30
   269         70
   270         28
   271          4
   278          1
   280          1
   282          1
   283         26
   284         21
   285          5
   294          1
   295          6
   296          4
   297          7
   298          2
   310          1
   311          8
   312        222
   313         57
   314          7