##TITLE=Library Entry 37001
##JCAMP-DX=Revision 4.10 
##DATA TYPE=MASS SPECTRUM
##SAMPLE DESCRIPTION=Japan AIST/NIMC Database- Spectrum MS-IW-7558
##NAMES=HP
##CAS NAME=3,9-Bis(3-aminopropyl)-2,4,8,10-tetroxaspiro[5.5]undecane
##MOLFORM=C13H26N2O4
##CAS REGISTRY NO=21587-74-6
##MP= -300
##BP= -300
##MW= 274
##$RETENTION INDEX=0
##$CONDENSED SPECTRUM=NO
##NPOINTS= 167
##XYDATA=(XY..XY) 1 
    15          4
    16          7
    17          8
    18         29
    26          1
    27         18
    28         28
    29         24
    30        233
    31         28
    37          2
    38          5
    39         32
    40         14
    41        145
    42         43
    43        221
    44        176
    45          7
    46          1
    47          1
    50          1
    51          2
    52          1
    53         34
    54         20
    55         47
    56         27
    57         34
    58         11
    59        188
    60         12
    65          2
    66          2
    67         13
    68         71
    69        139
    70        999
    71        196
    72         18
    73          4
    74          2
    77          1
    79          4
    80          2
    81          9
    82          7
    83         50
    84         24
    85         12
    86        101
    87         37
    88         80
    89          5
    90          1
    91          1
    93          2
    94          2
    95          5
    96          9
    97          6
    98         10
    99         35
   100         10
   101         11
   102          6
   103          3
   104         29
   105          2
   107          2
   108          1
   109          3
   110          3
   111          4
   112          2
   113          5
   114          2
   115          2
   116          3
   117          9
   118          1
   119          3
   120          1
   121          1
   122          1
   123          1
   124          1
   125          1
   126          1
   127          5
   128          2
   129          4
   130          2
   131          9
   132          1
   135          1
   137          5
   138          6
   139          8
   140          9
   141         10
   142          5
   143          1
   144          6
   145          1
   146          1
   147          5
   149          1
   151         21
   152          4
   153          2
   154          2
   155          1
   156          8
   157         31
   158        144
   159         18
   160          3
   161          1
   169          4
   170          2
   171          2
   172         13
   173          4
   174         34
   175          8
   176          1
   184          1
   186          7
   187         29
   188         15
   189          4
   195          1
   198          3
   199          1
   200          1
   201          1
   202          1
   204         73
   205         10
   206          7
   207          1
   213          2
   214          5
   215          1
   216        116
   217         15
   218          3
   227          4
   228          1
   229          1
   230          6
   231         14
   232         95
   233         11
   234          1
   240          1
   244          8
   245         20
   246          2
   247          1
   256          4
   258          5
   259          1
   273          7
   274         17
   275          5