##TITLE=Library Entry 1169
##JCAMP-DX=Revision 4.10 
##DATA TYPE=MASS SPECTRUM
##SAMPLE DESCRIPTION=Chemical Concepts
##NAMES=HP
##CAS NAME=Urea, (2-ethylhexyl)-
##MOLFORM=C9H20N2O
##CAS REGISTRY NO=2158-07-8
##MP= -300
##BP= -300
##MW= 172
##$RETENTION INDEX=0
##$CONDENSED SPECTRUM=NO
##NPOINTS= 103
##XYDATA=(XY..XY) 1 
    25          1
    26          7
    27         95
    28         37
    29        145
    30        999
    31        147
    36          1
    37          1
    38          2
    39         66
    40         12
    41        202
    42         51
    43        127
    44         89
    45          8
    46          2
    50          2
    51          5
    52          3
    53         22
    54         18
    55        118
    56         94
    57        140
    58         18
    59          2
    60         20
    61        219
    62          5
    63          1
    65          4
    66          2
    67         14
    68          9
    69         49
    70         72
    71         19
    72         44
    73        456
    74        459
    75        120
    76          5
    77          3
    78          1
    79          4
    80          2
    81          5
    82          7
    83         25
    84         13
    85          4
    86          7
    87         15
    88          3
    91          2
    92          0
    93          1
    94          1
    95          3
    96          2
    97          5
    98          9
    99          4
   100         33
   101         11
   102          2
   104          1
   105          1
   107          1
   108          1
   109          1
   110          2
   111          2
   112         19
   113          3
   114          3
   115         49
   116         21
   117          2
   123          1
   125          1
   126          2
   127          4
   128          6
   129         24
   130          7
   131          1
   140          1
   141          2
   142          1
   143         68
   144          8
   145          1
   155          1
   156          1
   157          5
   158          1
   171          1
   172         66
   173         18
   174          2