##TITLE=Library Entry 98900
##JCAMP-DX=Revision 4.10 
##DATA TYPE=MASS SPECTRUM
##SAMPLE DESCRIPTION=A.A.Kutin, Moscow, Russia
##NAMES=HP
##CAS NAME=1,2,4-Dithiazolidine-3,5-dione, 4-phenyl-
##MOLFORM=C8H5NO2S2
##CAS REGISTRY NO=21597-12-6
##MP= -300
##BP= -300
##MW= 211
##$RETENTION INDEX=0
##$CONDENSED SPECTRUM=NO
##NPOINTS= 98
##XYDATA=(XY..XY) 1 
    33          4
    34          4
    37         32
    38         69
    39         79
    40         18
    41         27
    42          2
    44          6
    45          6
    46          2
    47          0
    48          2
    50         58
    51         91
    52         30
    53          2
    54          0
    55          0
    56          0
    58          3
    60         29
    61         11
    64        466
    65         46
    66         16
    69          5
    70          6
    72          1
    73          2
    74          8
    75          8
    76         15
    77         49
    78          4
    79          1
    80          0
    81          0
    82          0
    83          0
    84          0
    86          0
    87          2
    88          3
    91        347
    92         20
    94          0
    96         11
    97          1
    98          0
    99          0
   100          0
   103          2
   104          0
   105          0
   106          1
   107          0
   108          0
   109          0
   110          0
   113          0
   115          1
   119        999
   122          6
   123         14
   124          1
   125          0
   126          0
   128          1
   129          0
   130          0
   135          1
   136          0
   146         23
   147          1
   151         36
   152          2
   153          1
   154          0
   160          1
   162          0
   167          2
   168          0
   169          0
   181          0
   183         13
   184          1
   185          1
   192          1
   193          0
   194          2
   195          0
   206          0
   211        320
   212         28
   213         25
   214          2
   215          0