##TITLE=Library Entry 18862
##JCAMP-DX=Revision 4.10 
##DATA TYPE=MASS SPECTRUM
##SAMPLE DESCRIPTION=NIST Mass Spectrometry Data Center
##NAMES=HP
##CAS NAME=Hexafluoroisopropyl acrylate
##MOLFORM=C6H4F6O2
##CAS REGISTRY NO=2160-89-6
##MP= -300
##BP= -300
##MW= 222
##$RETENTION INDEX=0
##$CONDENSED SPECTRUM=NO
##NPOINTS= 61
##XYDATA=(XY..XY) 1 
    12          2
    13          4
    14          4
    15          5
    20          1
    25         23
    26        154
    27        663
    29         68
    30          1
    31         25
    37          2
    38          2
    41          3
    42          8
    43          4
    44          7
    45         10
    46          3
    47          2
    49          5
    50         17
    51         45
    52          3
    53         26
    55        999
    56         35
    57          3
    63          8
    64          1
    69        216
    70          3
    75          1
    77          1
    78          3
    79          4
    82         14
    89          1
    93          4
    97          1
    99          5
   100          1
   101          1
   107          1
   109          1
   112          1
   113         19
   114          1
   129          2
   132          3
   135          1
   151          6
   153          4
   155          1
   158         24
   159          1
   183         32
   184          2
   203         11
   222         34
   223          2