##TITLE=Library Entry 44643
##JCAMP-DX=Revision 4.10 
##DATA TYPE=MASS SPECTRUM
##SAMPLE DESCRIPTION=Japan AIST/NIMC Database- Spectrum MS-NW-6657
##NAMES=HP
##CAS NAME=2,2'-(tert-Butylimino)diethanol
##MOLFORM=C8H19NO2
##CAS REGISTRY NO=2160-93-2
##MP= -300
##BP= -300
##MW= 161
##$RETENTION INDEX=0
##$CONDENSED SPECTRUM=NO
##NPOINTS= 72
##XYDATA=(XY..XY) 1 
    14          1
    15         13
    17          2
    18          7
    26          4
    27         33
    28         21
    29         79
    30         95
    31         16
    32          2
    38          2
    39         28
    40          7
    41        120
    42         63
    43         22
    44         24
    45         56
    46          1
    50          1
    51          1
    52          1
    53          5
    54          7
    55         24
    56        179
    57        225
    58         42
    59          2
    60          5
    67          1
    68          4
    69          4
    70         22
    71          7
    72         13
    73          3
    74        999
    75         40
    76          3
    82          2
    83          1
    84         54
    85          5
    86         31
    87          2
    88          4
    96          1
    98          2
    99          1
   100          1
   102         55
   103          4
   104         15
   105          1
   114          7
   115          1
   116          2
   118          4
   128         12
   129          2
   130        221
   131         18
   132          1
   142          2
   143          1
   144          2
   146         92
   147          9
   148          1
   161          3