##TITLE=Library Entry 13943
##JCAMP-DX=Revision 4.10 
##DATA TYPE=MASS SPECTRUM
##SAMPLE DESCRIPTION=A.A.Kutin, Moscow, Russia
##NAMES=HP
##CAS NAME=1-(5-Bromo-4-nitro-2-thienyl)ethan-1-one
##MOLFORM=C6H4BrNO3S
##CAS REGISTRY NO=2160-55-6
##MP= -300
##BP= -300
##MW= 249
##$RETENTION INDEX=0
##$CONDENSED SPECTRUM=NO
##NPOINTS= 129
##XYDATA=(XY..XY) 1 
    34          1
    36          5
    37         57
    38         20
    39          9
    40          4
    41          3
    42         28
    43        999
    44         34
    45         64
    46         10
    47          4
    48          2
    49         10
    50         13
    51         18
    52          5
    53         32
    54          0
    55          0
    56          6
    57         12
    58          7
    59          2
    60          2
    61          6
    62          6
    63          5
    64          2
    67          2
    68         10
    69         85
    70         17
    71          7
    72          3
    73          0
    74          2
    75          1
    77          2
    79          5
    80         27
    81        252
    82         78
    83         19
    84          7
    85          2
    86          2
    91          1
    92          4
    93         18
    94          6
    95         18
    96          5
    97          6
    98          2
    99          4
   105          1
   106          1
   107          1
   108          6
   109          5
   110          2
   113          0
   115          0
   116         23
   117         12
   118         20
   119         11
   123         36
   125         42
   126          1
   127          2
   128          3
   130          4
   131          1
   132          1
   133          1
   135          3
   136          0
   137          3
   147          0
   148          2
   149          5
   150          2
   151          5
   153          0
   159          5
   160        139
   161         18
   162        143
   163         12
   164          7
   171          0
   173          0
   174          3
   175          0
   176         19
   177          6
   178         15
   179          6
   187          0
   188        115
   190        109
   191          9
   192          4
   193          1
   203          1
   204          4
   205          1
   206          4
   207          0
   218         16
   219          5
   220         18
   221          5
   222          1
   234        718
   235         64
   236        693
   237         44
   238         34
   239          1
   249        402
   250         40
   251        397
   252         33
   253         20
   254          3