##TITLE=Library Entry 48196
##JCAMP-DX=Revision 4.10 
##DATA TYPE=MASS SPECTRUM
##SAMPLE DESCRIPTION=Japan AIST/NIMC Database- Spectrum MS-IW- 860
##NAMES=HP
##CAS NAME=3-Cyclohexene-1,1-dimethanol
##MOLFORM=C8H14O2
##CAS REGISTRY NO=2160-94-3
##MP= -300
##BP= -300
##MW= 142
##$RETENTION INDEX=0
##$CONDENSED SPECTRUM=NO
##NPOINTS= 86
##XYDATA=(XY..XY) 1 
    15          2
    17          1
    18          4
    26          2
    27         36
    28         14
    29         42
    30          2
    31         62
    32          1
    38          3
    39         76
    40         12
    41        141
    42         18
    43         63
    44          4
    45          8
    46          1
    47          1
    50          5
    51         20
    52          9
    53         69
    54         94
    55        174
    56         14
    57        284
    58         11
    59          1
    60          1
    61          3
    62          1
    63          4
    64          1
    65         43
    66         57
    67        285
    68        310
    69         65
    70         50
    71          8
    73          8
    74          2
    75          1
    77        375
    78        999
    79        595
    80        152
    81        242
    82         45
    83         49
    84          4
    85          2
    86          1
    87          9
    89          2
    90          1
    91        827
    92        117
    93        902
    94        289
    95        237
    96         79
    97          8
    98          4
    99          1
   100          1
   103          4
   104          1
   105         59
   106        855
   107         92
   108          6
   109         78
   110         17
   111         62
   112          6
   113          1
   123          9
   124        481
   125         48
   126          3
   142          4
   143          6
   144          1