##TITLE=Library Entry 84949
##JCAMP-DX=Revision 4.10 
##DATA TYPE=MASS SPECTRUM
##SAMPLE DESCRIPTION=LAC, NIDDK, NIH, Bethesda, MD 20892
##NAMES=HP
##CAS NAME=N-CBZ-Carnosine
##MOLFORM=C17H20N4O5
##CAS REGISTRY NO=21612-28-2
##MP= -300
##BP= -300
##MW= 360
##$RETENTION INDEX=0
##$CONDENSED SPECTRUM=NO
##NPOINTS= 63
##XYDATA=(XY..XY) 1 
    42         67
    43         28
    44         31
    45         42
    46          6
    49         19
    50         20
    51         47
    52         13
    53          4
    55         12
    56         14
    58          6
    60         28
    61          1
    62         13
    63         37
    64         16
    65        127
    66          8
    69          1
    70         41
    71         10
    72          4
    73          5
    74         14
    75          1
    76          5
    77         96
    78         25
    79        120
    80         13
    84         22
    85          1
    86         44
    88         41
    89         83
    90         95
    91        978
    92         80
    96          3
    98         45
    99          4
   100         10
   101          8
   105         28
   106          3
   107        357
   108        999
   109         73
   110          4
   114          6
   116          9
   118          4
   120          4
   130         13
   132         10
   149          1
   155          9
   205          5
   223        165
   224         24
   360          7