##TITLE=Library Entry 2893
##JCAMP-DX=Revision 4.10 
##DATA TYPE=MASS SPECTRUM
##SAMPLE DESCRIPTION=NIST Mass Spectrometry Data Center
##NAMES=HP
##CAS NAME=1,8-Dichlorooctane
##MOLFORM=C8H16Cl2
##CAS REGISTRY NO=2162-99-4
##MP= -300
##BP= -300
##MW= 182
##$RETENTION INDEX=1332
##$CONDENSED SPECTRUM=NO
##NPOINTS= 70
##XYDATA=(XY..XY) 1 
    14          3
    15         31
    18          3
    27        557
    28        137
    29        331
    30          6
    35          5
    36         10
    37          6
    39        400
    41        999
    42        197
    43        255
    44          8
    46          1
    47          3
    49        144
    50         16
    51         74
    52         13
    53         96
    55        977
    56        189
    57         47
    58          2
    60          1
    61         10
    62         23
    63         97
    64          9
    65         39
    66         14
    67        131
    68        195
    69        396
    70         53
    71          4
    73          2
    75         22
    76         12
    77         28
    78          5
    79         14
    81         57
    82         70
    83         68
    84         23
    85          1
    89          7
    91        830
    92         47
    93        265
    94         13
    95         14
    97         17
    98          1
   104        180
   105         45
   106         60
   107         13
   109          3
   110          5
   111          3
   117         10
   118         38
   119          5
   120         12
   146          2
   148          1