##TITLE=Library Entry 15293
##JCAMP-DX=Revision 4.10 
##DATA TYPE=MASS SPECTRUM
##SAMPLE DESCRIPTION=A.A.Kutin, Moscow, Russia
##NAMES=HP
##CAS NAME=Quinulcidine, 3-benzylideno-
##MOLFORM=C14H17N
##CAS REGISTRY NO=21628-24-0
##MP= -300
##BP= -300
##MW= 199
##$RETENTION INDEX=0
##$CONDENSED SPECTRUM=NO
##NPOINTS= 137
##XYDATA=(XY..XY) 1 
    33          2
    39        252
    40         55
    41        291
    42        779
    43        306
    44        999
    45         21
    46          0
    47          0
    50         74
    51        160
    52         46
    53         62
    54         54
    55         96
    56        159
    57        490
    58         20
    59          1
    61          7
    62         39
    63        116
    64         35
    65        120
    66         18
    67         31
    68         44
    69         24
    70         37
    71         23
    72          7
    74         32
    75         34
    76         43
    77        133
    78         61
    79         39
    80         47
    81         27
    82        226
    83         43
    84         23
    85         21
    86         19
    87         23
    88         14
    89         79
    91        270
    92         33
    93         13
    94         53
    95         33
    96         11
    97          5
    99         49
   100         51
   101         11
   102         50
   103         38
   104         57
   105         13
   106          9
   107          5
   108         48
   109          5
   110          3
   111          1
   112          1
   113         15
   115        534
   116        118
   117         44
   118         14
   119          2
   120          9
   121          6
   122         52
   123          4
   124          0
   126         23
   127        113
   128        377
   129        329
   130         69
   131         24
   132         16
   133          7
   134          1
   135          0
   137          1
   139         24
   141        238
   142        166
   143         97
   144         38
   145          6
   146          1
   150          1
   151          5
   152         19
   153         37
   154         45
   155        107
   156         97
   157         49
   158         98
   159         12
   160          1
   163          0
   165          6
   166          5
   167         24
   168         24
   169         53
   170         93
   171         42
   172         22
   173          3
   174          0
   178          0
   179          0
   180          1
   181          5
   182          4
   183          4
   184         31
   185          4
   186          0
   193          0
   194          0
   196         12
   198        250
   199        613
   200         93
   201          9
   202          0