##TITLE=Library Entry 3199
##JCAMP-DX=Revision 4.10 
##DATA TYPE=MASS SPECTRUM
##SAMPLE DESCRIPTION=NIST Mass Spectrometry Data Center, 1990.
##NAMES=HP
##CAS NAME=Hexane, 1,2-dichloro-
##MOLFORM=C6H12Cl2
##CAS REGISTRY NO=2162-92-7
##MP= -300
##BP= -300
##MW= 154
##$RETENTION INDEX=1005
##$CONDENSED SPECTRUM=NO
##NPOINTS= 54
##XYDATA=(XY..XY) 1 
    15         15
    26         45
    27        281
    28         15
    29        182
    36          9
    37         17
    38         49
    39        396
    40         94
    41        999
    42        369
    43        250
    44         13
    49        130
    50         43
    51        103
    52         25
    53        222
    54        100
    55        417
    56        292
    57        206
    61         83
    62         99
    63        130
    64         31
    65         62
    66         25
    67        833
    68         25
    69        813
    70         42
    73         11
    75        120
    76        162
    77         90
    78         55
    79         27
    82        637
    83        261
    84         16
    89         81
    90         84
    91         34
    92         23
    96          7
    97         20
    99         13
   103         10
   105          9
   118         17
   125         62
   127         41