##TITLE=Library Entry 72072
##JCAMP-DX=Revision 4.10 
##DATA TYPE=MASS SPECTRUM
##SAMPLE DESCRIPTION=Div. of Experiment Therapeutics WRAIR, WRAMC, Washingto
n DC 20307
##NAMES=HP
##CAS NAME=1-Methyl-4-[4-aminobenzene]sulfonyl piperazine
##MOLFORM=C11H17N3O2S
##CAS REGISTRY NO=21623-68-7
##MP= -300
##BP= -300
##MW= 255
##$RETENTION INDEX=0
##$CONDENSED SPECTRUM=NO
##NPOINTS= 29
##XYDATA=(XY..XY) 1 
    41         10
    42         56
    43         20
    44         14
    54         12
    55         10
    56        152
    57         19
    58         23
    63          7
    65         62
    66         10
    70         63
    71          7
    72         23
    84          7
    91         11
    92         59
    97         21
    99        999
   100         54
   106         14
   108         29
   140         12
   156         21
   184          3
   254         10
   255        100
   256         22