##TITLE=Library Entry 37679
##JCAMP-DX=Revision 4.10 
##DATA TYPE=MASS SPECTRUM
##SAMPLE DESCRIPTION=A.A.Kutin, Moscow, Russia
##NAMES=HP
##CAS NAME=Pyrrole-2,5(3H,4H)-dione, 1-(4-ethoxyphenyl)-3-(4-methylpiperazin
-1-yl)-
##MOLFORM=C17H23N3O3
##CAS REGISTRY NO=21621-46-5
##MP= -300
##BP= -300
##MW= 317
##$RETENTION INDEX=0
##$CONDENSED SPECTRUM=NO
##NPOINTS= 200
##XYDATA=(XY..XY) 1 
    33          1
    34          3
    37          1
    38          4
    39         30
    40         64
    41         98
    42        459
    43        695
    44        642
    45         18
    49          1
    50          5
    51         18
    52         44
    53         24
    54        112
    55        659
    56        465
    57        184
    58        399
    59         26
    60          3
    61          1
    62          3
    63         14
    64          8
    65         13
    66          3
    67         12
    68         33
    69        137
    70        999
    71        380
    72        179
    73         10
    74          1
    75          1
    76          4
    77         10
    78         19
    79         29
    80         14
    81         17
    82         61
    83         78
    84         94
    85        115
    86         12
    87          1
    89          4
    90         16
    91          7
    92          3
    93          5
    94          8
    95         11
    96         17
    97        103
    98        216
    99        962
   100         81
   101          5
   102          1
   103          1
   104          5
   105          4
   106         15
   107         53
   108         16
   109         16
   110         19
   111         33
   112         14
   113          6
   114          1
   115          1
   116          2
   117          2
   118          4
   119         12
   120         10
   121          6
   122         17
   123          5
   124         15
   125         34
   126        117
   127         11
   128          1
   129          3
   131          1
   132          5
   133          6
   134         15
   135        100
   136         12
   137         15
   138          3
   139          2
   140          1
   142          0
   143          1
   144          4
   145          5
   146          3
   147          2
   148          5
   149          2
   150          1
   151          3
   152          6
   153         19
   154          3
   155          0
   157          1
   159          1
   160          4
   161          6
   162         12
   163         33
   164          4
   165          1
   166          0
   167          1
   168          0
   169          1
   170          2
   171         23
   172          3
   173          1
   174          1
   175          1
   176          0
   180          0
   181          0
   183          0
   185          0
   187          0
   188          6
   189         31
   190          8
   191         36
   192          4
   194          0
   195          2
   196         33
   197          5
   198          0
   199          1
   201          1
   202          1
   203          1
   204          1
   205          2
   215          0
   216          1
   217         54
   218         11
   219         47
   220          6
   221          0
   230          2
   231          4
   232          2
   233          0
   234          4
   235          1
   241          1
   243          0
   245          2
   246         34
   247         21
   248          3
   258         25
   259          5
   260         19
   261         14
   262          2
   268          1
   272          1
   273          8
   274         11
   275          4
   283          4
   287          1
   288          1
   289          2
   298          0
   301          2
   302          3
   303          0
   312          0
   313          4
   314          1
   315          7
   317        362
   318         70
   319          9
   320          1