##TITLE=Library Entry 7147
##JCAMP-DX=Revision 4.10 
##DATA TYPE=MASS SPECTRUM
##SAMPLE DESCRIPTION=CARL DJERASSI DEPT OF CHEM STANFORD UNIV STANFORD CALIF
 94305
##NAMES=HP
##CAS NAME=Androstan-17-ol, 2,3-epoxy-1-methyl-, acetate, (1.alpha.,2.beta.,
3.beta.,5.alpha.,17.beta.)-
##MOLFORM=C22H34O3
##CAS REGISTRY NO=21623-48-3
##MP= -300
##BP= -300
##MW= 346
##$RETENTION INDEX=0
##$CONDENSED SPECTRUM=NO
##NPOINTS= 166
##XYDATA=(XY..XY) 1 
    41        380
    42         30
    43        999
    44         30
    45         30
    50         20
    51         20
    52         10
    53        110
    54         20
    55        390
    56         40
    57         60
    58         10
    62         20
    63         20
    65         50
    66         20
    67        260
    68         60
    69        110
    70         10
    71         80
    77        130
    78         30
    79        280
    80         70
    81        340
    82         50
    83         40
    84        200
    85         50
    91        260
    92         70
    93        370
    94        210
    95        310
    96         40
    97         60
    98         10
    99         10
   103         10
   104         20
   105        270
   106        120
   107        320
   108        110
   109        130
   110         30
   111         30
   112         10
   115         20
   116         10
   117         50
   118         50
   119        190
   120        140
   121        210
   122         70
   123         90
   124         40
   125         20
   128         10
   129         20
   130         10
   131        120
   132         50
   133        220
   134         90
   135        110
   136         40
   137        120
   138         90
   139         10
   141         10
   142         10
   143         30
   144         20
   145        130
   146        100
   147        220
   148        180
   149        130
   150         20
   151         70
   152         10
   157         30
   158         20
   159        130
   160         90
   161        160
   162         50
   163         30
   164         10
   165         10
   171         30
   172         20
   173        100
   174         60
   175         70
   176         20
   177         30
   178         10
   179         10
   185         50
   186         10
   187        160
   188         30
   189         20
   190         10
   191         10
   197         10
   199         40
   200         90
   201        180
   202        260
   208         10
   213         20
   214         20
   215         70
   216         70
   217         20
   218         10
   219         20
   224         10
   225         10
   227         20
   228         10
   229        160
   230         10
   231         10
   233         10
   234         20
   243         30
   244         10
   245         20
   247         10
   253         30
   260         70
   261         40
   262        270
   263         50
   268         10
   271         60
   272         10
   274         50
   275         10
   276         10
   278         10
   280         10
   286         60
   287         10
   288         10
   289         50
   290         10
   291         20
   302         10
   303        110
   304        160
   305         30
   328         20
   329         10
   331        140
   332         30
   345         30
   346        150