##TITLE=Library Entry 59285
##JCAMP-DX=Revision 4.10 
##DATA TYPE=MASS SPECTRUM
##SAMPLE DESCRIPTION=Japan AIST/NIMC Database- Spectrum MS-NW-5169
##NAMES=HP
##CAS NAME=1,10-Dichlorodecane
##MOLFORM=C10H20Cl2
##CAS REGISTRY NO=2162-98-3
##MP= -300
##BP= -300
##MW= 210
##$RETENTION INDEX=1536
##$CONDENSED SPECTRUM=NO
##NPOINTS= 97
##XYDATA=(XY..XY) 1 
    15          4
    17          1
    18          5
    26          6
    27        151
    28         16
    29        170
    30          4
    31          1
    32          1
    35          2
    36         10
    37          1
    38          4
    39        102
    40         18
    41        485
    42        114
    43        348
    44         11
    49         26
    50          2
    51          9
    52          3
    53         41
    54         49
    55        793
    56        138
    57        152
    58          7
    61          3
    62          6
    63         49
    64          3
    65         15
    66          5
    67         61
    68         73
    69        479
    70         97
    71         29
    72          2
    73          1
    74          1
    75          9
    76          6
    77         33
    78          3
    79          9
    80          1
    81         34
    82         53
    83        224
    84         47
    85          6
    89          4
    90         12
    91        999
    92         49
    93        315
    94         14
    95         20
    96         24
    97        101
    98         13
    99          1
   103          3
   104         91
   105        135
   106         36
   107         44
   108          3
   109         18
   110          9
   111          9
   112          3
   117          5
   118         26
   119         19
   120          9
   121          6
   123          1
   125          2
   130          2
   131          5
   132         12
   133          7
   134          5
   135          2
   138          1
   144          1
   145          4
   146         13
   147          3
   148          5
   174          3
   176          1