##TITLE=Library Entry 19254
##JCAMP-DX=Revision 4.10 
##DATA TYPE=MASS SPECTRUM
##SAMPLE DESCRIPTION=Japan AIST/NIMC Database- Spectrum MS-NW-1037
##NAMES=HP
##CAS NAME=Hexane, 1,6-dichloro-
##MOLFORM=C6H12Cl2
##CAS REGISTRY NO=2163-00-0
##MP= -300
##BP= -300
##MW= 154
##$RETENTION INDEX=1536
##$CONDENSED SPECTRUM=NO
##NPOINTS= 74
##XYDATA=(XY..XY) 1 
    14          1
    15          9
    25          1
    26         27
    27        279
    28         38
    29        203
    30          4
    31          1
    35          3
    36         11
    37          6
    38         15
    39        207
    40         35
    41        819
    42        289
    43        152
    44          6
    47          2
    48          2
    49         79
    50         11
    51         25
    52          8
    53         76
    54        131
    55        999
    56        490
    57         26
    58          1
    60          1
    61         10
    62         30
    63         95
    64         11
    65         29
    66          6
    67        381
    68         34
    69        689
    70         38
    71          1
    73          3
    74          1
    75         31
    76         60
    77         37
    78         19
    79         14
    80         19
    81         61
    82        656
    83        172
    84         10
    85          1
    88          3
    89         12
    90        143
    91        128
    92         48
    93         39
    94          2
   103          3
   104          1
   105          6
   106          1
   107          2
   116          3
   117          2
   118         60
   119          5
   120         19
   121          1