##TITLE=Library Entry 32073
##JCAMP-DX=Revision 4.10 
##DATA TYPE=MASS SPECTRUM
##SAMPLE DESCRIPTION=V.G.Zaikin, TIPS, Russian Acad. Sci.
##NAMES=HP
##CAS NAME=1,4:5,8-dimethano-naphthalene,1,2,4,4a,8,8,8a-octahydro-
##MOLFORM=C12H16
##CAS REGISTRY NO=21635-90-5
##MP= -300
##BP= -300
##MW= 160
##$RETENTION INDEX=0
##$CONDENSED SPECTRUM=NO
##NPOINTS= 64
##XYDATA=(XY..XY) 1 
    37         11
    38         25
    39        244
    40         87
    41        175
    42          9
    43          5
    50         28
    51         92
    52         34
    53         67
    54         16
    55         12
    61          7
    62         12
    63         37
    64         36
    65        150
    66        999
    67        248
    68         10
    75         12
    76          5
    77        153
    78         78
    79        190
    80        118
    81         65
    82         25
    83          3
    85          3
    89         16
    90         10
    91        197
    92        122
    93        106
    94         48
    95         37
    96          3
   102          5
   103         21
   104         37
   105         36
   106         70
   107          7
   113          6
   115         39
   116         19
   117         74
   118         30
   119         25
   127          3
   128         14
   129          7
   130          9
   131         54
   132         33
   133          5
   141          3
   145         10
   159          5
   160        127
   161         17
   162          1