##TITLE=Library Entry 693
##JCAMP-DX=Revision 4.10 
##DATA TYPE=MASS SPECTRUM
##SAMPLE DESCRIPTION=Japan AIST/NIMC Database- Spectrum MS-NW-8380
##NAMES=HP
##CAS NAME=Diethyl propylmalonate
##MOLFORM=C10H18O4
##CAS REGISTRY NO=2163-48-6
##MP= -300
##BP= -300
##MW= 202
##$RETENTION INDEX=0
##$CONDENSED SPECTRUM=NO
##NPOINTS= 104
##XYDATA=(XY..XY) 1 
    14          3
    15         16
    16          1
    17          2
    18          7
    25          1
    26         24
    27        300
    28         87
    29        999
    30         28
    31         47
    32          2
    38          3
    39         57
    40          9
    41        122
    42         49
    43        221
    44         16
    45        132
    46          5
    47         13
    50          2
    51          4
    52          2
    53         26
    54         19
    55        574
    56        106
    57        157
    58         46
    59         76
    60         18
    61          9
    65          1
    67         24
    68          9
    69         43
    70         15
    71         14
    72          4
    73        598
    74         23
    75          5
    79          1
    81          9
    82         22
    83        261
    84         79
    85         34
    86        176
    87         92
    88        226
    89         14
    90          1
    91          1
    96          6
    97          2
    98          2
    99         90
   100         77
   101        875
   102         53
   103          8
   104         76
   105         75
   106          3
   109          7
   110         15
   111          5
   112          1
   113          9
   114        144
   115         59
   116          5
   117          2
   127         55
   128         53
   129        123
   130         40
   131         11
   132        166
   133        361
   134         21
   135          3
   141          4
   142          1
   143          1
   145          9
   155          2
   156         13
   157        614
   158         55
   159          7
   160        845
   161         67
   162          9
   173         54
   174          6
   175          9
   187          1
   203         17
   204          2