##TITLE=Library Entry 4432
##JCAMP-DX=Revision 4.10 
##DATA TYPE=MASS SPECTRUM
##SAMPLE DESCRIPTION=Japan AIST/NIMC Database- Spectrum MS-IW-5088
##NAMES=HP
##CAS NAME=Propane-1,3-diol, 2-methyl-
##MOLFORM=C4H10O2
##CAS REGISTRY NO=2163-42-0
##MP= -300
##BP= -300
##MW= 90
##$RETENTION INDEX=0
##$CONDENSED SPECTRUM=NO
##NPOINTS= 53
##XYDATA=(XY..XY) 1 
    14          3
    15         15
    16          1
    17          3
    18          9
    25          2
    26         26
    27        181
    28         85
    29        219
    30         55
    31        724
    32         18
    33          9
    36          4
    37         17
    38         30
    39        243
    40         97
    41        751
    42        999
    43        461
    44         90
    45         38
    46          1
    47         25
    49        233
    50         10
    51          9
    52          5
    53         27
    54         69
    55         48
    56          9
    57        677
    58         47
    59        177
    60         71
    61          7
    67          1
    69          7
    70         22
    71         64
    72        291
    73         22
    74          1
    75          5
    85          1
    86          1
    87          2
    89          5
    90          1
    91          3