##TITLE=Library Entry 54829
##JCAMP-DX=Revision 4.10 
##DATA TYPE=MASS SPECTRUM
##SAMPLE DESCRIPTION=Chemical Concepts
##NAMES=HP
##CAS NAME=Ethanol, 2-[2-[(tetrahydro-2H-pyran-2-yl)oxy]ethoxy]-
##MOLFORM=C9H18O4
##CAS REGISTRY NO=2163-11-3
##MP= -300
##BP= -300
##MW= 190
##$RETENTION INDEX=0
##$CONDENSED SPECTRUM=NO
##NPOINTS= 91
##XYDATA=(XY..XY) 1 
    26         11
    27        111
    28         73
    29        133
    30          8
    31         86
    33          2
    38          2
    39         44
    40         10
    41        211
    42         23
    43        169
    44        105
    45        552
    46         20
    47          6
    50          3
    51          4
    52          2
    53         17
    54         24
    55        132
    56        116
    57        150
    58         33
    59         14
    60          4
    61          6
    62          4
    63          4
    65          3
    66          2
    67        118
    68          9
    69         12
    70          5
    71          8
    72          5
    73        158
    74         16
    75         60
    76         19
    77          2
    79          1
    80          2
    81          5
    82          3
    83         37
    84        255
    85        999
    86         88
    87         17
    88         44
    89         95
    90          6
    91          3
    97          3
    98         39
    99         20
   100          6
   101        134
   102         12
   103          6
   104         12
   105          1
   107          7
   110          1
   111          1
   112          1
   113          1
   114          2
   115         29
   116          3
   117          2
   127          2
   128         16
   129          7
   130          4
   131          2
   132          2
   135          2
   141          2
   142          2
   144          1
   145          3
   159          2
   160          7
   161          9
   172          2
   189          6