##TITLE=Library Entry 40049
##JCAMP-DX=Revision 4.10 
##DATA TYPE=MASS SPECTRUM
##SAMPLE DESCRIPTION=NIST Mass Spectrometry Data Center, 1998.
##NAMES=HP
##CAS NAME=Cycluron
##MOLFORM=C11H22N2O
##CAS REGISTRY NO=2163-69-1
##MP= -300
##BP= -300
##MW= 198
##$RETENTION INDEX=1760
##$CONDENSED SPECTRUM=NO
##NPOINTS= 101
##XYDATA=(XY..XY) 1 
    15          7
    26          1
    27         19
    28         32
    29         25
    30         15
    31          1
    38          1
    39         38
    40          8
    41        116
    42         63
    43         54
    44        218
    45        228
    46         78
    47          2
    50          1
    51          4
    52          3
    53         20
    54         29
    55         74
    56         63
    57         12
    58         12
    59          1
    63          1
    64          1
    65          5
    66          3
    67         38
    68         14
    69         45
    70         12
    71          6
    72        999
    73         44
    74          3
    77          5
    78          1
    79          7
    80          3
    81         15
    82         25
    83          7
    84          9
    85          2
    86          2
    87          3
    88         70
    89        268
    90         11
    91          2
    93          1
    94          1
    95          4
    96          6
    97          5
    98         12
    99         93
   100          8
   101         27
   102          9
   103          1
   108          1
   109          2
   110         11
   111          3
   112          2
   113         22
   114         23
   115         15
   116          4
   124          2
   125          3
   126         61
   127        146
   128         20
   129          6
   130          2
   138          1
   140          1
   141         45
   142         12
   143          4
   144          1
   152          1
   153          1
   154         43
   155         26
   156          5
   157          4
   169         39
   170          5
   183          5
   184          1
   197          2
   198         82
   199         11
   200          1