##TITLE=Library Entry 63242
##JCAMP-DX=Revision 4.10 
##DATA TYPE=MASS SPECTRUM
##SAMPLE DESCRIPTION=Humboldt-Universitat zu Berlin, Department of Chemistry
, Analytical Group
##NAMES=HP
##CAS NAME=1,2-Bis-[2-(4-cyclohepta-2,4,6-trienyl-phenoxy)-ethoxy]-ethane
##MOLFORM=C32H34O4
##CAS REGISTRY NO=216307-13-0
##MP= -300
##BP= -300
##MW= 482
##$RETENTION INDEX=0
##$CONDENSED SPECTRUM=NO
##NPOINTS= 217
##XYDATA=(XY..XY) 1 
    12          4
    14          6
    15         46
    16          7
    17         12
    18         43
    19         28
    25          3
    26         17
    27        138
    28        108
    29        113
    30         10
    31         59
    36          4
    37          3
    38         10
    39        114
    40         11
    41        110
    42         16
    43        356
    44         39
    45        620
    46         15
    50         30
    51         87
    52         22
    53         35
    55        167
    56         11
    57         27
    58          7
    59         20
    61          5
    62         18
    63        111
    64         23
    65        123
    66         15
    67         12
    68          3
    69         17
    71         60
    72          9
    73        144
    74         21
    75         31
    76         52
    77        202
    78         76
    79         36
    80          4
    81         16
    82         40
    83         31
    84          9
    85          5
    86         11
    87         22
    88         13
    89        126
    90         79
    91        999
    92         86
    93         22
    94         10
    95          9
    96          6
    97         15
    98         18
    99          6
   100          5
   101         23
   102         45
   103         35
   104         13
   105        124
   107        109
   108         10
   109          7
   110         13
   111          5
   113         13
   114         13
   115        323
   116         52
   117         42
   118         16
   119         43
   120         13
   121         50
   122         10
   123          8
   125          6
   126         27
   127        147
   128        250
   129        148
   130         16
   131         34
   132          9
   133        104
   134         14
   135          9
   137          5
   138          6
   139         76
   140         28
   141        153
   142         35
   143         20
   144         14
   145         22
   146          6
   147          7
   149         16
   150         14
   151         86
   152        611
   153        391
   154        220
   155        293
   156         48
   157         22
   158          9
   159          9
   161          4
   163         19
   164         34
   165        582
   166        292
   167        295
   168        110
   169        106
   170         63
   171         19
   172          7
   173          6
   176          3
   177         10
   178         55
   179         31
   180         13
   181        137
   182        256
   183        749
   184        706
   185         99
   186         15
   189          5
   190          3
   191         11
   192          6
   193         45
   194         19
   195         80
   196         83
   197         93
   198         30
   199         24
   200          7
   201          3
   202          4
   203          3
   207          8
   208         18
   209         70
   210         81
   211        244
   212         45
   213          6
   215          3
   221          6
   222          4
   223          9
   224          8
   225         12
   226         10
   227         10
   228          7
   229          2
   234          2
   235          3
   236          3
   237          7
   239          3
   240          3
   241         10
   242          2
   253          3
   254          7
   255         50
   256         11
   257          3
   258          3
   259          3
   269          2
   271         13
   272         13
   273         13
   274          4
   284          4
   285          3
   297          4
   298         50
   299         18
   300          3
   366          2
   391          8
   392          2
   454          1
   468         11
   469          4
   482        107
   483         37
   484          8