##TITLE=Library Entry 34071
##JCAMP-DX=Revision 4.10 
##DATA TYPE=MASS SPECTRUM
##SAMPLE DESCRIPTION=J. SHAW, BORRISTON RESEARCH, ROCKVILLE, MD, USA
##NAMES=HP
##CAS NAME=2-Propenamide, N-(3,4-dichlorophenyl)-2-methyl-
##MOLFORM=C10H9Cl2NO
##CAS REGISTRY NO=2164-09-2
##MP= -300
##BP= -300
##MW= 229
##$RETENTION INDEX=1869
##$CONDENSED SPECTRUM=NO
##NPOINTS= 161
##XYDATA=(XY..XY) 1 
    12          2
    13          2
    14          8
    15         61
    16          7
    17         49
    18        171
    19          1
    25          2
    26         20
    27         33
    28         38
    29         11
    30          1
    31          4
    32          1
    35          7
    36         16
    37         35
    38         83
    39        487
    40        123
    41        966
    42         75
    44          7
    45          7
    47          6
    48          1
    49         15
    50         21
    51         16
    52         21
    53         15
    54          5
    55          5
    56          2
    57          4
    58          2
    59          7
    60          5
    61         29
    62         74
    63        116
    64         26
    65         12
    66          3
    67          4
    69        999
    70         81
    72         19
    73         53
    74         41
    75         42
    76          7
    77          5
    78          2
    79          1
    80          1
    81          1
    82          1
    83         10
    84         11
    85         13
    86          7
    87         12
    88         21
    89         20
    90         45
    91          8
    92          1
    95          1
    96          3
    97         31
    98         16
    99         34
   100          8
   101         12
   102          2
   103          3
   104          1
   106          1
   107         11
   108          3
   109         37
   110          8
   111         13
   112          3
   113          1
   114          1
   115          2
   116          1
   119          1
   121          1
   122          1
   123          3
   124         39
   125         41
   126         22
   127         15
   128          4
   129          1
   130          4
   131          4
   133         59
   134          7
   135         35
   136          5
   137          6
   138          1
   139          1
   140          1
   141          1
   144          1
   145         13
   146          2
   147          8
   148          1
   149          3
   150          1
   151          2
   152          1
   153          1
   158          3
   159          6
   160         23
   161         25
   162         18
   163         14
   164          6
   165          4
   166          5
   167          1
   168          1
   172          1
   173          1
   174          4
   175          1
   176          3
   186          8
   187          4
   188          7
   189          2
   190          2
   193          1
   194         27
   195          3
   196          8
   197          1
   200          1
   201         10
   202          1
   203          6
   204          1
   205          1
   214          1
   229        111
   230         17
   231         69
   232         10
   233         11
   234          1