##TITLE=Library Entry 19710
##JCAMP-DX=Revision 4.10 
##DATA TYPE=MASS SPECTRUM
##SAMPLE DESCRIPTION=Vladimir Zaikin,TIPS RAS, Moscow, Russia
##NAMES=HP
##CAS NAME=2-Propenoic acid, tetradecyl ester
##MOLFORM=C17H32O2
##CAS REGISTRY NO=21643-42-5
##MP= -300
##BP= -300
##MW= 268
##$RETENTION INDEX=1876
##$CONDENSED SPECTRUM=NO
##NPOINTS= 91
##XYDATA=(XY..XY) 1 
    39        138
    40         25
    41        320
    42        115
    43        410
    44         72
    45         90
    49         15
    50        118
    51        145
    52         45
    53         50
    54         80
    55        999
    56        265
    57        362
    58         12
    59          6
    60          7
    61         22
    62         25
    63         55
    64         48
    65         19
    66          7
    67         73
    68        105
    69        320
    70        235
    71        180
    72        218
    73        390
    74         80
    75        105
    76        111
    77         75
    78         31
    79         18
    81         50
    82        140
    83        360
    84        148
    85        115
    86         10
    87         15
    91         20
    93         12
    95         52
    96         85
    97        282
    98        115
    99         75
   100         25
   104          7
   105         30
   106          8
   107          7
   109         25
   110         47
   111        145
   112         70
   113        130
   114         60
   115          9
   121         20
   122         27
   123         20
   124         45
   125         85
   126         40
   127        137
   135          8
   137         11
   138         13
   139         42
   140         30
   141         40
   142         18
   151          7
   152          7
   153         17
   154          7
   155         17
   157          6
   165          4
   166          4
   167          8
   168         32
   169          8
   196         43
   197         10