##TITLE=Library Entry 61862
##JCAMP-DX=Revision 4.10 
##DATA TYPE=MASS SPECTRUM
##SAMPLE DESCRIPTION=NIST Mass Spectrometry Data Center
##NAMES=HP
##CAS NAME=Thiocarbonic acid, O,O-di-p-tolyl ester
##MOLFORM=C15H14O2S
##CAS REGISTRY NO=21645-99-8
##MP= -300
##BP= -300
##MW= 258
##$RETENTION INDEX=0
##$CONDENSED SPECTRUM=NO
##NPOINTS= 118
##XYDATA=(XY..XY) 1 
    26          1
    27         12
    37          1
    38          7
    39         86
    40          3
    41         25
    42          1
    45         18
    49          1
    50         35
    51         87
    52         48
    53         48
    54          3
    55          5
    60          7
    61          3
    62         19
    63         84
    64         23
    65        393
    66         23
    67          1
    69          4
    71          1
    74          6
    75          7
    76          7
    77        237
    78         85
    79        107
    80         10
    81          1
    82          2
    84          1
    85          1
    86          2
    87          3
    88          1
    89         80
    90         34
    91        999
    92         90
    93          4
    95          1
    97          3
   103          1
   104          1
   105         21
   106          6
   107        193
   108         91
   109          8
   110          4
   111          7
   115         13
   116          3
   117          1
   119          9
   120          1
   121         10
   122         20
   123        833
   124        118
   125         44
   126          5
   127          7
   128         17
   129         20
   130          2
   139          2
   140          1
   141         13
   142          6
   143          4
   151        107
   152         19
   153         35
   154         40
   155        102
   156         12
   157          2
   158          1
   165         13
   166          5
   167          8
   168         10
   169         26
   170          6
   171          1
   178          2
   179          3
   180          1
   181         11
   182         13
   183         17
   184         10
   185          2
   187          4
   195          2
   196          1
   197         43
   198         16
   199          8
   200          1
   201          1
   202          3
   213          5
   214          2
   215          3
   230        539
   231         87
   232         31
   233          3
   242          1
   258          9
   259          1