##TITLE=Library Entry 6338
##JCAMP-DX=Revision 4.10 
##DATA TYPE=MASS SPECTRUM
##SAMPLE DESCRIPTION=A.A.Kutin, Moscow, Russia
##NAMES=HP
##CAS NAME=1H-Tetrazole-1,5-diamine
##MOLFORM=CH4N6
##CAS REGISTRY NO=2165-21-1
##MP= -300
##BP= -300
##MW= 100
##$RETENTION INDEX=0
##$CONDENSED SPECTRUM=NO
##NPOINTS= 20
##XYDATA=(XY..XY) 1 
    39          0
    41        195
    43        999
    44         40
    45          1
    54          1
    55          2
    56         18
    58          5
    60          0
    69          0
    73          0
    74          0
    77          0
    84          0
    85          0
    88          0
    91          0
   100         49
   101          5