##TITLE=Library Entry 46583
##JCAMP-DX=Revision 4.10 
##DATA TYPE=MASS SPECTRUM
##SAMPLE DESCRIPTION=Japan AIST/NIMC Database- Spectrum MS-IW-7442
##NAMES=HP
##CAS NAME=1H,1H,2H-Perfluoro-1-decene
##MOLFORM=C10H3F17
##CAS REGISTRY NO=21652-58-4
##MP= -300
##BP= -300
##MW= 446
##$RETENTION INDEX=0
##$CONDENSED SPECTRUM=NO
##NPOINTS= 90
##XYDATA=(XY..XY) 1 
    26          3
    27         28
    28          9
    31         12
    32          2
    38          1
    39          6
    44          1
    50          1
    51        174
    52          1
    55          4
    56          1
    57         10
    58          1
    64          2
    65          5
    69        152
    70          2
    75         17
    76          5
    77        999
    78         37
    79          1
    81          1
    88          2
    89          2
    93          6
    95         12
   100         30
   101          2
   106          1
   107          6
   108         21
   109          1
   112          1
   113          8
   115          1
   119         52
   120          2
   126          1
   127         28
   128          1
   131         59
   132          2
   133          1
   137          3
   138          1
   139          9
   143          1
   145         14
   150          1
   157          9
   158          1
   162          1
   163          4
   169         24
   170          1
   177          7
   181         13
   188          2
   189          3
   195          2
   207          4
   213          1
   219          5
   225          1
   227          2
   231          5
   238          1
   257          1
   263          1
   269          3
   275          1
   281          2
   293          1
   295          1
   307          1
   313          4
   319          1
   343          1
   345          1
   357         14
   358          1
   363          3
   381         22
   382          1
   407          2
   427         18
   428          2