##TITLE=Library Entry 50216
##JCAMP-DX=Revision 4.10 
##DATA TYPE=MASS SPECTRUM
##SAMPLE DESCRIPTION=NIST Mass Spectrometry Data Center, 2010
##NAMES=HP
##CAS NAME=(4aS,7S,7aR)-4,7-Dimethyl-5,6,7,7a-tetrahydrocyclopenta[c]pyran-1
(4aH)-one
##MOLFORM=C10H14O2
##CAS REGISTRY NO=21651-62-7
##MP= -300
##BP= -300
##MW= 166
##$RETENTION INDEX=1377
##$CONDENSED SPECTRUM=NO
##NPOINTS= 112
##XYDATA=(XY..XY) 1 
    26         15
    27        193
    28         47
    29        169
    30          4
    31          7
    37          8
    38         34
    39        551
    40         89
    41        661
    42         57
    43        189
    44          8
    45         25
    46          3
    47          1
    48          1
    49          3
    50         57
    51        149
    52         72
    53        370
    54        136
    55        401
    56         98
    57         74
    58          8
    59          4
    60          7
    61          7
    62         16
    63         48
    64         10
    65        166
    66         67
    67        787
    68        179
    69        998
    70         46
    71         16
    72          1
    73          1
    74         16
    75          6
    76          4
    77        220
    78         48
    79        267
    80        451
    81        999
    82        350
    83        143
    84        128
    85        192
    86          9
    87          2
    89          5
    90          2
    91        143
    92         24
    93        136
    94        193
    95        782
    96        212
    97         51
    98         13
    99          1
   102          2
   103         13
   104          4
   105        151
   106         24
   107        144
   108         39
   109        600
   110        192
   111        107
   112          9
   113          1
   115          3
   116          1
   117          5
   118          1
   119         18
   120         58
   121        139
   122         44
   123        966
   124        109
   125         10
   126          1
   131          1
   133         25
   134          3
   135          5
   136          2
   137        124
   138        181
   139         16
   140          1
   147          5
   148          8
   149         24
   150          3
   151         68
   152          6
   153          1
   165          7
   166        637
   167         67
   168          6