##TITLE=Library Entry 60661
##JCAMP-DX=Revision 4.10 
##DATA TYPE=MASS SPECTRUM
##SAMPLE DESCRIPTION=Chemical Concepts
##NAMES=HP
##CAS NAME=p-Toluenesulfonic acid, 2,2-dimethyl-3-hydroxypropyl ester
##MOLFORM=C12H18O4S
##CAS REGISTRY NO=21651-04-7
##MP= -300
##BP= -300
##MW= 258
##$RETENTION INDEX=0
##$CONDENSED SPECTRUM=NO
##NPOINTS= 84
##XYDATA=(XY..XY) 1 
    26          7
    27         90
    29         84
    30          5
    31        225
    35          2
    36          2
    38         12
    39        226
    40         10
    41        228
    42         19
    43         67
    44          3
    45         77
    46          3
    50         28
    51         60
    52         19
    53         32
    54          2
    55        142
    56        406
    57         54
    58          7
    59          2
    62         24
    63        106
    64         32
    65        416
    66         21
    67          5
    68          6
    69         10
    70          2
    71         69
    72          7
    73         95
    74          6
    75          7
    76          6
    77         59
    78         15
    79         36
    80          9
    81          2
    82          3
    83          3
    84          3
    85          8
    86         30
    87          7
    88          3
    89        108
    90         74
    91        999
    92        495
    93         39
    94          2
   102          2
   103          5
   105          4
   107         85
   108         72
   109         10
   111          3
   121          3
   139         28
   140          7
   155        235
   156         51
   157         27
   158          3
   171          4
   172         81
   173        424
   174         35
   175         13
   203          7
   227          3
   228         57
   229          7
   230          4
   258          1