##TITLE=Library Entry 25107
##JCAMP-DX=Revision 4.10 
##DATA TYPE=MASS SPECTRUM
##SAMPLE DESCRIPTION=D.A. GEORGE, US AGRIC. RES. LAB., YAKIMA, WASH.,
##NAMES=HP
##CAS NAME=trans-5,6-Epoxydecane
##MOLFORM=C10H20O
##CAS REGISTRY NO=2165-61-9
##MP= -300
##BP= -300
##MW= 156
##$RETENTION INDEX=1138
##$CONDENSED SPECTRUM=NO
##NPOINTS= 56
##XYDATA=(XY..XY) 1 
    26         20
    27        480
    28        220
    29        630
    30         20
    31         70
    32         10
    38         10
    39        280
    40         60
    41        800
    42        690
    43        750
    44        310
    45        140
    51         10
    52         10
    53         80
    54         60
    55        710
    56        130
    57        999
    58        190
    59         40
    65         10
    67        150
    68        120
    69        890
    70        350
    71        380
    72         60
    73         40
    77         20
    79         20
    81        200
    82         90
    83         70
    84         40
    85         80
    86        330
    87        110
    88         10
    95         60
    96         30
    97         20
    98         10
    99        750
   100         80
   113        220
   114         20
   127         90
   128         10
   138         20
   139         10
   140         10
   156         60