##TITLE=Library Entry 30325
##JCAMP-DX=Revision 4.10 
##DATA TYPE=MASS SPECTRUM
##SAMPLE DESCRIPTION=TNO Volatile Compounds in Food - Chemical Concepts
##NAMES=HP
##CAS NAME=3,7-Cyclodecadiene-1-methanol, .alpha.,.alpha.,4,8-tetramethyl-,
 [s-(Z,Z)]
##MOLFORM=C15H26O
##CAS REGISTRY NO=21657-90-9
##MP= -300
##BP= -300
##MW= 222
##$RETENTION INDEX=1559
##$CONDENSED SPECTRUM=NO
##NPOINTS= 110
##XYDATA=(XY..XY) 1 
    26          5
    27         84
    29         14
    31        105
    38          3
    39        109
    41        361
    42         26
    43        323
    44          2
    45         27
    50          5
    51         22
    52         15
    53        133
    54         20
    55        216
    56         21
    57         46
    58          9
    59        999
    60         35
    61          2
    63          7
    64          4
    65         40
    66         17
    67        229
    68        164
    69        226
    70         36
    71        126
    72         16
    73          5
    75          3
    77         81
    78         22
    79        209
    80        139
    81        349
    82        108
    83         70
    84         45
    85         19
    86          4
    87          2
    91        112
    92         87
    93        589
    94        173
    95        213
    96         79
    97         23
    98          6
    99          2
   103          7
   104          3
   105        146
   106         39
   107        320
   108        128
   109        138
   110         24
   111         15
   112          2
   115          6
   116          2
   117          7
   118          5
   119        142
   120         45
   121        245
   122         73
   123         89
   124         16
   125          9
   126          2
   128          3
   129          3
   131          5
   132          2
   133         90
   134         51
   135        194
   136         81
   137         26
   138          3
   139          7
   141          3
   145          8
   146          3
   147         70
   148         37
   149         88
   150         12
   151          5
   153          3
   159          2
   160          5
   161        371
   162         88
   163         88
   164         40
   165          5
   175         23
   176          8
   189        122
   190         18
   204         78
   205         13