##TITLE=Library Entry 11223
##JCAMP-DX=Revision 4.10 
##DATA TYPE=MASS SPECTRUM
##SAMPLE DESCRIPTION=J.MACMILLAN UNIVERSITY OF BRISTOL, UK
##NAMES=HP
##CAS NAME=4a.alpha.,4b.beta.-Gibbane-1.alpha.,10.beta.-dicarboxylic acid, 2
.beta.,4a,8-trihydroxy-1,8-dimethyl-, 1,4a-lactone, methyl ester
##MOLFORM=C20H28O6
##CAS REGISTRY NO=21652-83-5
##MP= -300
##BP= -300
##MW= 364
##$RETENTION INDEX=0
##$CONDENSED SPECTRUM=NO
##NPOINTS= 278
##XYDATA=(XY..XY) 1 
    27         80
    28        120
    29        210
    30         10
    31         40
    39        110
    40         30
    41        270
    42         30
    43        999
    44        110
    45        100
    51         30
    52         20
    53        130
    54         30
    55        280
    56         40
    57        140
    58         60
    59        170
    60         20
    61         10
    63         10
    64         10
    65         60
    66         20
    67        120
    68         30
    69        120
    70         20
    71        110
    72         10
    73         40
    74         10
    75         10
    76         10
    77        180
    78         60
    79        180
    80         40
    81        120
    82         40
    83         50
    84         40
    85        110
    86         10
    87         10
    89         10
    90         10
    91        230
    92         50
    93        120
    94         30
    95         90
    96         20
    97         50
    98         40
    99         10
   101         10
   102         10
   103         30
   104         30
   105        170
   106         30
   107         70
   108         30
   109         50
   110         20
   112        320
   113         20
   114         10
   115         70
   116         40
   117        100
   118         30
   119         90
   120         40
   121         60
   122         20
   123         30
   124         10
   125         20
   126         10
   127         30
   128         60
   129        130
   130         50
   131        100
   132         30
   133         70
   134         20
   135         50
   136         20
   137        110
   138         20
   139         20
   140         10
   141         60
   142         50
   143        110
   144         50
   145        110
   146         30
   147         60
   148         10
   149         80
   150         20
   151         20
   152         30
   153         20
   154         20
   155         80
   156         40
   157        120
   158         40
   159        110
   160         30
   161         40
   162         60
   163         30
   164         20
   165         30
   166         20
   167         30
   168         30
   169         70
   170         30
   171         70
   172         20
   173         60
   174         30
   175        120
   176         30
   177         20
   178         20
   179         20
   180         10
   181         60
   182         40
   183        100
   184         60
   185        110
   186         40
   187         60
   188         30
   189         50
   190         30
   191         20
   192         20
   193         10
   194         10
   195         40
   196         30
   197        100
   198         30
   199        100
   200         50
   201        100
   202         50
   203         60
   204         20
   205         20
   206         10
   207         20
   208         10
   209         10
   210         10
   211         20
   212         20
   213         40
   214         40
   215         70
   216         60
   217         50
   218         30
   219         30
   220         10
   221         10
   222         10
   223         20
   224         30
   225         70
   226         30
   227         50
   228         40
   229        100
   230         50
   231         40
   232         10
   233         20
   234         10
   235         10
   236         10
   237         20
   238         10
   239         20
   240         30
   241         60
   242         70
   243        130
   244        170
   245        150
   246         80
   247         70
   248         20
   249         10
   250         10
   251         10
   252         10
   253         20
   254         10
   255         20
   256         20
   257         60
   258         70
   259         50
   260         70
   261         70
   262         30
   263         10
   268         60
   269         40
   270         40
   271         70
   272         50
   273         40
   274        100
   275        310
   276         70
   277         10
   278         10
   279         10
   281         10
   282         10
   283         10
   284        100
   285         50
   286        150
   287         60
   288         50
   289         70
   290         30
   291         10
   293         10
   296         20
   297         10
   299         10
   300         70
   301         20
   302         30
   303         30
   304        120
   305         60
   306         60
   307        190
   308         40
   309         10
   314         90
   315         20
   316         10
   317         10
   318         40
   319         10
   321         10
   328         40
   329         20
   330         10
   332        160
   333        100
   334         20
   335         10
   346         50
   347         30
   348         10
   349         10
   355         10
   364         10