##TITLE=Library Entry 23422
##JCAMP-DX=Revision 4.10 
##DATA TYPE=MASS SPECTRUM
##SAMPLE DESCRIPTION=NIST Mass Spectrometry Data Center, 1994
##NAMES=HP
##CAS NAME=2-Heptane isothiocyanate
##MOLFORM=C8H15NS
##CAS REGISTRY NO=21663-51-4
##MP= -300
##BP= -300
##MW= 157
##$RETENTION INDEX=0
##$CONDENSED SPECTRUM=NO
##NPOINTS= 78
##XYDATA=(XY..XY) 1 
     4          2
    14          4
    15         19
    26         21
    27        230
    28         69
    29        247
    30          6
    32         14
    33          1
    37          2
    39        169
    40         39
    41        490
    42         88
    43        405
    44         27
    45         14
    46          2
    47          1
    50          5
    51         11
    52          7
    53         34
    54         27
    55        173
    56        154
    57        999
    58         70
    59         55
    60         67
    61          4
    62          5
    63          2
    64          1
    65          3
    66          2
    67          8
    68          9
    69         56
    70         56
    71         19
    72         50
    73          3
    74          3
    76          1
    77          2
    78          2
    79          3
    81          4
    82         10
    83         13
    84         11
    85          1
    86        237
    87         19
    88         17
    89          1
    96          8
    97          5
    98         27
    99          5
   100         13
   101          3
   110          2
   114         15
   115         13
   116          1
   124         53
   125          5
   128         22
   129        232
   130         19
   131         11
   142         10
   156         15
   157         18
   158          3