##TITLE=Library Entry 35293
##JCAMP-DX=Revision 4.10 
##DATA TYPE=MASS SPECTRUM
##SAMPLE DESCRIPTION=NIST Mass Spectrometry Data Center
##NAMES=HP
##CAS NAME=2,6-Dodecadien-1-al
##MOLFORM=C12H20O
##CAS REGISTRY NO=21662-13-5
##MP= -300
##BP= -300
##MW= 180
##$RETENTION INDEX=1449
##$CONDENSED SPECTRUM=NO
##NPOINTS= 82
##XYDATA=(XY..XY) 1 
    18          4
    27         77
    29        113
    30          3
    37          3
    38          3
    39        197
    40         47
    41        547
    42         58
    43        110
    44          7
    45          7
    49          2
    50          9
    51         28
    52         14
    53         98
    54        130
    55        583
    56         43
    57        102
    58          6
    59          6
    60          2
    61          3
    63          8
    64          5
    65         39
    66         29
    67        197
    68        107
    69        999
    70        851
    71         44
    72          4
    73          3
    74          4
    75          2
    77         46
    78         17
    79         64
    80         28
    81        121
    82         31
    83         35
    85          7
    87          3
    91         26
    92         16
    93         20
    94         23
    95         66
    96         21
    97         13
    98         24
    99          6
   101          3
   103          3
   105         21
   106          3
   107         29
   108          7
   109         42
   110        126
   111        160
   112         18
   119          8
   120          6
   123         35
   124          9
   131          2
   133          7
   134          5
   135          7
   136         21
   137          8
   138          3
   151         12
   152          3
   162          3
   180          2