##TITLE=Library Entry 2064
##JCAMP-DX=Revision 4.10 
##DATA TYPE=MASS SPECTRUM
##SAMPLE DESCRIPTION=NIST Mass Spectrometry Data Center, 1994
##NAMES=HP
##CAS NAME=cis-4-Decenal
##MOLFORM=C10H18O
##CAS REGISTRY NO=21662-09-9
##MP= -300
##BP= -300
##MW= 154
##$RETENTION INDEX=1193
##$CONDENSED SPECTRUM=NO
##NPOINTS= 65
##XYDATA=(XY..XY) 1 
    14          6
    15         46
    18          3
    26         27
    27        458
    28        126
    29        596
    30         13
    31         13
    32          8
    37          5
    38         20
    39        468
    40         72
    41        999
    42        173
    43        221
    44         27
    50         18
    51         53
    52         28
    53        152
    54        319
    55        528
    56        164
    57        101
    58          8
    62          3
    63         10
    65         46
    66         34
    67        280
    68        161
    69        204
    70        144
    71         32
    72          3
    77         50
    78         17
    79        121
    80         41
    81        167
    82         79
    83        294
    84        471
    85         28
    86          5
    91         15
    92          2
    93         22
    94         14
    95         50
    96         10
    97        101
    98        110
    99         27
   107          8
   108          3
   110         99
   111         32
   112         11
   121          3
   125          7
   136         25
   137          2