##TITLE=Library Entry 2636
##JCAMP-DX=Revision 4.10 
##DATA TYPE=MASS SPECTRUM
##SAMPLE DESCRIPTION=NIST Mass Spectrometry Data Center, 1994
##NAMES=HP
##CAS NAME=cis-7-Decen-1-al
##MOLFORM=C10H18O
##CAS REGISTRY NO=21661-97-2
##MP= -300
##BP= -300
##MW= 154
##$RETENTION INDEX=1180
##$CONDENSED SPECTRUM=NO
##NPOINTS= 79
##XYDATA=(XY..XY) 1 
    12          1
    14          5
    15         38
    18          0
    19          1
    27        374
    28         63
    29        497
    30         11
    31         18
    37          6
    39        380
    41        999
    42        168
    43        175
    44         36
    45          7
    46          0
    50         17
    51         38
    52         29
    53        142
    54        219
    55        554
    56        128
    57        146
    58         14
    59          2
    62          3
    63          7
    65         37
    67        318
    68        239
    69        227
    70        167
    71         38
    72         39
    73          3
    74          1
    75          0
    77         28
    79        225
    80         81
    81        193
    82         82
    83        141
    84         62
    85         13
    86         13
    87          1
    89          0
    91         22
    93        100
    94         84
    95         81
    96          0
    97         80
    98         80
    99          7
   100          0
   103          0
   105          5
   107        100
   108         38
   110         38
   111         43
   112         25
   113          2
   119          0
   121         68
   122          8
   123          6
   125          8
   126          2
   136         75
   137          8
   138          0
   139          0
   154          1