##TITLE=Library Entry 36982
##JCAMP-DX=Revision 4.10 
##DATA TYPE=MASS SPECTRUM
##SAMPLE DESCRIPTION=D.HENNEBERG, MAX-PLANCK INSTITUTE, MULHEIM, WEST GERMAN
Y
##NAMES=HP
##CAS NAME=1,3,5-Triazine, 2,4,6-tris(pentadecafluoroheptyl)-
##MOLFORM=C24F45N3
##CAS REGISTRY NO=21674-38-4
##MP= -300
##BP= -300
##MW= 1185
##$RETENTION INDEX=0
##$CONDENSED SPECTRUM=NO
##NPOINTS= 199
##XYDATA=(XY..XY) 1 
    29         18
    40          7
    41          5
    42         31
    43         54
    44          3
    49         13
    50          9
    51          1
    56          5
    57         11
    58         16
    66          7
    67          1
    69        999
    70         16
    71          7
    76        108
    77          7
    81          9
    85          5
    93         13
   100         59
   101          5
   102         20
   107          9
   108          3
   112          7
   113          3
   114          7
   119        261
   120         11
   121          7
   126        100
   127          7
   131        205
   132         11
   133         11
   138         22
   139          3
   143          7
   145          3
   147          1
   150          9
   151          5
   152         13
   153          1
   155          1
   157          7
   161          7
   162          9
   163          3
   164          7
   165          1
   169        186
   170          9
   171          3
   176         22
   177          1
   178         11
   181         84
   182          9
   183         14
   188         13
   189          1
   192          5
   193          7
   195          5
   200          5
   202          7
   207          5
   211          7
   212          5
   214          5
   219         56
   220          7
   221         14
   222          1
   226         28
   227          3
   228          3
   231         44
   232          5
   233         20
   234          1
   238          9
   243          7
   252         11
   257          9
   266         13
   267          1
   269         42
   270          5
   271         18
   272          1
   276         18
   277          1
   278          5
   281         26
   282          5
   283         14
   288          9
   300          1
   302          9
   316          7
   319         14
   320          1
   321          5
   326         14
   328          5
   331          5
   333          9
   366          3
   369          9
   376         80
   377         16
   378          1
   383          7
   394          7
   402          3
   421         14
   422          1
   433          5
   452          3
   461          5
   471        123
   472         18
   483          7
   497          9
   498          9
   503         11
   511         95
   512         20
   513          5
   516          3
   521         13
   522          1
   533          5
   547          3
   548          3
   566         35
   567          7
   571         29
   572          7
   578          7
   583          1
   597          9
   598          1
   616         24
   617          7
   621         14
   622          5
   628          5
   629          1
   647          5
   666          7
   671          7
   678          5
   683          3
   697          1
   721          9
   728          3
   771        117
   772         24
   773          3
   778          7
   811         16
   812          7
   817         16
   818          7
   828          7
   829          1
   830         13
   831          5
   832         13
   833          3
   844          5
   847          5
   848          1
   866        616
   867        115
   868         16
   878          3
   916         78
   917         16
   918          3
   966         16
   967          7
  1016          7
  1017          3
  1066          9
  1067          5
  1116         11
  1117          5
  1166        179
  1167         56
  1168         11
  1185         18
  1186          7