##TITLE=Library Entry 88391
##JCAMP-DX=Revision 4.10 
##DATA TYPE=MASS SPECTRUM
##SAMPLE DESCRIPTION=Japan AIST/NIMC Database- Spectrum MS-IW-1730
##NAMES=HP
##CAS NAME=Bis(p-chlorophenyl) carbonate
##MOLFORM=C13H8Cl2O3
##CAS REGISTRY NO=2167-53-5
##MP= -300
##BP= -300
##MW= 282
##$RETENTION INDEX=0
##$CONDENSED SPECTRUM=NO
##NPOINTS= 145
##XYDATA=(XY..XY) 1 
    25          1
    26         14
    27          9
    28          4
    29          2
    31          4
    32          4
    35          4
    36          4
    37         55
    38        156
    39        136
    40          5
    41          4
    42          1
    43          1
    44          1
    45          1
    46          1
    47         23
    48          2
    49         53
    50        230
    51         95
    52          4
    53         14
    54          2
    55          6
    56          2
    60          9
    61         63
    62        134
    63        427
    64        129
    65         33
    66          6
    67          1
    71          3
    72         29
    73        428
    74        128
    75        685
    76        146
    77         10
    79          3
    84         12
    85         64
    86          8
    87         21
    88          1
    89          7
    90          1
    91          3
    92         23
    93          5
    96          1
    97          6
    98         11
    99        731
   100         54
   101        234
   102         17
   108          1
   109          2
   110         12
   111        999
   112         69
   113        324
   114         24
   115         10
   116          1
   120          2
   123          1
   125          3
   126          6
   127        259
   128        274
   129        101
   130         88
   131          6
   136          3
   137          1
   138          4
   139        113
   140         55
   141          8
   142          2
   148          1
   149         50
   150          6
   151         16
   152          2
   155        131
   156          9
   157         43
   158          3
   161          1
   162          2
   163          1
   167         27
   168        225
   169         28
   170          2
   173          9
   174          6
   175        696
   176         83
   177        223
   178         28
   179          1
   183          1
   184          1
   185          1
   186          1
   191          1
   196          2
   198          1
   201          2
   202         30
   203         35
   204         13
   205         11
   206          2
   209          8
   210         16
   211          7
   212         11
   213          2
   214          2
   236          1
   237          2
   238        422
   239         57
   240        263
   241         34
   242         43
   243          6
   247          2
   249          1
   282        622
   283         92
   284        404
   285         59
   286         67
   287          9