##TITLE=Library Entry 52587
##JCAMP-DX=Revision 4.10 
##DATA TYPE=MASS SPECTRUM
##SAMPLE DESCRIPTION=V.A.Korolev, Moscow, Russia
##NAMES=HP
##CAS NAME=Tert-butyl N-(piperidin-3-yl)carbamate
##MOLFORM=C10H20N2O2
##CAS REGISTRY NO=216854-23-8
##MP= -300
##BP= -300
##MW= 200
##$RETENTION INDEX=0
##$CONDENSED SPECTRUM=NO
##NPOINTS= 54
##XYDATA=(XY..XY) 1 
    37          4
    38         14
    39        180
    40         42
    41        392
    42        162
    43        331
    44        182
    45         13
    50          4
    51          9
    52          7
    53         25
    54         29
    55         68
    56        136
    57        592
    58         29
    59        115
    62         17
    65          4
    66          2
    67         12
    68         98
    69         32
    70        191
    71         22
    80         11
    81          4
    82        124
    83        999
    84        125
    85          3
    87          2
    97          1
    98          3
    99         25
   100          2
   101          2
   114          2
   115          3
   116          1
   124          1
   125          2
   126          2
   127        169
   128         19
   129          1
   143        115
   144         14
   199         33
   200        165
   201         21
   202          1