##TITLE=Library Entry 474
##JCAMP-DX=Revision 4.10 
##DATA TYPE=MASS SPECTRUM
##SAMPLE DESCRIPTION=Exported from NIST MS Search
##NAMES=HP
##CAS NAME=Butane, 1,1'-sulfinylbis-
##MOLFORM=C8H18OS
##CAS REGISTRY NO=2168-93-6
##MP= -300
##BP= -300
##MW= 162
##$RETENTION INDEX=0
##$CONDENSED SPECTRUM=NO
##NPOINTS= 61
##XYDATA=(XY..XY) 1 
    25         10
    26         70
    27        430
    28        230
    29        999
    30         20
    31         10
    32         20
    33         10
    34         10
    35         10
    37         10
    38         10
    39        260
    40         30
    41        970
    42         40
    43         70
    44         30
    45         60
    46         30
    47         60
    48         10
    49         10
    50         30
    51         30
    52         10
    53         40
    54         10
    55        250
    56        220
    57        550
    58         40
    59         30
    60         10
    61         50
    62         10
    63        270
    64         80
    65         10
    73         10
    76         10
    77         40
    78         10
    87         10
    88         10
    89        410
    90         30
    91         20
   103         30
   105         30
   106        300
   107         20
   108         10
   133          2
   145         94
   146         10
   147          4
   162         40
   163          8
   164          2