##TITLE=Library Entry 18345
##JCAMP-DX=Revision 4.10 
##DATA TYPE=MASS SPECTRUM
##SAMPLE DESCRIPTION=R.C. DOUGHERTY
##NAMES=HP
##CAS NAME=7-Azatricyclo[4.2.2.0(2,5)]deca-3,7,9-triene, 8-methoxy-, endo-
##MOLFORM=C10H11NO
##CAS REGISTRY NO=21681-32-3
##MP= -300
##BP= -300
##MW= 161
##$RETENTION INDEX=0
##$CONDENSED SPECTRUM=NO
##NPOINTS= 29
##XYDATA=(XY..XY) 1 
    26         60
    27         60
    28         50
    38         90
    39        195
    50        125
    51        230
    52        999
    53         70
    62         30
    63         75
    64         60
    65         85
    76         50
    77         90
    78        160
    79        120
    89         40
    90         30
    91         60
   103         70
   108         55
   117         90
   118         90
   130        100
   145        115
   146        145
   161        280
   162        110