##TITLE=Library Entry 85716
##JCAMP-DX=Revision 4.10 
##DATA TYPE=MASS SPECTRUM
##SAMPLE DESCRIPTION=Japan AIST/NIMC Database- Spectrum MS-NW-6347
##NAMES=HP
##CAS NAME=2-(Dimethylaminomethyl)-3-hydroxypyridine
##MOLFORM=C8H12N2O
##CAS REGISTRY NO=2168-13-0
##MP= -300
##BP= -300
##MW= 152
##$RETENTION INDEX=0
##$CONDENSED SPECTRUM=NO
##NPOINTS= 76
##XYDATA=(XY..XY) 1 
    14          4
    15         47
    17          2
    18          7
    25          1
    26         17
    27         26
    28         36
    29         12
    30         50
    31          1
    37          7
    38         23
    39        143
    40         18
    41         22
    42        115
    43         24
    44        258
    45         78
    46          5
    50          6
    51         14
    52         36
    53         39
    54          8
    55          7
    56          7
    57          8
    58        332
    59         12
    62          2
    63          4
    64          4
    65          5
    66          6
    67         11
    68          8
    69          2
    75          2
    76          3
    77          1
    78          7
    79         26
    80        112
    81         88
    82          9
    83          3
    85          1
    91          1
    92          4
    93          2
    94          4
    95          2
    96          9
   106          1
   107          9
   108         60
   109        999
   110         91
   111          6
   119          1
   120          4
   121          3
   122          2
   123          1
   133          1
   135          5
   136          1
   137         36
   138          4
   149          3
   150          2
   151          2
   152         17
   153          3