##TITLE=Library Entry 47441
##JCAMP-DX=Revision 4.10 
##DATA TYPE=MASS SPECTRUM
##SAMPLE DESCRIPTION=N.Klyuev, Institute of Ecology & Evolution, RAS, Moscow
##NAMES=HP
##CAS NAME=1,2,4-Triazine-2,3-dihydro-3,6-diphenyl, 4-oxide
##MOLFORM=C15H13N3O
##CAS REGISTRY NO=216976-00-0
##MP= -300
##BP= -300
##MW= 251
##$RETENTION INDEX=0
##$CONDENSED SPECTRUM=NO
##NPOINTS= 87
##XYDATA=(XY..XY) 1 
    41         24
    42         14
    43        177
    44         16
    50        157
    51        365
    52         70
    62         56
    63        155
    64         48
    65         24
    73          8
    74          9
    75         74
    76        178
    77        999
    78        207
    79         11
    86          1
    87          1
    88         35
    89        240
    90        159
    91        136
    92          9
    94          1
    95          1
    97          1
    98          6
    99          5
   100          3
   101         46
   102        556
   103        366
   104        579
   105        595
   106        468
   107         44
   116         90
   117        147
   118        138
   119          3
   120          3
   121         97
   122         15
   128         23
   129         47
   130         48
   131          9
   136          3
   143          2
   144          7
   145        696
   146         92
   147         14
   149         13
   154          4
   156        180
   157         29
   162          8
   163         15
   174         20
   175          4
   178         36
   179         53
   180         54
   181          8
   184          4
   185         64
   186         37
   187          7
   204         61
   205        169
   206        265
   207        149
   208         17
   219          4
   220         11
   221         38
   222          7
   232         83
   233        140
   234        521
   235        114
   236          7
   251         21
   252          5