##TITLE=Library Entry 70038
##JCAMP-DX=Revision 4.10 
##DATA TYPE=MASS SPECTRUM
##SAMPLE DESCRIPTION=Chemical Concepts
##NAMES=HP
##CAS NAME=6-Bromo-2,2-dimethylcyclohexanone
##MOLFORM=C8H13BrO
##CAS REGISTRY NO=21690-26-6
##MP= -300
##BP= -300
##MW= 204
##$RETENTION INDEX=0
##$CONDENSED SPECTRUM=NO
##NPOINTS= 95
##XYDATA=(XY..XY) 1 
    26         10
    27        113
    28         69
    29         85
    30          2
    36          3
    37          2
    38          8
    39        166
    40         47
    41        387
    42        150
    43         82
    44          5
    45          2
    46          3
    47          3
    50          8
    51         19
    52         10
    53         69
    54         42
    55        887
    56        224
    57         51
    58          2
    59         55
    60          2
    63          4
    65         15
    66          8
    67        124
    68        148
    69        996
    70        235
    71         14
    72         78
    73          3
    77         23
    78          6
    79         38
    80         27
    81        135
    82        189
    83         55
    84          5
    85          2
    91         21
    92          4
    93         12
    94          3
    95         20
    96         57
    97        999
    98         59
    99          2
   105          7
   106          4
   107         42
   108          8
   109         31
   110          9
   111         16
   115          2
   119         11
   120          3
   121         11
   122          2
   124         56
   125        163
   126         29
   127          2
   128          5
   133          7
   134          2
   135          9
   136          3
   137          2
   146         10
   148         17
   149          3
   150          8
   161          7
   163          7
   176         32
   177          2
   178         32
   179          3
   181          2
   189         12
   191         11
   204        131
   205         13
   206        127
   207         13