##TITLE=Library Entry 61261
##JCAMP-DX=Revision 4.10 
##DATA TYPE=MASS SPECTRUM
##SAMPLE DESCRIPTION=MASS SPECTROMETRY CENTER, UNIV. OF UTAH; ALDRICH 85831-
5
##NAMES=HP
##CAS NAME=DL-Norvaline, N-[(phenylmethoxy)carbonyl]-
##MOLFORM=C13H17NO4
##CAS REGISTRY NO=21691-43-0
##MP= -300
##BP= -300
##MW= 251
##$RETENTION INDEX=0
##$CONDENSED SPECTRUM=NO
##NPOINTS= 103
##XYDATA=(XY..XY) 1 
    12          8
    13          0
    14         14
    15         33
    16         10
    17         13
    18         28
    24          0
    25          6
    26         39
    27        189
    28        318
    29        113
    30         54
    31         23
    32          5
    36         17
    37         27
    38         67
    39        141
    40        150
    41         54
    42        452
    43        112
    44         35
    45          7
    46          5
    48          0
    49         15
    50         65
    51        129
    52         46
    53         53
    54         46
    55         68
    56         82
    57         19
    58          3
    59          8
    60         11
    61         15
    62         24
    63         46
    64         18
    65        100
    66         16
    67          3
    68          8
    69          8
    70         27
    71         26
    72         47
    73         60
    74         51
    75         28
    76         16
    77        238
    78         63
    79        423
    80         49
    81          9
    82         14
    83         29
    84          6
    85         11
    86          5
    87          4
    88          1
    89         50
    90         69
    91        999
    92         99
    93         11
    94          3
    95          0
    98         94
    99         16
   100         11
   101        126
   102         13
   103         11
   104          0
   105         43
   106         35
   107        384
   108        727
   109         63
   110          7
   114          2
   115          0
   116         49
   117          6
   118          1
   129          0
   142          6
   160         10
   162         92
   163         18
   169          0
   206         21
   207          2
   251         35
   252          9