##TITLE=Library Entry 65741
##JCAMP-DX=Revision 4.10 
##DATA TYPE=MASS SPECTRUM
##SAMPLE DESCRIPTION=Chemical Concepts
##NAMES=HP
##CAS NAME=Propanamide, 3-ethoxy-N-phenyl-
##MOLFORM=C11H15NO2
##CAS REGISTRY NO=21690-58-4
##MP= -300
##BP= -300
##MW= 193
##$RETENTION INDEX=0
##$CONDENSED SPECTRUM=NO
##NPOINTS= 98
##XYDATA=(XY..XY) 1 
    25          1
    26         10
    27        110
    28          4
    29        106
    30          4
    31        365
    33          0
    36          2
    37          4
    38         14
    39         68
    40         12
    41         26
    42          9
    43         37
    44         10
    45         83
    46         13
    47          3
    50         12
    51         49
    52         13
    53          4
    54          5
    55        133
    56          6
    57          9
    58          1
    59        325
    60         11
    61          1
    62          5
    63         20
    64         24
    65         97
    66         61
    67          6
    69          0
    71          7
    72          3
    73          6
    74         13
    75          3
    76          6
    77        100
    78         13
    79          6
    80          1
    83          0
    88          0
    89          6
    90          2
    91         25
    92         50
    93        999
    94        122
    95          5
    96          0
    99          0
   101         14
   102          1
   103          1
   104         16
   105         14
   106         66
   107          6
   115          1
   116          0
   117          2
   118          6
   119         18
   120         58
   121          5
   122          6
   128          0
   130          1
   131          0
   132          4
   133          1
   134          2
   135          1
   139          0
   140          0
   146          4
   147         46
   148         18
   149         58
   150          6
   151          0
   164         81
   165          8
   166          0
   191          0
   192          1
   193        126
   194         14
   195          1