##TITLE=Library Entry 100490
##JCAMP-DX=Revision 4.10 
##DATA TYPE=MASS SPECTRUM
##SAMPLE DESCRIPTION=Japan AIST/NIMC Database- Spectrum MS-IW- 862
##NAMES=HP
##CAS NAME=N-Methyl-o-toluamide
##MOLFORM=C9H11NO
##CAS REGISTRY NO=2170-09-4
##MP= -300
##BP= -300
##MW= 149
##$RETENTION INDEX=0
##$CONDENSED SPECTRUM=NO
##NPOINTS= 67
##XYDATA=(XY..XY) 1 
    15          5
    27          2
    28          1
    29          1
    30          4
    31          1
    38          3
    39         29
    40          2
    41          9
    42          2
    43          1
    44          2
    45          1
    49          1
    50          6
    51         14
    52          3
    53          2
    56          1
    58         15
    59          2
    60          2
    61          1
    62          6
    63         23
    64          8
    65        120
    66          7
    67          1
    72          1
    73          9
    74          5
    75          2
    76          2
    77         10
    78          2
    79          1
    86          1
    87          1
    89         34
    90         45
    91        648
    92         51
    93          2
   103          1
   104          3
   105          7
   106          2
   116          7
   117          3
   118        152
   119        999
   120         89
   121          6
   130          4
   131          1
   132          3
   133          2
   134         50
   135          5
   146          1
   147          2
   148        186
   149        681
   150         73
   151          5