##TITLE=Library Entry 58341
##JCAMP-DX=Revision 4.10 
##DATA TYPE=MASS SPECTRUM
##SAMPLE DESCRIPTION=K.Kawamura Anal.Chem.,65,3505(1993)
##NAMES=HP
##CAS NAME=3,3-Dibutoxypropionic acid, butyl ester
##MOLFORM=C15H30O4
##CAS REGISTRY NO=21705-34-0
##MP= -300
##BP= -300
##MW= 274
##$RETENTION INDEX=0
##$CONDENSED SPECTRUM=NO
##NPOINTS= 64
##XYDATA=(XY..XY) 1 
    39        186
    40         42
    41        845
    42        177
    43        202
    44         42
    45          9
    46          8
    47         11
    53         13
    54          8
    55         82
    56        158
    57        942
    58         39
    60         21
    69          8
    71        151
    72         11
    73         13
    75         16
    83          8
    85         34
    86         54
    87         52
    88         16
    89        999
    90         23
    97          6
    98          6
    99         11
   101         29
   102         51
   103         72
   105        260
   106          4
   114          4
   115          6
   125          4
   126          8
   127          9
   129          4
   135          4
   136          6
   137          9
   140          9
   142          9
   143         34
   144         41
   145        494
   146         36
   147         28
   155          4
   156          4
   157         13
   158         16
   159         97
   160         16
   161         69
   199          6
   201          8
   217         36
   231          4
   255          4