##TITLE=Library Entry 88028
##JCAMP-DX=Revision 4.10 
##DATA TYPE=MASS SPECTRUM
##SAMPLE DESCRIPTION=Chemical Concepts
##NAMES=HP
##CAS NAME=p-Menthan-2-one, 9-hydroxy-, (1R,4S)-(-)-
##MOLFORM=C10H18O2
##CAS REGISTRY NO=21700-69-6
##MP= -300
##BP= -300
##MW= 170
##$RETENTION INDEX=0
##$CONDENSED SPECTRUM=NO
##NPOINTS= 123
##XYDATA=(XY..XY) 1 
    26         38
    27        237
    28         20
    29        280
    30         32
    31        157
    33          3
    35          3
    36          2
    37          8
    38         16
    39        320
    40         80
    41        666
    42        228
    43        188
    44        361
    45         35
    46          6
    47          5
    48          4
    49          3
    50         13
    51         40
    52         24
    53        179
    54         93
    55        790
    56        230
    57        143
    58        106
    59         26
    60          5
    61          3
    62         11
    63         10
    64          4
    65         33
    66         26
    67        186
    68        156
    69        358
    70         81
    71         65
    72         45
    73         26
    74         13
    75          7
    76          4
    77         30
    78          7
    79         31
    80         15
    81        113
    82         97
    83        167
    84         37
    85         34
    86         11
    87          9
    88          3
    89          5
    90          3
    91         17
    92          9
    93         39
    94         20
    95        217
    96         47
    97         54
    98         24
    99         19
   100          9
   101          3
   102          2
   105          7
   106          2
   107         11
   108         14
   109         61
   110        124
   111        999
   112        124
   113        135
   114         12
   115          3
   116          2
   117          3
   120          2
   121         14
   122          9
   123         22
   124         16
   125         13
   126         43
   127         22
   128         17
   129        368
   130         30
   131          4
   132          1
   133          2
   134          3
   136          7
   137         21
   138          5
   139         13
   140        132
   141         26
   142          6
   149          5
   150          1
   151         12
   152         27
   153          5
   154          1
   155          5
   156          2
   168          3
   169          3
   170        280
   171         33
   172          3