##TITLE=Library Entry 50844
##JCAMP-DX=Revision 4.10 
##DATA TYPE=MASS SPECTRUM
##SAMPLE DESCRIPTION=Exported from NIST MS Search
##NAMES=HP
##CAS NAME=1(2H)-Naphthalenone, octahydro-4-methoxy-, trans-
##MOLFORM=C11H18O2
##CAS REGISTRY NO=21727-79-7
##MP= -300
##BP= -300
##MW= 182
##$RETENTION INDEX=0
##$CONDENSED SPECTRUM=NO
##NPOINTS= 98
##XYDATA=(XY..XY) 1 
    41        664
    42         96
    43        245
    44         19
    45        225
    50         25
    51         64
    52         38
    53        212
    54        193
    55        516
    56         71
    57        141
    58        490
    59        200
    60         12
    61          6
    63         25
    65         83
    66        129
    67        651
    68        167
    69         83
    70         16
    71        322
    72        425
    73        180
    74        135
    75         32
    77        174
    78         80
    79        554
    80        309
    81        999
    82        129
    83        212
    84         48
    85         48
    86         16
    87        167
    88         45
    91        174
    92         32
    93        470
    94        354
    95        445
    96        141
    97        129
    98         48
    99         25
   100         32
   101         45
   102         19
   103         12
   104         48
   105         32
   106         80
   107        161
   108        690
   109        316
   110         45
   111        135
   112         25
   113         32
   114         25
   115         25
   117         19
   119         12
   121         77
   122        612
   123        354
   124        193
   125        290
   126         38
   127         38
   128         38
   131         12
   132         71
   133         25
   135        148
   136         16
   137         16
   138         16
   139         38
   140         64
   141         25
   149         38
   150        725
   151        135
   152         16
   153         51
   154          6
   163         12
   165         12
   166         25
   181         12
   182        548
   183         71