##TITLE=Library Entry 33921
##JCAMP-DX=Revision 4.10 
##DATA TYPE=MASS SPECTRUM
##SAMPLE DESCRIPTION=NIST Mass Spectrometry Data Center, 1995
##NAMES=HP
##CAS NAME=Cyanazine
##MOLFORM=C9H13ClN6
##CAS REGISTRY NO=21725-46-2
##MP= -300
##BP= -300
##MW= 240
##$RETENTION INDEX=0
##$CONDENSED SPECTRUM=NO
##NPOINTS= 151
##XYDATA=(XY..XY) 1 
    13         10
    14          9
    15         90
    18         38
    26         60
    27        333
    28        356
    29         87
    30        105
    36         15
    37         11
    38         22
    39        198
    40        113
    41        542
    42        473
    43        629
    44        724
    45         23
    52         90
    53        164
    54         74
    55        289
    56         49
    57         76
    58         38
    62        221
    63         23
    64         83
    65         23
    66         52
    67        244
    68        999
    69        253
    70         53
    71        137
    78         35
    79         56
    80        136
    81         68
    82         38
    83        179
    84         19
    85         24
    86         19
    87        211
    88         31
    89         71
    90         27
    91        204
    92         19
    93        244
    94        152
    95         98
    96        284
    97         40
    98         12
    99         13
   102         19
   104        170
   105        112
   106        100
   107         42
   108         94
   109         48
   110        189
   111         49
   113         15
   116         14
   117         18
   118          9
   119         50
   120         19
   121         42
   122         39
   123         63
   128         14
   129        144
   130         74
   131         78
   132         83
   133         25
   134         37
   135         45
   136        101
   137        194
   138        411
   139         34
   141         25
   142         11
   143         28
   144         11
   145        411
   146         34
   147        172
   148         42
   149         23
   150         35
   151         21
   155         61
   156         29
   157        150
   158        178
   159         68
   160         70
   161        114
   162         62
   163         13
   164         23
   169         23
   170         46
   172        586
   173        485
   174        246
   175        211
   176         65
   177         36
   178         17
   182         45
   184         66
   185         25
   186        161
   187         21
   188         55
   189        212
   190         21
   196         15
   198        599
   199         73
   200        221
   201         26
   202         14
   203         17
   204         26
   205         41
   209         11
   210         13
   212        453
   213        243
   214        225
   215         79
   216         21
   223         13
   225        878
   226        114
   227        284
   228         30
   240        458
   241         70
   242        157
   243         17