##TITLE=Library Entry 51410
##JCAMP-DX=Revision 4.10 
##DATA TYPE=MASS SPECTRUM
##SAMPLE DESCRIPTION=Japan AIST/NIMC Database- Spectrum MS-NW-7331
##NAMES=HP
##CAS NAME=Cyclohexaneethanol, acetate
##MOLFORM=C10H18O2
##CAS REGISTRY NO=21722-83-8
##MP= -300
##BP= -300
##MW= 170
##$RETENTION INDEX=1233
##$CONDENSED SPECTRUM=NO
##NPOINTS= 87
##XYDATA=(XY..XY) 1 
    14          1
    15         17
    18          1
    26          3
    27         58
    28         16
    29         62
    30          2
    31          9
    32          4
    38          3
    39         95
    40         16
    41        269
    42         27
    43        690
    44         20
    45          9
    46          1
    50          4
    51         10
    52          7
    53         54
    54        228
    55        380
    56         32
    57          7
    58         12
    59          7
    60          4
    61        111
    62          3
    63          3
    65         13
    66         36
    67        656
    68        226
    69        151
    70         22
    71          7
    72          1
    73         22
    74          2
    75          1
    77         12
    78          5
    79         41
    80         53
    81        946
    82        999
    83        139
    84          9
    85          2
    87         35
    88         24
    89          2
    91          7
    92          1
    93         12
    94         16
    95        170
    96         14
    97          8
    98          2
    99          1
   102          1
   103          1
   104          5
   105          2
   106          1
   107          3
   108         19
   109        104
   110        502
   111         50
   112          3
   115          2
   123          1
   124          1
   125          9
   126         15
   127          4
   137          3
   142          1
   152          4
   155         14
   156          1