##TITLE=Library Entry 72006
##JCAMP-DX=Revision 4.10 
##DATA TYPE=MASS SPECTRUM
##SAMPLE DESCRIPTION=CARL DJERASSI DEPT OF CHEM STANFORD UNIV STANFORD CALIF
 94305
##NAMES=HP
##CAS NAME=Spiro[1,3-dioxolane-2,1'(4'H)-naphthalen]-4'-one, octahydro-
##MOLFORM=C12H18O3
##CAS REGISTRY NO=21727-93-5
##MP= -300
##BP= -300
##MW= 210
##$RETENTION INDEX=0
##$CONDENSED SPECTRUM=NO
##NPOINTS= 38
##XYDATA=(XY..XY) 1 
    41         57
    42         17
    43         25
    44          7
    45         15
    51          7
    52          5
    53         40
    54         27
    55        112
    56         37
    57          7
    65          7
    66          7
    67         40
    68         10
    69          5
    73         15
    77         17
    78          5
    79         32
    80          7
    81         55
    82         10
    83          7
    86         32
    87         22
    91         10
    93          5
    95         10
    98          5
    99        999
   100         60
   107         20
   108         20
   109        100
   112         90
   113         20