##TITLE=Library Entry 50484
##JCAMP-DX=Revision 4.10 
##DATA TYPE=MASS SPECTRUM
##SAMPLE DESCRIPTION=NIST Mass Spectrometry Data Center, 2010
##NAMES=HP
##CAS NAME=(E)-3-Methyl-5-((1R,4aR,8aR)-5,5,8a-trimethyl-2-methylenedecahydr
onaphthalen-1-yl)pent-2-en-1-ol
##MOLFORM=C20H34O
##CAS REGISTRY NO=21738-29-4
##MP= -300
##BP= -300
##MW= 290
##$RETENTION INDEX=0
##$CONDENSED SPECTRUM=NO
##NPOINTS= 114
##XYDATA=(XY..XY) 1 
    26          2
    27         60
    29        211
    30          5
    31         29
    37          1
    39        122
    40         29
    41        801
    42         51
    43        237
    44         12
    45          8
    50          4
    51         19
    52         13
    53        200
    54         29
    55        587
    56         63
    57        180
    58          8
    65        100
    66         34
    67        502
    68        154
    69        789
    70         87
    71        117
    72          8
    77        242
    78         52
    79        494
    80        116
    81        999
    82        137
    83        187
    85         23
    91        386
    93        587
    94        147
    95        901
    96        105
    97        191
    98         22
   103         31
   104         18
   105        287
   106        111
   107        460
   108        164
   109        634
   110         89
   111        116
   112         14
   118         20
   119        216
   120        115
   121        415
   122        149
   123        491
   124        119
   125         47
   126          6
   132         20
   133        155
   134         84
   135        315
   136        220
   137        865
   138        108
   148        118
   149        326
   151         37
   161        130
   162         34
   163        111
   164         18
   175         82
   176         36
   177        183
   178         29
   179         29
   189         85
   190         39
   191         37
   192         48
   193         26
   202         17
   203         30
   204         41
   205         77
   206         17
   217         12
   218          3
   219          8
   220          7
   229         19
   230         24
   231         19
   232         14
   233          7
   234          2
   245         21
   247          7
   257        150
   258         33
   259         21
   260          4
   275        274
   276         56
   277          6
   290         20
   291          5