##TITLE=Library Entry 43739
##JCAMP-DX=Revision 4.10 
##DATA TYPE=MASS SPECTRUM
##SAMPLE DESCRIPTION=Japan AIST/NIMC Database- Spectrum MS-IW-5365
##NAMES=HP
##CAS NAME=3-Methyl-5-(2,4,5-trichlorophenylthio)-1,2,4-thiadiazole
##MOLFORM=C9H5Cl3N2S2
##CAS REGISTRY NO=21734-98-5
##MP= -300
##BP= -300
##MW= 310
##$RETENTION INDEX=0
##$CONDENSED SPECTRUM=NO
##NPOINTS= 219
##XYDATA=(XY..XY) 1 
    14          1
    15          3
    26          2
    27         17
    28          5
    32         17
    33          1
    34          1
    35          1
    36          6
    37          5
    38          4
    39          2
    40          9
    41         15
    42          4
    44          7
    45         50
    46         28
    47         39
    48          2
    49          4
    50          5
    51          1
    52          2
    53          1
    57          4
    58         14
    59          7
    60          3
    61         12
    62         16
    63          1
    64         24
    66          2
    68          2
    69         32
    70          9
    71          7
    72         40
    73        999
    74         65
    75         52
    76          6
    77          1
    79         17
    80          1
    81         14
    82          3
    83          8
    84         18
    85          6
    86          6
    87          2
    88          5
    89          3
    90         20
    91          4
    92          5
    93          9
    94          3
    95          3
    96          7
    97         30
    98          4
    99         11
   100          2
   102          1
   103         12
   104          2
   105         19
   106         23
   107         16
   108         19
   109         30
   110          9
   111          9
   112          2
   113          1
   115          3
   116          8
   117          6
   118          8
   119          4
   120          4
   121          3
   122          2
   123          1
   126          1
   127          2
   128          1
   129          2
   130          1
   131          9
   132          3
   133          5
   134          2
   135          2
   136          1
   137         10
   138          9
   139          3
   140         11
   141         34
   142          9
   143         35
   144         15
   145         15
   146          9
   147          3
   148          1
   152          1
   153          9
   154          3
   155          9
   156          6
   157          2
   158          4
   160          2
   163          1
   164          4
   165          1
   166          1
   167         36
   168          3
   169         24
   170          3
   171          7
   172          2
   173          4
   174          1
   175          5
   176        178
   177         19
   178        122
   179         20
   180         24
   181         10
   182          2
   183          3
   187          1
   188          9
   189          2
   190         10
   191          1
   192          4
   193          1
   194          1
   198          2
   199         23
   200          2
   201         12
   202         17
   203          5
   204         11
   205         20
   206          4
   207         25
   208          6
   209         11
   210          7
   211         57
   212         11
   213         56
   214          9
   215         19
   216          3
   217          3
   223        157
   224         13
   225        161
   226         13
   227         55
   228          5
   229          7
   233          2
   234        826
   235         81
   236        604
   237         66
   238        136
   239         21
   240         10
   241          4
   242         28
   243          3
   244         29
   245          4
   246         11
   248          2
   255          2
   257          2
   259          1
   266          1
   268          3
   269         35
   270          6
   271         38
   272          5
   273         13
   274          3
   275        933
   276        114
   277        680
   278         80
   279        154
   280         19
   281         10
   282          1
   309          1
   310        119
   311         15
   312        126
   313         15
   314         48
   315          6
   316          8
   317          1
   319          1