##TITLE=Library Entry 55102
##JCAMP-DX=Revision 4.10 
##DATA TYPE=MASS SPECTRUM
##SAMPLE DESCRIPTION=V.Zaikin,Topchiev Inst.Petrochem.Synth.,Moscow
##NAMES=HP
##CAS NAME=Pentanoic acid, pentyl ester
##MOLFORM=C10H20O2
##CAS REGISTRY NO=2173-56-0
##MP= -300
##BP= -300
##MW= 172
##$RETENTION INDEX=1150
##$CONDENSED SPECTRUM=NO
##NPOINTS= 67
##XYDATA=(XY..XY) 1 
    27         84
    28        100
    29        612
    30         29
    31         29
    34          2
    36         10
    37         15
    38         27
    39        301
    40         65
    41        751
    42        477
    43        704
    44         93
    45         48
    48          2
    50         10
    51         27
    52          7
    53         63
    54         34
    55        587
    56        149
    57        903
    58         53
    59         33
    60        241
    61        121
    62          4
    63          4
    65          4
    66          6
    67         13
    68         17
    69        105
    70        908
    71        188
    72         11
    73        181
    74         18
    75         37
    76          3
    77          6
    79          2
    82          4
    83         18
    84         12
    85        999
    86         46
    87         27
    95          5
    96          2
   100         15
   101         13
   102         60
   103        804
   104         43
   105          7
   109          3
   112          2
   113          6
   115         45
   129          9
   130         37
   143          5
   172          6