##TITLE=Library Entry 40327
##JCAMP-DX=Revision 4.10 
##DATA TYPE=MASS SPECTRUM
##SAMPLE DESCRIPTION=Patti Price, Georgia Bureau of Investigation, Decatur,
 Georgia
##NAMES=HP
##CAS NAME=Oxamniquine
##MOLFORM=C14H21N3O3
##CAS REGISTRY NO=21738-42-1
##MP= -300
##BP= -300
##MW= 279
##$RETENTION INDEX=0
##$CONDENSED SPECTRUM=NO
##NPOINTS= 127
##XYDATA=(XY..XY) 1 
    41         45
    42         10
    43         61
    44         15
    46          1
    50          5
    51         18
    52         10
    53         12
    54         10
    55          7
    56         55
    57         16
    58        131
    59          5
    60          1
    62          2
    63         11
    64          3
    65         19
    66          6
    67          3
    68          2
    69          1
    70         13
    71         25
    72        999
    73         76
    74         10
    75          7
    76          8
    77         53
    78         16
    79         12
    80          7
    81          2
    82          1
    86          1
    88          1
    89         13
    90         10
    91         27
    92          5
    93          4
    94          5
    95          5
    96          1
   101          4
   102         11
   103         25
   104         16
   105         11
   107          2
   108          9
   113          1
   115         24
   116         12
   117         44
   118         33
   119          9
   120          5
   121          1
   123          2
   124          1
   126          1
   127          2
   128         16
   129         22
   130        129
   131         79
   132         81
   133         16
   134          7
   135          2
   137          1
   140          1
   141          2
   142          8
   143         20
   144         31
   145         63
   146         62
   147         47
   148          2
   155          1
   156          3
   157          4
   158         19
   159         24
   160        138
   161         46
   162         15
   163          3
   165          1
   171          4
   172         12
   173        151
   174         44
   175         68
   176         92
   177         16
   178          1
   187          3
   188          2
   189         15
   190        163
   191        605
   192         81
   193          3
   203          1
   205          8
   206          5
   207        152
   208        150
   209         16
   210          1
   221          4
   228          1
   247         13
   248          1
   262          1
   263          1
   264          1
   277          1
   279         41
   280          7
   281          1