##TITLE=Library Entry 18885
##JCAMP-DX=Revision 4.10 
##DATA TYPE=MASS SPECTRUM
##SAMPLE DESCRIPTION=Japan AIST/NIMC Database- Spectrum MS-IW-4911
##NAMES=HP
##CAS NAME=1H-Tetrazole-1-acetic acid
##MOLFORM=C3H4N4O2
##CAS REGISTRY NO=21732-17-2
##MP= -300
##BP= -300
##MW= 128
##$RETENTION INDEX=0
##$CONDENSED SPECTRUM=NO
##NPOINTS= 54
##XYDATA=(XY..XY) 1 
    14         33
    15         11
    16          4
    17          1
    25          3
    26         14
    27         95
    28        720
    29        131
    30          9
    31         98
    32          3
    34          2
    36          1
    38          6
    39          8
    40         16
    41         81
    42         97
    43         39
    44        122
    45        297
    46          9
    47          1
    52          1
    53         29
    54         35
    55        999
    56         61
    57          4
    58         25
    59        107
    60          7
    68          1
    69         15
    70          1
    71          4
    72         32
    73          2
    81          1
    82          4
    83        258
    84         16
    85          1
    86         25
    87          5
    94          2
    95          1
    97          1
   100         63
   101          8
   111          1
   128         42
   129         10