##TITLE=Library Entry 97890
##JCAMP-DX=Revision 4.10 
##DATA TYPE=MASS SPECTRUM
##SAMPLE DESCRIPTION=J.Gal, ET AL.Canadian J.Chem., 51,132 (1973)
##NAMES=HP
##CAS NAME=N-Methylbenzimidoyl chloride
##MOLFORM=C8H8ClN
##CAS REGISTRY NO=21737-87-1
##MP= -300
##BP= -300
##MW= 153
##$RETENTION INDEX=0
##$CONDENSED SPECTRUM=NO
##NPOINTS= 20
##XYDATA=(XY..XY) 1 
    39         40
    50        110
    51        170
    52         30
    59         30
    62         30
    63         40
    74         30
    75         50
    76        140
    77        370
    78         40
    89         40
    91         60
   103        230
   104         30
   118        999
   119        100
   153         30
   155         10