##TITLE=Library Entry 6556
##JCAMP-DX=Revision 4.10 
##DATA TYPE=MASS SPECTRUM
##SAMPLE DESCRIPTION=A.A.Kutin, Moscow, Russia
##NAMES=HP
##CAS NAME=Acetic acid, 2-(5-aminotetrazol-1-yl)-, ethyl ester
##MOLFORM=C5H9N5O2
##CAS REGISTRY NO=21744-57-0
##MP= -300
##BP= -300
##MW= 171
##$RETENTION INDEX=0
##$CONDENSED SPECTRUM=NO
##NPOINTS= 103
##XYDATA=(XY..XY) 1 
    33          3
    34          6
    35         26
    36        112
    37          8
    38         39
    39         10
    40         56
    41         93
    42        454
    43        999
    44        161
    45         84
    46          5
    47          3
    48          0
    49          0
    50          1
    51          1
    52          2
    53         24
    54         16
    55         46
    56         21
    57         20
    59        171
    60        169
    61         59
    62          2
    63          2
    64          1
    65          2
    66          0
    67          0
    68          2
    69         11
    70        120
    71          8
    72         14
    73         15
    74          1
    75          0
    76          0
    77          1
    78          0
    79          1
    80          2
    81          2
    82          2
    83          1
    84          1
    85          1
    86          4
    87         39
    88         18
    89          0
    90          0
    91          0
    92          0
    93          0
    94          0
    95          0
    96          0
    98         98
    99          7
   101         77
   102          4
   103          0
   104          0
   105          0
   106          0
   110          0
   111          0
   114        101
   115        112
   116          7
   117          0
   118          0
   119          0
   120          0
   121          0
   126         24
   127          1
   128          1
   129          0
   131          0
   135          0
   141          0
   142          1
   143          3
   144          0
   146          0
   149          0
   150          0
   156          0
   158          0
   159          0
   167          0
   169          1
   171        139
   172         10
   173          1
   174          0