##TITLE=Library Entry 61057
##JCAMP-DX=Revision 4.10 
##DATA TYPE=MASS SPECTRUM
##SAMPLE DESCRIPTION=NIST Mass Spectrometry Data Center, 1994
##NAMES=HP
##CAS NAME=1,3-Cyclopentadiene, 5-(1-methylethylidene)-
##MOLFORM=C8H10
##CAS REGISTRY NO=2175-91-9
##MP= -300
##BP= -300
##MW= 106
##$RETENTION INDEX=858
##$CONDENSED SPECTRUM=NO
##NPOINTS= 54
##XYDATA=(XY..XY) 1 
    13          2
    15         62
    16          2
    26         30
    27        101
    28         17
    29          2
    37         31
    38         75
    39        312
    40         38
    41         74
    42          2
    43          4
    44          2
    50         94
    51        182
    52         71
    53         41
    54          5
    55          1
    61         32
    62         72
    63        157
    64         39
    65        212
    66         76
    67          8
    73          7
    74         27
    75         18
    76          7
    77        155
    78        131
    79        141
    80         13
    84          1
    85          5
    86         11
    87          7
    88          1
    89         84
    90          1
    91        999
    92         78
    93          3
    98          3
   101          2
   102         11
   103         55
   104          2
   105        194
   106        482
   107         40