##TITLE=Library Entry 13127
##JCAMP-DX=Revision 4.10 
##DATA TYPE=MASS SPECTRUM
##SAMPLE DESCRIPTION=NIST Mass Spectral Data Center
##NAMES=HP
##CAS NAME=Plifenat
##MOLFORM=C10H7Cl5O2
##CAS REGISTRY NO=21757-82-4
##MP= -300
##BP= -300
##MW= 334
##$RETENTION INDEX=0
##$CONDENSED SPECTRUM=NO
##NPOINTS= 131
##XYDATA=(XY..XY) 1 
    42         28
    43        999
    44         34
    45         14
    47         40
    48         12
    49         64
    50         69
    51         20
    60         32
    61         45
    62         45
    63         21
    66         13
    72         20
    73         64
    74        145
    75        132
    76         21
    77         15
    82         32
    83         20
    84         89
    85         88
    86         59
    87         42
    88         12
    96         19
    97         60
    98         53
    99         41
   102         52
   103         42
   107         23
   108         42
   109        224
   110         70
   111        265
   112         44
   113         57
   117         52
   119         64
   120         26
   121         55
   122         19
   123        124
   124         18
   125         43
   127         10
   131         10
   132         18
   133        124
   134         55
   135         67
   136         26
   137         19
   140         10
   143         11
   144         13
   145        208
   146         68
   147        260
   148         44
   149        100
   150         14
   151         20
   157         44
   158         33
   159         37
   160         25
   161         15
   167         23
   168         17
   169         99
   170        293
   171         92
   172        246
   173        329
   174         78
   175        841
   176        117
   177        498
   178         56
   179         77
   180         24
   182         17
   186         12
   192         10
   193         53
   194         12
   195         57
   197         22
   204        191
   205        151
   206        208
   207        145
   208         82
   209         59
   210         25
   211         27
   212         41
   213         38
   214         59
   215        124
   216        330
   217        471
   218        182
   219        224
   220         49
   221         34
   222         20
   224         19
   227         15
   229         14
   239         58
   240        238
   241         97
   242        268
   243         46
   244        136
   245         18
   246         32
   256         86
   257         20
   258        114
   259         16
   260         61
   262         11
   275         21
   277         45
   279         20