##TITLE=Library Entry 55658
##JCAMP-DX=Revision 4.10 
##DATA TYPE=MASS SPECTRUM
##SAMPLE DESCRIPTION=CARL DJERASSI DEPT OF CHEM STANFORD UNIV STANFORD CALIF
 94305
##NAMES=HP
##CAS NAME=L-Norleucine, methyl ester
##MOLFORM=C7H15NO2
##CAS REGISTRY NO=21754-55-2
##MP= -300
##BP= -300
##MW= 145
##$RETENTION INDEX=0
##$CONDENSED SPECTRUM=NO
##NPOINTS= 32
##XYDATA=(XY..XY) 1 
    26         10
    27        210
    28        530
    29        180
    30        990
    31         40
    32         30
    33        120
    39        100
    40         10
    41        260
    42        140
    43        210
    44        170
    45         10
    53         10
    54         30
    55         20
    56        140
    57         50
    59         10
    60         30
    67         10
    69         80
    70         10
    72         60
    74         10
    84         10
    86        999
    87         60
    88        150
    89         10