##TITLE=Library Entry 85896
##JCAMP-DX=Revision 4.10 
##DATA TYPE=MASS SPECTRUM
##SAMPLE DESCRIPTION=Exported from NIST MS Search
##NAMES=HP
##CAS NAME=1(2H)-Naphthalenone, octahydro-4-hydroxy-, trans-
##MOLFORM=C10H16O2
##CAS REGISTRY NO=21766-50-7
##MP= -300
##BP= -300
##MW= 168
##$RETENTION INDEX=0
##$CONDENSED SPECTRUM=NO
##NPOINTS= 124
##XYDATA=(XY..XY) 1 
    26          7
    27         92
    29        129
    30         12
    31         29
    37          1
    38          4
    39         98
    40         28
    41        187
    42         26
    43        151
    44         40
    45         13
    46          2
    47          3
    48          2
    50          6
    51         21
    52         12
    53         69
    54         96
    55        223
    56         54
    57        129
    58         48
    59         29
    60         12
    61          4
    62          2
    63          7
    64          4
    65         27
    66         58
    67        385
    68        131
    69         62
    70         34
    71         31
    72         10
    73         24
    74          5
    75          2
    76          2
    77         62
    78         37
    79        256
    80        125
    81        686
    82        104
    83        110
    84         31
    85         37
    86         14
    87         10
    88          2
    89          3
    90          2
    91         60
    92         17
    93        198
    94         90
    95        314
    96         92
    97         31
    98          7
    99         14
   100          6
   101          7
   102          2
   103          4
   104         20
   105         13
   106         28
   107         63
   108        333
   109        999
   110        163
   111        160
   112         28
   113         65
   114         22
   115          9
   116          4
   117         10
   118          3
   119          7
   120          8
   121         30
   122         81
   123         67
   124        113
   125         28
   126         85
   127         26
   128          6
   129          3
   130          2
   131          7
   132         22
   133          7
   134          6
   135         44
   136          5
   137          2
   138          1
   139         26
   140          9
   141          1
   144          7
   145          2
   146          3
   147          3
   148          7
   149         13
   150        208
   151         52
   152          5
   153          6
   166          3
   167          3
   168        397
   169         48
   170          4