##TITLE=Library Entry 57722
##JCAMP-DX=Revision 4.10 
##DATA TYPE=MASS SPECTRUM
##SAMPLE DESCRIPTION=Chemical Concepts
##NAMES=HP
##CAS NAME=Methyl 2-methylhexanoate
##MOLFORM=C8H16O2
##CAS REGISTRY NO=2177-81-3
##MP= -300
##BP= -300
##MW= 144
##$RETENTION INDEX=969
##$CONDENSED SPECTRUM=NO
##NPOINTS= 78
##XYDATA=(XY..XY) 1 
    26          8
    27        129
    29        248
    30          6
    31         18
    33          4
    34          1
    37          9
    38          5
    39         59
    40          3
    41        194
    42         16
    43        244
    44          6
    45          5
    47          1
    49          1
    50          2
    51          1
    52          0
    53         14
    54          5
    55         86
    56        109
    57        287
    58         19
    59        194
    60         10
    61          2
    62          0
    64          0
    65          0
    67          2
    68          0
    69         39
    70          3
    71          2
    72          2
    73         27
    74          3
    75          1
    76          1
    77          1
    80          0
    81          0
    82          1
    83         13
    84         11
    85         90
    86          7
    87         60
    88        999
    89         40
    90          3
    91          2
    92          1
    93          1
    94          0
    95          0
    96          1
    97          4
    98          1
   101          2
   102          0
   103          1
   110          2
   111          1
   112          2
   113         37
   114          4
   115         34
   116          1
   121          1
   129         17
   130          2
   141          1
   144          1