##TITLE=Library Entry 44562
##JCAMP-DX=Revision 4.10 
##DATA TYPE=MASS SPECTRUM
##SAMPLE DESCRIPTION=Chemical Concepts
##NAMES=HP
##CAS NAME=Hexanoic acid, 5-methyl-, methyl ester
##MOLFORM=C8H16O2
##CAS REGISTRY NO=2177-83-5
##MP= -300
##BP= -300
##MW= 144
##$RETENTION INDEX=993
##$CONDENSED SPECTRUM=NO
##NPOINTS= 83
##XYDATA=(XY..XY) 1 
    26         14
    27         99
    29         60
    30          4
    31         13
    33          4
    34          2
    35          2
    37          2
    38          7
    39         59
    40         10
    41        195
    42         81
    43        388
    44         31
    45         33
    48          6
    49          2
    50          4
    51          4
    52          4
    53          9
    54          6
    55        121
    56         42
    57         56
    58         31
    59        190
    60          9
    61          4
    65          6
    66          4
    67         14
    68         10
    69        202
    70         44
    71         32
    73          6
    74        999
    75         59
    76          3
    77          5
    78          2
    79          4
    80          5
    81          4
    82          3
    83         10
    84         16
    85          6
    86          1
    87        215
    88         48
    89          3
    91          2
    92          1
    93          2
    94         35
    95         93
    96          7
    97         52
    98          3
    99          3
   101        176
   102         13
   103         10
   104          1
   105          5
   111          6
   112          6
   113         59
   114          6
   115          3
   116          2
   117          2
   118          2
   126          1
   128          3
   129         10
   130          1
   143          3
   144          2