##TITLE=Library Entry 34439
##JCAMP-DX=Revision 4.10 
##DATA TYPE=MASS SPECTRUM
##SAMPLE DESCRIPTION=H.P.NAVEAU, UNIVERSITY OF LOUVAIN, HEVERLEE, BELGIUM
##NAMES=HP
##CAS NAME=2-Propenoic acid, 2-methyl-, phenyl ester
##MOLFORM=C10H10O2
##CAS REGISTRY NO=2177-70-0
##MP= -300
##BP= -300
##MW= 162
##$RETENTION INDEX=0
##$CONDENSED SPECTRUM=NO
##NPOINTS= 12
##XYDATA=(XY..XY) 1 
    41        950
    51         40
    65        120
    69        999
    77         50
    82         20
    93         20
    94        200
    95         20
   162        180
   163         20
   164          2