##TITLE=Library Entry 62054
##JCAMP-DX=Revision 4.10 
##DATA TYPE=MASS SPECTRUM
##SAMPLE DESCRIPTION=Exported from NIST MS Search
##NAMES=HP
##CAS NAME=Benzene, [2-methyl-1-(1-methylethyl)propyl]-
##MOLFORM=C13H20
##CAS REGISTRY NO=21777-84-4
##MP= -300
##BP= -300
##MW= 176
##$RETENTION INDEX=1212
##$CONDENSED SPECTRUM=NO
##NPOINTS= 82
##XYDATA=(XY..XY) 1 
     2          6
    12          1
    13          1
    14          4
    15         26
    16          3
    26          4
    27        141
    28         40
    29         77
    30          3
    31          2
    32          4
    37          1
    38          5
    39         98
    40         10
    41        110
    42          9
    43         82
    44          5
    50         10
    51         40
    52         10
    53         21
    54          3
    55        183
    56         15
    57          4
    58          2
    62          3
    63         20
    64          6
    65         38
    66          3
    67          3
    68          1
    69          1
    70          1
    71          2
    72          1
    73          1
    74          2
    75          4
    76          4
    77         38
    78         19
    79         21
    80          1
    81          1
    83          1
    84          2
    85          1
    86          1
    87          1
    88          1
    89          1
    90         10
    91        999
    92         85
    93          4
   103          1
   104          5
   105        126
   106         11
   115         42
   116         14
   117         50
   118         18
   119          5
   127          2
   128          5
   129          4
   130          1
   131          5
   132         13
   133        582
   134         82
   135          5
   145          3
   176        100
   177          4