##TITLE=Library Entry 24348
##JCAMP-DX=Revision 4.10 
##DATA TYPE=MASS SPECTRUM
##SAMPLE DESCRIPTION=EP-1266
##NAMES=HP
##CAS NAME=Octadecanoic acid, 2-[(1-oxohexadecyl)oxy]-1-[[(1-oxohexadecyl)ox
y]methyl]ethyl ester
##MOLFORM=C53H102O6
##CAS REGISTRY NO=2177-97-1
##MP= -300
##BP= -300
##MW= 834
##$RETENTION INDEX=0
##$CONDENSED SPECTRUM=NO
##NPOINTS= 504
##XYDATA=(XY..XY) 1 
    25          2
    26         11
    27         67
    28         67
    29        187
    30          5
    31          8
    32          1
    35          1
    36          4
    37          2
    38          3
    39         34
    40         10
    41        396
    42         83
    43        874
    44        371
    45         24
    46          2
    47          2
    48          5
    50          3
    51          3
    52          2
    53         17
    54         49
    55        520
    56        133
    57        999
    58         52
    59         23
    60        346
    61        100
    62          5
    63          2
    64         11
    65          4
    66          6
    67        108
    68         60
    69        375
    70         96
    71        553
    72         34
    73        375
    74         40
    75          6
    76          3
    77          5
    78          6
    79         24
    80         16
    81        133
    82         64
    83        308
    84        179
    85        354
    86         27
    87         67
    88         10
    89          2
    90          1
    91          8
    92          4
    93         23
    94         14
    95        167
    96         55
    97        238
    98        333
    99         96
   100         36
   101         41
   102         14
   103          3
   104          3
   105          5
   106          3
   107         20
   108          9
   109         87
   110         27
   111        121
   112        104
   113         64
   114         11
   115         55
   116         43
   117         22
   118          3
   119          4
   120          3
   121         28
   122          8
   123         49
   124         17
   125         46
   126         28
   127         30
   128          7
   129        154
   130         17
   131          4
   132          1
   133          3
   134          4
   135         23
   136          6
   137         25
   138         12
   139         22
   140         15
   141         21
   142          6
   143         21
   144          5
   145          2
   146          1
   147          3
   148          2
   149         12
   150          4
   151         11
   152          9
   153         13
   154         16
   155         16
   156          5
   157         33
   158        113
   159         18
   160          4
   161          2
   162          1
   163          6
   164          2
   165          7
   166          7
   167          8
   168         10
   169         13
   170          9
   171        196
   172         30
   173          7
   174          1
   175          1
   176          1
   177          4
   178          2
   179          4
   180          4
   181          6
   182          9
   183         37
   184          8
   185         71
   186         12
   187          3
   188          1
   189          1
   190          1
   191          3
   192          2
   193          3
   194         11
   195          7
   196         10
   197         12
   198          3
   199         23
   200          7
   201          2
   202          1
   203          1
   204          1
   205          2
   206          1
   207          3
   208          2
   209          5
   210          6
   211         10
   212          3
   213         75
   214         14
   215          3
   216          1
   217          1
   218          1
   219          5
   220          4
   221          4
   222          5
   223          4
   224          5
   225         11
   226          3
   227         83
   228         14
   229          3
   230          1
   231          1
   232          1
   233          1
   234          1
   235          2
   236          8
   237         14
   238         37
   239        362
   240         67
   241         34
   242          7
   243          2
   244          1
   245          1
   246          1
   247          3
   248          2
   249          3
   250          1
   251          2
   252          3
   253         12
   254          5
   255         21
   256         54
   257         15
   258          3
   259          1
   260          1
   261          1
   262          2
   263          2
   264          6
   265         10
   266         25
   267        296
   268         63
   269         30
   270          8
   271          3
   272          1
   273          1
   274          1
   276          1
   277          1
   278          1
   279          2
   280         13
   281         16
   282          6
   283         25
   284         23
   285          8
   286          2
   287          1
   288          1
   289          1
   291          1
   292          1
   293          3
   294          4
   295         10
   296          5
   297         23
   298          8
   299          7
   300          2
   301          1
   307          2
   308          8
   309         10
   310          6
   311         53
   312         26
   313        263
   314         60
   315          9
   316          2
   320          1
   321          2
   322          3
   323          7
   324          5
   325         22
   326          7
   327          3
   331          9
   332          3
   333          1
   335          1
   336          3
   337          6
   338          5
   339         37
   340         15
   341        117
   342         29
   343          5
   344          1
   349          1
   350          2
   351          4
   352          4
   353         12
   354        100
   355         71
   356         16
   357          4
   358          1
   359          3
   360          1
   364          1
   365          8
   366          6
   367        541
   368        138
   369         25
   370          3
   371          1
   372          1
   373          3
   374          1
   378          1
   379          3
   380          4
   381         35
   382         64
   383         35
   384          9
   385          3
   391          1
   392          2
   393         11
   394          7
   395        279
   396         83
   397         17
   398          4
   399          2
   406          1
   407          3
   408          3
   409         75
   410         25
   411          5
   412          1
   414          2
   415          1
   420          3
   421          7
   422          5
   423        154
   424         57
   425         12
   426          2
   427          1
   435          3
   436          2
   437         54
   438         20
   439          5
   440          1
   442          1
   448          2
   449          3
   450          3
   451        100
   452         36
   453          8
   454          2
   455          1
   456          1
   463          2
   464          2
   465         42
   466         18
   467          5
   468          2
   469          2
   470          2
   475          1
   476          3
   477          3
   478          3
   479         55
   480         22
   481          5
   482          2
   483          1
   484          1
   491          2
   492          2
   493         45
   494         20
   495          7
   496          3
   497          2
   498          2
   503          1
   504          3
   505          4
   506          3
   507         55
   508         23
   509          5
   510          1
   511          1
   512          1
   519          2
   520          2
   521         30
   522         15
   523          6
   524          1
   525          1
   526          1
   533          3
   534          3
   535        108
   536         46
   537         12
   538          3
   539          1
   540          1
   547          3
   548          5
   549         53
   550         83
   551        233
   552         87
   553         20
   554          4
   555          1
   563          7
   564          4
   565         17
   566          7
   567          2
   568          1
   569          1
   575          5
   576         10
   577         43
   578        187
   579        379
   580        146
   581         36
   582          7
   583          2
   592         10
   593          5
   594          2
   595          5
   596          3
   597          2
   598          1
   605          1
   606          2
   607          2
   608          1
   610          5
   611          2
   612          1
   620          9
   621          4
   622          1
   623          4
   624          2
   625          1
   633          1
   634          1
   635          1
   638          3
   639          2
   648          4
   649          2
   650          1
   661          1
   662          1
   663          1
   676          1
   677          1
   690          1
   691          1
   704          2
   705          1
   718          2
   719          1
   731          2
   732          1
   745          2
   746          1
   759          1
   760          1
   816          3
   817          2
   818          1
   833          1
   834          2
   835          1