##TITLE=Library Entry 114937
##JCAMP-DX=Revision 4.10 
##DATA TYPE=MASS SPECTRUM
##SAMPLE DESCRIPTION=Chemical Concepts
##NAMES=HP
##CAS NAME=2-Methylindene
##MOLFORM=C10H10
##CAS REGISTRY NO=2177-47-1
##MP= -300
##BP= -300
##MW= 130
##$RETENTION INDEX=1055
##$CONDENSED SPECTRUM=NO
##NPOINTS= 79
##XYDATA=(XY..XY) 1 
    26          3
    27         21
    28         31
    29          1
    37          5
    38         15
    39         70
    40          2
    41          3
    42          0
    43          0
    44          0
    49          4
    50         53
    51        141
    52         20
    53          9
    54          0
    55          0
    56          0
    57          0
    58          1
    60          0
    61         11
    62         34
    63        105
    64        122
    65         65
    66          2
    69          0
    73          4
    74         32
    75         35
    76         28
    77         80
    78         26
    79          2
    81          0
    84          0
    85          4
    86         12
    87         18
    88          8
    89         46
    90          5
    91          8
    92          0
    97          1
    98          8
    99          3
   100          2
   101         21
   102         59
   103         16
   104          2
   105         17
   106          1
   107          0
   109          0
   110          1
   111          2
   112          1
   113         10
   115        762
   116         67
   117          3
   121          0
   122          1
   123          1
   124          1
   125          8
   126         35
   127        152
   128        338
   129        714
   130        999
   131         98
   132          5
   134          2