##TITLE=Library Entry 18852
##JCAMP-DX=Revision 4.10 
##DATA TYPE=MASS SPECTRUM
##SAMPLE DESCRIPTION=Japan AIST/NIMC Database- Spectrum MS-NW-4201
##NAMES=HP
##CAS NAME=2-Propenoic acid, ethenyl ester
##MOLFORM=C5H6O2
##CAS REGISTRY NO=2177-18-6
##MP= -300
##BP= -300
##MW= 98
##$RETENTION INDEX=0
##$CONDENSED SPECTRUM=NO
##NPOINTS= 30
##XYDATA=(XY..XY) 1 
    12          1
    13          3
    14         10
    15         33
    16          1
    18          1
    24          1
    25          9
    26         57
    27        418
    28         10
    29         15
    32          1
    37          1
    38          1
    39          3
    41          3
    42         19
    43         62
    44         23
    45          2
    53          9
    54          6
    55        999
    56         31
    57          3
    70         23
    71          1
    98         31
    99          2