##TITLE=Library Entry 57994
##JCAMP-DX=Revision 4.10 
##DATA TYPE=MASS SPECTRUM
##SAMPLE DESCRIPTION=Chemical Concepts
##NAMES=HP
##CAS NAME=Octanoic acid, 2-methyl-, methyl ester
##MOLFORM=C10H20O2
##CAS REGISTRY NO=2177-86-8
##MP= -300
##BP= -300
##MW= 172
##$RETENTION INDEX=1156
##$CONDENSED SPECTRUM=NO
##NPOINTS= 116
##XYDATA=(XY..XY) 1 
    22          0
    23          0
    24          0
    25          0
    26          1
    27         32
    29         55
    30          2
    31          7
    35          0
    37          2
    38          2
    39         24
    41        117
    42         37
    43         97
    44          3
    45         12
    46          0
    47          0
    49          0
    50          0
    51          1
    52          1
    53          6
    54          3
    55         60
    56         39
    57        140
    58         15
    59         57
    60          3
    61          0
    62          0
    63          0
    64          0
    65          1
    66          1
    67          4
    68          3
    69         48
    70         10
    71         80
    72          5
    73         13
    74          4
    75          0
    77          2
    78          1
    79          2
    80          1
    81          3
    82          2
    83         16
    84          3
    85          2
    86          3
    87         65
    88        999
    89         52
    90          3
    91          0
    92          0
    94          0
    95          1
    96          1
    97          5
    98         23
    99          3
   100          3
   101        234
   102         19
   103          3
   106          0
   107          0
   109          0
   110          1
   111          4
   112          2
   113         12
   114          2
   115         64
   116          6
   117          0
   118          0
   119          0
   121          1
   124          1
   125          1
   127          0
   128          2
   129         37
   130          4
   131          1
   135          1
   137          0
   138          0
   139          1
   140          2
   141         27
   142          6
   143         29
   144          5
   147          0
   148          0
   149          0
   154          0
   156          1
   157          6
   159          0
   168          0
   169          0
   170          0
   171          0
   172         13
   173          1