##TITLE=Library Entry 100691
##JCAMP-DX=Revision 4.10 
##DATA TYPE=MASS SPECTRUM
##SAMPLE DESCRIPTION=Chemical Concepts
##NAMES=HP
##CAS NAME=1,3-Dithiacyclohexane, 2-pentyl-
##MOLFORM=C9H18S2
##CAS REGISTRY NO=21777-32-2
##MP= -300
##BP= -300
##MW= 190
##$RETENTION INDEX=0
##$CONDENSED SPECTRUM=NO
##NPOINTS= 109
##XYDATA=(XY..XY) 1 
    26          2
    27         36
    28          2
    29         42
    30          0
    35          0
    38          1
    39         36
    40          3
    41        110
    42          8
    43         15
    45         81
    46         31
    47         34
    48          1
    49          1
    50          0
    51          1
    52          0
    53         10
    54          3
    55         61
    56          5
    57          5
    58         10
    59         30
    60         63
    61         23
    62          3
    63          1
    64          6
    65          3
    66          1
    67         19
    68          1
    69         15
    70          0
    71         11
    72          6
    73         76
    74         79
    75         39
    76          5
    77          5
    78          4
    79          6
    80          1
    81         13
    82         18
    83         28
    84          3
    85         16
    86          2
    87         54
    88          4
    89          3
    90          0
    91         19
    92          2
    93          3
    95          1
    97          1
    99          3
   100          1
   101          9
   102          0
   103          2
   104          0
   105         21
   106         43
   107         26
   108         11
   109          3
   110          0
   113          1
   114          0
   115         83
   116         17
   117          6
   118          1
   119        999
   120         59
   121         88
   122          4
   123          3
   129          1
   132          0
   133         25
   134         12
   135          4
   136          1
   143         13
   144          1
   145          1
   147          8
   148          1
   149          0
   157          3
   159          0
   161          1
   176          2
   183          0
   189          2
   190        361
   191         42
   192         33
   193          3
   194          0