##TITLE=Library Entry 57628
##JCAMP-DX=Revision 4.10 
##DATA TYPE=MASS SPECTRUM
##SAMPLE DESCRIPTION=Exported from NIST MS Search
##NAMES=HP
##CAS NAME=Pentanoic acid, 2-methyl-, methyl ester
##MOLFORM=C7H14O2
##CAS REGISTRY NO=2177-77-7
##MP= -300
##BP= -300
##MW= 130
##$RETENTION INDEX=836
##$CONDENSED SPECTRUM=NO
##NPOINTS= 34
##XYDATA=(XY..XY) 1 
    15         80
    26         10
    27        116
    28         87
    29        133
    31         17
    32         18
    39         77
    40         10
    41        197
    42         72
    43        499
    44         18
    45         21
    53         16
    55        125
    56         64
    57        214
    58         13
    59        127
    69         55
    70         35
    71        214
    72         14
    73         20
    83         15
    87         74
    88        999
    89         41
    99        116
   101        127
   102         17
   115         21
   130          3