##TITLE=Library Entry 13954
##JCAMP-DX=Revision 4.10 
##DATA TYPE=MASS SPECTRUM
##SAMPLE DESCRIPTION=A.A.Kutin, Moscow, Russia
##NAMES=HP
##CAS NAME=4H-Benzo[d][1,3]-thiazine, 5,6,7,8-tetrahydro-2-acetamido-4,4-pen
tamethylene-
##MOLFORM=C15H22N2OS
##CAS REGISTRY NO=21784-61-2
##MP= -300
##BP= -300
##MW= 278
##$RETENTION INDEX=0
##$CONDENSED SPECTRUM=NO
##NPOINTS= 221
##XYDATA=(XY..XY) 1 
    33         11
    34         13
    35          1
    37          4
    39        217
    41        452
    43        999
    45        102
    47         20
    50         19
    51         72
    52         58
    53        163
    54         74
    55        157
    56         29
    57         10
    58         23
    59         39
    60         68
    61         10
    62          8
    63         28
    65        152
    66         61
    67        213
    69         72
    70         21
    71         45
    72         11
    73         12
    74          5
    75          9
    77        250
    78         73
    79        241
    80         65
    81        142
    82         36
    83         19
    84         19
    85         27
    86         19
    87         10
    88          4
    89         16
    91        220
    92         44
    93         92
    94         58
    95         45
    96         39
    97         38
    98         12
    99          9
   100          4
   101          7
   102         19
   103         37
   104         37
   105         70
   106         78
   107         44
   108         25
   109         26
   110         21
   111         25
   112         10
   113         14
   114         10
   115         44
   116         27
   117         70
   118         47
   119         58
   120         70
   121         49
   122         48
   123         26
   124         12
   125         18
   126         23
   127         19
   128         21
   129         21
   130         25
   131         49
   132         45
   133         35
   134        107
   135         35
   136         20
   137         18
   138         20
   139         12
   140         11
   141          8
   142          7
   143         12
   144         18
   145         27
   146         41
   147         81
   148         82
   149         43
   150         16
   151         40
   152         36
   153         41
   154         21
   155         30
   156         13
   157         12
   158         16
   159         24
   160         37
   161         38
   162         28
   163         15
   164         27
   165         49
   166         76
   167         35
   168         11
   169         10
   170          7
   171         10
   172          9
   173         19
   174         48
   175         87
   176        320
   177         68
   178         23
   179         48
   180        108
   181         22
   182          9
   183          5
   184         10
   186         99
   187         21
   188          7
   189         10
   190         24
   191         42
   193        605
   194        100
   195         41
   196         10
   197         20
   198          3
   199          4
   200          3
   201         19
   202         12
   203         72
   204         42
   205         13
   207         62
   208         20
   209         21
   210          4
   211          3
   212          0
   213          0
   214          0
   215          1
   216          2
   217         21
   218         53
   219         29
   220         12
   221         15
   222         63
   223         14
   224          5
   225          1
   226          0
   227          1
   228          1
   229          3
   231          9
   232          7
   235        714
   236        167
   237         43
   238         10
   239          1
   240          0
   241          0
   242          0
   243          2
   245         72
   246         11
   247          2
   249         23
   250          7
   251          5
   252          1
   253          0
   257          0
   259          1
   260          1
   261          2
   263         24
   264          4
   265          2
   266          1
   267          0
   271          0
   272          0
   273          1
   274          3
   275          4
   278        511
   279         84
   280         27
   281          4
   282          0
   290          0