##TITLE=Library Entry 67561
##JCAMP-DX=Revision 4.10 
##DATA TYPE=MASS SPECTRUM
##SAMPLE DESCRIPTION=A.A.Kutin, Moscow, Russia
##NAMES=HP
##CAS NAME=N-(4-Methoxyphenyl)-N'-(2-pyridyl)thiourea
##MOLFORM=C13H13N3OS
##CAS REGISTRY NO=21780-68-7
##MP= -300
##BP= -300
##MW= 259
##$RETENTION INDEX=0
##$CONDENSED SPECTRUM=NO
##NPOINTS= 99
##XYDATA=(XY..XY) 1 
    33         38
    34          1
    37          5
    38         31
    39         74
    40         35
    41         51
    42          4
    43         10
    44          6
    45         12
    50         24
    51        133
    52         83
    53         28
    54          4
    55          3
    58          3
    59          4
    60          4
    61          2
    63         55
    64         40
    65         26
    67        372
    69          7
    70          7
    71          3
    72          1
    74          4
    75          6
    78        374
    79         69
    80         45
    81          5
    82          0
    83          3
    84          2
    89          0
    90         13
    92         46
    94        999
    95         73
    96         21
    98          5
   102          0
   103          1
   104          2
   105         21
   106          8
   108        171
   110         16
   111          5
   112          4
   114          5
   119          4
   120         61
   122        154
   123        348
   124         35
   126          3
   129         11
   130          9
   133         12
   134          5
   137        151
   139         27
   140         28
   141          1
   148          5
   149          7
   150         97
   151         11
   152          2
   154          7
   155          2
   156          2
   165        107
   166         18
   167          4
   181          5
   182          4
   183         10
   184          1
   210          8
   211         20
   215          0
   225         13
   226         66
   227         10
   228          0
   242          1
   243          6
   244          1
   256          0
   259        403
   260         47
   261         19
   262          1