##TITLE=Library Entry 69289
##JCAMP-DX=Revision 4.10 
##DATA TYPE=MASS SPECTRUM
##SAMPLE DESCRIPTION=CARL DJERASSI DEPT OF CHEM STANFORD UNIV STANFORD CALIF
 94305
##NAMES=HP
##CAS NAME=Naphthalene, 1,2,3,4,4a,5,8,8a-octahydro-4a-methyl-, trans-
##MOLFORM=C11H18
##CAS REGISTRY NO=21789-56-0
##MP= -300
##BP= -300
##MW= 150
##$RETENTION INDEX=0
##$CONDENSED SPECTRUM=NO
##NPOINTS= 58
##XYDATA=(XY..XY) 1 
    41        290
    42         20
    43         80
    44         90
    50         10
    51         50
    52         30
    53        120
    54         70
    55        220
    56         10
    57         30
    63         10
    65         70
    66         40
    67        380
    68        190
    69        110
    70         20
    71         10
    77        130
    78         50
    79        210
    80         50
    81        690
    82         70
    83         40
    91        160
    92         20
    93        140
    94         60
    95        210
    96        999
    97         80
   103         10
   105         50
   106         10
   107         70
   108         70
   109        140
   110         20
   111         10
   115         10
   117         10
   119         20
   120         10
   121         80
   122         50
   123         20
   131         10
   133         20
   135         90
   136         20
   137         10
   138         10
   149         10
   150        170
   151         20