##TITLE=Library Entry 96694
##JCAMP-DX=Revision 4.10 
##DATA TYPE=MASS SPECTRUM
##SAMPLE DESCRIPTION=M. NELSON, RES. DEP., IMPERIAL TOBACCO LTD., BRISTOL
##NAMES=HP
##CAS NAME=2,4-Dimethylbenzonitrile
##MOLFORM=C9H9N
##CAS REGISTRY NO=21789-36-6
##MP= -300
##BP= -300
##MW= 131
##$RETENTION INDEX=0
##$CONDENSED SPECTRUM=NO
##NPOINTS= 33
##XYDATA=(XY..XY) 1 
    28         93
    32         30
    38         35
    39        123
    41         22
    49         13
    51        120
    52         26
    61         23
    63         82
    64         54
    66         13
    74         25
    75         41
    77        151
    78         60
    86         12
    87         19
    89         88
    90         27
   101         26
   102         52
   103        146
   104         81
   105         19
   115         14
   116        999
   117        110
   128         27
   129         27
   130        256
   131        756
   132         85