##TITLE=Library Entry 2129
##JCAMP-DX=Revision 4.10 
##DATA TYPE=MASS SPECTRUM
##SAMPLE DESCRIPTION=Japan AIST/NIMC Database- Spectrum MS-NW-3277
##NAMES=HP
##CAS NAME=Diallyl disulphide
##MOLFORM=C6H10S2
##CAS REGISTRY NO=2179-57-9
##MP= -300
##BP= -300
##MW= 146
##$RETENTION INDEX=1081
##$CONDENSED SPECTRUM=NO
##NPOINTS= 88
##XYDATA=(XY..XY) 1 
    14          2
    15         17
    25          2
    26         11
    27         50
    28          8
    29          8
    32          5
    33          2
    34          3
    36          2
    37         18
    38         39
    39        377
    40         42
    41        999
    42         57
    43          4
    44          4
    45        282
    46         28
    47         54
    48          2
    49          2
    51          1
    53         15
    54          9
    55          9
    56          1
    57          4
    58         14
    59         17
    60          9
    61         11
    62          9
    63          1
    64         33
    65          6
    66          4
    67         27
    68         14
    69         14
    70          3
    71         69
    72        114
    73        207
    74         34
    75         10
    76          9
    77          4
    78          6
    79         36
    80         36
    81        184
    82         14
    84          5
    85         48
    86         13
    87          9
    88          1
    91          1
    92          1
    96          1
    97          6
    98          1
    99         46
   100         12
   101          3
   102          1
   103         64
   104         43
   105         66
   106         13
   107          6
   111          5
   112          9
   113         74
   114         70
   115          9
   116          4
   119          1
   143          1
   144          2
   145          5
   146        131
   147         12
   148         13
   149          1