##TITLE=Library Entry 49998
##JCAMP-DX=Revision 4.10 
##DATA TYPE=MASS SPECTRUM
##SAMPLE DESCRIPTION=CARL DJERASSI DEPT OF CHEM STANFORD UNIV STANFORD CALIF
 94305
##NAMES=HP
##CAS NAME=2(1H)-Naphthalenone, 3-bromooctahydro-4a-methyl-, (3.alpha.,4a.be
ta.,8a.alpha.)-
##MOLFORM=C11H17BrO
##CAS REGISTRY NO=21794-03-6
##MP= -300
##BP= -300
##MW= 244
##$RETENTION INDEX=0
##$CONDENSED SPECTRUM=NO
##NPOINTS= 72
##XYDATA=(XY..XY) 1 
    41        590
    42         30
    43        130
    51         50
    52         20
    53        240
    54         90
    55        610
    56         40
    57         30
    65         70
    66         30
    67        590
    68        260
    69        340
    70         50
    71         10
    77        100
    78         50
    79        200
    80         50
    81        999
    82        190
    83        120
    84         40
    85         40
    91         90
    92         10
    93        310
    94        180
    95        550
    96        160
    97         40
    98         20
   105         80
   106         10
   107        110
   108         20
   109        450
   110         80
   111        110
   112         10
   113         20
   114         10
   115         80
   116         90
   117         70
   118         10
   131         20
   133         10
   135         10
   136         10
   137        150
   138         20
   147        200
   148         20
   149         20
   151         10
   162        420
   163         30
   164        420
   165        460
   166        220
   167         10
   200         40
   201         10
   202         30
   203         10
   244        450
   245         40
   246        440
   247         40