##TITLE=Library Entry 49638
##JCAMP-DX=Revision 4.10 
##DATA TYPE=MASS SPECTRUM
##SAMPLE DESCRIPTION=Exported from NIST MS Search
##NAMES=HP
##CAS NAME=Disulfide, methyl propyl
##MOLFORM=C4H10S2
##CAS REGISTRY NO=2179-60-4
##MP= -300
##BP= -300
##MW= 122
##$RETENTION INDEX=932
##$CONDENSED SPECTRUM=NO
##NPOINTS= 73
##XYDATA=(XY..XY) 1 
    12          5
    13          8
    14         24
    15        113
    16          2
    26         31
    27        477
    28         27
    29         63
    30          1
    32         16
    33          9
    34          6
    35          5
    36          1
    37          9
    38         21
    39        181
    40         17
    41        516
    42         36
    43        686
    44         31
    45        398
    46        175
    47        193
    48         35
    49         21
    50          2
    51          1
    54          1
    55          4
    56          1
    57         13
    58         22
    59         23
    60          6
    61         24
    62          1
    63          1
    64        141
    65         16
    66         21
    67          2
    68          2
    69          6
    70          1
    71          9
    72          2
    73         23
    74         43
    75         12
    76          7
    77          4
    78         17
    79        158
    80        999
    81         42
    82         90
    83          2
    84          2
    89          1
    91          1
    93         42
    94         97
    95          7
    96          9
   107          1
   122        700
   123         34
   124         67
   125          3
   126          4