##TITLE=Library Entry 48033
##JCAMP-DX=Revision 4.10 
##DATA TYPE=MASS SPECTRUM
##SAMPLE DESCRIPTION=Chemical Concepts
##NAMES=HP
##CAS NAME=N,N',N'',N''-Tetraphenyl(2-imidazolidenyl)imidazolidi e
##MOLFORM=C30H28N4
##CAS REGISTRY NO=2179-89-7
##MP= -300
##BP= -300
##MW= 444
##$RETENTION INDEX=0
##$CONDENSED SPECTRUM=NO
##NPOINTS= 327
##XYDATA=(XY..XY) 1 
    27         25
    28         13
    30          2
    34          1
    37          1
    38          4
    39         28
    40          5
    41         15
    42         19
    43          2
    44          6
    45          1
    46          0
    47          0
    49          1
    50         17
    51        179
    52         19
    53          3
    54          5
    55          1
    56          2
    57          1
    62          2
    63         17
    64         39
    65         56
    66         34
    67          4
    68          1
    69          1
    70          0
    71          1
    72          0
    73          0
    74          2
    75          7
    76         36
    77        999
    78         81
    79         10
    80          1
    84          1
    87          0
    88          2
    89         18
    90         38
    91        319
    92         49
    93         15
    94          3
    97          0
   100          0
   101          2
   102          9
   103         76
   104        153
   105         62
   106         33
   107          3
   110          0
   111          1
   113          1
   114          1
   115          8
   116         25
   117        300
   118        171
   119         75
   120         60
   121          5
   122          0
   123          0
   124          0
   125          1
   126          1
   127          3
   128         12
   129         42
   130         47
   131         25
   132         11
   133          1
   136          0
   137          1
   138          2
   140         10
   141          7
   142          9
   143         22
   144         11
   145         33
   146          6
   147          3
   148          2
   149          1
   150          1
   151          6
   152         12
   153          6
   154          6
   155          6
   156          4
   157          8
   158          3
   159          6
   160          2
   161          1
   162          4
   163          1
   164          2
   165          9
   166         13
   167         22
   168         14
   169         10
   170          5
   171          4
   172         10
   173         28
   174          4
   175          1
   176          1
   177          3
   178         10
   179          6
   180         30
   181          7
   182          3
   183          9
   184          2
   185          0
   186          0
   188          1
   190          4
   191          5
   192         17
   193         42
   194        594
   195         99
   196         19
   197          3
   198          1
   199          0
   200          0
   201          0
   202          1
   203          1
   204          5
   205         16
   206         16
   207         18
   208         44
   209          5
   210          1
   211          1
   212          1
   213          1
   215          1
   216          1
   217          4
   218          9
   219         39
   220         38
   221        150
   222        407
   223         99
   224         16
   225          4
   226          1
   227          1
   228          1
   229          1
   230          1
   231          6
   232         14
   233         27
   234        100
   235        135
   236         89
   237         18
   238          5
   239          3
   240          3
   241          2
   242          2
   243          3
   244          4
   245         13
   246         25
   247         73
   248        512
   249        739
   250        162
   251         19
   252          4
   253          1
   254          1
   255          1
   256          1
   258          2
   259          3
   260          5
   261          4
   262          7
   263          4
   264          1
   265          0
   266          1
   267          1
   268          1
   269          3
   270          2
   271          3
   272          1
   273          0
   276          0
   277          1
   278          1
   279          1
   280          1
   281          1
   282          3
   283          2
   284          1
   285          1
   287          1
   289          2
   290          0
   292          0
   293          1
   294          2
   295          4
   296         21
   297         13
   298          3
   299          1
   301          0
   303          0
   304          1
   305          1
   307          1
   308          1
   309          2
   310          4
   311          4
   312         15
   313          5
   314          1
   315          1
   316          1
   320          1
   321          1
   322          3
   323          6
   324         49
   325         66
   326         74
   327         20
   328          3
   329          1
   334          1
   335          1
   336          3
   337          7
   338         21
   339        128
   340         41
   341          7
   342          1
   349          0
   350          1
   351          1
   352         16
   353         16
   354          3
   355          1
   361          0
   362          0
   363          1
   364          1
   365          4
   367        140
   368         42
   369          8
   370          1
   372          1
   385          0
   386          1
   387          3
   388          3
   389          2
   390          1
   392          1
   400          0
   406          1
   407          0
   409          1
   411          3
   412          5
   413         12
   415        377
   416        136
   417         30
   418          8
   419          4
   420          2
   427          1
   428          1
   429          1
   430          1
   431          1
   432          1
   433          1
   434          1
   435          2
   436          2
   437          3
   438          4
   439          5
   441         11
   442         27
   443         87
   444        962
   445        363
   446         79