##TITLE=Library Entry 86794
##JCAMP-DX=Revision 4.10 
##DATA TYPE=MASS SPECTRUM
##SAMPLE DESCRIPTION=Asinex Ltd, Moscow, Russia
##NAMES=HP
##CAS NAME=3-(3-Nitrophenyl)-5-(2-thienyl)-1,2,4-oxadiazole
##MOLFORM=C12H7N3O3S
##CAS REGISTRY NO=218144-79-7
##MP= -300
##BP= -300
##MW= 273
##$RETENTION INDEX=0
##$CONDENSED SPECTRUM=NO
##NPOINTS= 74
##XYDATA=(XY..XY) 1 
    37         21
    38         60
    39        463
    40         43
    41         20
    43         24
    44         49
    45        145
    46         10
    50        125
    51         75
    52         24
    53         20
    55         19
    56         10
    57         68
    58         65
    61         14
    62        118
    63         47
    64         34
    65         18
    69        200
    70         34
    71         24
    73         10
    74         31
    75         78
    76         86
    77         20
    81         22
    82         47
    83        141
    84         18
    85         24
    86         28
    87         50
    88        311
    89         35
    90         49
    91         10
    93         22
    94         12
    95        113
    96         20
    97         14
    99         14
   100         10
   102         49
   106         57
   107         10
   109        999
   110         94
   111        798
   112         54
   113         45
   114         16
   118        121
   119         13
   125         11
   127         15
   134         17
   136         10
   148         12
   149         14
   164        430
   165         38
   172         11
   196         10
   227         33
   243         13
   273        893
   274        132
   275         56