##TITLE=Library Entry 40857
##JCAMP-DX=Revision 4.10 
##DATA TYPE=MASS SPECTRUM
##SAMPLE DESCRIPTION=Chemical Concepts
##NAMES=HP
##CAS NAME=Silane, trimethyl-2,6-octadienyl-
##MOLFORM=C11H22Si
##CAS REGISTRY NO=21819-40-9
##MP= -300
##BP= -300
##MW= 182
##$RETENTION INDEX=0
##$CONDENSED SPECTRUM=NO
##NPOINTS= 98
##XYDATA=(XY..XY) 1 
    26          3
    27         45
    28         14
    29         68
    30          2
    31         15
    33          0
    37          0
    38          2
    39         74
    40          8
    41         31
    42         10
    43         70
    44         29
    45        151
    46          9
    47          4
    50          3
    51          9
    52          4
    53         28
    54         43
    55         74
    56          5
    57         14
    58         25
    59         87
    60          5
    61          3
    63          1
    64          0
    65          6
    66          4
    67         13
    68          2
    69          7
    70          4
    71         10
    73        999
    74         95
    75         39
    76          1
    77          7
    78          2
    79         15
    80          3
    81          4
    82          1
    83          7
    84          1
    85         11
    86          1
    87          3
    91          5
    92          0
    93          5
    94          0
    95          8
    96          1
    97         16
    98          2
    99         10
   100          0
   101          6
   102          0
   103          0
   104          0
   105          0
   106          0
   107          6
   108         21
   109          4
   110          0
   111          5
   112          1
   113          7
   114          1
   115          0
   122          0
   123          1
   124          0
   125         12
   127        100
   128         16
   129          3
   137          0
   139          7
   140          3
   141          0
   153          0
   154          0
   155          0
   163          0
   165          0
   167          2
   182          1
   183          0