##TITLE=Library Entry 2079
##JCAMP-DX=Revision 4.10 
##DATA TYPE=MASS SPECTRUM
##SAMPLE DESCRIPTION=Chemical Concepts
##NAMES=HP
##CAS NAME=Cyclopentanol, nitrate
##MOLFORM=C5H9NO3
##CAS REGISTRY NO=21823-29-0
##MP= -300
##BP= -300
##MW= 131
##$RETENTION INDEX=0
##$CONDENSED SPECTRUM=NO
##NPOINTS= 40
##XYDATA=(XY..XY) 1 
    26         29
    27        212
    28        126
    29        897
    30         69
    31         27
    37          2
    38         11
    39        190
    40         26
    41        999
    42         67
    43        226
    44         54
    45          6
    46         75
    50          6
    51          9
    52          3
    53         31
    54          5
    55        175
    56         22
    57        247
    58         11
    59          0
    60          2
    62          0
    63          1
    65         18
    66          3
    67        171
    68         16
    69        419
    70         25
    71          1
    83          0
    84          5
    85          1
    89          1