##TITLE=Library Entry 20593
##JCAMP-DX=Revision 4.10 
##DATA TYPE=MASS SPECTRUM
##SAMPLE DESCRIPTION=Japan AIST/NIMC Database- Spectrum MS-NW-1052
##NAMES=HP
##CAS NAME=Vinylcyclohexyl ether
##MOLFORM=C8H14O
##CAS REGISTRY NO=2182-55-0
##MP= -300
##BP= -300
##MW= 126
##$RETENTION INDEX=0
##$CONDENSED SPECTRUM=NO
##NPOINTS= 64
##XYDATA=(XY..XY) 1 
    14          4
    15         22
    17          3
    18         10
    26          9
    27        110
    28         26
    29         86
    30          2
    31         13
    32          8
    36          1
    37          1
    38          5
    39        107
    40         12
    41        444
    42         30
    43         46
    44         33
    45         30
    50          6
    51         12
    52          5
    53         45
    54        135
    55        999
    56         50
    57         43
    58          4
    59          1
    61          1
    63          1
    65          9
    66          8
    67        466
    68         28
    69          8
    70          3
    71          5
    72          3
    77          8
    78          3
    79         19
    80         10
    81         73
    82        627
    83        497
    84         32
    85          2
    91          1
    95          1
    96          1
    97          2
    98          2
    99          2
   100          1
   108          4
   109          1
   110          2
   111          3
   125          2
   126        105
   127         10