##TITLE=Library Entry 67705
##JCAMP-DX=Revision 4.10 
##DATA TYPE=MASS SPECTRUM
##SAMPLE DESCRIPTION=TAT 0627
##NAMES=HP
##CAS NAME=4-Pyrimidinamine, 2-(methylthio)-
##MOLFORM=C5H7N3S
##CAS REGISTRY NO=2183-66-6
##MP= -300
##BP= -300
##MW= 141
##$RETENTION INDEX=0
##$CONDENSED SPECTRUM=NO
##NPOINTS= 53
##XYDATA=(XY..XY) 1 
    26         90
    27         80
    29         30
    30         40
    38         80
    39        170
    40        750
    41        780
    42        120
    43        530
    44        160
    45        400
    46        220
    47        200
    48         20
    51         70
    52         10
    53        220
    54         70
    55        120
    56         10
    57         80
    58         80
    59         80
    60         40
    65         30
    66        170
    67        490
    68         20
    69        210
    72        100
    73         90
    74        140
    75         10
    78         80
    79         80
    80         10
    81         70
    83         40
    84         40
    85         40
    95        999
    96        110
    97         10
    98         30
    99         70
   100         10
   113         30
   125         20
   140        140
   141        650
   142         60
   143         30