##TITLE=Library Entry 19724
##JCAMP-DX=Revision 4.10 
##DATA TYPE=MASS SPECTRUM
##SAMPLE DESCRIPTION=J.A. ENZELL, RES. DEP., SWED. TOB. CO., STOCKHOLM, SWED
EN
##NAMES=HP
##CAS NAME=2-Hydroxy-3,5-dimethylcyclopent-2-en-1-one
##MOLFORM=C7H10O2
##CAS REGISTRY NO=21834-98-0
##MP= -300
##BP= -300
##MW= 126
##$RETENTION INDEX=1069
##$CONDENSED SPECTRUM=NO
##NPOINTS= 10
##XYDATA=(XY..XY) 1 
    41        490
    43        900
    53        250
    55        999
    69        240
    70        200
    83        600
    98        290
   111        520
   126        460