##TITLE=Library Entry 97290
##JCAMP-DX=Revision 4.10 
##DATA TYPE=MASS SPECTRUM
##SAMPLE DESCRIPTION=Chuck Anderson, Aldrich Chemical Co.
##NAMES=HP
##CAS NAME=5-Methyl-2-phenyl-2-hexenal
##MOLFORM=C13H16O
##CAS REGISTRY NO=21834-92-4
##MP= -300
##BP= -300
##MW= 188
##$RETENTION INDEX=1486
##$CONDENSED SPECTRUM=NO
##NPOINTS= 96
##XYDATA=(XY..XY) 1 
    15         11
    18          0
    26          9
    27        153
    28         23
    29         82
    38         11
    39        155
    40         17
    41        215
    42         13
    43        293
    44         13
    50         32
    51         96
    52         26
    53         27
    55         36
    56         44
    57         33
    58          4
    62         24
    63         94
    64         25
    65        103
    66         11
    67         22
    68         10
    69         31
    70          6
    71          5
    74         23
    75         31
    76         49
    77        168
    78         91
    79         36
    81         19
    83         21
    84         10
    85          1
    86         10
    87         15
    88         10
    89         97
    90         13
    91        487
    92         39
    95         45
    97         11
   101         10
   102        129
   103        327
   104        801
   105        191
   106         14
   113         11
   114          7
   115        767
   116        306
   117        999
   118        185
   119         16
   120         73
   121          4
   126          7
   127        113
   128        168
   129        113
   130         45
   131        148
   132        245
   133        110
   134         10
   139          4
   141         29
   142         13
   143         33
   144         28
   145        282
   146         81
   147          7
   153          9
   154          3
   155         42
   156          1
   157         22
   158          5
   159         34
   160          1
   170         44
   171         14
   173        176
   174         21
   188        306
   189         43