##TITLE=Library Entry 79498
##JCAMP-DX=Revision 4.10 
##DATA TYPE=MASS SPECTRUM
##SAMPLE DESCRIPTION=Exported from NIST MS Search
##NAMES=HP
##CAS NAME=Methanol, diphenyl(.alpha.,.alpha.,.alpha.-trifluoro-p-tolyl)-
##MOLFORM=C20H15F3O
##CAS REGISTRY NO=21856-96-2
##MP= -300
##BP= -300
##MW= 328
##$RETENTION INDEX=0
##$CONDENSED SPECTRUM=NO
##NPOINTS= 180
##XYDATA=(XY..XY) 1 
    36          3
    37          4
    38         10
    39         59
    40         13
    41        100
    42         24
    43        115
    44         91
    48          4
    49          4
    50         80
    51        229
    52         29
    53         16
    54         10
    55         69
    56         22
    57         66
    58         10
    61          5
    62         12
    63         28
    64          7
    65         11
    66          4
    67         24
    68         15
    69         82
    70         17
    71         30
    72          3
    73          4
    75         46
    76         44
    77        575
    78        141
    79          2
    80         28
    81         13
    82         11
    83          1
    84          7
    85         10
    86          3
    87          1
    88          3
    89          4
    90         10
    91         27
    92          4
    93         10
    94         10
    95         49
    96         15
    97         23
    98          7
    99          9
   100         10
   101         13
   102          8
   103          5
   104          7
   105        999
   106         89
   107         22
   108          6
   109         11
   110          6
   111         15
   112          5
   113         10
   114          5
   115         24
   116          4
   117          5
   118          4
   119         22
   120          9
   121         10
   122          5
   123          8
   124          4
   125         23
   126         29
   127         65
   128         14
   129          7
   130          5
   131         17
   132          4
   133          8
   134          3
   135          4
   136          2
   137          6
   138          4
   139         10
   140          3
   141          5
   142          3
   143          6
   144          8
   145        245
   146         25
   147          9
   148          2
   149          3
   150          7
   151         17
   152         40
   153         22
   154         30
   155         93
   156         14
   157          5
   158          4
   159          4
   160          1
   161          2
   162          4
   163         12
   164          9
   165         56
   166         12
   167          8
   168          3
   169          8
   170          6
   171          9
   172          4
   173        344
   174         32
   175         56
   176          7
   181         32
   182         50
   183        314
   184         60
   185          8
   186          2
   187          4
   188          3
   189          7
   190          9
   201         14
   202          7
   203         15
   213          5
   214          4
   215          7
   222         28
   223         13
   231          9
   232          7
   233         16
   234          4
   235          2
   236          1
   237          4
   238          3
   239         18
   240          6
   241         12
   242          4
   243          5
   249         12
   250         53
   251        247
   252         37
   253          5
   259          5
   309         28
   310         11
   311         10
   312          7
   327          7
   328        116
   329         26
   330          3