##TITLE=Library Entry 14612
##JCAMP-DX=Revision 4.10 
##DATA TYPE=MASS SPECTRUM
##SAMPLE DESCRIPTION=H. Fales, LC, NHLBI, NIH, Bethesda, MD 20892
##NAMES=HP
##CAS NAME=6-Acetyl-11-oxohemanthidine
##MOLFORM=C19H19NO6
##CAS REGISTRY NO=21850-87-3
##MP= -300
##BP= -300
##MW= 357
##$RETENTION INDEX=0
##$CONDENSED SPECTRUM=NO
##NPOINTS= 232
##XYDATA=(XY..XY) 1 
    42        123
    43        999
    44         13
    45        192
    46          1
    47         10
    48          3
    49         31
    50         27
    51         83
    52         22
    53         44
    54         21
    55         62
    56         22
    57         29
    58         10
    59         10
    60         27
    61         20
    62         25
    63         93
    64         22
    65         53
    66         11
    67         22
    68          9
    69         38
    70          6
    71         75
    72         13
    73         37
    74         23
    75         52
    76        113
    77        107
    78         30
    79         15
    80          8
    81          9
    82         14
    83          1
    84         61
    85         16
    86         28
    87         25
    88         21
    89         57
    90         36
    91         43
    92         25
    93          8
    94          6
    95          6
    96          4
    97         12
    98         15
    99         14
   100         10
   101         30
   102         45
   103         30
   104         92
   105         16
   106         13
   107          1
   108          2
   109          3
   110          3
   111         11
   112         10
   113         33
   114         29
   115        154
   116         24
   117         11
   119        122
   120          4
   121         11
   122          2
   123          3
   124          1
   125          8
   126         31
   127         62
   128         71
   129         33
   130         13
   131          9
   132          3
   133          5
   134          3
   135         14
   137          9
   138         10
   139        133
   140         49
   141        146
   142         23
   143         12
   144          4
   145          7
   146          3
   147          5
   148          3
   149         12
   150         12
   151         49
   152        109
   153         61
   154         26
   155         21
   156         13
   157         14
   158          4
   159         15
   160          7
   161          4
   162          5
   163          4
   164          7
   165          9
   166         34
   167         65
   168         55
   169         56
   170         13
   171         25
   172         16
   173         12
   174          9
   175          6
   176          0
   177          4
   178          7
   179          8
   180         40
   181         36
   182         12
   183         42
   184         12
   185         18
   186          9
   187         12
   188          9
   189          2
   194          7
   195         13
   196         35
   197         35
   198         29
   199         28
   200         88
   201         18
   202          4
   206          0
   207          1
   209        257
   210         53
   211         75
   212         33
   213         15
   214         27
   215         10
   216          2
   217          1
   222         10
   223         18
   224         96
   225        133
   226        158
   227         61
   228         15
   229          6
   230          3
   231          2
   232          0
   236          4
   237         14
   238         64
   239         39
   240         16
   242        398
   243         60
   244          8
   246          0
   252          3
   253          3
   254         11
   255          9
   256         20
   257          9
   258          8
   259          1
   264          0
   266         10
   267          3
   268          5
   269          4
   270         17
   271          5
   272          9
   273          0
   282          1
   283         20
   284         14
   285          3
   286          6
   287         17
   288          2
   289          0
   296         12
   298        140
   299         32
   300          6
   310          1
   311          5
   312          5
   314        698
   315        146
   316         21
   317          2
   325          0
   326          2
   327          0
   328         20
   329        315
   330         59
   331          9
   342          3
   357         48
   358         11