##TITLE=Library Entry 97410
##JCAMP-DX=Revision 4.10 
##DATA TYPE=MASS SPECTRUM
##SAMPLE DESCRIPTION=Exported from NIST MS Search
##NAMES=HP
##CAS NAME=Selenocyanic acid, 4-methylphenyl ester
##MOLFORM=C8H7NSe
##CAS REGISTRY NO=21856-93-9
##MP= -300
##BP= -300
##MW= 197
##$RETENTION INDEX=0
##$CONDENSED SPECTRUM=NO
##NPOINTS= 107
##XYDATA=(XY..XY) 1 
    15          3
    26         11
    27         47
    28          3
    37         18
    38         37
    39        260
    40         18
    41         41
    43          3
    49          9
    50         94
    51        113
    52         22
    53         15
    60          1
    61         34
    62         79
    63        226
    64         56
    65        396
    66         22
    73          5
    74         28
    75         20
    76         15
    77         39
    78         32
    79         18
    80         22
    81          3
    82          5
    83          5
    84         18
    85         17
    86         20
    87         18
    88         13
    89        245
    90        154
    91        679
    92         56
    93         79
    94          1
    95         15
   101          3
   102          7
   103         11
   104         13
   105         18
   106         18
   107          9
   108          1
   113          9
   114         11
   115         34
   116        777
   117        999
   118         94
   119         18
   120          3
   126          5
   127          5
   128          9
   129         13
   130         13
   131          5
   132          5
   138          1
   139          3
   140          1
   141         18
   142          3
   143          9
   144          3
   145          5
   152          1
   153          1
   154          3
   155          1
   156          9
   157          3
   158          1
   165         15
   166         17
   167         47
   168         34
   169         94
   170         37
   171         84
   172         18
   173         15
   174          1
   178          1
   179          1
   180          3
   182         13
   191          9
   192          5
   193        113
   194        109
   195        283
   196         47
   197        411
   198         56
   199        103
   200          5