##TITLE=Library Entry 7422
##JCAMP-DX=Revision 4.10 
##DATA TYPE=MASS SPECTRUM
##SAMPLE DESCRIPTION=Chemical Concepts
##NAMES=HP
##CAS NAME=2-Hexanone, 6-hydroxy-
##MOLFORM=C6H12O2
##CAS REGISTRY NO=21856-89-3
##MP= -300
##BP= -300
##MW= 116
##$RETENTION INDEX=0
##$CONDENSED SPECTRUM=NO
##NPOINTS= 70
##XYDATA=(XY..XY) 1 
    25          5
    26         22
    27        122
    29         75
    30          9
    31         41
    33          5
    35          4
    36         11
    37          9
    38         15
    39         96
    40         55
    41        144
    42         54
    43        999
    44         67
    45         24
    49          6
    50         22
    51         25
    52         15
    53         61
    54         19
    55        320
    56         41
    57         40
    58         60
    59         15
    60          7
    61         13
    62          7
    63         10
    64          4
    65         16
    66         13
    67         41
    68         22
    69         29
    70         56
    71         43
    72          9
    73         10
    74          4
    75          5
    76          5
    77          7
    78         24
    79         46
    80         18
    81         14
    82         10
    83        164
    84         13
    85         13
    86          9
    87          4
    88          7
    89          4
    90          4
    91         20
    92         16
    93         19
    94         11
    95         11
    96          8
    97        165
    98        247
    99         41
   100          5