##TITLE=Library Entry 19969
##JCAMP-DX=Revision 4.10 
##DATA TYPE=MASS SPECTRUM
##SAMPLE DESCRIPTION=CARL DJERASSI DEPT OF CHEM STANFORD UNIV STANFORD CALIF
 94305
##NAMES=HP
##CAS NAME=Cholest-4-en-3-one, 14-methyl-
##MOLFORM=C28H46O
##CAS REGISTRY NO=21857-92-1
##MP= -300
##BP= -300
##MW= 398
##$RETENTION INDEX=0
##$CONDENSED SPECTRUM=NO
##NPOINTS= 132
##XYDATA=(XY..XY) 1 
    53         72
    55        999
    56        226
    57        989
    67        350
    68         82
    69        752
    70        154
    71        432
    77         92
    79        226
    80         51
    81        484
    82        175
    83        484
    84        103
    85        164
    91        247
    92         41
    93        288
    94        103
    95        711
    96        154
    97        257
    98         51
   105        206
   106         51
   107        350
   108        123
   109        381
   110         92
   111        175
   112         30
   113         30
   117         72
   118         51
   119        206
   120         61
   121        247
   122        144
   123        247
   124        762
   125        123
   126         41
   127         51
   128         30
   129         30
   130        123
   131        103
   132         61
   133        154
   134        134
   135        226
   136        288
   137        185
   138         82
   139         72
   140         30
   141        134
   143         30
   145        103
   146         30
   147        154
   148        185
   149        298
   150         92
   151         82
   152         20
   153        103
   154         20
   155         20
   157         51
   158         20
   159         82
   160         51
   161        257
   162        113
   163        164
   164         51
   165         82
   173         92
   174        216
   175        216
   176        463
   177        195
   178         72
   185         41
   187         92
   188         51
   189         92
   190        154
   191        164
   192        113
   193        154
   194         72
   201         72
   202         61
   203         82
   204         61
   205         51
   206         72
   207        185
   208         82
   215         92
   216         30
   217         20
   218         10
   219         51
   243        247
   244        103
   245         82
   258        288
   259        226
   260         92
   261        278
   262        103
   267        103
   274         61
   275        257
   276         72
   283        103
   284         51
   285        113
   300         72
   302         51
   383        123
   384         61
   396        123
   397         41
   398        845
   399        288
   400         72