##TITLE=Library Entry 25697
##JCAMP-DX=Revision 4.10 
##DATA TYPE=MASS SPECTRUM
##SAMPLE DESCRIPTION=Japan AIST/NIMC Database- Spectrum MS-NW-8836
##NAMES=HP
##CAS NAME=Cyclohexanol, 4-(1,1-dimethylethyl)-, trans-
##MOLFORM=C10H20O
##CAS REGISTRY NO=21862-63-5
##MP= -300
##BP= -300
##MW= 156
##$RETENTION INDEX=1245
##$CONDENSED SPECTRUM=NO
##NPOINTS= 64
##XYDATA=(XY..XY) 1 
    15          2
    17          2
    18          8
    27         32
    28         10
    29        113
    30          3
    31         11
    39         42
    40          9
    41        270
    42         17
    43         92
    44         17
    45          5
    51          4
    52          2
    53         33
    54         68
    55        159
    56        370
    57        999
    58         45
    59          5
    65          7
    66          6
    67        299
    68         23
    69         54
    70         16
    71          9
    72          2
    77          9
    78          3
    79         44
    80        137
    81        464
    82        243
    83        216
    84         16
    85          2
    91          4
    93          4
    94          9
    95         62
    96         20
    97          8
    98          9
    99        115
   100          9
   101         12
   105          1
   107          3
   108          1
   109          7
   110         24
   111          2
   121          2
   123        156
   124         14
   137          2
   138         79
   139         10
   155          2