##TITLE=Library Entry 84467
##JCAMP-DX=Revision 4.10 
##DATA TYPE=MASS SPECTRUM
##SAMPLE DESCRIPTION=Div. of Experiment Therapeutics WRAIR, WRAMC, Washingto
n DC 20307
##NAMES=HP
##CAS NAME=3-Carbomethoxy-5,5-dimethyl-4-phenyl-2-[N'-[p-methylphenyl]ureido
]-4,5-dhydrofurane
##MOLFORM=C22H24N2O4
##CAS REGISTRY NO=21863-89-8
##MP= -300
##BP= -300
##MW= 380
##$RETENTION INDEX=0
##$CONDENSED SPECTRUM=NO
##NPOINTS= 180
##XYDATA=(XY..XY) 1 
    41         66
    42         13
    43         88
    44         21
    45          5
    47          1
    49          7
    50         13
    51         51
    52         33
    53         42
    54          7
    55         13
    56          3
    57          3
    58         23
    59        103
    60          2
    61          1
    62          3
    63         20
    64          8
    65         76
    66         15
    67         25
    68          5
    69         11
    70         23
    71          3
    72          2
    73         24
    74          4
    75         10
    76         19
    77        200
    78         78
    79         88
    80         14
    81          3
    82          9
    83          8
    84         10
    85          8
    86          7
    87          2
    88          2
    89         21
    90         16
    91        264
    92         24
    93         16
    94          8
    95          6
    96          3
    97          9
    98          2
    99          2
   100          2
   101         16
   102         82
   103         86
   104         79
   105         80
   106        322
   107        999
   108         86
   109          5
   110         12
   111          3
   112          1
   113          3
   114          0
   115         91
   116         45
   117         44
   118         13
   119          8
   120          3
   121         59
   122         11
   123          3
   124          0
   125         10
   126          8
   127         51
   128        192
   129        208
   130        306
   131        298
   132        104
   133        200
   134         47
   135          5
   136          3
   138          6
   139          4
   140          2
   141         62
   142         60
   143        103
   144         52
   145         31
   146         15
   147          7
   148          3
   149         11
   150         10
   151          6
   153         55
   154          8
   155         17
   156         63
   157         35
   158         18
   159         11
   160          5
   161          9
   162         15
   163          2
   167          2
   168          4
   169         42
   170        232
   171         95
   172         74
   173         17
   174         16
   175          5
   176          4
   177          1
   183         21
   184          7
   185          3
   186         16
   188        282
   189         70
   190          9
   196          4
   197         10
   198        337
   199        184
   200         27
   201          4
   202          5
   203         25
   204         70
   205         10
   206          6
   214         11
   215          6
   216          5
   217          2
   229          1
   230          1
   231         16
   232         25
   233          4
   240          7
   241          2
   242          5
   246         20
   247        325
   248        178
   249         26
   250          2
   261          2
   262          1
   272          1
   273          1
   274         33
   275          5
   321          0
   333          1
   347          2
   349         21
   350          4
   380        251
   381         73
   382         12
   383          0