##TITLE=Library Entry 85352
##JCAMP-DX=Revision 4.10 
##DATA TYPE=MASS SPECTRUM
##SAMPLE DESCRIPTION=Japan AIST/NIMC Database- Spectrum MS-NW- 797
##NAMES=HP
##CAS NAME=p-Cresyl glycidyl ether
##MOLFORM=C10H12O2
##CAS REGISTRY NO=2186-24-5
##MP= -300
##BP= -300
##MW= 164
##$RETENTION INDEX=0
##$CONDENSED SPECTRUM=NO
##NPOINTS= 105
##XYDATA=(XY..XY) 1 
    14          3
    15         10
    17          3
    18         14
    25          1
    26         24
    27        211
    28         70
    29        229
    30         10
    31        263
    32         10
    37          6
    38         19
    39        134
    40         13
    41         64
    42         21
    43         38
    44          3
    45          2
    49          4
    50         61
    51        134
    52         71
    53         73
    54          7
    55         29
    56         28
    57        220
    58          8
    59          1
    60          2
    61          7
    62         21
    63         66
    64         17
    65        146
    66         15
    67          5
    68          3
    69          5
    70          7
    71          9
    72          5
    73          3
    74         11
    75          9
    76          9
    77        292
    78         92
    79        164
    80         74
    81          9
    82          3
    83          2
    84          4
    85          3
    86          4
    87          3
    88          1
    89         41
    90         77
    91        613
    92         89
    93        120
    94         11
    95          3
    98          1
   102          3
   103         17
   104          5
   105        118
   106         20
   107        616
   108        999
   109         76
   110          5
   115          9
   116          3
   117          7
   118          3
   119         51
   120         44
   121        321
   122         33
   123          3
   131         11
   132          3
   133         71
   134        130
   135         28
   136          3
   144          2
   145         57
   146         28
   147          5
   148          9
   149          3
   150          1
   162          7
   163          4
   164        938
   165        103
   166          9