##TITLE=Library Entry 63298
##JCAMP-DX=Revision 4.10 
##DATA TYPE=MASS SPECTRUM
##SAMPLE DESCRIPTION=MUS130 A. Mujsce, AT&T Bell Labs., Murray Hill, N.J., U
SA
##NAMES=HP
##CAS NAME=Piperidine, 4,4-dimethoxy-1-(phenylmethyl)-
##MOLFORM=C14H21NO2
##CAS REGISTRY NO=21875-61-6
##MP= -300
##BP= -300
##MW= 235
##$RETENTION INDEX=0
##$CONDENSED SPECTRUM=NO
##NPOINTS= 109
##XYDATA=(XY..XY) 1 
    39         20
    41         19
    42         91
    43         42
    45         11
    50          6
    51         14
    52          4
    53         15
    54         10
    55         28
    56         35
    57         24
    58         10
    59         10
    63         17
    65        106
    66          7
    67          4
    69          4
    70          3
    71          6
    72          5
    73          2
    74          1
    75          3
    76          3
    77         17
    78          8
    79          4
    80          4
    82          5
    83          4
    84          7
    85         23
    86          5
    87          3
    88         18
    89         66
    91        999
    92         96
    93          5
    95          1
    96          8
    97          4
    98         43
    99          7
   101         22
   103          6
   104         26
   105         13
   106          3
   107          1
   109          3
   110          3
   112         23
   113          2
   114          3
   115          5
   116          3
   117         15
   118         33
   119          8
   120         45
   121         35
   122          3
   125          0
   126         41
   127          4
   128          4
   129          3
   130          7
   131          7
   132         16
   133          3
   134          2
   141          1
   142          4
   143          4
   144         11
   146        176
   147         34
   148          2
   158          9
   159          0
   160          1
   161          1
   162          1
   164          1
   170          3
   172        193
   173         40
   174          4
   175          3
   188        512
   189         71
   190         35
   191          4
   192          1
   202         44
   203        125
   204        258
   205         52
   206          5
   209          0
   218          1
   234          7
   235         62
   236         11