##TITLE=Library Entry 60353
##JCAMP-DX=Revision 4.10 
##DATA TYPE=MASS SPECTRUM
##SAMPLE DESCRIPTION=Patti Price, Georgia Bureau of Investigation, Decatur,
 Georgia
##NAMES=HP
##CAS NAME=Dexetimide
##MOLFORM=C23H26N2O2
##CAS REGISTRY NO=21888-98-2
##MP= -300
##BP= -300
##MW= 362
##$RETENTION INDEX=3127
##$CONDENSED SPECTRUM=NO
##NPOINTS= 150
##XYDATA=(XY..XY) 1 
    41         16
    42         70
    43          4
    44         15
    47          1
    50          1
    51         12
    52          5
    53          6
    54          8
    55         44
    56         13
    57          2
    58          1
    59          1
    61          1
    62          1
    63          1
    64          3
    65         61
    66          4
    67          6
    68          6
    69          6
    70          3
    71          1
    72          1
    74          1
    75          1
    76          2
    77         20
    78          8
    79          6
    80         11
    81          1
    82        273
    83         12
    84          3
    85          1
    86          1
    87          1
    89         18
    90          8
    91        999
    92         82
    93          4
    94          1
    95          1
    96         10
    97          2
    98          4
    99          1
   100          1
   101          1
   102          5
   103         11
   104         31
   105         10
   106          9
   107          1
   108          1
   110          1
   113          1
   114          1
   115         32
   116          9
   117         21
   118         19
   119          7
   120         69
   121          8
   126          1
   127          2
   128         16
   129         17
   130          5
   131          4
   132         18
   133          5
   134          8
   135          1
   139          1
   141          8
   142          4
   143          5
   144          6
   145          1
   146         29
   147          3
   148          1
   149          1
   152          1
   153          1
   154          1
   155          2
   156          1
   157          1
   158          9
   159          2
   160          9
   161          1
   162          1
   165          1
   166          1
   168          1
   169          1
   170          9
   171          7
   172        112
   173         35
   174        253
   175         41
   176          1
   179          1
   182          1
   183          1
   184          1
   186          1
   187          1
   188          1
   189          6
   190          1
   199          1
   207          1
   208          1
   209          1
   210          1
   223          1
   241          1
   242          3
   243          1
   248          1
   249          1
   250          1
   251          1
   262          1
   263          1
   271        181
   272         35
   273          1
   276          1
   279          1
   284          1
   285         16
   286          1
   290          1
   361         22
   362         28
   363          7
   364          1