##TITLE=Library Entry 32177
##JCAMP-DX=Revision 4.10 
##DATA TYPE=MASS SPECTRUM
##SAMPLE DESCRIPTION=P. Vainiotalo, Dep. Chem., Joensuu Univ., Joensuu, Finl
and
##NAMES=HP
##CAS NAME=Nortricyclyl formate
##MOLFORM=C8H10O2
##CAS REGISTRY NO=21892-95-5
##MP= -300
##BP= -300
##MW= 138
##$RETENTION INDEX=0
##$CONDENSED SPECTRUM=NO
##NPOINTS= 40
##XYDATA=(XY..XY) 1 
    26         14
    27         81
    29         40
    38         16
    39        170
    41        147
    42         10
    43         33
    44         50
    50         23
    51         53
    52         25
    53        107
    54         87
    55        153
    57         20
    63         22
    65        118
    66        999
    67        222
    68         68
    69         24
    72         10
    77        259
    78         76
    79        356
    80         52
    81        202
    82         56
    83         21
    91        978
    92        923
    93        166
    94         21
    95        152
    96         13
   109         72
   110         54
   138        212
   139         22