##TITLE=Library Entry 86287
##JCAMP-DX=Revision 4.10 
##DATA TYPE=MASS SPECTRUM
##SAMPLE DESCRIPTION=Exported from NIST MS Search
##NAMES=HP
##CAS NAME=Tricyclo[4.3.1.1(3,8)]undecane, 3-methoxy-
##MOLFORM=C12H20O
##CAS REGISTRY NO=21898-92-0
##MP= -300
##BP= -300
##MW= 180
##$RETENTION INDEX=0
##$CONDENSED SPECTRUM=NO
##NPOINTS= 99
##XYDATA=(XY..XY) 1 
    39         50
    40         20
    41        160
    42         40
    43        100
    44         70
    45         70
    46         20
    47         20
    51         20
    52         20
    53         60
    54         40
    55         90
    56         20
    57         30
    58         20
    59         30
    65         40
    66         30
    67        120
    68         30
    69         30
    70         20
    71         30
    72         70
    73         50
    74         20
    75         20
    77         80
    78         40
    79        210
    80         60
    81         80
    82         20
    83         40
    84         50
    85        130
    86         80
    87         40
    88         30
    92        130
    93         70
    94        160
    95         70
    96        100
    97         40
    98         80
    99         20
   100         20
   103         10
   104         20
   105         60
   106        100
   107         70
   108         80
   109        999
   110        130
   111         40
   112         10
   113         10
   115         10
   117         10
   118         10
   119         40
   120         20
   121         30
   122         30
   123        420
   124        130
   125         40
   126         10
   131         10
   133         50
   134         10
   135         90
   136         30
   137         70
   138         60
   139         30
   140         10
   147         10
   148         70
   149        120
   150         30
   151         30
   152         10
   153         10
   162         10
   163         10
   164         10
   165         20
   166         10
   167         10
   178         10
   179         10
   180        260
   181         40
   182         10