##TITLE=Library Entry 60668
##JCAMP-DX=Revision 4.10 
##DATA TYPE=MASS SPECTRUM
##SAMPLE DESCRIPTION=CONTINENTAL OIL CO., PONCA CITY, OKLA, USA
##NAMES=HP
##CAS NAME=Benzene, octyl-
##MOLFORM=C14H22
##CAS REGISTRY NO=2189-60-8
##MP= -300
##BP= -300
##MW= 190
##$RETENTION INDEX=1467
##$CONDENSED SPECTRUM=NO
##NPOINTS= 92
##XYDATA=(XY..XY) 1 
    27         69
    28         14
    29         82
    30          1
    37          0
    38          2
    39         57
    40          7
    41        106
    42         14
    43         85
    44          3
    50          6
    51         25
    52          7
    53         10
    54          3
    55         29
    56         13
    57        121
    58          5
    62          1
    63         12
    64          4
    65         66
    66          5
    67          3
    68          1
    69         10
    70          7
    71          2
    72          0
    74          1
    75          2
    76          2
    77         41
    78         53
    79         30
    80          5
    81          1
    82          0
    83          2
    84          1
    85          0
    86          0
    87          1
    88          1
    89         18
    90         14
    91        999
    92        915
    93         74
    94          5
    95          0
    96          0
    97          0
    98          2
   101          1
   102          6
   103         28
   104         63
   105        111
   106         18
   107          1
   115         16
   116          5
   117         20
   118          6
   119         19
   120          5
   124          0
   127          1
   128          3
   129          2
   130          0
   131          1
   132          1
   133         46
   134         10
   135          1
   136          1
   147          9
   148          2
   149          0
   161          1
   162          0
   175          0
   188          3
   189          1
   190        255
   191         39
   192          2