##TITLE=Library Entry 66962
##JCAMP-DX=Revision 4.10 
##DATA TYPE=MASS SPECTRUM
##SAMPLE DESCRIPTION=CARL DJERASSI DEPT OF CHEM STANFORD UNIV STANFORD CALIF
 94305
##NAMES=HP
##CAS NAME=Benzene, (2,2-dimethylpropoxy)-
##MOLFORM=C11H16O
##CAS REGISTRY NO=2189-88-0
##MP= -300
##BP= -300
##MW= 164
##$RETENTION INDEX=0
##$CONDENSED SPECTRUM=NO
##NPOINTS= 36
##XYDATA=(XY..XY) 1 
    40         10
    41        133
    42         33
    43        270
    44         10
    45         20
    50         10
    51         60
    52          3
    53         10
    55        170
    56         23
    57         63
    58         33
    59         66
    63         10
    64          6
    65         43
    66         26
    69         10
    70        146
    71         73
    72          6
    77        100
    78         20
    79          6
    89          3
    91          6
    93          3
    94        999
    95         80
   107         23
   108         10
   149         43
   164        156
   165         13