##TITLE=Library Entry 84689
##JCAMP-DX=Revision 4.10 
##DATA TYPE=MASS SPECTRUM
##SAMPLE DESCRIPTION=V.A.Korolev, Moscow, Russia
##NAMES=HP
##CAS NAME=(1-Methyl pyrrol-2-yl)(oxo)acetic acid
##MOLFORM=C7H7NO3
##CAS REGISTRY NO=21898-43-1
##MP= -300
##BP= -300
##MW= 153
##$RETENTION INDEX=0
##$CONDENSED SPECTRUM=NO
##NPOINTS= 42
##XYDATA=(XY..XY) 1 
    36          4
    37         56
    38        102
    39        232
    40         28
    41         24
    42         49
    44         13
    45        619
    49         19
    50         67
    51         77
    52         80
    53        343
    54         42
    55         13
    62          4
    63         19
    64         77
    65         44
    66         15
    67          8
    75          3
    76          6
    77          9
    78         50
    79         33
    80        240
    81         17
    93         24
    94          1
   107          3
   108        999
   109         71
   110          4
   136         15
   137          3
   138         10
   139          1
   153        209
   154         17
   155          2