##TITLE=Library Entry 24121
##JCAMP-DX=Revision 4.10 
##DATA TYPE=MASS SPECTRUM
##SAMPLE DESCRIPTION=R.T.HOLMAN,UNIVERSITY OF MINNESOTA
##NAMES=HP
##CAS NAME=Octadecanoic acid, 2-[(1-oxohexadecyl)oxy]-1,3-propanediyl ester
##MOLFORM=C55H106O6
##CAS REGISTRY NO=2190-24-1
##MP= -300
##BP= -300
##MW= 862
##$RETENTION INDEX=0
##$CONDENSED SPECTRUM=NO
##NPOINTS= 336
##XYDATA=(XY..XY) 1 
    26         10
    27         65
    28         38
    29        180
    30          8
    31         12
    32          6
    36         14
    38          6
    39         40
    40         14
    41        404
    42        100
    43        872
    44         34
    45         25
    51          6
    53         21
    54         51
    55        723
    56        153
    57        999
    58         65
    59         25
    60        302
    61        102
    62          6
    63          4
    65          6
    66          8
    67        110
    68         65
    69        404
    70        110
    71        574
    72         38
    73        361
    74         46
    75         10
    76          4
    77          8
    78          6
    79         27
    80         17
    81        136
    82         63
    83        351
    84        210
    85        382
    86         31
    87         63
    88         12
    91          8
    92          6
    93         27
    94         17
    95        165
    96         57
    97        261
    98        361
    99        108
   100         38
   101         44
   102         17
   103          6
   104          4
   105          6
   106          4
   107         21
   108         12
   109         91
   110         29
   111        136
   112        117
   113         74
   114         14
   115         51
   116         55
   117         23
   118          6
   119          6
   120          4
   121         29
   122         10
   123         48
   124         17
   125         48
   126         29
   127         31
   128         10
   129        165
   130         21
   131          6
   133          6
   134          6
   135         25
   136          8
   137         25
   138         12
   139         23
   140         17
   141         23
   142          8
   143         23
   144          6
   145          4
   147          6
   148          4
   149         17
   150          6
   151         12
   152         10
   153         14
   154         19
   155         19
   156          8
   157         19
   158        117
   159         21
   160          6
   163          8
   165         10
   166          8
   167         12
   168         12
   169         14
   170         14
   171        221
   172         36
   173         10
   177          6
   178          4
   179          6
   180          8
   181          8
   182         10
   183         48
   184         12
   185         89
   186         17
   187          6
   191          6
   192          4
   193          6
   194         10
   195         10
   196         10
   197         17
   198          6
   199         29
   200         10
   201          6
   205          6
   209          8
   210         10
   211         14
   212          6
   213         53
   214         12
   215          4
   219          6
   220          4
   221          6
   222         10
   223          8
   224          8
   225         17
   226          6
   227         82
   228         17
   229          6
   236          6
   237         10
   238         19
   239        289
   240         57
   241         68
   242         17
   243          6
   247          6
   248          6
   249          6
   250          4
   251          4
   252          4
   253         17
   254          8
   255         29
   256         19
   257          8
   264         10
   265         12
   266         31
   267        263
   268         53
   269         29
   270         10
   271          4
   279          4
   280          6
   281         19
   282          8
   283         27
   284         53
   285         17
   286          4
   293          4
   294          4
   295         14
   296         12
   297         31
   298         10
   299          6
   308         12
   309         17
   310          8
   311         40
   312         17
   313        106
   314         25
   315          8
   321          4
   322          6
   323         10
   324          8
   325         31
   326         10
   327          8
   331          6
   336          6
   337          8
   338          6
   339         46
   340         21
   341        187
   342         46
   343         10
   344          4
   351          6
   352          6
   353         17
   354         48
   355         31
   356         10
   357          4
   359          8
   360          4
   365         10
   366          6
   367        312
   368         82
   369         19
   370          6
   379          6
   380          6
   381         25
   382         70
   383         51
   384         12
   385          4
   393         12
   394          8
   395        659
   396        187
   397         36
   398          8
   407          6
   408          6
   409         68
   410         23
   411          8
   421          8
   422          6
   423         87
   424         31
   425         10
   435          6
   437         76
   438         27
   439          8
   440          2
   449          6
   451        170
   452         63
   453         14
   454          4
   465         38
   466         17
   467          6
   479         51
   480         21
   481          6
   493         53
   494         23
   495         10
   504          6
   505          6
   507         42
   508         21
   509          8
   521         31
   522         17
   523          8
   533          6
   535        125
   536         53
   537         14
   538          4
   549         48
   550         25
   551         10
   552          4
   563         38
   564         19
   565         14
   566          8
   577         40
   578        131
   579        272
   580        106
   581         27
   582          8
   591          4
   592          2
   593          2
   604          6
   605         17
   606         46
   607        112
   608         48
   609         12
   610          4
   620          8
   621          4
   623          6
   624          2