##TITLE=Library Entry 89719
##JCAMP-DX=Revision 4.10 
##DATA TYPE=MASS SPECTRUM
##SAMPLE DESCRIPTION=Chemical Concepts
##NAMES=HP
##CAS NAME=Piperidine, 1-(1-methylpentyl)-
##MOLFORM=C11H23N
##CAS REGISTRY NO=21901-99-5
##MP= -300
##BP= -300
##MW= 169
##$RETENTION INDEX=0
##$CONDENSED SPECTRUM=NO
##NPOINTS= 69
##XYDATA=(XY..XY) 1 
    26          3
    27         35
    28         32
    29         43
    30         21
    31          1
    38          1
    39         25
    40          4
    41        111
    42         50
    43         41
    44         34
    45          3
    49          4
    50          1
    51          2
    52          1
    53          8
    54         15
    55         59
    56         67
    57         17
    58         10
    65          2
    66          1
    67          7
    68         10
    69         35
    70         12
    71          2
    77          1
    79          1
    80          3
    81          1
    82         10
    83          7
    84         50
    85          9
    86          3
    91          7
    92          5
    94          1
    95          1
    96         14
    97          3
    98         15
    99          1
   108          1
   110         20
   111          9
   112        999
   113        102
   114          4
   122          0
   124         14
   125          2
   126          4
   127          1
   138          1
   140          1
   152          3
   153          1
   154        128
   155         15
   167          1
   168         10
   169         27
   170          3