##TITLE=Library Entry 12751
##JCAMP-DX=Revision 4.10 
##DATA TYPE=MASS SPECTRUM
##SAMPLE DESCRIPTION=Japan AIST/NIMC Database- Spectrum MS-NW-8660
##NAMES=HP
##CAS NAME=2-Propanone, 1-[3-(trifluoromethyl)phenyl]-
##MOLFORM=C10H9F3O
##CAS REGISTRY NO=21906-39-8
##MP= -300
##BP= -300
##MW= 202
##$RETENTION INDEX=0
##$CONDENSED SPECTRUM=NO
##NPOINTS= 95
##XYDATA=(XY..XY) 1 
    14          1
    15         11
    18          1
    27          5
    28          3
    29          1
    31          1
    37          1
    38          5
    39         16
    40          1
    41          1
    42          5
    43        999
    44         22
    45          4
    50          9
    51         11
    52          2
    57          6
    59          1
    60          1
    61          2
    62          9
    63         22
    64          5
    65          3
    69          6
    70          3
    74          4
    75         11
    76          2
    77          4
    79          1
    81          3
    83          9
    85          1
    86          2
    87          4
    88          5
    89         20
    90          9
    91         11
    92          1
    93          1
    94          1
    95          5
    96          2
    99          6
   100          1
   101          3
   102          1
   103          1
   105          1
   107          6
   108          4
   109         49
   110          4
   112          1
   113          5
   114          7
   115          2
   116          5
   117          1
   119         23
   120          5
   121          1
   125          3
   126          1
   127          4
   132          2
   133          6
   137          2
   138          6
   139          9
   140         23
   141          2
   145         15
   146          2
   151          2
   153          1
   157          2
   158          8
   159        106
   160         11
   171          1
   173         21
   174          5
   183         38
   184          4
   185          3
   186          1
   190          5
   202         24
   203          3