##TITLE=Library Entry 109014
##JCAMP-DX=Revision 4.10 
##DATA TYPE=MASS SPECTRUM
##SAMPLE DESCRIPTION=Exported from NIST MS Search
##NAMES=HP
##CAS NAME=Ergosta-2,24-dien-26-oic acid, 18-(acetyloxy)-5,6-epoxy-4,22-dihy
droxy-1-oxo-, .delta.-lactone, (4.beta.,5.beta.,6.beta.,22R)-
##MOLFORM=C30H40O7
##CAS REGISTRY NO=21902-99-8
##MP= -300
##BP= -300
##MW= 512
##$RETENTION INDEX=0
##$CONDENSED SPECTRUM=NO
##NPOINTS= 236
##XYDATA=(XY..XY) 1 
    41        177
    42         23
    43        354
    44         23
    45         15
    53         63
    54         23
    55        126
    56         59
    57         47
    65         23
    66         15
    67        141
    68         55
    69         94
    71         15
    77         70
    78         23
    79        118
    80         23
    81         98
    82         23
    83         39
    84         31
    85         31
    86         23
    91        141
    92         31
    93         86
    94         23
    95         78
    96        118
    97        177
    98         23
    99         15
   103         15
   104         23
   105        118
   106         39
   107         86
   108         31
   109        118
   110         31
   111         55
   112         19
   113         19
   115         23
   116          7
   117        126
   118         31
   119         78
   120         23
   121         78
   122         23
   123         78
   124        299
   125        999
   126        149
   127         31
   128         31
   129         59
   130         39
   131        181
   132         47
   133         94
   134         23
   135         63
   136         31
   137         78
   138         23
   139         31
   140          7
   141         39
   142         23
   143         78
   144         39
   145        102
   146         47
   147         86
   148         23
   149         39
   150         31
   151         39
   152         39
   153         86
   154         31
   155        102
   156         31
   157        133
   158         47
   159        102
   160         39
   161         70
   162         19
   163         39
   165         19
   166          7
   167         19
   168         19
   169         47
   170         23
   171         78
   172         31
   173         70
   174         39
   175         78
   176         23
   177         31
   178          7
   179          7
   180          7
   181         78
   182         15
   183         39
   184         19
   185         47
   186         23
   187         59
   188         19
   189         27
   193          7
   195         31
   196         15
   197         39
   198          7
   199         39
   200          7
   201         39
   203         15
   207          7
   209         23
   211         39
   212          7
   213         39
   215         23
   217          7
   219         19
   221         23
   223         31
   224         15
   225         23
   226         15
   227         23
   233         15
   235         23
   237         31
   239         39
   241         23
   249         31
   251         23
   253         31
   254         15
   255         23
   263         31
   264         15
   265         31
   266          7
   267         55
   268          7
   269          7
   271          7
   279         23
   280         31
   281         47
   282         15
   283         23
   285        118
   286         39
   287         15
   293         23
   295         15
   297         23
   298          7
   299         23
   300         15
   301         15
   311         70
   312         23
   313         15
   329         55
   330         15
   343          7
   346         23
   347         63
   348         15
   360         23
   389        149
   390         39
   401          7
   402          3
   403         11
   404          3
   405          7
   406          7
   407          3
   408          3
   409          3
   410          3
   416         11
   417          7
   418          7
   419         11
   420          3
   421         15
   422          7
   423          3
   424          3
   434         47
   435         15
   436         11
   437          7
   439          3
   440          3
   446         39
   447         15
   448          3
   450          3
   451          3
   452         19
   453          7
   454          3
   455          7
   456          3
   466          3
   468          3
   469         11
   470         11
   471          3
   484          3
   494         19
   495          7
   496          7
   497          3
   512         23
   513          7
   514          3