##TITLE=Library Entry 15805
##JCAMP-DX=Revision 4.10 
##DATA TYPE=MASS SPECTRUM
##SAMPLE DESCRIPTION=Div. of Experiment Therapeutics WRAIR, WRAMC, Washingto
n DC 20307
##NAMES=HP
##CAS NAME=Bis[trifluoromethyl]hydroxy-2-(aminoethylthio)methane zwitterion
##MOLFORM=C5H7F6NOS
##CAS REGISTRY NO=21918-92-3
##MP= -300
##BP= -300
##MW= 243
##$RETENTION INDEX=0
##$CONDENSED SPECTRUM=NO
##NPOINTS= 114
##XYDATA=(XY..XY) 1 
    42        200
    43        147
    44        999
    45        282
    46         87
    47         83
    48         30
    50         79
    51        215
    52          1
    55          4
    56          7
    57         12
    58         19
    59        178
    60         41
    61         71
    62          2
    63         11
    64         18
    65         62
    66          2
    67         31
    69        472
    71         13
    72          4
    73          1
    74         23
    75        126
    76         44
    77        478
    78         59
    79         48
    81         35
    82          1
    83          3
    84          1
    86          4
    87          8
    88         10
    89          1
    90          2
    91          5
    92         20
    93         16
    94         29
    95        125
    97        252
    98          1
    99          4
   100          8
   102          9
   104          0
   105          4
   106         78
   108         37
   109        317
   110         11
   111         25
   113          5
   115        116
   117         24
   118          2
   119         14
   123         50
   125         11
   126          9
   128         23
   129        155
   131         34
   134          1
   135         48
   136          7
   137          4
   140          7
   142          3
   145          7
   147        105
   148          1
   149          1
   152          5
   153         73
   155          8
   156         21
   157          5
   159         36
   166         14
   167          6
   170          4
   172          3
   174          2
   176          1
   178         77
   179          1
   181         19
   184          4
   192         19
   196        110
   197          2
   199          1
   202          1
   204          5
   206          0
   207          7
   210         27
   211          1
   222          1
   224          4
   226          3
   227          1
   228          0
   242          2
   243          6
   244          1