##TITLE=Library Entry 56253
##JCAMP-DX=Revision 4.10 
##DATA TYPE=MASS SPECTRUM
##SAMPLE DESCRIPTION=Div. of Experiment Therapeutics WRAIR, WRAMC, Washingto
n DC 20307
##NAMES=HP
##CAS NAME=2-Hydroxy-3-[3-diethylaminopropyl]-5-[t-butyl]biphenyl
##MOLFORM=C23H33NO
##CAS REGISTRY NO=21912-04-9
##MP= -300
##BP= -300
##MW= 339
##$RETENTION INDEX=0
##$CONDENSED SPECTRUM=NO
##NPOINTS= 90
##XYDATA=(XY..XY) 1 
    41         30
    42         15
    43         11
    44         20
    45          1
    49          2
    51          1
    53          2
    55          7
    56         17
    57         58
    58         81
    59          3
    65          2
    67          1
    69          2
    70          5
    71          8
    72        106
    73          4
    74          3
    77          5
    78          1
    79          2
    81          1
    82          1
    83          3
    84         12
    85          5
    86        999
    87         55
    88          1
    89          1
    91         11
    95          1
    97          2
    98         12
    99          3
   100          7
   102          1
   103          2
   105          2
   111          1
   112          3
   113         10
   114          1
   115          7
   117          2
   127          3
   128          2
   129          1
   133          1
   139          1
   141         10
   148          5
   152          4
   153          2
   155         27
   161          5
   162          6
   165         10
   166          3
   167          2
   168          1
   169          1
   178          6
   179          2
   180          1
   181          6
   182          1
   183          6
   184          4
   191          1
   194          1
   195          2
   204          5
   205          1
   207          1
   208          1
   209          2
   218          2
   219          3
   223          4
   237          1
   239          2
   251          9
   252          1
   324          1
   339         18
   340          4