##TITLE=Library Entry 38315
##JCAMP-DX=Revision 4.10 
##DATA TYPE=MASS SPECTRUM
##SAMPLE DESCRIPTION=James Little,Eastman Chem.Co.,Kingsport,TN
##NAMES=HP
##CAS NAME=Oxirane, 3-hydroxypropyl-
##MOLFORM=C5H10O2
##CAS REGISTRY NO=21915-56-0
##MP= -300
##BP= -300
##MW= 102
##$RETENTION INDEX=0
##$CONDENSED SPECTRUM=NO
##NPOINTS= 29
##XYDATA=(XY..XY) 1 
    13         16
    14         43
    16         19
    17         80
    26         28
    27        257
    29        179
    31        209
    39        140
    41        325
    42        129
    43        606
    44        109
    45         20
    53         15
    55         21
    57         41
    58         11
    60          6
    61         15
    69         11
    70         88
    71        999
    72         50
    83          4
    84         11
   101          3
   102         11
   103          5