##TITLE=Library Entry 83735
##JCAMP-DX=Revision 4.10 
##DATA TYPE=MASS SPECTRUM
##SAMPLE DESCRIPTION=P.A. Leclercq, Lab. Instrum. Anal., Tech. Univ. Eindhov
en, Netherlands
##NAMES=HP
##CAS NAME=Oxiranemethanol, 3-phenyl-
##MOLFORM=C9H10O2
##CAS REGISTRY NO=21915-53-7
##MP= -300
##BP= -300
##MW= 150
##$RETENTION INDEX=0
##$CONDENSED SPECTRUM=NO
##NPOINTS= 58
##XYDATA=(XY..XY) 1 
    15        170
    16         12
    17          8
    18         18
    19         11
    26         56
    27        191
    28         15
    29        289
    31        389
    37         35
    38        108
    39        424
    40         55
    41         54
    42         32
    43        175
    44        149
    45         13
    50        218
    51        445
    52         89
    53         23
    55         19
    61         30
    62        120
    63        341
    64        120
    65        339
    66         26
    73          9
    74         50
    75         39
    77        525
    78        169
    79        773
    80         50
    86         20
    87         15
    89        802
    90        826
    91        836
    92        103
    93         24
   103        133
   104        451
   105        408
   107        999
   108         82
   115         13
   119        245
   120        109
   121         23
   131        174
   132        241
   133         56
   150         20
   151          2