##TITLE=Library Entry 92661
##JCAMP-DX=Revision 4.10 
##DATA TYPE=MASS SPECTRUM
##SAMPLE DESCRIPTION=NIST Mass Spectrometry Data Center
##NAMES=HP
##CAS NAME=Estrone, heptafluorobutyrate
##MOLFORM=C22H21F7O3
##CAS REGISTRY NO=2192-60-1
##MP= -300
##BP= -300
##MW= 466
##$RETENTION INDEX=2495
##$CONDENSED SPECTRUM=NO
##NPOINTS= 372
##XYDATA=(XY..XY) 1 
    15          2
    20          4
    25          1
    26          4
    27         41
    28         43
    29         58
    30          2
    31          6
    37          1
    38          3
    39         86
    40         21
    41        282
    42         41
    43         66
    44         14
    45          5
    50         14
    51         35
    52         18
    53        135
    54         30
    55        369
    56         33
    57         44
    58          3
    59          1
    62          5
    63         25
    64         13
    65         89
    66         27
    67        270
    68         55
    69        768
    70         16
    71         13
    72          2
    73          3
    74          5
    75          8
    76         19
    77        184
    78         85
    79        206
    80         30
    81        213
    82         53
    83         59
    84         11
    85         20
    86          2
    87          3
    88          4
    89         47
    90         17
    91        343
    92         44
    93        134
    94         46
    95        141
    96         34
    97        633
    98         60
    99          7
   100         71
   101         13
   102         53
   103        122
   104         70
   105        118
   106         27
   107        156
   108         25
   109        112
   110        121
   111         34
   112          6
   113          8
   114         23
   115        999
   116        228
   117        214
   118         28
   119        133
   120         16
   121         63
   122         10
   123         70
   124         17
   125          3
   126         16
   127        406
   128        573
   129        453
   130        110
   131        144
   132         38
   133         94
   134         13
   135         17
   136          4
   137          9
   138          7
   139         47
   140         69
   141        628
   142        168
   143        195
   144         84
   145        177
   146         39
   147         24
   148          4
   149         22
   150         22
   151         28
   152        145
   153        221
   154        104
   155        215
   156         69
   157        174
   158         73
   159        108
   160         17
   161          6
   162          2
   163         20
   164         13
   165        171
   166         77
   167        132
   168         51
   169        756
   170         56
   171         80
   172         19
   173         10
   174          2
   175          2
   176          6
   177         16
   178         65
   179         80
   180         32
   181         75
   182         31
   183         52
   184         25
   185         47
   186         10
   187          4
   188          1
   189          6
   190          7
   191         18
   192         13
   193         67
   194         23
   195         41
   196         32
   197        105
   198         28
   199         14
   200          2
   201          2
   202          3
   203          2
   204          2
   205         12
   206          4
   207         10
   208          8
   209         51
   210         16
   211         23
   212         14
   213         10
   214          2
   215          1
   217          2
   218          2
   219         15
   220          3
   221          3
   222          3
   223          8
   224          2
   225         11
   226          3
   227          6
   228          1
   230          1
   231          2
   232          1
   233          4
   234          8
   235         90
   236         19
   237          3
   238          1
   239          2
   241          4
   242          1
   245          1
   246          1
   247          1
   248          1
   250          1
   251         10
   252         19
   253        229
   254         43
   255          6
   256          1
   259          1
   263          1
   265          1
   269          3
   270          2
   275          4
   276          1
   277          2
   279          2
   280          1
   281          3
   283          4
   285          2
   287          1
   289          2
   290          1
   291          1
   292          1
   293          1
   295          1
   297          2
   299          3
   300          1
   301          1
   303         21
   304          2
   305          1
   306          1
   307          1
   309          4
   310          1
   311          1
   312          2
   313          3
   314          4
   315          1
   316         21
   317         10
   318          2
   321          1
   323          1
   324          1
   325          3
   326          1
   327         17
   328         15
   329         93
   330         16
   331          3
   332          1
   333          1
   334          1
   335          2
   336          1
   337          2
   338          1
   339          1
   340         42
   341         68
   342        115
   343         32
   344          5
   345          1
   346          1
   349          1
   351          1
   352          1
   353        177
   354        192
   355        215
   356        308
   357         60
   358          9
   359          3
   361          1
   362          1
   363          2
   364          1
   365          2
   366         37
   367         55
   368        237
   369         56
   370         28
   371          8
   373          2
   375          3
   376          1
   377          3
   378          2
   379         13
   380         17
   381         71
   382         76
   383         18
   384          4
   385          1
   387          3
   389          8
   390          2
   391         16
   392         13
   393         27
   394         34
   395        125
   396         37
   397          7
   398          1
   399          1
   401          1
   402          1
   403          3
   404          1
   405         30
   406         62
   407        226
   408         59
   409        439
   410        270
   411         49
   412          5
   413          1
   415          2
   419         19
   420         38
   421         14
   422        714
   423        169
   424         42
   425          8
   426          1
   429          8
   430          2
   431          2
   433         71
   434         15
   435          5
   436          2
   437         12
   438         18
   439          4
   446          1
   447         11
   448         97
   449         26
   450          5
   451          9
   452          1
   453          1
   463          1
   464          5
   466        715
   467        173
   468         23
   469          3