##TITLE=Library Entry 20990
##JCAMP-DX=Revision 4.10 
##DATA TYPE=MASS SPECTRUM
##SAMPLE DESCRIPTION=Exported from NIST MS Search
##NAMES=HP
##CAS NAME=Pregnan-20-one, 5,6-epoxy-3-hydroxy-, (3.beta.,5.alpha.,6.alpha.)
-
##MOLFORM=C21H32O3
##CAS REGISTRY NO=2193-00-2
##MP= -300
##BP= -300
##MW= 332
##$RETENTION INDEX=0
##$CONDENSED SPECTRUM=NO
##NPOINTS= 260
##XYDATA=(XY..XY) 1 
    50         36
    51         51
    52        102
    53        615
    54        108
    55        999
    56         62
    57        161
    58         44
    59         19
    60         10
    61          4
    62         10
    63         87
    64         27
    65        280
    66        126
    67        699
    68        170
    69        239
    70         34
    71        465
    72         28
    73         10
    74         10
    75         21
    76         21
    77        633
    78        172
    79        885
    80        160
    81        670
    82         93
    83        140
    84        202
    85        257
    86         26
    87          9
    88          5
    89         33
    90         15
    91        910
    92        203
    93        819
    94        335
    95        760
    96        114
    97         90
    98         29
    99         19
   100         13
   101         13
   102         20
   103         87
   104         70
   105        602
   106        162
   107        590
   108        243
   109        287
   110         83
   111        119
   112          2
   113          2
   114          3
   115        167
   116         74
   117        230
   118        232
   119        453
   120        232
   121        370
   122        233
   123        282
   124        103
   125         50
   126         14
   127         51
   128        155
   129        160
   130         59
   131        243
   132        100
   133        435
   134        183
   135        363
   136        145
   137        140
   138         53
   139         75
   140         23
   141        128
   142         70
   143        180
   144         69
   145        251
   146         75
   147        273
   148         92
   149        227
   150         51
   151         59
   152         33
   153         35
   154         35
   155         67
   156         39
   157        142
   158         70
   159        288
   160         74
   161        275
   162         70
   163        121
   164         26
   165         41
   166         13
   167         25
   168         13
   169         47
   170         22
   171         84
   172         34
   173        131
   174         61
   175        137
   176         48
   177        132
   178         51
   179         62
   180         26
   181         29
   182         11
   183         51
   184         22
   185         45
   186         25
   187        131
   188         30
   189         66
   190         32
   191         64
   192         57
   193         34
   194         14
   195         17
   196          9
   197         49
   198         17
   199         68
   200         29
   201        202
   202         51
   203         49
   204         18
   205         71
   206         18
   207         16
   208          4
   209         20
   210          9
   211        139
   212         33
   213         59
   214         16
   215         82
   216         43
   217         36
   218         31
   219         27
   220          9
   221         22
   222          5
   223         18
   224          6
   225         42
   226         25
   227         94
   228         45
   229        170
   230         41
   231         70
   232         19
   233         35
   234          9
   235          6
   236          3
   237         17
   238         14
   239         30
   240          7
   241         51
   242         24
   243        142
   244        112
   245         72
   246         15
   247         65
   248         23
   249         10
   251         14
   252         13
   253        105
   254         36
   255         50
   256         44
   257         64
   258         22
   259         33
   260         25
   261        147
   262         45
   263         27
   264          4
   265          2
   267         82
   268         34
   269         22
   270         50
   271        249
   272        131
   273         37
   274         33
   275         42
   276          8
   277          5
   278         12
   279          9
   280          6
   281        133
   282         33
   283         29
   284         21
   285        500
   286        511
   287        121
   288         69
   289         46
   290          9
   296        304
   297         88
   298         45
   299        283
   300         65
   301         20
   302          4
   303         23
   304         13
   312         20
   313          6
   314        677
   315        160
   316         26
   317         75
   318         16
   330         17
   331          3
   332        397
   333         92
   334         13