##TITLE=Library Entry 20669
##JCAMP-DX=Revision 4.10 
##DATA TYPE=MASS SPECTRUM
##SAMPLE DESCRIPTION=Japan AIST/NIMC Database- Spectrum MS-NW-8407
##NAMES=HP
##CAS NAME=Octane, 2,3-dichloro-
##MOLFORM=C8H16Cl2
##CAS REGISTRY NO=21948-47-0
##MP= -300
##BP= -300
##MW= 182
##$RETENTION INDEX=0
##$CONDENSED SPECTRUM=NO
##NPOINTS= 94
##XYDATA=(XY..XY) 1 
    15          4
    26          9
    27        198
    28         25
    29        202
    30          4
    35          2
    36         18
    37          2
    38          9
    39        141
    40         23
    41        508
    42        114
    43        500
    44         16
    45         15
    49         15
    50          5
    51         20
    52          7
    53         79
    54         56
    55        999
    56        294
    57        178
    58          8
    59          2
    61          5
    62         26
    63         82
    64          9
    65         34
    66          6
    67         90
    68        353
    69        323
    70        111
    71         29
    72          2
    73          9
    74          1
    75         53
    76         85
    77         81
    78         29
    79         29
    80          9
    81        281
    82         74
    83        583
    84         64
    85          4
    87          2
    88          3
    89         53
    90         76
    91         38
    92         24
    93          8
    95         95
    96          7
    97         14
    98          1
   101          1
   102          2
   103         34
   104         28
   105         14
   106          9
   107          1
   109         10
   110        145
   111        218
   112         20
   113          1
   116          1
   117         45
   118         24
   119         23
   120          8
   121          3
   129          1
   139         18
   140          1
   141         10
   143          2
   145          2
   146          2
   153         27
   154          2
   155         17
   156          1
   157          3