##TITLE=Library Entry 9621
##JCAMP-DX=Revision 4.10 
##DATA TYPE=MASS SPECTRUM
##SAMPLE DESCRIPTION=J. Klune, Insect Chem. Ecol. Lab., USDA, Beltsville, MD
 20705
##NAMES=HP
##CAS NAME=E-10-Octadecen-1-ol acetate
##MOLFORM=C20H38O2
##CAS REGISTRY NO=2195-92-8
##MP= -300
##BP= -300
##MW= 310
##$RETENTION INDEX=0
##$CONDENSED SPECTRUM=NO
##NPOINTS= 230
##XYDATA=(XY..XY) 1 
    41        454
    42        104
    43        999
    44         30
    45         11
    51          4
    52          4
    53         52
    54        305
    55        584
    56        145
    57        242
    58         22
    59         18
    61        114
    62          2
    63          1
    65         17
    66         47
    67        452
    68        356
    69        366
    70        103
    71        102
    72         10
    73         29
    74          2
    75          2
    77         15
    78          5
    79         62
    80         59
    81        424
    82        681
    83        316
    84         59
    85        141
    86         14
    87         14
    88          2
    89          2
    91         12
    92          3
    93         25
    94         32
    95        376
    96        606
    97        227
    98         44
    99         35
   100          8
   101         18
   102          2
   103          4
   104          1
   105          5
   106          2
   107         12
   108         17
   109        211
   110        243
   111         93
   112         17
   113         12
   114          7
   115          7
   116          4
   117          6
   118          1
   119          4
   120          2
   121         15
   122         19
   123        133
   124        169
   125         42
   126         11
   127         12
   128          5
   129          8
   130          2
   131          4
   132          1
   133          3
   134          1
   135         11
   136         14
   137         75
   138        102
   139         20
   140          6
   141          9
   142          8
   143         12
   144          3
   145          5
   146          1
   147          2
   149         11
   150          7
   151         31
   152        102
   153         20
   154          8
   155         11
   156          7
   157          6
   158          3
   159          6
   161          1
   163          3
   164          4
   165         19
   166         30
   167         11
   168         10
   169         13
   170          5
   171          6
   172          2
   173          4
   175          1
   176          1
   177          2
   178          5
   179         15
   180         23
   181          9
   182          4
   183         12
   184          4
   185          4
   186          1
   187          3
   189          2
   190          1
   191          2
   192          2
   193         15
   194         23
   195          8
   196          3
   197          4
   198          3
   199          5
   200          1
   201          3
   203          1
   205          2
   206          2
   207          9
   208         14
   209          6
   210          5
   211          5
   212          3
   213          7
   214          2
   215          7
   216          1
   217          1
   219          1
   220          2
   221          7
   222         30
   223          8
   224          6
   225          3
   226          3
   227          4
   228          3
   229          5
   230          1
   231          1
   232          1
   233          1
   234          2
   235          2
   236          7
   237          2
   238          9
   239          8
   240          4
   241          3
   242          4
   243          2
   244          1
   245          1
   246          1
   247          1
   248          2
   249          5
   250        296
   251         61
   252         11
   253          3
   254          3
   255          2
   256          2
   257          2
   258          2
   259          1
   260          1
   262          1
   264          3
   265          1
   266          3
   267          5
   268          3
   269          2
   270          2
   271          2
   272          2
   273          1
   274          1
   278          2
   279          1
   280          2
   281          1
   282          2
   283          1
   284          1
   286          1
   288          1
   292          1
   295          1
   308          3
   309          6
   310         14
   311          3