##TITLE=Library Entry 9620
##JCAMP-DX=Revision 4.10 
##DATA TYPE=MASS SPECTRUM
##SAMPLE DESCRIPTION=J. Klune, Insect Chem. Ecol. Lab., USDA, Beltsville, MD
 20705
##NAMES=HP
##CAS NAME=E-8-Octadecacen-1-ol acetate
##MOLFORM=C20H38O2
##CAS REGISTRY NO=2195-90-6
##MP= -300
##BP= -300
##MW= 310
##$RETENTION INDEX=0
##$CONDENSED SPECTRUM=NO
##NPOINTS= 223
##XYDATA=(XY..XY) 1 
    41        463
    42        105
    43        999
    44         50
    45         14
    47          1
    51          4
    52          4
    53         53
    54        259
    55        551
    56        158
    57        247
    58         23
    59         11
    61        118
    62          2
    63          1
    65         17
    66         54
    67        485
    68        332
    69        333
    70        102
    71        148
    72         13
    73         25
    74          2
    75          1
    77         18
    78          7
    79         77
    80         73
    81        453
    82        762
    83        352
    84         70
    85        189
    86         22
    87         12
    88          1
    89          2
    91         17
    92          4
    93         40
    94         44
    95        388
    96        606
    97        239
    98         51
    99         27
   100         16
   101         24
   102          2
   103          2
   104          1
   105          7
   106          3
   107         23
   108         25
   109        205
   110        223
   111         87
   112         17
   113         23
   114          6
   115         16
   116          4
   117          3
   118          1
   119          5
   120          2
   121         32
   122         23
   123        136
   124        158
   125         43
   126         22
   127         12
   128          4
   129          3
   130          1
   131          4
   132          1
   133          3
   134          2
   135         13
   136         24
   137         78
   138         94
   139         21
   140          7
   141          8
   142          4
   143          8
   144          2
   145          5
   146          1
   147          2
   148          1
   149          8
   150         18
   151         29
   152         37
   153         10
   154          6
   155         11
   156          3
   157          3
   158          1
   159          4
   161          2
   162          1
   163          4
   164          3
   165         14
   166         32
   167          8
   168          8
   169          8
   170          9
   171         12
   172          2
   173          2
   175          1
   176          1
   177          3
   178          2
   179         20
   180         20
   181          7
   182          3
   183          6
   184          7
   185          4
   186          1
   187          3
   189          2
   190          1
   191          2
   192          2
   193         15
   194         22
   195          6
   196          3
   197          5
   198          4
   199          5
   200          4
   201          2
   203          2
   205          2
   206          1
   207          8
   208         13
   209          5
   210          6
   211          3
   212          2
   213          2
   214          2
   215          2
   217          1
   218          1
   219          1
   220          1
   221          6
   222         30
   223          7
   224          4
   225          2
   226          8
   227          7
   228          2
   229          2
   231          1
   232          1
   233          1
   234          1
   235          2
   236          5
   237          2
   238          3
   239          2
   240          2
   241          3
   242          2
   243          2
   244          1
   245          1
   246          1
   247          2
   248          3
   249          5
   250        250
   251         54
   252         14
   253          3
   254          2
   256          1
   257          1
   258          1
   259          1
   260          1
   262          1
   263          1
   264          2
   265          1
   266          2
   267          3
   268          6
   269          1
   281          1
   282          4
   283          1
   294          1
   295          1
   296          0
   307          4
   308          2
   309          5
   310          9
   311          2