##TITLE=Library Entry 70384
##JCAMP-DX=Revision 4.10 
##DATA TYPE=MASS SPECTRUM
##SAMPLE DESCRIPTION=L. Cohen, LC, NIDDK, NIH, Bethesda, MD 20892
##NAMES=HP
##CAS NAME=Imidazole, 5-fluoro-4-trifluoromethyl-
##MOLFORM=C4H2F4N2
##CAS REGISTRY NO=219534-91-5
##MP= -300
##BP= -300
##MW= 154
##$RETENTION INDEX=0
##$CONDENSED SPECTRUM=NO
##NPOINTS= 69
##XYDATA=(XY..XY) 1 
    42        105
    43        430
    44        113
    45        185
    46         20
    47         15
    49          1
    50         78
    51        125
    52          4
    53         18
    54         46
    55          8
    56          5
    57         12
    58         28
    59         10
    60          2
    62          3
    63          6
    65         15
    66         16
    67         61
    68         10
    69        609
    70        218
    71         38
    72          7
    74         10
    76          3
    77         19
    78         50
    79         13
    80         11
    81         12
    84         14
    85         11
    88         16
    89         12
    90          7
    91         32
    93         10
    95        102
    96         48
    97        999
    98         44
    99         11
   100          4
   104         18
   106         39
   107         33
   108         15
   111          3
   112          2
   114          6
   115        740
   116         28
   117          4
   122          1
   126          4
   127          1
   134         29
   135         55
   136          1
   137          1
   147          1
   151          1
   154        257
   155         13