##TITLE=Library Entry 86038
##JCAMP-DX=Revision 4.10 
##DATA TYPE=MASS SPECTRUM
##SAMPLE DESCRIPTION=NIST Mass Spectrometry Data Center, 2010
##NAMES=HP
##CAS NAME=(1S,3aS,4S,5S,7aR,8R)-5-Isopropyl-1,7a-dimethyloctahydro-1H-1,4-m
ethanoinden-8-ol
##MOLFORM=C15H26O
##CAS REGISTRY NO=21966-93-8
##MP= -300
##BP= -300
##MW= 222
##$RETENTION INDEX=0
##$CONDENSED SPECTRUM=NO
##NPOINTS= 111
##XYDATA=(XY..XY) 1 
    27         35
    29         58
    31         11
    39         76
    40         17
    41        345
    42         26
    43        273
    44         12
    45         12
    50          3
    51         25
    52          9
    53        108
    54         19
    55        295
    56         30
    57        100
    63          8
    64          3
    65         73
    66         26
    67        283
    68         28
    69        168
    70         72
    71        300
    72         18
    73          4
    77        207
    78         45
    79        338
    80         58
    81        451
    83        144
    84        117
    89          4
    91        306
    92         69
    93        333
    94        286
    95        954
    96         96
    97        112
    98        240
    99         53
   102          3
   103         21
   104          9
   105        423
   106         77
   107        312
   108        246
   109        999
   110        114
   112        187
   113         24
   115         24
   116          8
   117         26
   118         17
   119        498
   120        231
   121        248
   123        110
   124         62
   125         18
   126          8
   128          9
   129          9
   130          5
   131         22
   133        127
   134        131
   135        166
   136         67
   137        132
   138         46
   145         21
   146         12
   149         51
   150         78
   151         68
   152         59
   153         15
   159          7
   160         35
   161        810
   162        117
   163         53
   164         80
   165         11
   167          3
   175          9
   176          6
   178         27
   179        159
   180         24
   189        125
   190         20
   191        139
   192         23
   193          5
   202          5
   204        265
   205         47
   206          3
   207         99
   208         16
   222         47
   223          8