##TITLE=Library Entry 19397
##JCAMP-DX=Revision 4.10 
##DATA TYPE=MASS SPECTRUM
##SAMPLE DESCRIPTION=D.HENNEBERG, MAX-PLANCK INSTITUTE, MULHEIM, WEST GERMAN
Y
##NAMES=HP
##CAS NAME=1,13-Tetradecadiene
##MOLFORM=C14H26
##CAS REGISTRY NO=21964-49-8
##MP= -300
##BP= -300
##MW= 194
##$RETENTION INDEX=1383
##$CONDENSED SPECTRUM=NO
##NPOINTS= 77
##XYDATA=(XY..XY) 1 
    26         55
    27         60
    28         40
    29        161
    30          4
    35          2
    36          6
    37          2
    38          5
    39         91
    40         20
    41        643
    42         94
    43        249
    44          8
    49          2
    50          3
    51          2
    52          6
    53         51
    54        408
    55        999
    56        126
    57        111
    58          7
    60          2
    65          9
    66         44
    67        523
    68        415
    69        473
    70         64
    71         28
    74          2
    77          8
    78          3
    79         30
    80         33
    81        539
    82        617
    83        296
    84         36
    85          8
    91          5
    92          2
    93          8
    94         15
    95        344
    96        409
    97        155
    98         14
   104          1
   105          2
   107          4
   108          7
   109        172
   110        145
   111         28
   112          4
   122          4
   123         76
   124         68
   125          7
   128          4
   135          1
   137         31
   138         25
   139          1
   151         11
   152         12
   153          2
   165         10
   166         25
   167          3
   179          2
   194         15
   195          4