##TITLE=Library Entry 19398
##JCAMP-DX=Revision 4.10 
##DATA TYPE=MASS SPECTRUM
##SAMPLE DESCRIPTION=Chemical Concepts
##NAMES=HP
##CAS NAME=1,15-Hexadecadiene
##MOLFORM=C16H30
##CAS REGISTRY NO=21964-51-2
##MP= -300
##BP= -300
##MW= 222
##$RETENTION INDEX=1579
##$CONDENSED SPECTRUM=NO
##NPOINTS= 101
##XYDATA=(XY..XY) 1 
    27        106
    29        251
    30          5
    31          0
    34          0
    37          1
    38          3
    39        168
    41        922
    42        102
    43        332
    44         11
    45          0
    49          0
    50          1
    51          5
    52          5
    53         68
    54        387
    55        999
    56        163
    57        173
    58          7
    59          0
    63          0
    65         10
    66         44
    67        434
    68        424
    69        566
    70         98
    71         44
    72          2
    73          0
    76          0
    77          7
    78          1
    79         24
    80         28
    81        605
    82        650
    83        427
    84         44
    85         17
    86          1
    91          2
    92          0
    93          6
    94         18
    95        374
    96        588
    97        204
    98         21
    99          3
   105          0
   107          3
   108          6
   109        158
   110        174
   111         44
   112          6
   113          0
   117          0
   121          2
   122          3
   123         73
   124         86
   125         14
   126          3
   127          0
   128          0
   135          0
   136          3
   137         46
   138         47
   139          5
   140          3
   141          0
   149          0
   150          0
   151         18
   152         23
   153          2
   154          0
   155          0
   164          0
   165         10
   166         17
   167          2
   178          0
   179          5
   180          9
   181          1
   193          3
   194         18
   195          3
   206          0
   207          1
   222         45
   223         10
   224          0