##TITLE=Library Entry 58485
##JCAMP-DX=Revision 4.10 
##DATA TYPE=MASS SPECTRUM
##SAMPLE DESCRIPTION=Exported from NIST MS Search
##NAMES=HP
##CAS NAME=Germacyclobutane, 1,1-dimethyl-
##MOLFORM=C5H12Ge
##CAS REGISTRY NO=21961-74-0
##MP= -300
##BP= -300
##MW= 146
##$RETENTION INDEX=0
##$CONDENSED SPECTRUM=NO
##NPOINTS= 57
##XYDATA=(XY..XY) 1 
    15         32
    18         31
    26         51
    27         73
    38         13
    39        118
    40         16
    41         65
    42         17
    70         68
    71        118
    72        102
    73        194
    74        185
    75        226
    76         36
    77         54
    84         36
    85        532
    86        122
    87        748
    88        360
    89        999
    90        112
    91        226
    92         20
    97         24
    99        127
   100        136
   101        266
   102        211
   103        401
   104        280
   105        250
   106         51
   107         54
   111         23
   112         20
   113         24
   114        368
   115         38
   116        501
   117        191
   118        683
   119         77
   120        140
   121         24
   123         16
   127         38
   129         57
   130         21
   142         30
   143         17
   144         51
   145         31
   146         62
   147         16