##TITLE=Library Entry 78096
##JCAMP-DX=Revision 4.10 
##DATA TYPE=MASS SPECTRUM
##SAMPLE DESCRIPTION=Asinex Ltd, Moscow, Russia
##NAMES=HP
##CAS NAME=1-(2-Nitro-4-trifluoromethyl-phenylamino)-propan-2-ol
##MOLFORM=C10H11F3N2O3
##CAS REGISTRY NO=219618-38-9
##MP= -300
##BP= -300
##MW= 264
##$RETENTION INDEX=0
##$CONDENSED SPECTRUM=NO
##NPOINTS= 116
##XYDATA=(XY..XY) 1 
    33         36
    34         36
    36         11
    37          6
    38         39
    39        133
    40         70
    41        146
    42         93
    43        293
    44        247
    45        686
    46         24
    48         10
    50         81
    51         83
    52         64
    53         15
    54         15
    55         44
    56         25
    57         88
    58         19
    59          9
    62         33
    63        100
    64         73
    65         36
    66          3
    67          6
    68          6
    69         90
    70         17
    71         11
    73          6
    74         37
    75        147
    76         59
    77         68
    78         48
    79          6
    80          8
    81         18
    82          6
    83         26
    88         25
    89          9
    90          9
    91         17
    92         10
    93          9
    94         18
    95         82
    96        107
    97          7
   100          6
   101          6
   102         15
   103         20
   104         38
   105        999
   106         77
   107         21
   108         13
   109         12
   111         51
   112          5
   113         32
   114         19
   119         10
   120         27
   121          3
   124          3
   125         79
   126        126
   127        140
   128          5
   132         12
   133         24
   134         34
   135          4
   139         19
   140         38
   141         21
   142         36
   143         15
   144         28
   145        283
   146        122
   147        100
   148         40
   152         27
   153         90
   154         22
   159         89
   160         51
   161        280
   162         15
   167         16
   171         14
   172        262
   173        109
   174         30
   175         54
   183          5
   186         35
   187         54
   188         38
   189         63
   202        208
   203         56
   219        612
   220         57
   245         46
   264        109
   265          4