##TITLE=Library Entry 50871
##JCAMP-DX=Revision 4.10 
##DATA TYPE=MASS SPECTRUM
##SAMPLE DESCRIPTION=Chemical Concepts
##NAMES=HP
##CAS NAME=Cyclopropane, 1,1-dibromo-2,2,3-trimethyl-
##MOLFORM=C6H10Br2
##CAS REGISTRY NO=21960-71-4
##MP= -300
##BP= -300
##MW= 240
##$RETENTION INDEX=0
##$CONDENSED SPECTRUM=NO
##NPOINTS= 125
##XYDATA=(XY..XY) 1 
    26         29
    27        250
    28         13
    29         77
    30          2
    31          0
    35          1
    36          2
    37         29
    38         75
    39        623
    40         91
    41        796
    42         53
    43         60
    44          1
    48          0
    49          9
    50         57
    51        106
    52         39
    53        529
    54         49
    55        216
    56         14
    57          3
    60          0
    61         10
    62         19
    63         41
    64         10
    65        302
    66        193
    67        205
    68         12
    69          6
    70          6
    71          0
    72          1
    73          3
    74          6
    75          5
    76          2
    77         65
    78         13
    79        320
    80         41
    81        999
    82        140
    83         11
    91          1
    92          1
    93         13
    94          1
    95         10
   104          1
   105          3
   106          2
   107         33
   108          1
   109         26
   110          2
   112          2
   116          1
   117          9
   118          4
   119         75
   120          5
   121         97
   122          4
   123         32
   124          0
   128          1
   129          1
   130          1
   131          7
   132          2
   133         71
   134          4
   135         64
   136          3
   143          1
   144          1
   145         32
   146         17
   147         33
   148         16
   149          1
   158          0
   159          0
   160         30
   161        904
   162         88
   163        889
   164         62
   165          1
   170          1
   171          1
   172          3
   173          1
   174          1
   175          1
   186          0
   187          0
   197          8
   198          4
   199         18
   200          9
   201          8
   202          4
   211          1
   212          1
   213          1
   214          1
   216          0
   225         33
   226          2
   227         63
   228          3
   229         33
   230          1
   240          3
   242          7
   243          0
   244          3