##TITLE=Library Entry 19379
##JCAMP-DX=Revision 4.10 
##DATA TYPE=MASS SPECTRUM
##SAMPLE DESCRIPTION=Exported from NIST MS Search
##NAMES=HP
##CAS NAME=1,12-Tridecadiene
##MOLFORM=C13H24
##CAS REGISTRY NO=21964-48-7
##MP= -300
##BP= -300
##MW= 180
##$RETENTION INDEX=1275
##$CONDENSED SPECTRUM=NO
##NPOINTS= 141
##XYDATA=(XY..XY) 1 
     2          8
    14          6
    15         29
    16          3
    17          7
    18         17
    20          1
    25          1
    26         20
    27        282
    28         86
    29        324
    30          9
    31          6
    32         13
    36          2
    37          5
    38         13
    39        334
    40         55
    41        951
    42        120
    43        230
    44         15
    45          6
    49          1
    50          9
    51         27
    52         17
    53        125
    54        451
    55        999
    56        136
    57        157
    58         12
    59          3
    61          1
    62          2
    63          8
    64          3
    65         27
    66         44
    67        517
    68        381
    69        416
    70         83
    71         39
    72         18
    73          4
    74          2
    75          3
    76          2
    77         34
    78         22
    79         63
    80         47
    81        544
    82        497
    83        273
    84         38
    85         14
    86          6
    87         11
    88          1
    89          3
    91         36
    92         12
    93         34
    94         30
    95        318
    96        315
    97        128
    98         22
    99          4
   100          1
   101          2
   102          2
   103          5
   104          6
   105         28
   106         10
   107         20
   108         15
   109        171
   110        108
   111         25
   112          6
   113          2
   114          1
   115         10
   116          4
   117          9
   118          6
   119         23
   120          7
   121         15
   122         10
   123         53
   124         30
   125          7
   126          3
   127          3
   128          6
   129          7
   130          3
   131         14
   132          5
   133         13
   134          3
   135         14
   136          6
   137         22
   138         21
   139          5
   140          1
   141          5
   142          5
   143          4
   144          4
   145          7
   146          6
   147          6
   148          3
   149          6
   150          3
   151         11
   152         30
   153          6
   154          1
   158          2
   159          2
   160          5
   161          2
   162          9
   163          3
   174          1
   176          2
   178          4
   179          1
   180         15
   181          2