##TITLE=Library Entry 24409
##JCAMP-DX=Revision 4.10 
##DATA TYPE=MASS SPECTRUM
##SAMPLE DESCRIPTION=Japan AIST/NIMC Database- Spectrum MS-NW-3652
##NAMES=HP
##CAS NAME=1-Nonen-3-ol
##MOLFORM=C9H18O
##CAS REGISTRY NO=21964-44-3
##MP= -300
##BP= -300
##MW= 142
##$RETENTION INDEX=1080
##$CONDENSED SPECTRUM=NO
##NPOINTS= 62
##XYDATA=(XY..XY) 1 
    15          5
    18          1
    26          6
    27         94
    28          7
    29        137
    30          5
    31         29
    38          2
    39         52
    40          9
    41        142
    42         33
    43        241
    44         21
    45         10
    50          2
    51          4
    52          2
    53         20
    54         56
    55         94
    56         37
    57        999
    58         73
    59         18
    63          1
    65          4
    66          4
    67         40
    68         46
    69         34
    70         22
    71         36
    72        159
    73         19
    74          1
    77          2
    79          4
    80          2
    81         33
    82         43
    83         12
    84          5
    85         92
    86          9
    91          1
    93          1
    94          1
    95         37
    96         23
    97          8
    98          5
    99         11
   100          2
   109          4
   111          2
   112          1
   113         28
   114          3
   124          4
   141          1