##TITLE=Library Entry 96095
##JCAMP-DX=Revision 4.10 
##DATA TYPE=MASS SPECTRUM
##SAMPLE DESCRIPTION=NIST Mass Spectrometry Data Center, 2010
##NAMES=HP
##CAS NAME=Propanamide, 2,2,3,3,3-pentafluoro-N-1-naphthalenyl-
##MOLFORM=C13H8F5NO
##CAS REGISTRY NO=21970-67-2
##MP= -300
##BP= -300
##MW= 289
##$RETENTION INDEX=1545
##$CONDENSED SPECTRUM=NO
##NPOINTS= 115
##XYDATA=(XY..XY) 1 
    26          1
    27          4
    28          3
    29          1
    31          9
    37          2
    38          8
    39         32
    40          2
    41          2
    43          1
    44          1
    49          1
    50         30
    51         32
    52         12
    53          2
    54          1
    55          1
    57         50
    61          7
    62         31
    63         80
    64         17
    65         29
    66          2
    69         68
    71         64
    74         24
    75         34
    76         21
    77         34
    78          5
    81          2
    85         49
    86         17
    87         29
    88         39
    89         74
    90         10
    91          2
    98          6
    99          8
   100         21
   101         22
   102          6
   103          2
   104          1
   109          3
   110          2
   111          3
   112          3
   113         67
   114        109
   115        999
   116        149
   117          9
   119         76
   120          2
   122          1
   123          1
   125          7
   126         57
   127        310
   128         46
   129          3
   133          1
   138          2
   140        110
   141         61
   142        525
   143         68
   144        224
   145         27
   146          4
   147          2
   151          1
   152         14
   153          9
   154          2
   157          1
   164          2
   169         51
   170        168
   171         22
   172         11
   173          2
   177          7
   178          1
   182          1
   190          1
   191          1
   192          1
   195          1
   200          3
   201          2
   202          5
   203          1
   204          1
   218          2
   219          2
   220          1
   222          2
   227          8
   228          1
   230          1
   241          3
   242          1
   250          2
   270         10
   271          2
   287          1
   289        748
   290        109
   291          9