##TITLE=Library Entry 32659
##JCAMP-DX=Revision 4.10 
##DATA TYPE=MASS SPECTRUM
##SAMPLE DESCRIPTION=NIST Mass Spectrometry Data Center, 1990.
##NAMES=HP
##CAS NAME=Methallylcyclopentane
##MOLFORM=C9H16
##CAS REGISTRY NO=219726-61-1
##MP= -300
##BP= -300
##MW= 124
##$RETENTION INDEX=0
##$CONDENSED SPECTRUM=NO
##NPOINTS= 40
##XYDATA=(XY..XY) 1 
    15         11
    26         20
    27        172
    28         86
    29        110
    32         11
    39        465
    40        107
    41        936
    42         77
    43         22
    50         30
    51         72
    52         35
    53        185
    54         77
    55        184
    56        272
    57        658
    58         28
    63         20
    65         99
    66        426
    67        999
    68        997
    69        531
    70         30
    77         66
    78         16
    79        115
    80         33
    81        159
    82         66
    83         15
    91         22
    93         12
    95         40
   109         54
   124        161
   125         20