##TITLE=Library Entry 82131
##JCAMP-DX=Revision 4.10 
##DATA TYPE=MASS SPECTRUM
##SAMPLE DESCRIPTION=Japan AIST/NIMC Database- Spectrum MS-IW-3403
##NAMES=HP
##CAS NAME=trans-1-Benzoyloxy-cis-3-hydroxy-trans-4,trans-5-isopropylidenedi
oxycyclohexanecarboxylic gamma-lactone
##MOLFORM=C17H18O6
##CAS REGISTRY NO=219739-53-4
##MP= -300
##BP= -300
##MW= 318
##$RETENTION INDEX=0
##$CONDENSED SPECTRUM=NO
##NPOINTS= 86
##XYDATA=(XY..XY) 1 
    15          2
    17          1
    18          1
    27          7
    28          4
    29          6
    31          3
    39          9
    40          3
    41         14
    42          3
    43         75
    44          2
    50          7
    51         32
    52          2
    53          5
    54          1
    55          9
    57          5
    58          1
    59         14
    60          1
    65          3
    66          4
    67          5
    68          1
    69          6
    70          3
    71          8
    74          1
    75          2
    76          9
    77        186
    78         12
    79          1
    81          6
    82          4
    83          8
    84          1
    85         11
    93          1
    94         19
    95          9
    96          1
    97          3
    99          2
   100         11
   101          1
   103          1
   104          5
   105        999
   106         80
   107          4
   109          2
   110         11
   111         12
   112          2
   121          8
   122          1
   123          9
   124          1
   127          9
   138          5
   139         37
   140          3
   151          4
   152          1
   153          2
   155          1
   163          3
   167          1
   168          1
   169          1
   181          2
   185          1
   196          1
   197          1
   199          2
   216          2
   259          1
   260          1
   303        329
   304         57
   305          8
   306          1