##TITLE=Library Entry 45166
##JCAMP-DX=Revision 4.10 
##DATA TYPE=MASS SPECTRUM
##SAMPLE DESCRIPTION=Exported from NIST MS Search
##NAMES=HP
##CAS NAME=Docosanoic acid, 22-(trimethylsiloxy)-, methyl ester
##MOLFORM=C26H54O3Si
##CAS REGISTRY NO=21987-15-5
##MP= -300
##BP= -300
##MW= 442
##$RETENTION INDEX=2863
##$CONDENSED SPECTRUM=NO
##NPOINTS= 95
##XYDATA=(XY..XY) 1 
    41        440
    42         70
    43        600
    44         40
    45         80
    47         30
    53         20
    54         50
    55        750
    56         80
    57        350
    58         40
    59        220
    60         20
    61        150
    62         20
    67        150
    68         60
    69        440
    70         50
    71        120
    72         20
    73        600
    74        420
    75        999
    76         70
    77         50
    79         20
    80         10
    81        140
    82         50
    83        300
    84         50
    85         70
    87        200
    88         30
    89        220
    90         20
    91         90
    93         30
    95        100
    96         50
    97        200
    98         60
    99         50
   101         80
   103        300
   104         30
   105         30
   107        100
   108         10
   109         50
   110         20
   111         50
   112         20
   113         30
   115         50
   116         10
   117         20
   119         10
   121         20
   123         30
   124         10
   125         20
   127         10
   129         50
   131         30
   135         30
   137         20
   139         20
   141         10
   143         30
   146        170
   147         40
   148         10
   149         10
   157         20
   159        100
   160         30
   161         10
   320         20
   321         10
   352         10
   353         10
   395        320
   396        100
   397         50
   398         20
   411         30
   412         10
   427        280
   428        100
   429         30
   430         10
   442         10