##TITLE=Library Entry 19138
##JCAMP-DX=Revision 4.10 
##DATA TYPE=MASS SPECTRUM
##SAMPLE DESCRIPTION=Japan AIST/NIMC Database- Spectrum MS-NW-3543
##NAMES=HP
##CAS NAME=4-Nonene
##MOLFORM=C9H18
##CAS REGISTRY NO=2198-23-4
##MP= -300
##BP= -300
##MW= 126
##$RETENTION INDEX=893
##$CONDENSED SPECTRUM=NO
##NPOINTS= 54
##XYDATA=(XY..XY) 1 
    15          5
    26          6
    27        124
    28          5
    29        115
    30          3
    37          1
    38          5
    39        110
    40         16
    41        485
    42        226
    43        204
    44          7
    50          5
    51         11
    52          6
    53         44
    54         61
    55        999
    56        424
    57         80
    58          4
    62          1
    63          3
    65          9
    66          5
    67         60
    68         29
    69        248
    70        285
    71         53
    72          2
    77          7
    78          2
    79          9
    80          2
    81         15
    82         21
    83        146
    84        115
    85         15
    86          1
    91          2
    93          1
    95          5
    96          6
    97        103
    98         29
    99          2
   111          3
   126        215
   127         21
   128          1