##TITLE=Library Entry 43726
##JCAMP-DX=Revision 4.10 
##DATA TYPE=MASS SPECTRUM
##SAMPLE DESCRIPTION=Exported from NIST MS Search
##NAMES=HP
##CAS NAME=Hexadecanoic acid, 10,16-bis[(trimethylsilyl)oxy]-, methyl ester
##MOLFORM=C23H50O4Si2
##CAS REGISTRY NO=21987-16-6
##MP= -300
##BP= -300
##MW= 446
##$RETENTION INDEX=2465
##$CONDENSED SPECTRUM=NO
##NPOINTS= 107
##XYDATA=(XY..XY) 1 
    41        130
    42         30
    43        120
    44         30
    45         70
    47         30
    53         30
    54         30
    55         70
    56         40
    57         80
    58         20
    59        100
    60         20
    67        180
    68         30
    69        200
    70         20
    71         60
    72         30
    73        999
    74        130
    75        500
    76         50
    77         30
    79         30
    80         10
    81        210
    82         40
    83        100
    84         20
    85         50
    87         30
    89         70
    91         60
    93         30
    94         10
    95        400
    96         50
    97         80
    98         10
    99         20
   101         60
   103        300
   104         40
   105         60
   107         40
   109         80
   110         10
   111         40
   113         40
   115         30
   116         20
   117         20
   119         20
   120         10
   121         20
   123         60
   125         10
   127         10
   129        260
   130         50
   131         60
   133         60
   135         30
   137         30
   139         20
   143         30
   145         10
   146         60
   147        120
   148         20
   149         70
   150         20
   151         30
   155         10
   157         10
   159         80
   160         10
   161         10
   163         10
   165         10
   169        170
   170         30
   171         10
   185         60
   186         10
   187         10
   207         10
   217         10
   234         10
   241         10
   244         70
   245         20
   259         10
   273        770
   274        150
   275        430
   276        100
   277         50
   289         10
   309         50
   310         10
   399         10
   415         20
   431         40
   432         20