##TITLE=Library Entry 5858
##JCAMP-DX=Revision 4.10 
##DATA TYPE=MASS SPECTRUM
##SAMPLE DESCRIPTION=T. BRYCE UNILEVER RESEARCH COLWORTH/WELWYN, BEDFORD U.K
.
##NAMES=HP
##CAS NAME=Dihexylamine, N-nitro-
##MOLFORM=C12H26N2O2
##CAS REGISTRY NO=21983-64-2
##MP= -300
##BP= -300
##MW= 230
##$RETENTION INDEX=0
##$CONDENSED SPECTRUM=NO
##NPOINTS= 57
##XYDATA=(XY..XY) 1 
    34         18
    37         21
    38         22
    39        168
    40        363
    41        560
    42        545
    43        999
    44        393
    45         36
    51         13
    53         31
    54        160
    55        242
    56        454
    57        333
    58         69
    59         11
    61         10
    67         26
    68         83
    69         71
    70        224
    71         88
    72         17
    73         16
    77         12
    81         19
    82         66
    83         43
    84        272
    85         63
    86         14
    89         47
    95         11
    96         52
    97         14
    98         97
    99         46
   100         39
   112        463
   113         57
   114        193
   115         20
   126         43
   127         50
   128         30
   140         58
   141         12
   154         25
   156         11
   159         41
   168         10
   173         15
   182         10
   184        303
   185         57