##TITLE=Library Entry 55662
##JCAMP-DX=Revision 4.10 
##DATA TYPE=MASS SPECTRUM
##SAMPLE DESCRIPTION=NIST Mass Spectrometry Data Center, 1990.
##NAMES=HP
##CAS NAME=5-Nonylamine
##MOLFORM=C9H21N
##CAS REGISTRY NO=2198-45-0
##MP= -300
##BP= -300
##MW= 143
##$RETENTION INDEX=0
##$CONDENSED SPECTRUM=NO
##NPOINTS= 51
##XYDATA=(XY..XY) 1 
    14          1
    15          8
    16          1
    17          2
    18         23
    25          1
    26          9
    27         77
    28         70
    29         99
    30        491
    31          7
    32          0
    39         42
    41        128
    42         50
    43         86
    44         65
    45          1
    50          1
    51          2
    52          2
    53          8
    54         11
    55         25
    56         69
    57         33
    58          5
    59          0
    65          2
    67          8
    69         70
    70         10
    71          1
    72          2
    77          1
    79          1
    80          1
    81          1
    82          2
    83          2
    84          7
    85          1
    86        999
    87         52
    88          1
    97          1
   100          1
   112          1
   142          6
   143          1