##TITLE=Library Entry 5881
##JCAMP-DX=Revision 4.10 
##DATA TYPE=MASS SPECTRUM
##SAMPLE DESCRIPTION=Exported from NIST MS Search
##NAMES=HP
##CAS NAME=Hexadecanoic acid, 2-hydroxy-, methyl ester, acetate
##MOLFORM=C19H36O4
##CAS REGISTRY NO=21987-12-2
##MP= -300
##BP= -300
##MW= 328
##$RETENTION INDEX=0
##$CONDENSED SPECTRUM=NO
##NPOINTS= 70
##XYDATA=(XY..XY) 1 
    41        400
    42         70
    43        999
    44        100
    45        280
    53         30
    54         40
    55        250
    56         60
    57        180
    58         30
    59         50
    61         20
    67         70
    68         40
    69        120
    70         40
    71         80
    72         20
    73         20
    74         50
    75         20
    79         20
    81         80
    82         70
    83        110
    84         40
    85         40
    86         30
    87        130
    88         30
    90         60
    95         50
    96         40
    97        120
    98         30
    99         10
   100         20
   101         10
   102         10
   103         20
   109         30
   110         20
   111         70
   112         10
   113         30
   114         30
   115         10
   123         20
   124         10
   125         30
   127         30
   128         20
   132         20
   137         10
   139         20
   141         10
   142         20
   152         10
   153         10
   155         10
   209         20
   225         20
   227         20
   236         20
   253         10
   254         20
   269         20
   285         50
   286         10