##TITLE=Library Entry 37231
##JCAMP-DX=Revision 4.10 
##DATA TYPE=MASS SPECTRUM
##SAMPLE DESCRIPTION=Japan AIST/NIMC Database- Spectrum MS-NW-8472
##NAMES=HP
##CAS NAME=Isopentyl hexanoate
##MOLFORM=C11H22O2
##CAS REGISTRY NO=2198-61-0
##MP= -300
##BP= -300
##MW= 186
##$RETENTION INDEX=1252
##$CONDENSED SPECTRUM=NO
##NPOINTS= 67
##XYDATA=(XY..XY) 1 
    15          3
    18          4
    26          3
    27         82
    28         33
    29        127
    30          3
    31          6
    38          1
    39         48
    40          9
    41        188
    42        138
    43        729
    44         26
    45         18
    51          2
    52          1
    53         11
    54          9
    55        316
    56         34
    57         29
    58          4
    59          4
    60         52
    61         15
    67          4
    68          5
    69         59
    70        999
    71        458
    72         25
    73         44
    74          6
    75          5
    80          2
    81          4
    82          1
    83          6
    84          2
    85         15
    86          2
    87         32
    88          5
    89         11
    97          7
    98          6
    99        437
   100         31
   101          9
   102          1
   113         21
   114          3
   115         13
   116         12
   117        100
   118          6
   127          2
   129          4
   130          7
   131          6
   143         19
   144          2
   156          1
   157          2
   171          2