##TITLE=Library Entry 43647
##JCAMP-DX=Revision 4.10 
##DATA TYPE=MASS SPECTRUM
##SAMPLE DESCRIPTION=Exported from NIST MS Search
##NAMES=HP
##CAS NAME=Octadecanoic acid, 9,10,12,13,18-pentakis(trimethylsiloxy)-, meth
yl ester
##MOLFORM=C34H78O7Si5
##CAS REGISTRY NO=21987-18-8
##MP= -300
##BP= -300
##MW= 738
##$RETENTION INDEX=0
##$CONDENSED SPECTRUM=NO
##NPOINTS= 184
##XYDATA=(XY..XY) 1 
    41        100
    42         30
    43        130
    44        100
    45         60
    47         20
    50         20
    51         20
    54         20
    55        150
    56         20
    57         40
    58         20
    59         50
    60         20
    61         20
    67         90
    68         20
    69         60
    70         20
    71         30
    72         20
    73        999
    74        120
    75        340
    76         30
    77         40
    78         20
    79         40
    80         10
    81        170
    82         30
    83         40
    84         20
    85         40
    87         20
    89         40
    91         40
    93         40
    94         20
    95         60
    96         20
    97         30
    98         20
    99         70
   101         40
   103        150
   104         20
   105         50
   107         30
   109         70
   110         30
   111         40
   113         20
   115         30
   116         20
   117         40
   118         20
   119         40
   120         20
   121         30
   123         20
   125         20
   127         20
   129        180
   130         40
   131         50
   132         20
   133         50
   134         20
   135         50
   136         20
   137         70
   138         20
   139         20
   141         20
   142         30
   143         50
   144         20
   145         40
   146         20
   147        250
   148         50
   149        100
   150         20
   151         20
   156        100
   157         30
   158         30
   160         30
   162         20
   164         20
   166         20
   167         10
   168         10
   169         30
   170         10
   171        170
   172         30
   173         30
   175         20
   177         30
   181         10
   183         30
   184         20
   185         50
   186         20
   187         20
   189         20
   191        150
   192         30
   193         40
   197         30
   199         40
   201         30
   202         20
   203         20
   208         30
   209         50
   210         10
   211         20
   215         20
   217         40
   218         20
   219         20
   222         20
   223         20
   225        100
   226         20
   227         50
   228         20
   229         20
   231         20
   241         40
   242         20
   243         40
   244         20
   245         50
   246         20
   247         20
   257         20
   258         20
   259        400
   260         70
   261         50
   262         20
   267         20
   271         30
   272         20
   273         90
   274         30
   275         40
   282         20
   283         20
   284         20
   287         10
   289         10
   295         30
   296         20
   297         30
   298         20
   299         40
   300         20
   301         30
   303         20
   315         50
   316         20
   317         20
   327         20
   331         10
   332         30
   333         20
   361         20
   381         20
   387        160
   388         30
   389        220
   390         70
   391         50
   392         30
   401         10
   405         20
   407         30
   471         10