##TITLE=Library Entry 21380
##JCAMP-DX=Revision 4.10 
##DATA TYPE=MASS SPECTRUM
##SAMPLE DESCRIPTION=NIST Mass Spectrometry Data Center, 1990.
##NAMES=HP
##CAS NAME=4-Heptanol, 4-propyl-
##MOLFORM=C10H22O
##CAS REGISTRY NO=2198-72-3
##MP= -300
##BP= -300
##MW= 158
##$RETENTION INDEX=0
##$CONDENSED SPECTRUM=NO
##NPOINTS= 52
##XYDATA=(XY..XY) 1 
    27        106
    28         21
    29         84
    31         25
    32          1
    39        115
    40         33
    41        315
    42         41
    43        217
    44         11
    45         38
    50          5
    51         16
    52         10
    53         70
    54          5
    55        999
    56        114
    57         65
    58         50
    59        124
    63          5
    65         23
    66         10
    67         77
    68          5
    69        327
    70         79
    71         68
    72          5
    73        215
    74          9
    77         20
    79         22
    81         29
    82          9
    83         37
    84         43
    85          8
    86          7
    91          5
    95          9
    97        315
    98         70
    99         12
   111          5
   112          9
   115        752
   116         58
   140         88
   141          9