##TITLE=Library Entry 10179
##JCAMP-DX=Revision 4.10 
##DATA TYPE=MASS SPECTRUM
##SAMPLE DESCRIPTION=Chuck Anderson, Aldrich Chemical Co.
##NAMES=HP
##CAS NAME=3,3-Dimethoxy-2-butanone
##MOLFORM=C6H12O3
##CAS REGISTRY NO=21983-72-2
##MP= -300
##BP= -300
##MW= 132
##$RETENTION INDEX=0
##$CONDENSED SPECTRUM=NO
##NPOINTS= 60
##XYDATA=(XY..XY) 1 
    13          1
    14         12
    15        146
    16          1
    18          0
    25          0
    26         10
    27         35
    28         11
    29         60
    30          5
    31         38
    32          1
    33          5
    37          0
    38          1
    39          7
    40          1
    41         17
    42         49
    43        999
    44         24
    45         17
    46          0
    47        112
    48          2
    50          1
    51          1
    52          0
    53         13
    54          1
    55          8
    56          1
    57         14
    58          8
    59         25
    60          0
    68          1
    69         38
    70          8
    71          0
    72          2
    73        213
    74         10
    75         11
    83         16
    84          0
    85          2
    86          4
    87          0
    88          2
    89        752
    90         32
    91          3
    99          5
   100          0
   101        438
   102         23
   103          2
   117          3