##TITLE=Library Entry 41299
##JCAMP-DX=Revision 4.10 
##DATA TYPE=MASS SPECTRUM
##SAMPLE DESCRIPTION=Exported from NIST MS Search
##NAMES=HP
##CAS NAME=Methyl 18-hydroxy-9-octadecenoate, TMS derivative
##MOLFORM=C22H44O3Si
##CAS REGISTRY NO=21987-17-7
##MP= -300
##BP= -300
##MW= 384
##$RETENTION INDEX=2435
##$CONDENSED SPECTRUM=NO
##NPOINTS= 152
##XYDATA=(XY..XY) 1 
    41        460
    42         80
    43        250
    44         50
    45        130
    47         50
    53         60
    54        150
    55        830
    56         80
    57        100
    58         50
    59        250
    60         20
    61        120
    65         20
    66         50
    67        520
    68        140
    69        350
    70         50
    71         70
    72         50
    73        999
    74        250
    75        900
    76         70
    77         90
    78         30
    79        150
    80        130
    81        640
    82        400
    83        260
    84         50
    85         70
    87        120
    88         30
    89        200
    90         20
    91        150
    92         40
    93        130
    94        130
    95        460
    96        340
    97        170
    98         80
    99         70
   100         20
   101        100
   102         20
   103        150
   104         50
   105         80
   106         20
   107        150
   108         80
   109        260
   110        180
   111        120
   112         20
   113         70
   115         80
   116         40
   117         40
   119         50
   120         20
   121        130
   122         70
   123        150
   124        100
   125         50
   126         10
   127         80
   128         20
   129        150
   130         30
   131         60
   133         70
   134         20
   135        100
   136         70
   137        100
   138         50
   139         30
   140         10
   141         40
   143         50
   144         30
   146        120
   147         50
   148         20
   149         60
   150         70
   151         50
   152         30
   153         20
   155         40
   156         20
   157         50
   159        170
   160         40
   161         40
   163         40
   164         60
   165         20
   166         20
   167         20
   168         10
   169         80
   170         30
   171         50
   172         20
   173         30
   178         50
   179         20
   181         20
   183         20
   185         40
   187         20
   199         60
   201         20
   202         40
   214         20
   216         10
   220         10
   231        250
   232         70
   233         20
   244         20
   245         40
   249         50
   259         40
   263         50
   264         20
   273        200
   274         60
   275         20
   294         20
   337        280
   338        100
   339         30
   352         50
   353         80
   354         30
   369        170
   370         50
   371         20
   384        150
   385         50
   386         20