##TITLE=Library Entry 1891
##JCAMP-DX=Revision 4.10 
##DATA TYPE=MASS SPECTRUM
##SAMPLE DESCRIPTION=NIST Mass Spectrometry Data Center, 1994
##NAMES=HP
##CAS NAME=N-Allyl-2-pyridone
##MOLFORM=C8H9NO
##CAS REGISTRY NO=21997-30-8
##MP= -300
##BP= -300
##MW= 135
##$RETENTION INDEX=0
##$CONDENSED SPECTRUM=NO
##NPOINTS= 72
##XYDATA=(XY..XY) 1 
    12          3
    13          5
    14         19
    15         59
    16          2
    18          7
    25         15
    26        153
    27        290
    28        204
    29         30
    30         10
    36          8
    37        110
    38        259
    39        999
    40        162
    41        527
    42         41
    43          4
    48          4
    49         24
    50        155
    51        301
    52        253
    53        210
    54         59
    55         19
    56          5
    61          3
    62          8
    63         19
    64         40
    65         54
    66         89
    67        374
    68         47
    69          2
    74          3
    75          8
    76         12
    77         68
    78        266
    79        409
    80        223
    81         68
    82          4
    89          8
    90          4
    91         30
    92         44
    93         20
    94         17
    95         58
    96         53
    97          3
   104         22
   106        337
   107         38
   108         31
   109         15
   116         27
   117         46
   118        187
   119         15
   120        804
   121         68
   122          4
   134        773
   135        491
   136         48
   137          2