##TITLE=Library Entry 83024
##JCAMP-DX=Revision 4.10 
##DATA TYPE=MASS SPECTRUM
##SAMPLE DESCRIPTION=Japan AIST/NIMC Database- Spectrum MS-IW-4959
##NAMES=HP
##CAS NAME=N-(2-(p-Acetylphenyl)-1-phenylethyl)acetamide
##MOLFORM=C18H19NO2
##CAS REGISTRY NO=21998-45-8
##MP= -300
##BP= -300
##MW= 281
##$RETENTION INDEX=0
##$CONDENSED SPECTRUM=NO
##NPOINTS= 118
##XYDATA=(XY..XY) 1 
    15          3
    27          3
    28         28
    29          1
    31          1
    38          2
    39          9
    40          9
    41         19
    42          5
    43        138
    44          6
    45          1
    50          5
    51         15
    52          4
    53          1
    59          4
    62          2
    63          9
    64          3
    65          9
    74          2
    75          5
    76         19
    77         48
    78         11
    79         87
    80          6
    82          1
    83          1
    87          2
    88          9
    89         42
    90         21
    91         34
    92          4
    94          1
    96          2
    97          1
   100          1
   101          7
   102          7
   103         14
   104         43
   105         24
   106        999
   107         89
   108          3
   111          2
   113          1
   115         12
   116          5
   117          3
   118         12
   119         21
   120          4
   126          2
   127          3
   128          4
   129          5
   130          6
   131          1
   132          5
   133         17
   134         46
   135          5
   139          3
   140          1
   146          2
   147          8
   148        797
   149         81
   150          8
   151          8
   152         13
   153          3
   162          1
   163          2
   164          1
   165          7
   166          1
   175          1
   176         12
   177         13
   178         90
   179         46
   180          8
   181          1
   189          5
   190          5
   191          2
   193          2
   194          2
   195          2
   196          2
   200          2
   201          2
   202         16
   203         10
   204         25
   205          6
   206          2
   207        193
   208         31
   209          3
   221          3
   222        173
   223         34
   224          6
   238          8
   239          2
   245          1
   248          1
   263          3
   264          1
   281          2
   282          2