##TITLE=Library Entry 7843
##JCAMP-DX=Revision 4.10 
##DATA TYPE=MASS SPECTRUM
##SAMPLE DESCRIPTION=R.T.HOLMAN,UNIVERSITY OF MINNESOTA
##NAMES=HP
##CAS NAME=1,2-Propanediol, 3-(hexadecyloxy)-, diacetate
##MOLFORM=C23H44O5
##CAS REGISTRY NO=21994-82-1
##MP= -300
##BP= -300
##MW= 400
##$RETENTION INDEX=0
##$CONDENSED SPECTRUM=NO
##NPOINTS= 254
##XYDATA=(XY..XY) 1 
    26          7
    27         29
    28        154
    29         90
    30          4
    31         10
    32         33
    33          4
    38          4
    39         21
    40          8
    41        209
    42         53
    43        999
    44         39
    45         23
    46          4
    47          2
    48          1
    50          2
    51          2
    52          2
    53         11
    54         25
    55        263
    56         92
    57        463
    58         42
    59          8
    60         10
    61         51
    62          4
    63          3
    64          3
    65          4
    66          6
    67         44
    68         41
    69        200
    70         56
    71        290
    72         19
    73        111
    74         47
    75         16
    76          3
    77          5
    78          2
    79          7
    80          9
    81         43
    82         70
    83        150
    84         36
    85        209
    86         52
    87         12
    88          4
    89          2
    90          2
    91          5
    92          3
    93          7
    94          8
    95         42
    96         57
    97        107
    98         30
    99         68
   100        181
   101         50
   102          8
   103        119
   104         10
   105          4
   106          3
   107          5
   108          7
   109         28
   110         32
   111         54
   112         45
   113         40
   114          6
   115         22
   116         58
   117        209
   118         13
   119          9
   120          2
   121          9
   122          6
   123         20
   124         23
   125         34
   126         15
   127         30
   128          7
   129          9
   130          5
   131          3
   132          1
   133          4
   134          2
   135         13
   136          6
   137         20
   138         19
   139         16
   140          9
   141         23
   142          5
   143          5
   144          5
   145         30
   146          5
   147          6
   148          2
   149          7
   150          4
   151         13
   152         10
   153         10
   154          9
   155         18
   156          5
   157          4
   158          4
   159        101
   160         11
   161          3
   162          1
   163          3
   164          3
   165         10
   166          9
   167         11
   168          6
   169         13
   170          5
   171          4
   172          3
   176          2
   177         10
   178          3
   179         10
   180          8
   181          8
   182          5
   183          8
   184          5
   185          6
   186          3
   189          6
   190          2
   191          4
   192          3
   193          9
   194          9
   195          8
   196          5
   197          3
   198          3
   199          5
   200          2
   201          2
   202          2
   203          2
   204          3
   205          4
   206          2
   207          4
   208          3
   209         10
   210          5
   211          4
   212          2
   213          4
   214          3
   215          2
   216          2
   217          3
   218          2
   219          9
   220          5
   221          5
   222         13
   223         15
   224          7
   225         37
   226         10
   227          3
   228          2
   232          1
   233          4
   234          3
   235          2
   236          3
   237          9
   238          5
   239          5
   240          2
   241          4
   242          1
   243          1
   250          2
   251         22
   252         10
   253         33
   254         10
   255        117
   256         25
   257          4
   262          3
   263          2
   264          2
   265          3
   266          2
   267          6
   268          3
   269          4
   270          1
   279          2
   280         40
   281         16
   282          4
   283          4
   284          2
   285         13
   286          4
   287          2
   288          1
   290          2
   297        163
   298         39
   299          8
   300          2
   311          4
   312          2
   313          1
   322          2
   325          2
   326          1
   327         11
   328          4
   329          1
   330          1
   339          6
   340          4
   341          4
   342          2
   343          1
   357          3
   358          2