##TITLE=Library Entry 3613
##JCAMP-DX=Revision 4.10 
##DATA TYPE=MASS SPECTRUM
##SAMPLE DESCRIPTION=MYCOTOXINS MASS SPECTRAL DATA BANK, L.R. DUSOLD ET AL,
 FDA, USA
##NAMES=HP
##CAS NAME=Trichothec-9-en-8-one, 12,13-epoxy-4-hydroxy-, (4.beta.)-
##MOLFORM=C15H20O4
##CAS REGISTRY NO=2199-06-6
##MP= -300
##BP= -300
##MW= 264
##$RETENTION INDEX=0
##$CONDENSED SPECTRUM=NO
##NPOINTS= 91
##XYDATA=(XY..XY) 1 
    39        495
    40        128
    41        999
    42         66
    43        570
    44         57
    45        123
    47        101
    51        123
    52         84
    53        371
    54         75
    55        287
    57         79
    65        207
    66         66
    67        323
    68         79
    69        225
    71         66
    77        513
    78        115
    79        628
    80         92
    81        146
    82         61
    83        212
    85        128
    91        460
    92         97
    93        221
    94        150
    95        269
    96        132
    97        115
    98         66
   103         66
   105        287
   106         92
   107        327
   108        106
   109        358
   110         84
   111        123
   115         79
   117        101
   119        265
   120        146
   121        340
   122        504
   123        340
   124        154
   125        314
   129         75
   131        150
   132        123
   133        362
   134        110
   135        172
   137        168
   139         79
   145        119
   146         84
   147        327
   148        159
   149        314
   150        106
   159        194
   160        137
   161        309
   162         88
   163         66
   173        115
   174        128
   175        340
   176        101
   177         88
   185         97
   187        185
   188         70
   189        137
   200         66
   202        185
   203        172
   204         97
   205        115
   218        221
   221        163
   233        168
   246        106
   247         39