##TITLE=Library Entry 58394
##JCAMP-DX=Revision 4.10 
##DATA TYPE=MASS SPECTRUM
##SAMPLE DESCRIPTION=J.H.BOWIE UNIVERSITY OF ADELAIDE, ADELAIDE, AUSTRALIA
##NAMES=HP
##CAS NAME=Propanoic acid, 3-(butylthio)-
##MOLFORM=C7H14O2S
##CAS REGISTRY NO=22002-73-9
##MP= -300
##BP= -300
##MW= 162
##$RETENTION INDEX=0
##$CONDENSED SPECTRUM=NO
##NPOINTS= 26
##XYDATA=(XY..XY) 1 
    27        690
    28        370
    29        600
    39        200
    41        710
    43        150
    45        530
    46        200
    47        500
    54        130
    55        800
    56        870
    57        270
    59        200
    60        330
    61        990
    73        110
    74         60
    77        130
    88        130
    89        999
    90        140
    91         60
   106        260
   119        140
   162        170