##TITLE=Library Entry 28753
##JCAMP-DX=Revision 4.10 
##DATA TYPE=MASS SPECTRUM
##SAMPLE DESCRIPTION=Drug Lab
##NAMES=HP
##CAS NAME=N-Ethyl-2-phenethylamine
##MOLFORM=C10H15N
##CAS REGISTRY NO=22002-68-2
##MP= -300
##BP= -300
##MW= 149
##$RETENTION INDEX=0
##$CONDENSED SPECTRUM=NO
##NPOINTS= 52
##XYDATA=(XY..XY) 1 
    38          2
    39         25
    40          3
    41         11
    42         24
    43         11
    44          5
    50         11
    51         31
    52          8
    53          4
    54          2
    55          1
    56         47
    57          9
    58        999
    59         37
    62          4
    63         17
    64          4
    65         50
    66          3
    67          2
    74          3
    75          2
    76          4
    77         47
    78         19
    79         18
    80          1
    89         12
    90          5
    91         87
    92         11
    93          1
   102          4
   103         25
   104         14
   105         57
   106          5
   115          1
   117          4
   118          5
   119          3
   120          2
   130          2
   132          7
   134          3
   146          1
   147          1
   148          3
   149          5