##TITLE=Library Entry 47486
##JCAMP-DX=Revision 4.10 
##DATA TYPE=MASS SPECTRUM
##SAMPLE DESCRIPTION=NIST Mass Spectrometry Data Center, 1994
##NAMES=HP
##CAS NAME=3-Chloro-4-methoxytoluene
##MOLFORM=C8H9ClO
##CAS REGISTRY NO=22002-44-4
##MP= -300
##BP= -300
##MW= 156
##$RETENTION INDEX=0
##$CONDENSED SPECTRUM=NO
##NPOINTS= 85
##XYDATA=(XY..XY) 1 
    13          5
    14         23
    15        202
    16          4
    18          5
    25          3
    26         28
    27         82
    28          3
    29         42
    30         11
    31          4
    35          5
    36          6
    37         29
    38         50
    39        139
    40          9
    41         15
    43          9
    44          2
    45          2
    47          3
    49         33
    50        177
    51        392
    52        110
    53         75
    54          5
    55          6
    60         14
    61         46
    62         79
    63        152
    64         24
    65         78
    66          5
    72          9
    73         53
    74         53
    75         77
    76          5
    77        999
    78        178
    79         15
    84         12
    85         28
    86         28
    87         27
    88          9
    89        104
    90         25
    91        126
    92         12
    93         19
    96          3
    97         11
    99         22
   100          3
   101          5
   105         37
   106          9
   111         10
   112         25
   113        177
   114         19
   115         55
   116          4
   119          4
   121        383
   122         37
   123          4
   125         23
   126          5
   127          6
   139          2
   141        346
   142         30
   143        112
   144          7
   155         51
   156        515
   157         62
   158        162
   159         15