##TITLE=Library Entry 48928
##JCAMP-DX=Revision 4.10 
##DATA TYPE=MASS SPECTRUM
##SAMPLE DESCRIPTION=Chemical Concepts
##NAMES=HP
##CAS NAME=1,2-Di(prop-2-ynyl)cyclohexane
##MOLFORM=C12H16
##CAS REGISTRY NO=220078-91-1
##MP= -300
##BP= -300
##MW= 160
##$RETENTION INDEX=0
##$CONDENSED SPECTRUM=NO
##NPOINTS= 92
##XYDATA=(XY..XY) 1 
    26         11
    27        215
    28         20
    29        116
    30          3
    31          8
    37          8
    38         32
    39        517
    40         59
    41        547
    42         27
    43         92
    44          7
    45          8
    50         54
    51        189
    52         87
    53        308
    54         46
    55        288
    56         13
    57          5
    58          3
    61          6
    62         19
    63         79
    64         20
    65        227
    66         59
    67        472
    68         53
    69         92
    70          9
    71          3
    72          1
    73          2
    74         12
    75         19
    76         15
    77        542
    78        321
    79        999
    80        161
    81        950
    82         71
    83          4
    86          3
    87          5
    88          2
    89         20
    90         10
    91        628
    92        254
    93        462
    94         53
    95         95
    96          7
    98          2
   102         11
   103         48
   104        111
   105        167
   106         73
   107         10
   108         11
   115         57
   116         31
   117        437
   118        150
   119        143
   120         85
   121         88
   122          9
   127          5
   128         12
   129         23
   130         23
   131        244
   132         89
   133         14
   134          4
   135          2
   141          5
   142          3
   143         10
   144          4
   145        209
   146         25
   147          2
   159         45
   160          8