##TITLE=Library Entry 16428
##JCAMP-DX=Revision 4.10 
##DATA TYPE=MASS SPECTRUM
##SAMPLE DESCRIPTION=Drug Lab
##NAMES=HP
##CAS NAME=2,5-Dimethoxy-4-ethylamphetamine
##MOLFORM=C13H21NO2
##CAS REGISTRY NO=22004-32-6
##MP= -300
##BP= -300
##MW= 223
##$RETENTION INDEX=0
##$CONDENSED SPECTRUM=NO
##NPOINTS= 114
##XYDATA=(XY..XY) 1 
    40          3
    41         12
    42         20
    43         11
    44        999
    45         29
    50          3
    51         14
    52          7
    53         18
    54          4
    55          9
    56          3
    57          5
    58          2
    59          2
    62          1
    63          9
    64          4
    65         25
    66          7
    67         15
    68          2
    69          2
    71          1
    74          3
    75          3
    76          3
    77         63
    78         24
    79         31
    80          6
    81          5
    82          4
    83          3
    87          1
    89         13
    90          6
    91        122
    92         15
    93         18
    94          5
    95          3
    97         11
   101          1
   102          5
   103         31
   104         23
   105         37
   106         10
   107         13
   108          7
   109          5
   115         43
   116         12
   117         40
   118         12
   119         29
   120          9
   121         39
   122         18
   123          9
   124          1
   127          1
   128          4
   129          2
   130          5
   131         10
   132          8
   133         20
   134         32
   135         31
   136         15
   137         18
   138          2
   143          1
   144          2
   145          3
   146          6
   147         12
   148          9
   149         36
   150         17
   151         33
   152          4
   158          1
   159          1
   160          3
   161          7
   162          7
   163          8
   164         17
   165        311
   166         36
   167          3
   174          1
   175          2
   176          7
   177          5
   178          5
   179         61
   180        939
   181        110
   182          9
   190          4
   191          4
   192          5
   193          2
   206          2
   207          2
   208          4
   222          2
   223         19
   224          3