##TITLE=Library Entry 83723
##JCAMP-DX=Revision 4.10 
##DATA TYPE=MASS SPECTRUM
##SAMPLE DESCRIPTION=Exported from NIST MS Search
##NAMES=HP
##CAS NAME=Benzaldehyde, 2,4-dinitro-, azine
##MOLFORM=C14H8N6O8
##CAS REGISTRY NO=22014-28-4
##MP= -300
##BP= -300
##MW= 388
##$RETENTION INDEX=0
##$CONDENSED SPECTRUM=NO
##NPOINTS= 60
##XYDATA=(XY..XY) 1 
    38        140
    39        310
    40         30
    41        160
    42         20
    43        310
    44        180
    45        130
    46         10
    50        320
    51        360
    52        470
    53        110
    54         10
    62        270
    63        710
    64        470
    65        360
    66        140
    67         10
    74        230
    75        600
    76        340
    77        530
    78        290
    79        240
    80         20
    87        100
    88         10
    89        240
    90        530
    91        850
    92        250
    93        160
    94         10
   103        130
   104        120
   105        280
   106        120
   107        999
   108        120
   109         10
   117        190
   118        260
   119        310
   120        130
   121        120
   122         10
   134        310
   135        100
   136         10
   150        270
   151         30
   153        150
   154         20
   164        100
   165        300
   166         30
   181        130
   182         10