##TITLE=Library Entry 86198
##JCAMP-DX=Revision 4.10 
##DATA TYPE=MASS SPECTRUM
##SAMPLE DESCRIPTION=A.A.Kutin, Moscow, Russia
##NAMES=HP
##CAS NAME=Pyrazole-1,4-dicarboxylic acid, 5-amino-, diethyl ester
##MOLFORM=C9H13N3O4
##CAS REGISTRY NO=220131-60-2
##MP= -300
##BP= -300
##MW= 227
##$RETENTION INDEX=0
##$CONDENSED SPECTRUM=NO
##NPOINTS= 100
##XYDATA=(XY..XY) 1 
    34          2
    36          0
    38          3
    39         12
    40         55
    41         18
    42         22
    43         39
    44         47
    45         21
    46          0
    48          2
    51          8
    52        149
    53        134
    54        100
    55         31
    56         10
    57          6
    58          6
    59          3
    62          1
    64          4
    65          5
    66          5
    67         21
    68         36
    69         22
    70         12
    71         16
    72         12
    73          0
    74          2
    77          2
    78          1
    79          3
    80         17
    81         16
    82         30
    83         48
    84         24
    85          2
    91          3
    92          0
    93          4
    94          8
    95          6
    96         15
    97          7
    98         33
    99          2
   100          5
   102          0
   103          2
   104          6
   105          1
   106          1
   107          2
   109        999
   110        403
   111         67
   112          6
   113          0
   120          2
   122         57
   123          4
   124          1
   126         16
   127         70
   128         11
   129          0
   131          1
   134          2
   135          1
   136         19
   137        362
   138        104
   139          9
   140         17
   141          0
   150          1
   154         13
   155        332
   156         24
   157          2
   160          0
   168         22
   169          1
   176          0
   181          1
   182         84
   183         15
   184          3
   185          1
   187          1
   199          1
   206          5
   227        341
   228         37
   229          4