##TITLE=Library Entry 85220
##JCAMP-DX=Revision 4.10 
##DATA TYPE=MASS SPECTRUM
##SAMPLE DESCRIPTION=A.A.Kutin, Moscow, Russia
##NAMES=HP
##CAS NAME=1H-Pyrazole-1-carboxylic acid, 5-amino-4-cyano-, ethyl ester
##MOLFORM=C7H8N4O2
##CAS REGISTRY NO=220131-58-8
##MP= -300
##BP= -300
##MW= 180
##$RETENTION INDEX=0
##$CONDENSED SPECTRUM=NO
##NPOINTS= 76
##XYDATA=(XY..XY) 1 
    37          2
    38         41
    39         23
    40          9
    41         12
    42         29
    43         89
    44         16
    45         16
    47          0
    49          0
    50          3
    51         44
    52        227
    53        199
    54         60
    55          6
    56          1
    57          6
    59          0
    60          0
    63          3
    64         22
    65         21
    66         24
    67         36
    68          3
    69         30
    70          1
    71          0
    73          0
    74          0
    75          0
    76          0
    77         49
    78         36
    79        102
    80         42
    81         15
    82          0
    83          5
    84          0
    85          4
    87          0
    90          1
    91          3
    92         11
    93          4
    94         33
    95          1
    97          0
    99          0
   103          0
   104          4
   105          1
   107         27
   108        999
   109         79
   110          2
   113          0
   115          0
   119          1
   120          2
   121        287
   122         20
   125          0
   134          0
   135         20
   136          5
   137          0
   149          1
   150          0
   179          0
   180        168
   181         25
   182          1