##TITLE=Library Entry 43434
##JCAMP-DX=Revision 4.10 
##DATA TYPE=MASS SPECTRUM
##SAMPLE DESCRIPTION=Exported from NIST MS Search
##NAMES=HP
##CAS NAME=Methyl caffeate, 2TMS derivative
##MOLFORM=C16H26O4Si2
##CAS REGISTRY NO=22020-29-7
##MP= -300
##BP= -300
##MW= 338
##$RETENTION INDEX=0
##$CONDENSED SPECTRUM=NO
##NPOINTS= 81
##XYDATA=(XY..XY) 1 
    43         70
    44         70
    45        200
    46         20
    47         20
    50         30
    51         30
    52         50
    55         60
    56         20
    57         70
    59         50
    67         20
    69         30
    71         30
    72         10
    73        999
    74        100
    75        180
    79         50
    89         50
    91         20
    95         40
    97         20
   103         10
   105         10
   109         20
   111         20
   115         30
   117         60
   131         30
   132         10
   133         30
   135         10
   146         20
   147         90
   148         20
   149         20
   160         10
   161         10
   162         20
   163         20
   175         30
   177         10
   179         20
   189         10
   190         20
   191        110
   192         40
   193         20
   203         20
   205         10
   209         30
   219        800
   220        160
   221         80
   222         30
   223         20
   233         20
   239         10
   249         10
   250         50
   251         10
   263         10
   265         10
   266         10
   267         10
   279         10
   280         60
   281         10
   307         80
   308         30
   309         10
   311         10
   323         30
   324         10
   338        530
   339        200
   340        100
   341         40
   342         10