##TITLE=Library Entry 51894
##JCAMP-DX=Revision 4.10 
##DATA TYPE=MASS SPECTRUM
##SAMPLE DESCRIPTION=Chemical Concepts
##NAMES=HP
##CAS NAME=2-Butyne, 1,1-dimethoxy-
##MOLFORM=C6H10O2
##CAS REGISTRY NO=22022-34-0
##MP= -300
##BP= -300
##MW= 114
##$RETENTION INDEX=0
##$CONDENSED SPECTRUM=NO
##NPOINTS= 48
##XYDATA=(XY..XY) 1 
    25          3
    26         24
    27        124
    28         25
    29        289
    30         27
    31         25
    32          2
    33          1
    36          4
    37         39
    38         71
    39        216
    40         49
    41         28
    42         14
    43         12
    44          1
    45          5
    47          6
    49          8
    50         52
    51         61
    52         46
    53         94
    54         12
    55         15
    56          6
    57          3
    59         14
    65          1
    66         15
    67         62
    68        170
    69         38
    70          3
    71          1
    75          9
    81          6
    82         15
    83        999
    84         52
    85          3
    97          0
    99         40
   100          1
   113         27
   114          0