##TITLE=Library Entry 84925
##JCAMP-DX=Revision 4.10 
##DATA TYPE=MASS SPECTRUM
##SAMPLE DESCRIPTION=LAC, NIDDK, NIH, Bethesda, MD 20892
##NAMES=HP
##CAS NAME=4-Methylphenyl .beta.-phenylpropionate
##MOLFORM=C16H16O2
##CAS REGISTRY NO=22020-95-7
##MP= -300
##BP= -300
##MW= 240
##$RETENTION INDEX=0
##$CONDENSED SPECTRUM=NO
##NPOINTS= 45
##XYDATA=(XY..XY) 1 
    41         11
    42          1
    43          1
    50         14
    51         54
    52         21
    53         20
    54          1
    55          8
    62          3
    63         16
    64          5
    65         61
    66          4
    74          2
    75          3
    76          1
    77        137
    78         43
    79         74
    80         14
    81          1
    89         10
    91        391
    92         25
    93          1
   101          0
   102          6
   103         42
   104         35
   105        258
   106         24
   107         96
   108        999
   109         33
   110          4
   115          0
   124          1
   131         15
   132          5
   133         24
   134          2
   197          0
   240         37
   241          5