##TITLE=Library Entry 43654
##JCAMP-DX=Revision 4.10 
##DATA TYPE=MASS SPECTRUM
##SAMPLE DESCRIPTION=Exported from NIST MS Search
##NAMES=HP
##CAS NAME=Methyl 9,10-dihydroxystearate, (R*,S*)-, 2TMS derivative
##MOLFORM=C25H54O4Si2
##CAS REGISTRY NO=22032-79-7
##MP= -300
##BP= -300
##MW= 474
##$RETENTION INDEX=0
##$CONDENSED SPECTRUM=NO
##NPOINTS= 109
##XYDATA=(XY..XY) 1 
    41         70
    42         20
    43        100
    44        150
    45         50
    47         10
    54         20
    55        150
    56         30
    57         70
    58         10
    59         70
    67         80
    68         30
    69        220
    70         30
    71         50
    72         20
    73        999
    74        100
    75        150
    76         20
    77         20
    79         20
    81         70
    82         30
    83        130
    84         20
    85         30
    87         20
    89         30
    91         40
    93         30
    95         70
    96         20
    97         30
    99         20
   101         50
   103        130
   104         20
   105         30
   107         20
   109        100
   110         20
   111         20
   115         30
   116         20
   117         20
   119         30
   124         20
   125         20
   126         20
   129        120
   130         30
   131         30
   133         40
   135         20
   136         20
   137         30
   143         30
   146         50
   147        180
   148         30
   149         50
   155        180
   156         30
   157         20
   159         70
   160         20
   167         20
   168         20
   169         20
   190         30
   199         20
   201         30
   215        720
   216        150
   217         50
   243         50
   245         20
   258         20
   259        800
   260        150
   261         50
   271         20
   273         20
   316         20
   332         80
   333         30
   334         20
   353         90
   354         30
   355         10
   360         10
   361         50
   362         10
   369         40
   370         10
   373         20
   375         20
   427         30
   428         20
   429         10
   443        140
   444         70
   445         30
   459         60
   460         40
   461         10