##TITLE=Library Entry 45171
##JCAMP-DX=Revision 4.10 
##DATA TYPE=MASS SPECTRUM
##SAMPLE DESCRIPTION=Exported from NIST MS Search
##NAMES=HP
##CAS NAME=Octadecanoic acid, 9,10-epoxy-18-(trimethylsiloxy)-, methyl ester
, cis-
##MOLFORM=C22H44O4Si
##CAS REGISTRY NO=22032-78-6
##MP= -300
##BP= -300
##MW= 400
##$RETENTION INDEX=2731
##$CONDENSED SPECTRUM=NO
##NPOINTS= 171
##XYDATA=(XY..XY) 1 
    41        500
    42        100
    43        340
    44        120
    45        150
    46         10
    47         80
    49         20
    50         20
    51         20
    52         10
    53         60
    54        100
    55        850
    56         70
    57         20
    58         90
    59        250
    60         20
    61        110
    63         20
    65         30
    66         30
    67        530
    68        170
    69        430
    70         70
    71        130
    72         50
    73        820
    74        230
    75        999
    76         90
    77        160
    78         50
    79        220
    80        160
    81        520
    82        150
    83        250
    84         70
    85         70
    86         20
    87        140
    88         20
    89        130
    90         10
    91        200
    92         30
    93        250
    94        150
    95        340
    96        130
    97        200
    98        100
    99         60
   100         10
   101         90
   102         20
   103         20
   104         30
   105         90
   106         20
   107        150
   108        100
   109        150
   110         90
   111        120
   112         30
   113         40
   114         20
   115         70
   116         20
   117         50
   118         10
   119         50
   120         30
   121        150
   122         70
   123         90
   124         40
   125        100
   126         30
   127         30
   128         20
   129        120
   130         80
   131         80
   132         20
   133         50
   134         20
   135        130
   136         70
   137         50
   138         20
   139         50
   140         30
   141         30
   142         20
   143        100
   144         30
   145         40
   146         60
   147         70
   148         20
   149         80
   150         50
   151         20
   152         10
   153         50
   154         50
   155         50
   156         20
   157         50
   158         20
   159         80
   160         10
   161         20
   163         40
   164         30
   165         20
   167         20
   168         30
   169         40
   170         20
   171         40
   172         10
   173         20
   175         20
   177         20
   178         20
   179         20
   181         20
   182         20
   183         40
   185         60
   187         30
   188         20
   195         20
   196         20
   197         20
   199         60
   200         40
   201         30
   213         20
   214         50
   215         20
   217         20
   219         20
   243         30
   244         20
   245         20
   257         20
   258         20
   259         30
   260         10
   261         20
   271         20
   272         10
   285         10
   286         10
   335         30
   353         50
   354         20
   355         20
   367         30
   369         20
   382         20
   383         20
   385        100
   386         50