##TITLE=Library Entry 43157
##JCAMP-DX=Revision 4.10 
##DATA TYPE=MASS SPECTRUM
##SAMPLE DESCRIPTION=Vladimir Zaikin,TIPS RAS, Moscow, Russia
##NAMES=HP
##CAS NAME=1,3-Bis(hex-1-enyl)-4-trimethylsilylcyclopentane
##MOLFORM=C20H38Si
##CAS REGISTRY NO=220399-94-0
##MP= -300
##BP= -300
##MW= 306
##$RETENTION INDEX=0
##$CONDENSED SPECTRUM=NO
##NPOINTS= 75
##XYDATA=(XY..XY) 1 
    39         20
    40          8
    41         97
    42         10
    43         43
    44         58
    45         63
    50          8
    51         15
    53         14
    54         43
    55         54
    56          9
    57         19
    58         10
    59         99
    60          9
    65          8
    66         10
    67         60
    68         14
    69         11
    71         12
    72         10
    73        999
    74         88
    75         48
    77         23
    78          8
    79         40
    80         14
    81         23
    82         10
    83          9
    85         14
    91         37
    92         10
    93         20
    95         15
    96          9
    97         10
    99          8
   101          8
   105         20
   106          8
   107          8
   109         11
   110          9
   113         14
   119         12
   122         44
   123         15
   135         10
   141         40
   147         10
   148         14
   149         23
   161         11
   162          9
   167          8
   175         37
   176          9
   196        227
   197         40
   198          8
   205          8
   221         18
   222          9
   232         30
   233          9
   235          9
   291         25
   292          6
   306         19
   307          5