##TITLE=Library Entry 48768
##JCAMP-DX=Revision 4.10 
##DATA TYPE=MASS SPECTRUM
##SAMPLE DESCRIPTION=D.HENNEBERG, MAX-PLANCK INSTITUTE, MULHEIM, WEST GERMAN
Y
##NAMES=HP
##CAS NAME=1,3,6-Octatriene, (E,E)-
##MOLFORM=C8H12
##CAS REGISTRY NO=22038-69-3
##MP= -300
##BP= -300
##MW= 108
##$RETENTION INDEX=1073
##$CONDENSED SPECTRUM=NO
##NPOINTS= 76
##XYDATA=(XY..XY) 1 
    25          1
    26         17
    27        197
    28         23
    29         77
    30          1
    32          0
    34          0
    35          1
    36          0
    37         11
    38         28
    39        353
    40         58
    41        288
    42         16
    43          7
    44          0
    45          2
    46          1
    48          0
    49          5
    50         49
    51        118
    52         64
    53        152
    54         56
    55         53
    56          6
    57          0
    58          1
    59          1
    60          0
    61          4
    62         12
    63         38
    64         12
    65        162
    66        256
    67        140
    68         16
    69          2
    70          0
    71          0
    73          2
    74          9
    75         29
    76          8
    77        767
    78        208
    79        999
    80        183
    81         37
    82          2
    85          0
    86          0
    87          2
    88          0
    89         16
    90          5
    91        504
    92         61
    93        536
    94         42
    95          1
    98          0
   101          0
   102          1
   103          9
   104          3
   105         30
   106         11
   107         30
   108        273
   109         25
   110          1