##TITLE=Library Entry 43648
##JCAMP-DX=Revision 4.10 
##DATA TYPE=MASS SPECTRUM
##SAMPLE DESCRIPTION=Exported from NIST MS Search
##NAMES=HP
##CAS NAME=Octadecanoic acid, 9,10,18-tris(trimethylsiloxy)-, methyl ester,
 threo-
##MOLFORM=C28H62O5Si3
##CAS REGISTRY NO=22032-81-1
##MP= -300
##BP= -300
##MW= 562
##$RETENTION INDEX=0
##$CONDENSED SPECTRUM=NO
##NPOINTS= 86
##XYDATA=(XY..XY) 1 
    41         70
    42         10
    43         70
    44         20
    45         50
    47         10
    54         20
    55        180
    56         10
    57         40
    58         10
    59         60
    61         20
    67        170
    68         20
    70         20
    71         10
    72         20
    73        999
    74        110
    75        250
    76         10
    77         10
    79         10
    81        200
    82         20
    83         40
    85         10
    87         10
    89         30
    91         20
    93         10
    94         10
    95         70
    96         10
    97         20
    99         10
   101         50
   103        140
   104         10
   105         30
   107         10
   109         80
   110         10
   115         10
   116         10
   117         10
   119         10
   121         10
   122         30
   123         50
   129        210
   130         30
   131         30
   133         30
   135         10
   137         10
   143         10
   146         10
   147        210
   148         30
   149         50
   155        100
   156         10
   157         10
   159         30
   163         10
   169         10
   178         10
   212         10
   213         10
   227         10
   229         10
   243         40
   259        500
   260        110
   261         30
   303        240
   304         70
   305         30
   332         60
   333         30
   334         10
   531         20
   547         30
   548         10