##TITLE=Library Entry 49771
##JCAMP-DX=Revision 4.10 
##DATA TYPE=MASS SPECTRUM
##SAMPLE DESCRIPTION=Japan AIST/NIMC Database- Spectrum MS-NW-4576
##NAMES=HP
##CAS NAME=1-Hexyne, 5-methyl-
##MOLFORM=C7H12
##CAS REGISTRY NO=2203-80-7
##MP= -300
##BP= -300
##MW= 96
##$RETENTION INDEX=655
##$CONDENSED SPECTRUM=NO
##NPOINTS= 63
##XYDATA=(XY..XY) 1 
    14          2
    15         13
    16          1
    25          1
    26         20
    27        253
    28         13
    29        346
    30          8
    31          1
    32          1
    36          1
    37         15
    38         33
    39        324
    40         54
    41        747
    42         73
    43        260
    44         15
    45          2
    49          5
    50         43
    51         69
    52         45
    53        283
    54        139
    55        229
    56        509
    57        477
    58         22
    59          1
    60          2
    61          4
    62          7
    63         13
    64          2
    65         44
    66         32
    67        124
    68        125
    69         12
    70          9
    71          2
    73          2
    74          6
    75          3
    76          1
    77         56
    78          9
    79        198
    80         22
    81        999
    82         68
    83          4
    84          1
    91          8
    92          2
    93          5
    94          3
    95         43
    96          5
    97          1