##TITLE=Library Entry 59551
##JCAMP-DX=Revision 4.10 
##DATA TYPE=MASS SPECTRUM
##SAMPLE DESCRIPTION=NIST Mass Spectrometry Data Center, 1994
##NAMES=HP
##CAS NAME=2-Benzyloxyphenylacetic acid
##MOLFORM=C15H14O3
##CAS REGISTRY NO=22047-88-7
##MP= -300
##BP= -300
##MW= 242
##$RETENTION INDEX=0
##$CONDENSED SPECTRUM=NO
##NPOINTS= 68
##XYDATA=(XY..XY) 1 
    26          4
    27         16
    28          1
    29          4
    37          2
    38         12
    39         87
    40          6
    41         17
    42          2
    43          0
    44          1
    45         17
    50         24
    51         73
    52         33
    53         15
    54          1
    55          2
    60          0
    61          2
    62         11
    63         42
    64          0
    65        144
    66         11
    67          1
    69          0
    73          0
    74          4
    75          5
    76          0
    77         81
    78         53
    79         19
    80          1
    81          2
    82          1
    83          1
    86          1
    87          1
    89         30
    91        999
    92         78
    93          3
    98          3
   105          7
   106          7
   107         31
   108         15
   109          3
   115          1
   128          1
   134         50
   135          6
   136          1
   141          0
   151          0
   152          2
   153          1
   165          1
   166          0
   167          1
   178          0
   181          1
   242         38
   243          6
   244          0