##TITLE=Library Entry 53587
##JCAMP-DX=Revision 4.10 
##DATA TYPE=MASS SPECTRUM
##SAMPLE DESCRIPTION=Japan AIST/NIMC Database- Spectrum MS-IW-6281
##NAMES=HP
##CAS NAME=Ethyl 1-pyrrolidineacetate
##MOLFORM=C8H15NO2
##CAS REGISTRY NO=22041-19-6
##MP= -300
##BP= -300
##MW= 157
##$RETENTION INDEX=0
##$CONDENSED SPECTRUM=NO
##NPOINTS= 44
##XYDATA=(XY..XY) 1 
    15          9
    26          3
    27         21
    28         25
    29         28
    30         22
    31          8
    39          9
    40          2
    41         23
    42        134
    43         11
    44          2
    45          3
    46          1
    53          4
    54          9
    55         78
    56         30
    57          9
    58          2
    59          2
    60          2
    67          3
    68          3
    69          4
    70         16
    71          5
    80          3
    82         14
    83          8
    84        999
    85         65
    86          2
    97          3
    98          1
   100          4
   110          1
   116          1
   128          8
   129          2
   156          4
   157         74
   158          9