##TITLE=Library Entry 6969
##JCAMP-DX=Revision 4.10 
##DATA TYPE=MASS SPECTRUM
##SAMPLE DESCRIPTION=NIST Mass Spectrometry Data Center, 1994
##NAMES=HP
##CAS NAME=Acetylpyrazine
##MOLFORM=C6H6N2O
##CAS REGISTRY NO=22047-25-2
##MP= -300
##BP= -300
##MW= 122
##$RETENTION INDEX=1023
##$CONDENSED SPECTRUM=NO
##NPOINTS= 53
##XYDATA=(XY..XY) 1 
    12          9
    13         21
    14         66
    15        210
    16          2
    18          2
    24          7
    25         45
    26        218
    27         34
    28        229
    29         14
    32          0
    36          7
    37         52
    38         70
    39         87
    40         55
    41         29
    42        136
    43        999
    44         25
    48          2
    49         12
    50         36
    51        193
    52        558
    53        412
    54         23
    55          1
    62          4
    63          7
    64          8
    65          4
    66         14
    67         19
    68          8
    69          1
    75          4
    76          7
    77         10
    78          1
    79        280
    80        442
    81         50
    82          2
    94        299
    95         19
   107         36
   108          3
   122        402
   123         31
   124          2