##TITLE=Library Entry 14516
##JCAMP-DX=Revision 4.10 
##DATA TYPE=MASS SPECTRUM
##SAMPLE DESCRIPTION=H. Fales, LC, NHLBI, NIH, Bethesda, MD 20892
##NAMES=HP
##CAS NAME=Tiomesterone
##MOLFORM=C24H34O4S2
##CAS REGISTRY NO=2205-73-4
##MP= -300
##BP= -300
##MW= 450
##$RETENTION INDEX=0
##$CONDENSED SPECTRUM=NO
##NPOINTS= 236
##XYDATA=(XY..XY) 1 
    41        372
    43        999
    44        496
    45         42
    47         49
    49         32
    51         35
    53        152
    54         22
    55        382
    56         24
    57        147
    58         69
    59        160
    60         27
    61         69
    65        107
    66         27
    67        234
    68         26
    69        144
    71        265
    72         30
    73         38
    76         29
    77        288
    78         66
    79        306
    80         36
    81        274
    82         31
    83         75
    84         36
    85        134
    86         29
    87         41
    91        514
    92         76
    93        301
    94         48
    95        284
    97        160
    99         69
   101         26
   103         82
   104         40
   105        397
   106         99
   107        417
   108         87
   109        168
   110         29
   111        197
   112         22
   113         49
   115        190
   116         72
   117        177
   118         56
   119        334
   120         75
   121        749
   122        165
   123        124
   124         29
   125         96
   127         75
   128        181
   129        226
   130         71
   131        238
   132         69
   133        265
   134        117
   135        255
   136         40
   137         81
   139         76
   140         22
   141        143
   142         90
   143        181
   144         81
   145        285
   146        124
   147        663
   148        106
   149        109
   150         28
   151        183
   152         56
   153        172
   154         55
   155        175
   156         61
   157        383
   158        171
   159        456
   160        106
   161        190
   162         34
   163        131
   164         96
   165        189
   166         55
   167        104
   168         44
   169        110
   170         50
   171        653
   172        251
   173        492
   174        105
   175         77
   177        149
   178         42
   179         79
   180         32
   181         71
   182         39
   183        103
   184         52
   185        197
   186         57
   187         92
   189        123
   190         22
   191         49
   192         22
   193         62
   194         26
   195         76
   196         41
   197        122
   198         50
   199        109
   200         32
   201         69
   203         34
   205         55
   206         61
   207         52
   208         29
   209         99
   210         45
   211        169
   212         56
   213        140
   214         56
   215         58
   217         37
   219         22
   221         31
   222         72
   223        124
   224         45
   225        265
   226         74
   227        250
   228         96
   229        101
   230         21
   231         27
   235         22
   237         60
   238         48
   239        167
   240        288
   241        267
   242         49
   243         39
   247         21
   251         20
   253         41
   254         20
   255         49
   256         31
   257         27
   259         24
   261        114
   262         35
   263         65
   265        179
   266         39
   267         27
   269         20
   271         40
   272         26
   273         54
   274        218
   275         93
   276         26
   279         75
   280        149
   281        556
   282        135
   283        225
   284         46
   289         28
   297        104
   298        654
   299        779
   300        162
   301         30
   307         22
   313         51
   314        116
   315        122
   316         52
   317        142
   318         26
   323        184
   324         43
   331        162
   332        316
   333        310
   334         73
   335         20
   341         88
   342         22
   347         22
   356        109
   357        116
   358         30
   365         82
   374        295
   375        396
   376        102
   377         28
   390         22
   407         75
   408         24
   409          4
   417          3
   432          2
   450          4