##TITLE=Library Entry 81566
##JCAMP-DX=Revision 4.10 
##DATA TYPE=MASS SPECTRUM
##SAMPLE DESCRIPTION=A.A.Kutin, Moscow, Russia
##NAMES=HP
##CAS NAME=Benzenacetamide, 2-hydroxy-2-phenyl-N-benzyl-N-phenyl-
##MOLFORM=C27H23NO2
##CAS REGISTRY NO=22050-88-0
##MP= -300
##BP= -300
##MW= 393
##$RETENTION INDEX=0
##$CONDENSED SPECTRUM=NO
##NPOINTS= 118
##XYDATA=(XY..XY) 1 
    33          4
    34          0
    39         95
    41         31
    43          1
    44          1
    51        218
    52         20
    53          6
    54          1
    55          1
    56          0
    57          1
    58          0
    63         52
    65        216
    67          0
    69          0
    70          0
    71          0
    73          0
    74          9
    75         14
    77        864
    78         52
    79          4
    80          0
    82          0
    83          2
    84          1
    86          4
    87          4
    89         36
    91        844
    92         44
    94          0
    98          1
    99          1
   100          1
   101          2
   102          5
   105        999
   106         68
   107          3
   108          0
   110          0
   111          0
   113          3
   115         13
   116          1
   117          0
   119         15
   120          3
   121          1
   126          6
   127          7
   128          5
   129          1
   130          0
   132          0
   133          0
   134          0
   137          1
   138          1
   139         10
   140          1
   141          1
   143          0
   150          2
   151         10
   152         32
   153         17
   154         11
   155          3
   156          0
   163         10
   165         63
   166         17
   167         10
   168          2
   169          0
   176          0
   177          0
   178          2
   180         32
   181         37
   183        954
   184        111
   185          8
   186          0
   190          0
   193          0
   194          4
   195          0
   196          0
   197          0
   207          0
   208          5
   211        410
   212         55
   213          4
   214          0
   226          0
   239          0
   241          0
   253          0
   254          0
   256          0
   257          0
   258          0
   269          0
   270          0
   298          0
   299          0
   376          1
   377          0
   393          0
   394          0