##TITLE=Library Entry 4879
##JCAMP-DX=Revision 4.10 
##DATA TYPE=MASS SPECTRUM
##SAMPLE DESCRIPTION=A.A.Kutin, Moscow, Russia
##NAMES=HP
##CAS NAME=Acetamide, oxime
##MOLFORM=C2H6N2O
##CAS REGISTRY NO=22059-22-9
##MP= -300
##BP= -300
##MW= 74
##$RETENTION INDEX=0
##$CONDENSED SPECTRUM=NO
##NPOINTS= 19
##XYDATA=(XY..XY) 1 
    33         17
    34          1
    36          0
    38         17
    40        105
    42        999
    43         82
    44         59
    46          1
    47          0
    53         14
    55        116
    56         20
    57         47
    58         47
    59         50
    61          0
    74        605
    75         25