##TITLE=Library Entry 32770
##JCAMP-DX=Revision 4.10 
##DATA TYPE=MASS SPECTRUM
##SAMPLE DESCRIPTION=S.A. Rang et al., IR & MS of Unsatd. Hydrocarbons, 1977
##NAMES=HP
##CAS NAME=4-Dodecyne
##MOLFORM=C12H22
##CAS REGISTRY NO=22058-01-1
##MP= -300
##BP= -300
##MW= 166
##$RETENTION INDEX=1203
##$CONDENSED SPECTRUM=NO
##NPOINTS= 113
##XYDATA=(XY..XY) 1 
    15          2
    24          0
    25          1
    26         14
    27        218
    29        269
    30          6
    31          2
    36          0
    37          1
    38          5
    39        159
    40         38
    41        538
    42         92
    43        428
    44         14
    45          8
    46          0
    47          0
    49          0
    50          8
    51         35
    52         54
    53        151
    54        336
    55        471
    56         92
    57        126
    58         14
    59          3
    60         56
    61          6
    62          1
    63          7
    64          3
    65         46
    66         44
    67        999
    68        168
    69        134
    70         33
    71         47
    72          3
    73         25
    74          3
    75          3
    76          1
    77         52
    78         14
    79        100
    80         29
    81        630
    82        210
    83         84
    84         15
    85         31
    86          4
    87          7
    88          1
    89          1
    90          0
    91         21
    92          3
    93         25
    94          8
    95        252
    96        100
    97         16
    98          5
    99          4
   100          1
   101          2
   102          0
   103          1
   104          0
   105          3
   106          0
   107          6
   108          3
   109        143
   110         63
   111          7
   112          2
   113          3
   114          0
   115          1
   116          0
   117          0
   119          1
   120          0
   121          2
   122          2
   123        201
   124         67
   125          6
   126          1
   127          2
   128          1
   135          8
   136          0
   137         45
   138          6
   139          1
   149          1
   151         11
   152          1
   153          0
   162          0
   165          0
   166          3
   167          0
   168          0