##TITLE=Library Entry 32498
##JCAMP-DX=Revision 4.10 
##DATA TYPE=MASS SPECTRUM
##SAMPLE DESCRIPTION=H. Luftmann, Org. Chem. Inst., Westfalisch Wilhelms Uni
v., Munster, Germany
##NAMES=HP
##CAS NAME=1-Cyclopenteneacetic acid, 5-oxo-
##MOLFORM=C7H8O3
##CAS REGISTRY NO=22060-62-4
##MP= -300
##BP= -300
##MW= 140
##$RETENTION INDEX=0
##$CONDENSED SPECTRUM=NO
##NPOINTS= 34
##XYDATA=(XY..XY) 1 
    39        380
    40        320
    41        920
    42        220
    43        500
    44        110
    45        230
    50        110
    51        170
    53        390
    55        470
    56        190
    57        390
    65        420
    66        470
    67        999
    68        310
    69        350
    70        200
    71        220
    81        230
    83        210
    85        130
    94        140
    95        470
    96        770
    97        260
    98         15
   111        150
   112         10
   122         70
   123         40
   140        190
   141         15