##TITLE=Library Entry 18876
##JCAMP-DX=Revision 4.10 
##DATA TYPE=MASS SPECTRUM
##SAMPLE DESCRIPTION=NIST Mass Spectrometry Data Center, 1998.
##NAMES=HP
##CAS NAME=2-Propenoic acid, 2-chloroethyl ester
##MOLFORM=C5H7ClO2
##CAS REGISTRY NO=2206-89-5
##MP= -300
##BP= -300
##MW= 134
##$RETENTION INDEX=0
##$CONDENSED SPECTRUM=NO
##NPOINTS= 67
##XYDATA=(XY..XY) 1 
    14          2
    15          4
    24          1
    25          6
    26         53
    27        229
    28         14
    29         21
    30          6
    31         12
    35          2
    36          2
    37          2
    38          2
    39          3
    41          3
    42         10
    43         14
    44          7
    45          5
    47          3
    48          5
    49         33
    50          8
    51         11
    52          3
    53         18
    54         15
    55        999
    56         35
    57          4
    60          2
    61          7
    62        189
    63         55
    64         60
    65         16
    69          1
    70         20
    71          4
    72          3
    73         33
    74          1
    75          3
    76          1
    77          1
    78          2
    79          2
    80          1
    81          5
    85        204
    86          9
    87          1
    88          7
    89          2
    90          2
    91          1
    92          1
    97          5
    98          4
    99        146
   100          8
   101          1
   104         11
   105          1
   106          4
   116          1