##TITLE=Library Entry 67501
##JCAMP-DX=Revision 4.10 
##DATA TYPE=MASS SPECTRUM
##SAMPLE DESCRIPTION=Exported from NIST MS Search
##NAMES=HP
##CAS NAME=Benzene, (cyclohexyloxy)-
##MOLFORM=C12H16O
##CAS REGISTRY NO=2206-38-4
##MP= -300
##BP= -300
##MW= 176
##$RETENTION INDEX=0
##$CONDENSED SPECTRUM=NO
##NPOINTS= 119
##XYDATA=(XY..XY) 1 
    15          1
    18          1
    26          1
    27         19
    28          3
    29         17
    30          1
    31          1
    32          1
    37          1
    38          3
    39         42
    40          7
    41         68
    50          5
    51         23
    52          4
    53         13
    54         20
    55         85
    56          4
    57          1
    58          1
    61          1
    62          1
    63          6
    64          3
    65         24
    66         20
    67         60
    68          4
    69          1
    70          1
    71          1
    72          1
    73          1
    74          1
    75          1
    76          2
    77         39
    78          5
    79         13
    80          3
    81         19
    82         11
    83         15
    84          1
    89          1
    90          1
    91         18
    92          3
    93          4
    94        999
    95         77
    96          5
    97          1
    98          1
   100          1
   101          1
   102          1
   103          2
   104          1
   105          5
   106          2
   107         11
   108          2
   109          1
   110          1
   115          4
   116          1
   117          1
   118          1
   119          2
   120         14
   121          4
   122          1
   127          1
   128          1
   129          1
   130          1
   131         12
   132          3
   133          7
   134          1
   135          1
   136          1
   139          1
   141          3
   142          2
   143          1
   144          4
   145          8
   146          3
   147          5
   148          1
   149          1
   150          1
   151          1
   152          1
   153          1
   154          1
   155          1
   157          1
   158          1
   159          6
   160          1
   161          2
   162          1
   168          1
   169          1
   170          6
   171          1
   172          2
   173          1
   174         19
   175          3
   176        134
   177         13
   178          1