##TITLE=Library Entry 21069
##JCAMP-DX=Revision 4.10 
##DATA TYPE=MASS SPECTRUM
##SAMPLE DESCRIPTION=Exported from NIST MS Search
##NAMES=HP
##CAS NAME=Cyclohexane, 1,4-dimethyl-, trans-
##MOLFORM=C8H16
##CAS REGISTRY NO=2207-04-7
##MP= -300
##BP= -300
##MW= 112
##$RETENTION INDEX=786
##$CONDENSED SPECTRUM=NO
##NPOINTS= 65
##XYDATA=(XY..XY) 1 
    14          1
    15         31
    16          1
    26         10
    27        209
    28         61
    29        185
    30          4
    37          2
    38          5
    39        186
    40         38
    41        432
    42        171
    43         97
    44          3
    45          1
    46          2
    47          1
    50          3
    51         14
    52          8
    53         59
    54         39
    55        999
    56        246
    57         71
    58          3
    62          1
    63          2
    64          1
    65          9
    66          6
    67         41
    68         23
    69        161
    70        116
    71         14
    72          1
    75          1
    77          9
    78          2
    79          7
    80          1
    81         18
    82         23
    83        104
    84         67
    85          6
    89          1
    91          3
    92          1
    93          1
    94          1
    95          5
    96         56
    97        929
    98         70
    99          2
   109          1
   110          1
   111         14
   112        348
   113         30
   114          1