##TITLE=Library Entry 77002
##JCAMP-DX=Revision 4.10 
##DATA TYPE=MASS SPECTRUM
##SAMPLE DESCRIPTION=V.Zaikin,Topchiev Inst.Petrochem.Synth.,Moscow
##NAMES=HP
##CAS NAME=Benzenepropanoic acid, hexyl ester
##MOLFORM=C15H22O2
##CAS REGISTRY NO=220766-75-6
##MP= -300
##BP= -300
##MW= 234
##$RETENTION INDEX=1721
##$CONDENSED SPECTRUM=NO
##NPOINTS= 102
##XYDATA=(XY..XY) 1 
    27         31
    28         10
    29         44
    30          4
    31          7
    36         14
    37          9
    38         18
    39        109
    40         21
    41        180
    42         60
    43        418
    44         46
    45         20
    46          2
    49          8
    50         70
    51        145
    52         40
    53         33
    54         11
    55        110
    56         43
    57         59
    58          7
    60          7
    61         10
    62         19
    63         51
    64         10
    65        101
    66          5
    67         11
    68          3
    69         30
    70          3
    71          5
    72         21
    73         17
    74         31
    75         26
    76         29
    77        202
    78        174
    79        109
    80          8
    81          4
    82          5
    83         10
    84         29
    85         59
    86          8
    87          4
    88          2
    89         29
    90         10
    91        940
    92         86
    93          6
    94          4
    95          4
    96          5
    97          9
    98          5
    99          4
   101          6
   102         30
   103        137
   104        999
   105        404
   106         37
   107        187
   108         15
   111          4
   113          3
   115          3
   117          4
   118          2
   119          3
   121          5
   122          3
   123          2
   129          3
   130          6
   131         36
   132         62
   133         78
   134          6
   139         12
   141          4
   145          2
   146          3
   147          7
   148          8
   149         38
   150        412
   151         57
   152          3
   233          3
   234        102
   235         17