##TITLE=Library Entry 22763
##JCAMP-DX=Revision 4.10 
##DATA TYPE=MASS SPECTRUM
##SAMPLE DESCRIPTION=Dr. P.K. Shah, NYC Police Laboratory, NY
##NAMES=HP
##CAS NAME=Aminorex
##MOLFORM=C9H10N2O
##CAS REGISTRY NO=2207-50-3
##MP= -300
##BP= -300
##MW= 162
##$RETENTION INDEX=0
##$CONDENSED SPECTRUM=NO
##NPOINTS= 59
##XYDATA=(XY..XY) 1 
    37          5
    38         15
    39         58
    40          9
    41         18
    42          9
    43         14
    44         91
    45          2
    49          3
    50         49
    51        104
    52         26
    53          8
    54          4
    55        115
    56        999
    57         36
    59          2
    61          6
    62         24
    63         63
    64         21
    65         69
    66          6
    73          3
    74         15
    75         11
    76         12
    77        140
    78         39
    79         80
    80          6
    85          3
    86          4
    87          4
    89         91
    90         49
    91        259
    92         42
    93          4
   102          7
   103         15
   104         24
   105         51
   106          8
   107         77
   108          7
   116          8
   117         52
   118        371
   119        199
   120         18
   128          5
   145          3
   161         79
   162        217
   163         24
   164          2