##TITLE=Library Entry 84352
##JCAMP-DX=Revision 4.10 
##DATA TYPE=MASS SPECTRUM
##SAMPLE DESCRIPTION=NIST Mass Spectrometry Data Center
##NAMES=HP
##CAS NAME=2-((3R,3aR,3bS,4R,7R,7aS)-3,7-Dimethyloctahydro-1H-cyclopenta[1,3
]cyclopropa[1,2]benzen-4-yl)propan-2-ol
##MOLFORM=C15H26O
##CAS REGISTRY NO=220766-71-2
##MP= -300
##BP= -300
##MW= 222
##$RETENTION INDEX=1595
##$CONDENSED SPECTRUM=NO
##NPOINTS= 69
##XYDATA=(XY..XY) 1 
    27         15
    29         28
    31         29
    39         43
    41        126
    42         10
    43        130
    52          9
    53         50
    55        136
    59        492
    60         17
    65         43
    66         12
    67        189
    68         18
    69         53
    71         29
    77        110
    78         33
    79        207
    80         27
    81        344
    82        154
    83         94
    91        156
    92         26
    93        275
    94         40
    95        174
    97         20
   105        109
   106         35
   107        999
   108        187
   109         37
   110         22
   111         22
   115         33
   116         12
   117         29
   120         28
   121        145
   122         61
   123         41
   131         39
   133         44
   134         15
   135        100
   138         13
   139         14
   145         37
   146         55
   147         36
   149        184
   150         25
   151         17
   161         20
   162         65
   163        963
   164        247
   165         22
   188          9
   189         26
   204         35
   205         11
   207         12
   222         49
   223          7