##TITLE=Library Entry 79524
##JCAMP-DX=Revision 4.10 
##DATA TYPE=MASS SPECTRUM
##SAMPLE DESCRIPTION=Patti Price, Georgia Bureau of Investigation, Decatur,
 Georgia
##NAMES=HP
##CAS NAME=Ketoprofen
##MOLFORM=C16H14O3
##CAS REGISTRY NO=22071-15-4
##MP= -300
##BP= -300
##MW= 254
##$RETENTION INDEX=2185
##$CONDENSED SPECTRUM=NO
##NPOINTS= 56
##XYDATA=(XY..XY) 1 
    43         39
    50         52
    51        257
    53         18
    57          1
    61          3
    62         16
    63         59
    65         22
    67          7
    74         27
    75         36
    76         76
    77        975
    78        188
    79         39
    87          8
    88         10
    89         21
    91         35
   103        262
   104        100
   105        999
   106         59
   111          3
   127          9
   128         11
   130          3
   131         61
   132          9
   133         12
   139         10
   147          7
   149         32
   151         23
   152         31
   153         11
   162          2
   165         58
   166         27
   176         12
   177        371
   178         72
   179         12
   181        147
   182         25
   191         11
   194         62
   207          7
   208         27
   209        345
   210        133
   211         12
   254        323
   255         48
   256          7