##TITLE=Library Entry 21067
##JCAMP-DX=Revision 4.10 
##DATA TYPE=MASS SPECTRUM
##SAMPLE DESCRIPTION=NIST Mass Spectrometry Data Center, 1990.
##NAMES=HP
##CAS NAME=Cyclohexane, 1,3-dimethyl-, trans-
##MOLFORM=C8H16
##CAS REGISTRY NO=2207-03-6
##MP= -300
##BP= -300
##MW= 112
##$RETENTION INDEX=807
##$CONDENSED SPECTRUM=NO
##NPOINTS= 56
##XYDATA=(XY..XY) 1 
    14          2
    15         21
    16          1
    26         15
    27        180
    28         40
    29        132
    30          1
    32          0
    37          4
    39        246
    40         56
    41        434
    42        206
    43        118
    44          6
    45          1
    46          2
    49          1
    50         11
    51         28
    52         12
    53         68
    54          1
    55        999
    56        286
    57         59
    58          2
    62          3
    63          6
    64          2
    65         19
    66          7
    67         58
    68         35
    69        246
    70        128
    71         19
    77         17
    78          5
    79         17
    80          3
    81         30
    82         17
    83         72
    84         54
    85          4
    91          5
    93          2
    96        124
    97        916
    98         81
    99          3
   112        349
   113         34
   114          1