##TITLE=Library Entry 56867
##JCAMP-DX=Revision 4.10 
##DATA TYPE=MASS SPECTRUM
##SAMPLE DESCRIPTION=Exported from NIST MS Search
##NAMES=HP
##CAS NAME=Phosphonothioic acid, morpholino-, O,O-diphenyl ester
##MOLFORM=C16H18NO3PS
##CAS REGISTRY NO=22077-43-6
##MP= -300
##BP= -300
##MW= 335
##$RETENTION INDEX=0
##$CONDENSED SPECTRUM=NO
##NPOINTS= 120
##XYDATA=(XY..XY) 1 
    29         66
    30         50
    31         33
    32         26
    35         50
    36         73
    37         10
    38         26
    39         90
    40         26
    41         36
    42         66
    43         10
    44          6
    47         66
    48         23
    49         26
    50         43
    51        126
    52         10
    53         10
    54         33
    55         66
    56        210
    57         33
    58         23
    59         26
    60         16
    61         16
    62         16
    63        166
    64         23
    65        133
    66         66
    67          6
    68         23
    69         26
    70        110
    71         16
    74         10
    75          6
    76         10
    77        400
    78         43
    79         20
    80         10
    82         33
    84         50
    86        999
    87         66
    91         26
    92         16
    93         16
    94        466
    95         66
    96         16
    97         43
   102         26
   103          6
   104         10
   105         40
   106          6
   107         10
   108         10
   109        183
   110         33
   111         10
   116         60
   118         23
   119         16
   120         10
   125         10
   132         26
   140          6
   141          6
   148         66
   152         26
   153         30
   154          6
   155        160
   156         60
   157         33
   168         26
   172         40
   184         73
   196          6
   197          6
   198          6
   199          6
   210        200
   211          6
   216         16
   217        966
   218        126
   225         16
   226        476
   227         50
   242        133
   243         16
   244         43
   249        216
   250         33
   251          6
   258         10
   262          6
   278        260
   279         33
   280         16
   292        266
   293         26
   294         10
   302        499
   303         86
   304         16
   320        100
   321         16
   334         20
   335        816
   336        150
   337         33