##TITLE=Library Entry 21062
##JCAMP-DX=Revision 4.10 
##DATA TYPE=MASS SPECTRUM
##SAMPLE DESCRIPTION=Japan AIST/NIMC Database- Spectrum MS-NW-1104
##NAMES=HP
##CAS NAME=Cyclohexane, 1,2-dimethyl-, cis-
##MOLFORM=C8H16
##CAS REGISTRY NO=2207-01-4
##MP= -300
##BP= -300
##MW= 112
##$RETENTION INDEX=833
##$CONDENSED SPECTRUM=NO
##NPOINTS= 57
##XYDATA=(XY..XY) 1 
    14          2
    15          9
    26          8
    27        150
    28          9
    29        144
    30          3
    32          1
    37          2
    38          8
    39        170
    40         27
    41        461
    42        275
    43        134
    44         10
    45          3
    50          9
    51         17
    52          7
    53         58
    54         34
    55        999
    56        354
    57         94
    58          4
    59          1
    62          2
    63          5
    65         10
    66          5
    67         59
    68         63
    69        268
    70        396
    71         43
    72          2
    77         10
    78          3
    79          9
    80          2
    81         12
    82        107
    83        418
    84        118
    85          8
    91          4
    93          1
    95          5
    96         14
    97        699
    98         54
    99          2
   111          8
   112        319
   113         30
   114          1