##TITLE=Library Entry 86033
##JCAMP-DX=Revision 4.10 
##DATA TYPE=MASS SPECTRUM
##SAMPLE DESCRIPTION=NIST Mass Spectrometry Data Center
##NAMES=HP
##CAS NAME=(4aS,5S,8aS)-5-Isopentyl-1,1,4a,6-tetramethyl-1,2,3,4,4a,5,8,8a-o
ctahydronaphthalene
##MOLFORM=C19H34
##CAS REGISTRY NO=220766-81-4
##MP= -300
##BP= -300
##MW= 262
##$RETENTION INDEX=1836
##$CONDENSED SPECTRUM=NO
##NPOINTS= 69
##XYDATA=(XY..XY) 1 
    27         18
    29         40
    39         35
    40         10
    41        234
    42         18
    43        165
    53         59
    54          8
    55        234
    56         33
    57         84
    65         32
    66         12
    67        164
    68        287
    69        405
    70         64
    71         37
    77         87
    78         15
    79        150
    80         78
    81        379
    82        579
    83        119
    84         14
    91        122
    92         22
    93        110
    94         92
    95        768
    96        224
    97         62
   103         15
   105        101
   106         30
   107        146
   108         39
   109        999
   110         99
   111         32
   115         19
   118         10
   119         78
   120         21
   121         93
   123        468
   124        392
   125         48
   129         20
   137         36
   138        497
   139         63
   151         26
   165         14
   166          9
   177         71
   178         12
   191        133
   192         31
   193          8
   206          7
   207         28
   219         20
   247        102
   248         19
   262        162
   263         37