##TITLE=Library Entry 107233
##JCAMP-DX=Revision 4.10 
##DATA TYPE=MASS SPECTRUM
##SAMPLE DESCRIPTION=Chuck Anderson, Aldrich Chemical Co.
##NAMES=HP
##CAS NAME=1-Bromo-3-chloro-2,2-dimethoxypropane
##MOLFORM=C5H10BrClO2
##CAS REGISTRY NO=22089-54-9
##MP= -300
##BP= -300
##MW= 216
##$RETENTION INDEX=0
##$CONDENSED SPECTRUM=NO
##NPOINTS= 73
##XYDATA=(XY..XY) 1 
    14          5
    15         67
    26         27
    27        326
    28         41
    29        118
    30         13
    31         29
    37          9
    38         23
    39        118
    40         19
    41         89
    42        100
    43        126
    45        214
    46          2
    47         57
    48          9
    49        102
    50          1
    51         44
    53          5
    55         27
    56          5
    57         25
    58         16
    59         12
    61         12
    63         47
    65         14
    71         32
    73        396
    74         15
    75         44
    76         10
    77         80
    79        111
    81         29
    88         32
    91        164
    92         11
    93        111
    94          7
    95         60
    97          3
   105         68
   106         19
   107         62
   108          8
   109         35
   119          8
   120          3
   121         39
   122          3
   123        999
   124         39
   125        351
   126         13
   135         79
   137         75
   149          3
   151          3
   167        373
   168         14
   169        364
   170         14
   185        446
   186         17
   187        593
   188         23
   189        148
   190          3