##TITLE=Library Entry 13220
##JCAMP-DX=Revision 4.10 
##DATA TYPE=MASS SPECTRUM
##SAMPLE DESCRIPTION=A.A.Kutin, Moscow, Russia
##NAMES=HP
##CAS NAME=Acetamide, 2-amino-2-hydroximino-N-phenyl-
##MOLFORM=C8H9N3O2
##CAS REGISTRY NO=220898-58-8
##MP= -300
##BP= -300
##MW= 179
##$RETENTION INDEX=0
##$CONDENSED SPECTRUM=NO
##NPOINTS= 117
##XYDATA=(XY..XY) 1 
    33         45
    34          4
    36          1
    37         12
    38         40
    39        152
    40         91
    41         51
    42         67
    43        999
    44        155
    45          9
    46          3
    50         38
    51        118
    52         34
    53          7
    54         10
    55         18
    56         10
    57         17
    58          4
    59         61
    60         23
    61          9
    62         12
    63         62
    64        105
    65        177
    66         84
    67         18
    68          4
    69         13
    70          8
    71         10
    72          1
    73          5
    74         10
    75          8
    76         16
    77        250
    78         25
    79          4
    80          4
    81         14
    82          4
    83          6
    84          3
    85          4
    86          2
    87          2
    88          1
    90         15
    91        101
    92        130
    93        187
    94         28
    95          5
    96          3
    97          4
    98          3
    99          1
   100          0
   101          0
   103          4
   104         52
   105         13
   106          3
   107          5
   108          0
   109          2
   110          1
   111          3
   112          2
   113          2
   115          1
   117          5
   118          9
   119         98
   120         89
   121         15
   123          2
   125          1
   128         10
   129          2
   130          1
   131          3
   132         81
   133         16
   134          7
   135          9
   136          0
   137         25
   138          1
   143          0
   144         53
   145         14
   146          9
   147         32
   148          4
   149         18
   150          3
   151          1
   152          0
   153          0
   155          0
   160          9
   161         21
   162        498
   163         69
   164          9
   165          0
   171          3
   178         28
   179        573
   180         57
   181          3