##TITLE=Library Entry 80595
##JCAMP-DX=Revision 4.10 
##DATA TYPE=MASS SPECTRUM
##SAMPLE DESCRIPTION=NIST Mass Spectrometry Data Center, 1994
##NAMES=HP
##CAS NAME=3-(2-Methylphenyl)propionic acid
##MOLFORM=C10H12O2
##CAS REGISTRY NO=22084-89-5
##MP= -300
##BP= -300
##MW= 164
##$RETENTION INDEX=0
##$CONDENSED SPECTRUM=NO
##NPOINTS= 73
##XYDATA=(XY..XY) 1 
    14          4
    15          8
    18          3
    26          7
    27         62
    28         23
    29         11
    31          8
    32          6
    37          4
    38         18
    39        125
    40         11
    41         38
    42         13
    43          8
    44          4
    45         67
    46          2
    50         39
    51         89
    52         25
    53         26
    55          8
    58         22
    60          3
    61          5
    62         21
    63         64
    64         16
    65        104
    66          9
    67          3
    72          3
    73          4
    74         13
    75         14
    76          3
    77        189
    78         91
    79        150
    80          9
    81          7
    86          4
    87          6
    89         34
    91        235
    92        148
    93         26
   101          3
   102         24
   103        120
   104        306
   105        999
   106         87
   107         42
   108          3
   115         77
   116         21
   117        123
   118        162
   119         68
   120          6
   121          6
   131         20
   132          2
   145          6
   146         53
   147         10
   149          2
   164        296
   165         31
   166          2