##TITLE=Library Entry 67783
##JCAMP-DX=Revision 4.10 
##DATA TYPE=MASS SPECTRUM
##SAMPLE DESCRIPTION=V.G. Zaikin, TIPS RAS, Moscow, Russia
##NAMES=HP
##CAS NAME=2-Furancarboxylic acid, pentadecyl ester
##MOLFORM=C20H34O3
##CAS REGISTRY NO=220876-47-1
##MP= -300
##BP= -300
##MW= 322
##$RETENTION INDEX=0
##$CONDENSED SPECTRUM=NO
##NPOINTS= 55
##XYDATA=(XY..XY) 1 
    25          9
    26         52
    27        151
    28         34
    29        352
    33          8
    35         22
    36          8
    37         39
    38         97
    39        553
    40         69
    41        721
    42         96
    43        875
    44        148
    45         71
    47          6
    48          6
    49         24
    50          6
    51         83
    52         21
    53         96
    54         98
    55        535
    56        109
    57        239
    58         19
    65         44
    66         41
    67        158
    68        177
    69        196
    70         85
    71         56
    73         25
    75          9
    81         54
    82         21
    83         97
    84         68
    85         39
    95        999
    96         99
    97        108
    98         35
   111         18
   112        303
   113        691
   114         95
   140          7
   210          6
   322         22
   323          3