##TITLE=Library Entry 57771
##JCAMP-DX=Revision 4.10 
##DATA TYPE=MASS SPECTRUM
##SAMPLE DESCRIPTION=Chemical Concepts
##NAMES=HP
##CAS NAME=Decanedioic acid, 2,2,9,9-tetramethyl-
##MOLFORM=C14H26O4
##CAS REGISTRY NO=22092-62-2
##MP= -300
##BP= -300
##MW= 258
##$RETENTION INDEX=0
##$CONDENSED SPECTRUM=NO
##NPOINTS= 159
##XYDATA=(XY..XY) 1 
    26          0
    27         59
    28          4
    29        100
    30          2
    31         17
    38          0
    39         40
    40          9
    41        276
    42         33
    43        152
    44          5
    45         39
    46          1
    47          1
    50          0
    51          1
    52          0
    53         20
    54          8
    55        215
    56         95
    57        192
    58          8
    59         78
    60         10
    61          6
    63          0
    65          3
    66          1
    67         29
    68          9
    69        399
    70         74
    71         70
    72         12
    73         98
    74          8
    75          0
    76          0
    77          2
    78          0
    79          4
    80          1
    81         23
    82         50
    83        124
    84         23
    85         34
    86          3
    87        101
    88        999
    89         45
    90          4
    91          2
    92          0
    93          3
    94          3
    95         24
    96          8
    97         78
    98         24
    99         11
   100          2
   101        162
   102         22
   103          1
   105          1
   107          3
   108          5
   109         19
   110          5
   111         90
   112         75
   113         12
   114          5
   115         32
   116          2
   119          0
   121          3
   122          2
   123          8
   124          2
   125        112
   126         56
   127          7
   128          1
   129         11
   130          7
   131          0
   132          1
   134          2
   135         10
   136          1
   137          2
   138          7
   139          7
   140          5
   141         10
   142          1
   143         75
   144          7
   149          0
   151          4
   152          3
   153        105
   154         12
   155          3
   156         14
   157         68
   158          9
   159          0
   161          2
   163          0
   165          1
   166          3
   167         15
   168          3
   169          5
   170         10
   171         49
   172          6
   173          1
   176          0
   177          4
   178          3
   179          7
   180          1
   181          1
   183          0
   184          1
   185          1
   186          0
   193          0
   194          6
   195         23
   196         13
   197          4
   198          1
   199          5
   200          0
   207          1
   210          0
   211          0
   212          6
   213         74
   214        154
   215         20
   216          1
   222          8
   223          1
   225          0
   227          0
   228          2
   240          4
   241          1
   258          1
   259          0