##TITLE=Library Entry 58226
##JCAMP-DX=Revision 4.10 
##DATA TYPE=MASS SPECTRUM
##SAMPLE DESCRIPTION=Chemical Concepts
##NAMES=HP
##CAS NAME=Undecanedioic acid, 2,2,10,10-tetramethyl-
##MOLFORM=C15H28O4
##CAS REGISTRY NO=22092-63-3
##MP= -300
##BP= -300
##MW= 272
##$RETENTION INDEX=0
##$CONDENSED SPECTRUM=NO
##NPOINTS= 163
##XYDATA=(XY..XY) 1 
    26          0
    27         37
    28          1
    29         85
    30          1
    31         11
    39         29
    40          6
    41        217
    42         30
    43        139
    44          3
    45         29
    46          0
    47          1
    51          0
    52          0
    53         16
    54          6
    55        178
    56         72
    57        164
    58          7
    59         57
    60          8
    61          6
    65          1
    66          1
    67         23
    68          7
    69        219
    70         45
    71         59
    72         14
    73         79
    74          5
    77          2
    79          3
    80          1
    81         25
    82         66
    83        154
    84         15
    85         39
    86          3
    87         85
    88        999
    89         43
    90          5
    91          6
    93          3
    94          1
    95         20
    96          7
    97         60
    98          8
    99         14
   100          2
   101        118
   102         23
   103          1
   107          3
   108          2
   109         11
   110          3
   111         42
   112         60
   113         13
   114          1
   115         36
   116          5
   117          0
   119          0
   121          3
   122          1
   123          9
   124          2
   125         30
   126         40
   127          9
   128          6
   129         17
   130          5
   131          0
   133          0
   135          3
   136          1
   137          4
   138          2
   139         32
   140         14
   141          6
   142          1
   143         51
   144          5
   145          0
   146          0
   147          0
   148          0
   149          4
   150          0
   151          1
   152          2
   153          5
   154          2
   155          1
   156          2
   157         99
   158         11
   159          0
   165          2
   166          1
   167         37
   168          5
   169          1
   170          3
   171         39
   172          6
   173          0
   175          0
   177          0
   179          0
   180          2
   181          6
   182          2
   183          7
   184          1
   185         44
   186          6
   187          1
   191          1
   192          1
   193          4
   194          0
   195          1
   196          0
   198          2
   199          1
   207          0
   208          6
   209          9
   210          4
   211          2
   212          0
   213         10
   214          2
   221          1
   225          0
   226          3
   227         28
   228        273
   229         40
   230          4
   236          3
   237          0
   239          0
   242          4
   243          0
   254          2
   255          0
   256          0
   272          1
   273          0