##TITLE=Library Entry 71836
##JCAMP-DX=Revision 4.10 
##DATA TYPE=MASS SPECTRUM
##SAMPLE DESCRIPTION=Institute of Organic Chemistry, Novosibirsk, USSR 1988
##NAMES=HP
##CAS NAME=4,8,12-Trimethyltridecan-4-olide
##MOLFORM=C16H30O2
##CAS REGISTRY NO=220904-24-5
##MP= -300
##BP= -300
##MW= 254
##$RETENTION INDEX=0
##$CONDENSED SPECTRUM=NO
##NPOINTS= 122
##XYDATA=(XY..XY) 1 
    38          0
    39         31
    40          6
    41        175
    42         43
    43        383
    44         11
    45          2
    48          0
    51          1
    52          0
    53         15
    54         25
    55        161
    56         79
    57         73
    58          7
    59          1
    60          1
    61         11
    65          2
    66          3
    67         42
    68         49
    69        106
    70         52
    71         63
    72          4
    73          6
    80          2
    81         47
    82         61
    83         55
    84         11
    85         13
    86          2
    87          1
    88          0
    89          0
    91          1
    93          3
    94          2
    95         40
    96         49
    97         32
    99        999
   100         57
   101         12
   102          1
   105          1
   107          3
   108          2
   109         36
   110         32
   111         33
   112          8
   113          2
   114         82
   115         12
   116          2
   119          0
   120          0
   121          2
   122          4
   123         22
   124         26
   125         16
   126         40
   127         18
   128         13
   129          7
   131          0
   133          3
   135          1
   136          0
   137          6
   138          1
   139          2
   140          3
   141          7
   142          4
   143          1
   144          0
   146          0
   147          1
   149          2
   150          0
   151         13
   152         12
   153          2
   154          0
   155          1
   161          0
   162          0
   163          0
   165          2
   166          3
   167          0
   169          3
   170          1
   179          2
   180          0
   183          0
   184          4
   192          0
   193          0
   194          0
   197          0
   198          0
   199          1
   200          0
   201          0
   203          0
   205          0
   207          0
   221          1
   226          0
   229          0
   236          1
   239          0
   254          2
   255          0