##TITLE=Library Entry 64071
##JCAMP-DX=Revision 4.10 
##DATA TYPE=MASS SPECTRUM
##SAMPLE DESCRIPTION=MUS134 A. Mujsce, AT&T Bell Labs., Murray Hill, N.J., U
SA
##NAMES=HP
##CAS NAME=4-Piperidinol, 4-butyl-1-(phenylmethyl)-
##MOLFORM=C16H25NO
##CAS REGISTRY NO=22093-36-3
##MP= -300
##BP= -300
##MW= 247
##$RETENTION INDEX=0
##$CONDENSED SPECTRUM=NO
##NPOINTS= 120
##XYDATA=(XY..XY) 1 
    39         27
    41         91
    42        153
    43         60
    44         28
    45          5
    50          7
    51         13
    52          6
    53         21
    54         10
    55         47
    56        151
    57         49
    58         16
    59          5
    60          8
    61          3
    62          3
    63         14
    65        109
    66         10
    67         16
    68         13
    69         21
    70         15
    71          9
    73          4
    74          4
    75          5
    76          4
    77         18
    78          6
    79          7
    81         10
    82         10
    83         11
    84         15
    85         11
    86          6
    89         22
    91        999
    92        114
    93          6
    94          9
    95          7
    96         11
    98         26
    99          4
   100         59
   101          7
   102          4
   103          5
   104         19
   105         22
   106         38
   107          8
   110         11
   111          3
   112         12
   113          7
   114         26
   115          7
   116          3
   117         19
   118         39
   119         20
   120         78
   121          8
   122          2
   126          7
   128         14
   129          7
   130          5
   132         25
   133         13
   134         13
   135          8
   138         19
   140          7
   141          6
   143          6
   144          6
   146        145
   147         30
   148          7
   152         41
   156        142
   157         18
   158          3
   170         48
   171         15
   172        155
   173         24
   175          1
   186         26
   187          7
   188         12
   190        106
   191         63
   192          8
   196          2
   200          5
   204         11
   205          8
   207         10
   212          2
   214          8
   218         61
   219         15
   220          2
   228         34
   230        129
   231         33
   232         33
   233          9
   244          4
   246        288
   247        326
   248         60