##TITLE=Library Entry 5277
##JCAMP-DX=Revision 4.10 
##DATA TYPE=MASS SPECTRUM
##SAMPLE DESCRIPTION=LAC, NIDDK, NIH, Bethesda, MD 20892
##NAMES=HP
##CAS NAME=4(1H)-Pyrimidinone, 6-amino-2-methyl-5-nitroso-
##MOLFORM=C5H6N4O2
##CAS REGISTRY NO=2209-72-5
##MP= -300
##BP= -300
##MW= 154
##$RETENTION INDEX=0
##$CONDENSED SPECTRUM=NO
##NPOINTS= 18
##XYDATA=(XY..XY) 1 
    41        155
    42        999
    43        225
    44         89
    53        152
    54        135
    55        353
    68        120
    69        107
    70        160
    81        134
    82         16
    96         30
   137        186
   138         22
   153        226
   154        712
   155         63