##TITLE=Library Entry 29723
##JCAMP-DX=Revision 4.10 
##DATA TYPE=MASS SPECTRUM
##SAMPLE DESCRIPTION=Chemical Concepts
##NAMES=HP
##CAS NAME=2,11-Dimethyl-2,11-dodecanediol
##MOLFORM=C14H30O2
##CAS REGISTRY NO=22092-59-7
##MP= -300
##BP= -300
##MW= 230
##$RETENTION INDEX=0
##$CONDENSED SPECTRUM=NO
##NPOINTS= 105
##XYDATA=(XY..XY) 1 
    26          1
    27         29
    29         55
    30          1
    31        112
    39         19
    40          9
    41        135
    42         21
    43        332
    44          9
    45         29
    46          0
    49          0
    50          0
    51          0
    52          0
    53          8
    54          8
    55        147
    56        326
    57        222
    58         62
    59        999
    60         31
    61          2
    63          1
    64          0
    65          1
    66          1
    67         31
    68         26
    69        215
    70         91
    71        114
    72          6
    73          4
    74          0
    76          0
    77        113
    78          4
    79          3
    80          2
    81         49
    82         30
    83        159
    84         56
    85         25
    86          1
    87          2
    88          0
    91          1
    93          1
    94          0
    95         52
    96         23
    97         79
    98         80
    99         12
   100          8
   101          7
   102          0
   107          0
   109         53
   110         15
   111         55
   112         20
   113          7
   114          0
   115          9
   116          0
   117          0
   121          0
   122          0
   123         48
   124          6
   125         10
   126         48
   127          7
   128          0
   135          0
   136          0
   137          6
   138          3
   139         39
   140          4
   141          1
   151          0
   153          0
   154        191
   155         25
   156          1
   157          1
   168          1
   179         28
   180          4
   182          0
   194          4
   195          3
   196          0
   197        153
   198         22
   199          1
   211          0
   213          0