##TITLE=Library Entry 32088
##JCAMP-DX=Revision 4.10 
##DATA TYPE=MASS SPECTRUM
##SAMPLE DESCRIPTION=Chemical Concepts
##NAMES=HP
##CAS NAME=Bicyclo[2.2.1]hept-2-ene, 5-propyl-
##MOLFORM=C10H16
##CAS REGISTRY NO=22094-80-0
##MP= -300
##BP= -300
##MW= 136
##$RETENTION INDEX=0
##$CONDENSED SPECTRUM=NO
##NPOINTS= 84
##XYDATA=(XY..XY) 1 
    26          1
    27         34
    28          1
    29         15
    30          0
    31          0
    37          0
    38          2
    39         52
    40         20
    41         49
    42          6
    43          4
    45          0
    50          3
    51         13
    52          6
    53         14
    54          3
    55          9
    56          0
    57          1
    58          0
    61          0
    62          1
    63          6
    64          1
    65         43
    66        999
    67         77
    68          4
    69          3
    70          1
    71          0
    74          0
    75          0
    76          0
    77         43
    78         14
    79         59
    80         32
    81          9
    82          4
    83          0
    84          0
    89          1
    90          0
    91         32
    92          5
    93         15
    94          4
    95          5
    96          0
    97          0
   102          0
   103          2
   104          0
   105          4
   106          1
   107          6
   108          2
   109          1
   110          0
   111          0
   115          2
   116          1
   117          2
   118          0
   119          1
   120          1
   121          2
   122          0
   123          1
   124          0
   127          0
   128          0
   129          0
   131          1
   132          3
   133          0
   134          1
   135          0
   136         38
   137          4