##TITLE=Library Entry 54616
##JCAMP-DX=Revision 4.10 
##DATA TYPE=MASS SPECTRUM
##SAMPLE DESCRIPTION=R.D.Bowen ET AL, Org. Mass Spectrom., 26,421(1991)
##NAMES=HP
##CAS NAME=1-Methoxy-3-methyl-2-butene
##MOLFORM=C6H12O
##CAS REGISTRY NO=22093-99-8
##MP= -300
##BP= -300
##MW= 100
##$RETENTION INDEX=676
##$CONDENSED SPECTRUM=NO
##NPOINTS= 26
##XYDATA=(XY..XY) 1 
    39        150
    40         30
    41        370
    42         30
    43         40
    45        170
    53        150
    54         10
    55        280
    56         20
    57         20
    58         10
    59         30
    65         20
    67        130
    68        130
    69        200
    70         20
    71         10
    83         20
    84         10
    85        999
    86         60
    99         50
   100        270
   101         30