##TITLE=Library Entry 1133
##JCAMP-DX=Revision 4.10 
##DATA TYPE=MASS SPECTRUM
##SAMPLE DESCRIPTION=V.KUBELKA INST. OF CHEM. TECH., PRAGUE, CZECHOSLOVAKIA
##NAMES=HP
##CAS NAME=2H-Azepin-2-one, hexahydro-5-methyl-
##MOLFORM=C7H13NO
##CAS REGISTRY NO=2210-07-3
##MP= -300
##BP= -300
##MW= 127
##$RETENTION INDEX=0
##$CONDENSED SPECTRUM=NO
##NPOINTS= 67
##XYDATA=(XY..XY) 1 
    14         10
    15         50
    16         10
    17         38
    18        139
    25         10
    26         40
    27        190
    28        385
    29        167
    30        999
    31         25
    37         10
    38         20
    39        145
    40         26
    41        330
    42        210
    43        180
    44         90
    45         25
    46         11
    50         19
    51         29
    52         28
    53         60
    54         41
    55        410
    56        380
    57         50
    58         20
    59         10
    60         10
    65         10
    66         10
    67         55
    68         25
    69        450
    70        180
    71         26
    72         26
    73         11
    77         10
    78         10
    79         12
    80         13
    81         60
    82         40
    83         80
    84         55
    85         30
    86         20
    95         10
    96         20
    97         20
    98        170
    99        279
   100         20
   108         10
   109         10
   110        220
   111         15
   112         20
   125         11
   126         20
   127        170
   128         30