##TITLE=Library Entry 27920
##JCAMP-DX=Revision 4.10 
##DATA TYPE=MASS SPECTRUM
##SAMPLE DESCRIPTION=RADIAN CORP
##NAMES=HP
##CAS NAME=2-Butanone, 4-(dimethylamino)-3-methyl-
##MOLFORM=C7H15NO
##CAS REGISTRY NO=22104-62-7
##MP= -300
##BP= -300
##MW= 129
##$RETENTION INDEX=0
##$CONDENSED SPECTRUM=NO
##NPOINTS= 30
##XYDATA=(XY..XY) 1 
    14          2
    15         18
    18          3
    27         11
    28         31
    29         10
    30         41
    32          7
    39         22
    40          5
    41         32
    42         98
    43         99
    44         40
    45         11
    55          6
    56         18
    57         16
    58        999
    59         39
    68          5
    69          8
    70         11
    71         16
    72          9
    84         17
    85          5
    86         11
   114          1
   129          5