##TITLE=Library Entry 85349
##JCAMP-DX=Revision 4.10 
##DATA TYPE=MASS SPECTRUM
##SAMPLE DESCRIPTION=RADIAN CORP
##NAMES=HP
##CAS NAME=Oxirane, [(2-methylphenoxy)methyl]-
##MOLFORM=C10H12O2
##CAS REGISTRY NO=2210-79-9
##MP= -300
##BP= -300
##MW= 164
##$RETENTION INDEX=0
##$CONDENSED SPECTRUM=NO
##NPOINTS= 84
##XYDATA=(XY..XY) 1 
    15          7
    25          2
    26         44
    27        231
    29        385
    30         28
    31        266
    37         11
    38         40
    39        231
    41         49
    42         29
    43         31
    50        115
    51        251
    52        145
    53        129
    54         11
    55         29
    57        393
    58         15
    59          1
    61         10
    62         38
    63        128
    64         37
    65        304
    66         31
    67          8
    68          7
    69          3
    71          2
    73          4
    74         26
    75         16
    76         24
    77        790
    78        320
    79        385
    80        183
    81         19
    82          3
    85          2
    87          5
    89        123
    90        196
    91        867
    92         82
    93        129
    94         15
    95          5
   102          2
   103         16
   104          5
   105        103
   106        133
   107        654
   108        999
   109         78
   110          5
   115         15
   116         10
   117         19
   118         10
   119        154
   120         25
   121        251
   122         26
   123          3
   129          3
   131         30
   132          4
   133        111
   134        115
   135         25
   136          3
   145         23
   146          3
   147          4
   148          3
   149          2
   164        985
   165        109
   166         10