##TITLE=Library Entry 34414
##JCAMP-DX=Revision 4.10 
##DATA TYPE=MASS SPECTRUM
##SAMPLE DESCRIPTION=NIST Mass Spectrometry Data Center, 1998.
##NAMES=HP
##CAS NAME=2-Propenoic acid, 2-methyl-, propyl ester
##MOLFORM=C7H12O2
##CAS REGISTRY NO=2210-28-8
##MP= -300
##BP= -300
##MW= 128
##$RETENTION INDEX=856
##$CONDENSED SPECTRUM=NO
##NPOINTS= 63
##XYDATA=(XY..XY) 1 
    14          1
    15          5
    25          1
    26         12
    27         89
    28         16
    29         35
    30          5
    31         23
    37         11
    38         31
    39        364
    40         80
    41        821
    42        163
    43        206
    44          9
    45         21
    46          1
    50          1
    51          1
    52          1
    53         11
    54          4
    55         25
    56          4
    57         14
    58         23
    59        132
    60          5
    66          1
    67          5
    68         26
    69        999
    70         60
    71         10
    72          2
    73          1
    74         23
    75          1
    80          1
    81          1
    82         11
    83          9
    84          1
    85          9
    86         46
    87        769
    88         35
    89          4
    95          8
    96          1
    98          1
    99         18
   100          5
   109          1
   110          2
   111          1
   113         15
   114          1
   127          1
   128          2
   129          1