##TITLE=Library Entry 23342
##JCAMP-DX=Revision 4.10 
##DATA TYPE=MASS SPECTRUM
##SAMPLE DESCRIPTION=NIST Mass Spectrometry Data Center, 1994
##NAMES=HP
##CAS NAME=2-Decen-1-ol
##MOLFORM=C10H20O
##CAS REGISTRY NO=22104-80-9
##MP= -300
##BP= -300
##MW= 156
##$RETENTION INDEX=1806
##$CONDENSED SPECTRUM=NO
##NPOINTS= 72
##XYDATA=(XY..XY) 1 
     4          1
    15         31
    17          3
    18          9
    19          7
    26         28
    27        515
    28         84
    29        684
    30         18
    31        148
    37          3
    38         16
    39        342
    40         64
    41        887
    42        211
    43        658
    44        170
    45         30
    46          1
    47          9
    50         10
    51         28
    52         14
    53        100
    54        198
    55        455
    56        214
    57        999
    58         73
    63          4
    65         22
    66         36
    67        251
    68        231
    69        203
    70        144
    71        137
    72         37
    73          6
    75          4
    77         14
    78          3
    79         33
    80         14
    81        190
    82        202
    83        102
    84         43
    85         29
    86          9
    91          4
    93          5
    95        124
    96         91
    97         29
    98          8
    99         14
   100          2
   103         12
   108          2
   109         47
   110         47
   111          8
   112          9
   113          5
   123          3
   127          2
   128          2
   138          9
   156          2