##TITLE=Library Entry 19776
##JCAMP-DX=Revision 4.10 
##DATA TYPE=MASS SPECTRUM
##SAMPLE DESCRIPTION=Japan AIST/NIMC Database- Spectrum MS-NW-9462
##NAMES=HP
##CAS NAME=2-Propenamide, N-(1-methylethyl)-
##MOLFORM=C6H11NO
##CAS REGISTRY NO=2210-25-5
##MP= -300
##BP= -300
##MW= 113
##$RETENTION INDEX=0
##$CONDENSED SPECTRUM=NO
##NPOINTS= 56
##XYDATA=(XY..XY) 1 
    14          1
    15         18
    16          1
    25          1
    26         22
    27        251
    28         60
    29          9
    30         16
    32          1
    37          2
    38          5
    39         38
    40         12
    41        113
    42         94
    43        175
    44        919
    45         29
    46          2
    48          2
    49          3
    51          1
    52          4
    53         10
    54         21
    55        999
    56         52
    57         26
    58        178
    59          9
    67          2
    68          3
    69         10
    70         32
    71          9
    72         52
    73          2
    80          1
    81          2
    82          1
    83          1
    84         43
    85         36
    86          8
    94          1
    95          2
    96          7
    97          1
    98        583
    99         34
   100          3
   112         31
   113        138
   114         33
   115          3