##TITLE=Library Entry 23532
##JCAMP-DX=Revision 4.10 
##DATA TYPE=MASS SPECTRUM
##SAMPLE DESCRIPTION=Exported from NIST MS Search
##NAMES=HP
##CAS NAME=2-Octen-1-ol
##MOLFORM=C8H16O
##CAS REGISTRY NO=22104-78-5
##MP= -300
##BP= -300
##MW= 128
##$RETENTION INDEX=1066
##$CONDENSED SPECTRUM=NO
##NPOINTS= 49
##XYDATA=(XY..XY) 1 
    15         14
    16          5
    17         11
    18         49
    26         13
    27        255
    28        164
    29        445
    30         16
    31        106
    32          7
    39        216
    40         34
    41        626
    42        220
    43        449
    44        188
    45         49
    51         15
    52         18
    53         88
    54        225
    55        485
    56        260
    57        999
    58         89
    59         14
    65         23
    66         59
    67        265
    68        320
    69        195
    70        109
    71        116
    72         50
    73         14
    77         17
    79         34
    81        255
    82        220
    83         60
    84         75
    85         70
    86         20
    95         99
    97         19
    99         30
   100        116
   128         36