##TITLE=Library Entry 23336
##JCAMP-DX=Revision 4.10 
##DATA TYPE=MASS SPECTRUM
##SAMPLE DESCRIPTION=NIST Mass Spectrometry Data Center, 1994
##NAMES=HP
##CAS NAME=2-Nonen-1-ol
##MOLFORM=C9H18O
##CAS REGISTRY NO=22104-79-6
##MP= -300
##BP= -300
##MW= 142
##$RETENTION INDEX=1105
##$CONDENSED SPECTRUM=NO
##NPOINTS= 59
##XYDATA=(XY..XY) 1 
    14          2
    15         34
    16          2
    19          5
    27        532
    28         78
    29        647
    30         29
    31        188
    39        394
    41        801
    42        226
    43        567
    44        155
    45         37
    50         16
    51         38
    52         21
    53        101
    54        205
    55        421
    56        233
    57        999
    58         75
    59         10
    63          7
    65         28
    66         38
    67        223
    68        219
    69        210
    70        145
    71        101
    72         39
    73          8
    77         16
    79         28
    81        190
    82        202
    83         66
    84         16
    85         30
    86         10
    91          3
    93          4
    95        170
    96        106
    97         13
    98         13
    99         29
   100          4
   109         16
   110          2
   111          2
   113          6
   114          3
   124         18
   125          2
   142          3