##TITLE=Library Entry 31550
##JCAMP-DX=Revision 4.10 
##DATA TYPE=MASS SPECTRUM
##SAMPLE DESCRIPTION=Exported from NIST MS Search
##NAMES=HP
##CAS NAME=Butane, 2,3-dichloro-, (R*,R*)-(.+/-.)-
##MOLFORM=C4H8Cl2
##CAS REGISTRY NO=2211-67-8
##MP= -300
##BP= -300
##MW= 126
##$RETENTION INDEX=0
##$CONDENSED SPECTRUM=NO
##NPOINTS= 77
##XYDATA=(XY..XY) 1 
    12         11
    13         16
    14         36
    15        157
    16          3
    24          4
    25         25
    26        182
    27        902
    28        132
    29        173
    30          4
    35         33
    36          4
    37         53
    38         62
    39        283
    40         23
    41        117
    42         16
    43        265
    44          7
    45         23
    46          1
    47          8
    48         11
    49         76
    50         66
    51         76
    52         17
    53         83
    54         24
    55        468
    56         42
    57          3
    58          1
    59          1
    60          8
    61         30
    62        924
    63        999
    64        313
    65        316
    66          7
    70          1
    71          2
    72          3
    73         10
    74          1
    75         81
    76          7
    77         25
    78          2
    83         10
    84          1
    85          8
    86          1
    87          2
    88          1
    89          7
    90        239
    91         67
    92         78
    93         21
    94          1
    95          1
    96          3
    97          2
    98          2
   110          1
   111          3
   112          1
   113          2
   126         15
   127          1
   128          9
   130          1