##TITLE=Library Entry 48673
##JCAMP-DX=Revision 4.10 
##DATA TYPE=MASS SPECTRUM
##SAMPLE DESCRIPTION=R.T.HOLMAN,UNIVERSITY OF MINNESOTA
##NAMES=HP
##CAS NAME=5,8,11-Heptadecatrien-1-ol
##MOLFORM=C17H30O
##CAS REGISTRY NO=22117-09-5
##MP= -300
##BP= -300
##MW= 250
##$RETENTION INDEX=0
##$CONDENSED SPECTRUM=NO
##NPOINTS= 207
##XYDATA=(XY..XY) 1 
    26          5
    27        120
    28         70
    29        230
    30         70
    31        120
    32         11
    33          1
    35          1
    36          5
    37          1
    38          4
    39        150
    40         24
    41        680
    42         54
    43        270
    44         15
    45         12
    50          5
    51         28
    52         23
    53        150
    54        220
    55        550
    56         56
    57        150
    58         16
    59          6
    60          4
    61          2
    62          2
    63         12
    64          6
    65        110
    66        160
    67        970
    68        190
    69        270
    70        100
    71        120
    72         10
    73          5
    74          6
    75          7
    76          4
    77        300
    78        190
    79        999
    80        800
    81        570
    82        200
    83        110
    84        110
    85        130
    86         90
    87         40
    89          4
    90          3
    91        650
    92        170
    93        570
    94        230
    95        380
    96        150
    97        120
    98        390
    99         34
   100          3
   101          2
   102          4
   103         20
   104         24
   105        230
   106        120
   107        160
   108        100
   109        110
   110         70
   111         68
   112         21
   113          5
   114          2
   115         17
   116          9
   117         42
   118         13
   119        120
   120         31
   121        140
   122         45
   123         55
   124         35
   125         22
   126          9
   127          5
   128          8
   129         10
   130          4
   131         18
   132          6
   133         52
   134         29
   135         64
   136         29
   137         84
   138         23
   139         12
   140          6
   141          6
   142          3
   143          4
   144          2
   145         13
   146         10
   147         47
   148         22
   149         34
   150        230
   151         46
   152         71
   153         13
   154          7
   155          4
   156          2
   157          2
   158          1
   159          7
   160          3
   161         28
   162         17
   163         51
   164         27
   165         40
   166         15
   167          7
   168          4
   169          2
   170          1
   171          2
   172          1
   173          3
   174          2
   175         16
   176          6
   177         34
   178         18
   179         17
   180         13
   181          4
   182          4
   183          2
   184          1
   185          2
   186          1
   187          2
   188          1
   189          6
   190          3
   191         14
   192          4
   193         13
   194          5
   195          3
   196         14
   197          3
   198          1
   199          1
   200          1
   201          1
   202          1
   203          3
   204          3
   205          6
   206          4
   207          6
   208          6
   209          5
   210          2
   211          1
   215          1
   216          1
   217          2
   218          1
   219          3
   220          2
   221          4
   222          3
   223          1
   224          1
   228          2
   229          1
   230          2
   231          2
   232          7
   233          2
   234          1
   235          1
   236          1
   241          1
   246          1
   248          5
   249          4
   250         90
   251         18
   252          5
   253          2