##TITLE=Library Entry 89431
##JCAMP-DX=Revision 4.10 
##DATA TYPE=MASS SPECTRUM
##SAMPLE DESCRIPTION=Humboldt-Universitat zu Berlin, Department of Chemistry
, Analytical Group
##NAMES=HP
##CAS NAME=2,2,2-Trifluoro-N-[3-oxo-3-phenyl-1-(piperidin-1-ylcarbonyl)-prop
yl]-acetamide
##MOLFORM=C17H19F3N2O3
##CAS REGISTRY NO=221122-67-4
##MP= -300
##BP= -300
##MW= 356
##$RETENTION INDEX=0
##$CONDENSED SPECTRUM=NO
##NPOINTS= 213
##XYDATA=(XY..XY) 1 
    12          3
    14          4
    15         19
    16         11
    17         44
    18        154
    19          1
    20          2
    26          8
    27         63
    28        142
    29         59
    30         40
    31          4
    32         10
    36          1
    37          1
    38          2
    39         40
    40         11
    41        350
    42        115
    43         80
    44         68
    45         10
    46          2
    47          1
    49          2
    50         25
    51         99
    52         10
    53         18
    54         20
    55        107
    56        130
    57         52
    58          5
    59          2
    60          4
    61          1
    62          1
    63          4
    64          2
    65         10
    66          2
    67         23
    68         17
    69        632
    70        118
    71         18
    72          3
    73          3
    74          4
    75          7
    76         23
    77        394
    78         40
    79          4
    80          5
    81          4
    82         17
    83         33
    84        620
    85         76
    86         49
    87          3
    88          1
    89          3
    90          5
    91         12
    92          3
    93          2
    94          2
    95          4
    96         13
    97         10
    98         33
    99          4
   100          2
   101          1
   102          4
   103         10
   105        470
   106         37
   107          4
   108          1
   109          3
   110          8
   112        999
   113         83
   114         13
   115          5
   116          2
   117          2
   118          4
   119          2
   120          5
   121          2
   122          2
   123          2
   124          2
   125          3
   126          8
   127          2
   128          4
   129          2
   130         13
   131         29
   132          8
   133          2
   134          1
   136          1
   137          2
   138         33
   139         30
   140         10
   141          1
   142          1
   143          1
   145          1
   146          3
   147          1
   148          1
   149          2
   150          0
   151          1
   152          1
   153          2
   154          0
   155          0
   156          0
   157          0
   158          2
   159         13
   160          4
   161          1
   165          1
   166         17
   167          2
   169          0
   171          3
   172          0
   173          0
   174          2
   175          1
   179          0
   180          0
   181          0
   184          0
   185          0
   186          1
   188          1
   189          0
   190          0
   195          1
   198          1
   199          0
   200          0
   202          0
   207          0
   208          1
   209          1
   214          0
   216          1
   217          0
   222          0
   223          0
   224          0
   225          1
   226          0
   227          4
   228          2
   229          0
   230          0
   233          0
   234          0
   236        114
   237         14
   238          1
   241          0
   242          0
   243          2
   244         24
   245          4
   251         50
   252          7
   253          0
   254          0
   256          0
   257          0
   265          0
   269          0
   270          1
   271          6
   272          1
   273          0
   283          0
   287          1
   288          0
   289          0
   290          0
   309          0
   325          1
   326          0
   328          0
   337          0
   338          1
   339          0
   342          0
   343          0
   356         20
   357          4
   358          0