##TITLE=Library Entry 100695
##JCAMP-DX=Revision 4.10 
##DATA TYPE=MASS SPECTRUM
##SAMPLE DESCRIPTION=R.A. CORRAL, DIV. QUIM. ORG., UNIV. NAC. LA PLATA, ARGE
N
##NAMES=HP
##CAS NAME=1-Phenyl-2,4,5-trioxoimidazolidine
##MOLFORM=C9H6N2O3
##CAS REGISTRY NO=2211-33-8
##MP= -300
##BP= -300
##MW= 190
##$RETENTION INDEX=0
##$CONDENSED SPECTRUM=NO
##NPOINTS= 27
##XYDATA=(XY..XY) 1 
    40         20
    41         30
    42         70
    43         40
    44         40
    45         30
    50         40
    51         60
    52         30
    59         20
    61         10
    62         20
    63         70
    64        150
    65         40
    70         50
    74         10
    76         20
    77         20
    81         20
    90         20
    91        290
    92         20
   103         10
   119        999
   120         90
   190        660