##TITLE=Library Entry 77701
##JCAMP-DX=Revision 4.10 
##DATA TYPE=MASS SPECTRUM
##SAMPLE DESCRIPTION=D.HENNEBERG, MAX-PLANCK INSTITUTE, MULHEIM, WEST GERMAN
Y
##NAMES=HP
##CAS NAME=Cyclohexanamine, N-(phenylmethylene)-
##MOLFORM=C13H17N
##CAS REGISTRY NO=2211-66-7
##MP= -300
##BP= -300
##MW= 187
##$RETENTION INDEX=1658
##$CONDENSED SPECTRUM=NO
##NPOINTS= 151
##XYDATA=(XY..XY) 1 
    24          0
    25          2
    26         11
    27        131
    28        117
    29        108
    30         35
    33          0
    35          0
    36          0
    37          4
    38         13
    39        190
    40         24
    41        433
    42         33
    43         47
    44          8
    45          2
    48          1
    49          2
    50         34
    51        113
    52         36
    53         81
    54        118
    55        449
    56         58
    57         25
    58          3
    59         15
    60          2
    61          3
    62         17
    63         63
    64         31
    65         50
    66         13
    67        152
    68         62
    69         27
    70         13
    72          3
    73          2
    74          7
    75         21
    76         30
    77        234
    78         82
    79        159
    80         24
    81         76
    82        107
    83        122
    84         11
    85          2
    86          2
    87          4
    88         12
    89        181
    90        213
    91        276
    92         30
    93          7
    94          9
    95          5
    96         38
    97          3
    98          1
    99          0
   100          1
   101          4
   102         14
   103        104
   104        999
   105        175
   106        376
   107         29
   108          6
   109         55
   110        163
   111         16
   112          3
   114          2
   115         36
   116         34
   117        214
   118         91
   119         43
   120         18
   121          1
   122          0
   123          0
   124          0
   125          2
   126          3
   127          7
   128         15
   129         49
   130        227
   131         89
   132        401
   133        113
   134         20
   135          0
   136          1
   137          1
   138          1
   139          0
   140          0
   141         20
   142         14
   143         35
   144        773
   145        205
   146         81
   147          8
   148          0
   149          0
   150          0
   151          0
   152          1
   153          2
   154          4
   155          6
   156         11
   157         12
   158        777
   159        141
   160         13
   161          0
   162          0
   167          7
   168          0
   169          3
   170         12
   171          2
   172         76
   173         10
   174          0
   179          1
   180          0
   181          1
   182          0
   183          1
   184          2
   185          9
   186        411
   187        703
   188        102
   189          9