##TITLE=Library Entry 96539
##JCAMP-DX=Revision 4.10 
##DATA TYPE=MASS SPECTRUM
##SAMPLE DESCRIPTION=MASS SPECTROMETRY CENTER, UNIV. OF UTAH ALDRICH 14471-1
##NAMES=HP
##CAS NAME=Benzonitrile, 2-(bromomethyl)-
##MOLFORM=C8H6BrN
##CAS REGISTRY NO=22115-41-9
##MP= -300
##BP= -300
##MW= 195
##$RETENTION INDEX=0
##$CONDENSED SPECTRUM=NO
##NPOINTS= 127
##XYDATA=(XY..XY) 1 
    12          1
    13          1
    14          6
    15          3
    16          3
    19         11
    20          1
    25          3
    26         43
    27         76
    29         19
    30          2
    31          3
    32          9
    35          1
    36         27
    37         65
    38        108
    39        213
    40         20
    41         29
    42          7
    43         35
    44         15
    45         42
    46          2
    48          0
    49         23
    50        128
    51        103
    52         48
    53         13
    54          3
    55         16
    56         18
    57         22
    58         75
    59          4
    60         31
    61         62
    62        133
    63        252
    64         85
    65         43
    66         10
    67          8
    68          5
    69         23
    70          7
    71         13
    72          1
    73         24
    74         28
    75         42
    76         40
    77          7
    79         22
    80         26
    81         39
    82         31
    83         10
    84          9
    85         22
    86         22
    87         45
    88         90
    89        497
    90        123
    91          7
    92          0
    93          2
    94          1
    95          5
    96          3
    97          9
    98         13
    99         23
   100          2
   101          2
   102          0
   103          0
   106          0
   107          1
   109          2
   110          1
   111          5
   112          1
   113          1
   114         45
   115         42
   116        999
   117        288
   118          9
   120          0
   123          1
   124          0
   125          1
   130          1
   134          0
   135          1
   136          1
   137          1
   138          0
   139          0
   140          0
   141          1
   142          0
   143          1
   149          6
   150          1
   151          0
   152          0
   155          0
   156          0
   157          1
   162          0
   163          1
   165          0
   167          1
   171          0
   191          0
   193          0
   194          9
   195         81
   196         17
   197         79
   198          6