##TITLE=Library Entry 34934
##JCAMP-DX=Revision 4.10 
##DATA TYPE=MASS SPECTRUM
##SAMPLE DESCRIPTION=D.HENNEBERG, MAX-PLANCK INSTITUTE, MULHEIM, WEST GERMAN
Y
##NAMES=HP
##CAS NAME=1-Undecyn-4-ol
##MOLFORM=C11H20O
##CAS REGISTRY NO=22127-86-2
##MP= -300
##BP= -300
##MW= 168
##$RETENTION INDEX=1107
##$CONDENSED SPECTRUM=NO
##NPOINTS= 90
##XYDATA=(XY..XY) 1 
    22          0
    23          0
    24          1
    25          2
    26          7
    27        111
    28         34
    29        174
    30          6
    31         35
    34          1
    36          2
    37         13
    38         18
    39        148
    40         64
    41        401
    42         63
    43        373
    44         78
    45         26
    46          0
    48          0
    49          0
    50          2
    51          9
    52          5
    53         21
    54         17
    55        486
    56         73
    57        160
    58         11
    59          5
    62          0
    63          2
    64          0
    65         10
    66          8
    67         41
    68         28
    69        999
    70         65
    71         12
    72          2
    73          1
    74          0
    75          1
    76          0
    77         15
    78          7
    79         31
    80          9
    81         25
    82         14
    83         54
    84         24
    85         10
    86          0
    89          0
    91         10
    92          1
    93         12
    94          3
    95          8
    96          3
    97          3
    98          1
    99          0
   100          2
   103          0
   104          0
   105          2
   106          0
   107          4
   108          1
   109          2
   110          3
   111        152
   112         14
   113          0
   115          0
   117          0
   121          2
   127          2
   128          0
   129         72
   130          6
   131          0
   141          0