##TITLE=Library Entry 65459
##JCAMP-DX=Revision 4.10 
##DATA TYPE=MASS SPECTRUM
##SAMPLE DESCRIPTION=D.HENNEBERG, MAX-PLANCK INSTITUTE, MULHEIM, WEST GERMAN
Y
##NAMES=HP
##CAS NAME=Propanedinitrile, (2,2-dimethylpropylidene)-
##MOLFORM=C8H10N2
##CAS REGISTRY NO=22123-53-1
##MP= -300
##BP= -300
##MW= 134
##$RETENTION INDEX=0
##$CONDENSED SPECTRUM=NO
##NPOINTS= 91
##XYDATA=(XY..XY) 1 
    25          0
    29        255
    30          7
    31          1
    32          9
    36          2
    37         41
    38         74
    39        462
    40        133
    41        498
    42        830
    43        206
    44          8
    45          1
    47          0
    48          2
    49         13
    50         76
    51        124
    52        111
    53         70
    54         32
    55         50
    56         99
    57        236
    58         10
    59          0
    60          1
    61         12
    62         25
    63         72
    64        133
    65        428
    66        171
    67         53
    68         23
    69         93
    70          7
    71          8
    72          1
    73          1
    74          4
    75         45
    76        132
    77         84
    78         61
    79        116
    80         80
    81         47
    82          3
    83          1
    85          0
    86          2
    87          5
    88         11
    89         10
    90         27
    91        121
    92        999
    93        422
    94         57
    95          4
    97          0
    99          0
   100          2
   101          3
   102         30
   103         15
   104          8
   105         25
   106        156
   107        133
   108         13
   109          1
   111          0
   112          0
   115          0
   116          3
   117         11
   118         76
   119        896
   120         68
   121          4
   122          0
   126          0
   131          2
   132          3
   133        142
   134         95
   135         17