##TITLE=Library Entry 20415
##JCAMP-DX=Revision 4.10 
##DATA TYPE=MASS SPECTRUM
##SAMPLE DESCRIPTION=D.HENNEBERG, MAX-PLANCK INSTITUTE, MULHEIM, WEST GERMAN
Y
##NAMES=HP
##CAS NAME=1-Heptyn-4-ol
##MOLFORM=C7H12O
##CAS REGISTRY NO=22127-83-9
##MP= -300
##BP= -300
##MW= 112
##$RETENTION INDEX=0
##$CONDENSED SPECTRUM=NO
##NPOINTS= 71
##XYDATA=(XY..XY) 1 
    23          0
    24          0
    25          4
    26         20
    27        226
    28         63
    29        222
    30          6
    31        301
    32          2
    33          1
    35          1
    36          3
    37         25
    38         47
    39        296
    40        124
    41        345
    42         48
    43        511
    44        109
    45         71
    46          2
    47          0
    48          0
    49          2
    50         15
    51         25
    52         31
    53         36
    54          8
    55        999
    56         49
    57         41
    58          4
    61         11
    62          4
    63          8
    64          1
    65         27
    66          9
    67         10
    68         14
    69         99
    70         11
    71         17
    72         27
    73        647
    74         30
    75          3
    76          0
    77         25
    78          5
    79         45
    80          2
    81          5
    82          0
    83          4
    84          1
    85          0
    89          0
    91         13
    92          3
    93          6
    94         13
    95          2
    97          2
   105          0
   106          0
   110          0
   112          1