##TITLE=Library Entry 97732
##JCAMP-DX=Revision 4.10 
##DATA TYPE=MASS SPECTRUM
##SAMPLE DESCRIPTION=Exported from NIST MS Search
##NAMES=HP
##CAS NAME=Indoline, 5,5'-diselenodi-
##MOLFORM=C16H16N2Se2
##CAS REGISTRY NO=22129-91-5
##MP= -300
##BP= -300
##MW= 396
##$RETENTION INDEX=0
##$CONDENSED SPECTRUM=NO
##NPOINTS= 134
##XYDATA=(XY..XY) 1 
    26          1
    27         15
    28         31
    29          1
    30          3
    37          3
    38         10
    39         72
    40         15
    41          5
    50         17
    51         46
    52         29
    53         12
    54          5
    61          3
    62         31
    63        112
    64         31
    65         56
    66         10
    67          5
    74          6
    75         12
    76         12
    77         41
    78         32
    79         13
    80         10
    81          1
    82          3
    86          3
    87         13
    88         17
    89        193
    90        217
    91        120
    92         12
    93         29
    94          1
    95          6
    98          1
    99          1
   102          5
   103          5
   104         27
   105          5
   106         20
   107          3
   113          3
   114          6
   115         22
   116         65
   117        999
   118        275
   119        137
   120         12
   127          3
   128          3
   129          5
   130          5
   131          5
   132          3
   133          3
   139          3
   140          1
   141          6
   142          3
   143          5
   144          3
   145          3
   154          3
   155          1
   156          5
   157          1
   158          3
   160          1
   165          5
   166          6
   167         15
   168          6
   169         29
   170         10
   171          8
   179          3
   180          3
   181          3
   182          3
   183          3
   191          1
   192         24
   193         13
   194        203
   195        189
   196        534
   197         98
   198        982
   199        132
   200        181
   201         22
   206          3
   207          3
   225          5
   232          3
   233          3
   234          8
   235         12
   236         87
   237         15
   264          5
   265          1
   266          6
   268          6
   270          1
   312          6
   313          5
   314         13
   315          3
   316         24
   317          3
   318          5
   388          6
   389         10
   390         29
   391         24
   392         75
   393         48
   394        127
   395         31
   396        136
   397         24
   398         41
   399         79
   400          6