##TITLE=Library Entry 68431
##JCAMP-DX=Revision 4.10 
##DATA TYPE=MASS SPECTRUM
##SAMPLE DESCRIPTION=NIST Mass Spectrometry Data Center
##NAMES=HP
##CAS NAME=Cryptofauronol
##MOLFORM=C15H26O2
##CAS REGISTRY NO=2212-90-0
##MP= -300
##BP= -300
##MW= 238
##$RETENTION INDEX=1713
##$CONDENSED SPECTRUM=NO
##NPOINTS= 135
##XYDATA=(XY..XY) 1 
    27        113
    28         19
    29        119
    31         13
    39        216
    40         42
    41        781
    42         85
    43        608
    44         30
    45         59
    46          2
    47          2
    51         45
    52         24
    53        225
    54         48
    55        558
    56         62
    57        103
    59         29
    60         33
    63         13
    65        131
    66         47
    67        451
    68         86
    69        612
    70         55
    71        114
    72         15
    73         21
    77        256
    78         48
    79        342
    80         61
    81        422
    82        161
    83        178
    84         50
    86          9
    87         39
    88          6
    90          5
    91        338
    92         64
    93        395
    94         85
    95        999
    96        168
    97        154
    98         65
    99         72
   100          8
   101         13
   103         18
   104         21
   105        161
   106         42
   107        444
   108        156
   109        844
   110        678
   111        229
   112         28
   113         54
   114          7
   115         37
   117         47
   118         72
   119        103
   120         42
   121        261
   122         94
   123        248
   124         98
   125        347
   126         47
   127         31
   128         14
   129        125
   130         17
   133         60
   134         23
   135        235
   136         63
   137        287
   138         40
   139        135
   140         69
   141         38
   142         61
   149        222
   150         67
   151        458
   152        178
   153         60
   154         58
   155        413
   156         53
   157         18
   159        128
   161         24
   163         46
   164         27
   165         21
   167         75
   168         24
   169          7
   177        108
   178         17
   181         45
   182        117
   183         13
   192         12
   193         72
   194         20
   195        819
   196        109
   197         11
   204         11
   205         35
   206          8
   209          7
   218         17
   219          8
   220         74
   221         21
   223         84
   224         20
   236         15
   237          3
   238        253
   239         44
   240          4