##TITLE=Library Entry 85756
##JCAMP-DX=Revision 4.10 
##DATA TYPE=MASS SPECTRUM
##SAMPLE DESCRIPTION=NIST Mass Spectrometry Data Center, 2010
##NAMES=HP
##CAS NAME=1,4-Cyclohexanedimethanol bis(tert-butyldimethylsilyl) ether
##MOLFORM=C20H44O2Si2
##CAS REGISTRY NO=221313-58-2
##MP= -300
##BP= -300
##MW= 372
##$RETENTION INDEX=0
##$CONDENSED SPECTRUM=NO
##NPOINTS= 142
##XYDATA=(XY..XY) 1 
    27          1
    29          5
    31          1
    39          3
    41         16
    42          1
    43         12
    44          1
    45          8
    46          1
    47          7
    53          3
    54          3
    55         22
    56          5
    57         12
    58          9
    59         41
    60          5
    61          9
    62          1
    65          2
    67        221
    68         15
    69          5
    70          1
    71          1
    73        131
    74         14
    75        221
    76         16
    77         13
    78          2
    79         41
    80          6
    81         50
    82          4
    83          2
    85          6
    86          1
    87          3
    88          5
    89         53
    90          5
    91         17
    92          3
    93         25
    94          5
    95          7
    96          1
    97          3
    98          1
    99          8
   100          2
   101         12
   102          2
   103         12
   104          1
   105         12
   107        106
   109        999
   110         90
   111          7
   112          1
   113          4
   114          1
   115         10
   116          1
   117          6
   118          1
   119          9
   120          1
   121          2
   122          1
   123          2
   125          3
   126          1
   127          3
   129        102
   131         11
   132          2
   133         43
   134          6
   135          7
   136          1
   137          1
   139          3
   140          1
   141          2
   142          1
   143          1
   145          1
   147        185
   148         29
   149         67
   150          9
   151          5
   152          1
   153          3
   154          1
   155          3
   157          1
   159          1
   163         21
   164          3
   165          3
   167          1
   169          9
   170          1
   171          1
   173          1
   177          1
   181          1
   183          6
   184          1
   185          1
   189         82
   190         16
   191         23
   192          4
   193          2
   197          3
   198          1
   199          1
   205          1
   207          1
   219         15
   220          3
   221          1
   225          6
   226          1
   231          3
   232          1
   233          1
   239          2
   241          1
   315         54
   316         15
   317          6
   318          1
   357          1
   372          1