##TITLE=Library Entry 4081
##JCAMP-DX=Revision 4.10 
##DATA TYPE=MASS SPECTRUM
##SAMPLE DESCRIPTION=RP-438-4
##NAMES=HP
##CAS NAME=Alclofenac
##MOLFORM=C11H11ClO3
##CAS REGISTRY NO=22131-79-9
##MP= -300
##BP= -300
##MW= 226
##$RETENTION INDEX=1837
##$CONDENSED SPECTRUM=NO
##NPOINTS= 23
##XYDATA=(XY..XY) 1 
    39        159
    41        999
    51        131
    52         14
    77         56
    78         16
    89         44
    90         22
   105         22
   113         42
   115         30
   117         30
   131         56
   141        543
   142         44
   143        238
   145        128
   163         28
   181        151
   183         50
   191         56
   226        268
   228         92