##TITLE=Library Entry 21997
##JCAMP-DX=Revision 4.10 
##DATA TYPE=MASS SPECTRUM
##SAMPLE DESCRIPTION=NIST Mass Spectrometry Data Center, 1990.
##NAMES=HP
##CAS NAME=1-Pentene, 2,4-dimethyl-
##MOLFORM=C7H14
##CAS REGISTRY NO=2213-32-3
##MP= -300
##BP= -300
##MW= 98
##$RETENTION INDEX=638
##$CONDENSED SPECTRUM=NO
##NPOINTS= 36
##XYDATA=(XY..XY) 1 
    15         43
    26         19
    27        218
    28         24
    29        103
    37          9
    38         35
    39        342
    40         83
    41        553
    42         56
    43        454
    44         16
    50         22
    51         36
    52         14
    53         64
    54          9
    55        292
    56        999
    57         91
    63          8
    65         16
    66          7
    67         40
    68          8
    69         25
    70        136
    71          7
    77         11
    79         10
    81          7
    83         86
    84          6
    98         96
    99          6