##TITLE=Library Entry 71935
##JCAMP-DX=Revision 4.10 
##DATA TYPE=MASS SPECTRUM
##SAMPLE DESCRIPTION=Japan AIST/NIMC Database- Spectrum MS-NW-5765
##NAMES=HP
##CAS NAME=1-Piperidinamine
##MOLFORM=C5H12N2
##CAS REGISTRY NO=2213-43-6
##MP= -300
##BP= -300
##MW= 100
##$RETENTION INDEX=859
##$CONDENSED SPECTRUM=NO
##NPOINTS= 64
##XYDATA=(XY..XY) 1 
    14          3
    15         29
    16         15
    17          2
    18          5
    25          1
    26         26
    27        126
    28         98
    29         87
    30         78
    31         18
    32          3
    33          1
    37          4
    38         11
    39        104
    40         19
    41        156
    42        198
    43        152
    44        762
    45        108
    46          2
    49          2
    50         12
    51         17
    52         26
    53         27
    54         46
    55        220
    56         82
    57         89
    58        109
    59        123
    60          3
    63          1
    65          4
    66          2
    67         14
    68         14
    69         13
    70         23
    71         48
    72         26
    73          1
    75          1
    76          1
    78          5
    79         29
    80         13
    81          5
    82         42
    83         36
    84        125
    85         56
    86          3
    96          1
    97          8
    98         18
    99        999
   100        740
   101         46
   102          1