##TITLE=Library Entry 32720
##JCAMP-DX=Revision 4.10 
##DATA TYPE=MASS SPECTRUM
##SAMPLE DESCRIPTION=D.HENNEBERG, MAX-PLANCK INSTITUTE, MULHEIM, WEST GERMAN
Y
##NAMES=HP
##CAS NAME=Cyclooctene, 3-ethenyl-
##MOLFORM=C10H16
##CAS REGISTRY NO=2213-60-7
##MP= -300
##BP= -300
##MW= 136
##$RETENTION INDEX=0
##$CONDENSED SPECTRUM=NO
##NPOINTS= 88
##XYDATA=(XY..XY) 1 
    21          1
    22          0
    23          1
    26         24
    27        311
    28         29
    29        130
    30          0
    31          4
    33          2
    34          1
    35          4
    37         10
    38         17
    39        409
    40         66
    41        591
    42         36
    43         29
    45          3
    46          5
    47          4
    48          1
    49          3
    50         27
    51         71
    52         63
    53        162
    54        365
    55        168
    56          8
    57          3
    58          4
    59          1
    62          5
    63         24
    64          6
    65        126
    66         82
    67        999
    68        321
    69         87
    70          1
    72          0
    73          2
    75         25
    76          7
    77        259
    78        102
    79        808
    80        380
    81        354
    82        223
    83         18
    84          1
    86          2
    87          0
    88          3
    89         10
    90          1
    91        158
    92         27
    93        286
    94        235
    95        225
    96         15
    97          1
   101          1
   102          0
   103          3
   104          2
   105         15
   106          6
   107        219
   108        171
   109         16
   110          1
   111          0
   117          2
   119          0
   121        151
   122         15
   123          1
   129          1
   134          0
   135          5
   136         47
   137          9