##TITLE=Library Entry 20650
##JCAMP-DX=Revision 4.10 
##DATA TYPE=MASS SPECTRUM
##SAMPLE DESCRIPTION=NIST Mass Spectrometry Data Center, 1990.
##NAMES=HP
##CAS NAME=3,4-Dimethyl-2-hexene
##MOLFORM=C8H16
##CAS REGISTRY NO=2213-37-8
##MP= -300
##BP= -300
##MW= 112
##$RETENTION INDEX=761
##$CONDENSED SPECTRUM=NO
##NPOINTS= 41
##XYDATA=(XY..XY) 1 
    15         12
    16          2
    26         18
    27        159
    28         35
    29        139
    32          7
    39        174
    40         38
    41        328
    42         25
    43         89
    44          5
    50         17
    51         35
    52         15
    53         79
    54          5
    55        999
    56         79
    57         18
    63          7
    65         26
    66         11
    67         83
    68         12
    69         96
    70         16
    77         19
    78          5
    79         17
    80          5
    81         23
    82          5
    83        732
    84         59
    95          4
    96          5
    97         44
   112        187
   113         17