##TITLE=Library Entry 45841
##JCAMP-DX=Revision 4.10 
##DATA TYPE=MASS SPECTRUM
##SAMPLE DESCRIPTION=NIST Mass Spectrometry Data Center
##NAMES=HP
##CAS NAME=2-Hexanol, TBDMS derivative
##MOLFORM=C12H28OSi
##CAS REGISTRY NO=221313-57-1
##MP= -300
##BP= -300
##MW= 216
##$RETENTION INDEX=1133
##$CONDENSED SPECTRUM=NO
##NPOINTS= 81
##XYDATA=(XY..XY) 1 
    15          1
    26          1
    27         10
    28          3
    29         29
    30          1
    31          2
    39         13
    40          2
    41         45
    42          5
    43         33
    44          4
    45         40
    46          3
    47         33
    48          2
    49          1
    51          1
    53          4
    54          1
    55         16
    56          5
    57         22
    58         24
    59         54
    60         12
    61         29
    62          2
    63          1
    67          2
    69          3
    70          1
    71          3
    72          6
    73        216
    74         31
    75        999
    76         75
    77         38
    78          1
    79          1
    81          1
    83          4
    84          1
    85         12
    86          3
    87         24
    88          3
    89          5
    97          3
    98          1
    99         11
   100          4
   101         21
   102         22
   103         36
   104          4
   105          1
   111          1
   113          3
   115         49
   116          7
   117          4
   127          1
   129          4
   130          1
   143          5
   144          1
   145          5
   146          1
   157          1
   159        738
   160        102
   161         33
   162          3
   201         20
   202          4
   203          1
   215          2
   216          2