##TITLE=Library Entry 9866
##JCAMP-DX=Revision 4.10 
##DATA TYPE=MASS SPECTRUM
##SAMPLE DESCRIPTION=Japan AIST/NIMC Database- Spectrum MS-NW-3634
##NAMES=HP
##CAS NAME=Heptane, 2,4-dimethyl-
##MOLFORM=C9H20
##CAS REGISTRY NO=2213-23-2
##MP= -300
##BP= -300
##MW= 128
##$RETENTION INDEX=821
##$CONDENSED SPECTRUM=NO
##NPOINTS= 40
##XYDATA=(XY..XY) 1 
    15          5
    26          2
    27         87
    28          3
    29        102
    30          2
    38          2
    39         59
    40         10
    41        192
    42         72
    43        999
    44         34
    50          1
    51          4
    52          1
    53         10
    54          3
    55         79
    56        111
    57        295
    58         12
    65          2
    67          4
    68          1
    69         42
    70        128
    71        254
    72         13
    77          1
    83          4
    84        106
    85        409
    86         28
    98          2
    99          5
   112          1
   113          9
   114          1
   128          7