##TITLE=Library Entry 19635
##JCAMP-DX=Revision 4.10 
##DATA TYPE=MASS SPECTRUM
##SAMPLE DESCRIPTION=LAC, NIDDK, NIH, Bethesda, MD 20892
##NAMES=HP
##CAS NAME=5-.beta.-Card-20(22)-enolide, 7-.beta.,8-epoxy-3-.beta.,11-.alpha
.,14-trihydroxy-12-oxo-
##MOLFORM=C23H30O7
##CAS REGISTRY NO=22146-03-8
##MP= -300
##BP= -300
##MW= 418
##$RETENTION INDEX=0
##$CONDENSED SPECTRUM=NO
##NPOINTS= 215
##XYDATA=(XY..XY) 1 
    41        572
    43        987
    44         16
    45         94
    51         34
    53        312
    54         17
    55        999
    57        282
    58         10
    65        148
    66         60
    67        418
    68        100
    69        221
    70         28
    71        190
    73         11
    74         23
    77        297
    78         46
    79        416
    80         32
    81        342
    82         45
    83        231
    84         71
    85        129
    91        380
    92         31
    93        410
    94        356
    95        359
    96        128
    97        150
    98         65
    99         34
   103         45
   104         13
   105        330
   106         31
   107        285
   108        210
   109        238
   110        114
   111        198
   112         36
   113         13
   114         11
   115         60
   116         35
   117        102
   118         44
   119        155
   120         39
   121        211
   122        236
   123        151
   124        126
   125         97
   126         28
   127         26
   128         61
   129         58
   130         12
   131        126
   133        137
   134        101
   135        167
   136        198
   137        144
   138         82
   139         42
   141         29
   142         21
   143         72
   144         16
   145        250
   146         31
   147        222
   148         83
   149         93
   150         30
   151         81
   152         64
   153         42
   154         56
   155         63
   157         66
   158         43
   159         82
   160         16
   161        121
   162         68
   163        174
   164         95
   165         98
   166        122
   167         52
   168         10
   169         30
   171         60
   172         33
   173        136
   174         58
   175        145
   176         64
   177         66
   178         28
   179         96
   180         87
   181         87
   182         12
   183         36
   185         60
   186         28
   187         68
   188         35
   189         73
   190         15
   191        133
   192        140
   193         89
   194         29
   195         28
   196         21
   197         24
   199         36
   201         65
   202         25
   203         67
   204         28
   205         30
   206         31
   207         52
   208         99
   209         51
   210         10
   211         25
   213         35
   215         41
   216         25
   217         64
   218         36
   219         40
   220         11
   221         35
   226         13
   227         30
   228         12
   229         97
   230         33
   231         39
   232         22
   233         36
   234         10
   235         29
   237         10
   239         11
   242         71
   243         33
   244         32
   245         71
   246         34
   247         70
   248         19
   249         30
   256         24
   257         30
   258         11
   259         10
   261         12
   265         27
   267         27
   270         20
   271         10
   272         20
   275         40
   279         20
   283         24
   288         27
   289         21
   293         32
   295         30
   297         10
   307         37
   308         25
   309         41
   310          9
   312         10
   321         21
   325         38
   326         31
   327         52
   328         15
   336         32
   337         11
   338         11
   339         92
   343         28
   353         41
   354        272
   355         69
   356        103
   357         26
   364         11
   367         20
   371         30
   372         23
   382         61
   383         12
   400        104
   401         23
   418         21
   419         10