##TITLE=Library Entry 19687
##JCAMP-DX=Revision 4.10 
##DATA TYPE=MASS SPECTRUM
##SAMPLE DESCRIPTION=Chemical Concepts
##NAMES=HP
##CAS NAME=Elaidic acid, isopropyl ester
##MOLFORM=C21H40O2
##CAS REGISTRY NO=22147-34-8
##MP= -300
##BP= -300
##MW= 324
##$RETENTION INDEX=0
##$CONDENSED SPECTRUM=NO
##NPOINTS= 182
##XYDATA=(XY..XY) 1 
    26          6
    27        116
    28         14
    29        230
    31          6
    39         82
    40         21
    41        737
    42        136
    43        869
    44         32
    45         31
    53         53
    54        250
    55        999
    56        283
    57        446
    58         22
    59         78
    60        134
    61         38
    65         15
    66         18
    67        368
    68        216
    69        854
    70        282
    71        193
    72         11
    73        113
    74         17
    77         16
    78          6
    79         68
    80         42
    81        351
    82        236
    83        760
    84        305
    85        131
    86          9
    87         55
    88          9
    91         23
    92          6
    93         46
    94         45
    95        258
    96        242
    97        654
    98        315
    99         65
   100         43
   101         73
   102         65
   103         17
   105         19
   106          7
   107         46
   108         39
   109        163
   110        155
   111        370
   112        131
   113         47
   114         88
   115         58
   116         17
   119         41
   120         13
   121         72
   122         32
   123        161
   124        104
   125        209
   126         83
   127        112
   128         29
   129         51
   130         11
   133         50
   134         43
   135         64
   136         21
   137        118
   138         86
   139        122
   140         54
   141         36
   142         15
   143         30
   144          6
   147         52
   148         47
   149         50
   150         21
   151        116
   152         80
   153         81
   154         41
   155         39
   156         14
   157         25
   161         37
   162         16
   163         36
   164         22
   165        118
   166         69
   167         61
   168         33
   169         45
   170         14
   171         23
   172         12
   175         27
   176         10
   177         17
   178          8
   179         91
   180         72
   181         56
   182         30
   183         36
   184         15
   185         32
   186         23
   189         19
   190          5
   191          7
   192          5
   193         58
   194         35
   195         23
   196         15
   197         27
   198         14
   199         31
   200         12
   203          7
   207         48
   208         36
   209         14
   210         13
   211         22
   212         12
   213          9
   214          7
   220         83
   221         68
   222         98
   223         24
   224          7
   225         19
   226         11
   227          6
   235         30
   236         23
   239         14
   240         11
   241          8
   245         68
   246         66
   247         46
   248         11
   254          9
   263        163
   264        656
   265        447
   266         82
   267         23
   268          7
   280         49
   281         83
   282        120
   283         31
   284         44
   285         18
   309         12
   324        283
   325         72
   326         20