##TITLE=Library Entry 18630
##JCAMP-DX=Revision 4.10 
##DATA TYPE=MASS SPECTRUM
##SAMPLE DESCRIPTION=G.J.JANZ RENSSELAER POLYTECHNIC INSTITUTE, TROY, N.Y.,
 USA
##NAMES=HP
##CAS NAME=Butyronitrile, 4,4,4-trifluoro-2-methyl-
##MOLFORM=C5H6F3N
##CAS REGISTRY NO=2214-85-9
##MP= -300
##BP= -300
##MW= 137
##$RETENTION INDEX=0
##$CONDENSED SPECTRUM=NO
##NPOINTS= 78
##XYDATA=(XY..XY) 1 
    12         19
    13         19
    14         60
    15        275
    20         10
    25         19
    26        213
    27        467
    28        775
    29         18
    31         93
    32          8
    33        126
    36          5
    37         65
    38         98
    39        318
    40         93
    41        979
    42        232
    43         18
    44         27
    45         42
    46         60
    47         47
    49          5
    50         22
    51        198
    52        195
    53         78
    54        999
    55         46
    56          6
    57         21
    58         21
    59         30
    60          7
    63         16
    64        477
    65         75
    66         51
    67         13
    68        693
    69        469
    70         13
    71         32
    72         33
    73         26
    74          5
    75         26
    76         42
    77        122
    78          7
    82          6
    83          8
    84          5
    88          5
    89         20
    90        124
    91         12
    94          9
    95         45
    96          7
    97         13
    98         14
   100          6
   102        152
   103         18
   109          5
   110         48
   111          4
   116         22
   117        104
   118         42
   121          5
   122         23
   135          5
   136         24