##TITLE=Library Entry 64464
##JCAMP-DX=Revision 4.10 
##DATA TYPE=MASS SPECTRUM
##SAMPLE DESCRIPTION=MUS142 A. Mujsce, AT&T Bell Labs., Murray Hill, N.J., U
SA
##NAMES=HP
##CAS NAME=Benzeneacetonitrile, 4-[1-(phenylmethyl)-4-piperidyl]-
##MOLFORM=C20H22N2
##CAS REGISTRY NO=221558-81-2
##MP= -300
##BP= -300
##MW= 290
##$RETENTION INDEX=0
##$CONDENSED SPECTRUM=NO
##NPOINTS= 139
##XYDATA=(XY..XY) 1 
    14          7
    15          3
    16          5
    17         18
    18         47
    19          1
    27         12
    29          8
    30         15
    39         38
    40          5
    41         33
    42        219
    43         24
    44         27
    45          1
    46          1
    47          0
    48          0
    50          8
    51         27
    52          8
    53          7
    54         20
    55         47
    56        108
    57          7
    62          4
    63         27
    65        139
    66          8
    67          2
    68          7
    69          7
    70         27
    71          2
    73          1
    74          2
    75          5
    76          7
    77         36
    78         14
    79          4
    80          3
    81          1
    82         12
    83          1
    84          1
    87          3
    88          3
    89         41
    91        999
    92        144
    93          8
    94          1
    96          7
    97          1
    99          1
   100          1
   101          3
   102         16
   103         25
   104         28
   105         12
   106          2
   107          1
   110          1
   113          3
   115         81
   116         55
   117         37
   118         28
   119         28
   120         16
   121          1
   126          2
   127         10
   128         24
   129         30
   130         56
   131         10
   132         49
   133          8
   134          8
   135          1
   139          1
   140          7
   141          3
   142         24
   143         26
   144         14
   146         60
   147          6
   152          1
   153          3
   154          2
   156          2
   157          2
   158          6
   159         15
   160          3
   161          1
   166          1
   168          2
   169          3
   170          4
   171          2
   172         17
   173         37
   174          5
   183          3
   184          1
   185          1
   195          1
   197          4
   199        155
   200         24
   201          2
   207          2
   209          1
   211          2
   213         71
   214         12
   217          1
   222          1
   232          1
   249          1
   258          1
   262          1
   263          1
   264          1
   273          0
   275          1
   287          6
   289        258
   290        308
   291         60
   292          7
   293          0