##TITLE=Library Entry 63827
##JCAMP-DX=Revision 4.10 
##DATA TYPE=MASS SPECTRUM
##SAMPLE DESCRIPTION=A.A.Kutin, Moscow, Russia
##NAMES=HP
##CAS NAME=3H-Indazol-3-one, 1,2-dihydro-1-(phenylmethyl)-
##MOLFORM=C14H12N2O
##CAS REGISTRY NO=2215-63-6
##MP= -300
##BP= -300
##MW= 224
##$RETENTION INDEX=0
##$CONDENSED SPECTRUM=NO
##NPOINTS= 109
##XYDATA=(XY..XY) 1 
    38          7
    39         29
    41         13
    43          1
    44          2
    45          0
    49          0
    50         28
    51         67
    52          8
    53          2
    55          1
    57          1
    61          0
    62          4
    63         18
    64          8
    65        105
    66          4
    70          0
    71          0
    73          0
    74          7
    75         12
    76         54
    77         56
    78          8
    79          1
    80          0
    83          1
    84          1
    86          0
    89         24
    90         42
    91        999
    92         83
    93          6
    97          0
    99          0
   100          0
   101          1
   102         11
   104         40
   105         29
   106          3
   107          0
   111          3
   112          5
   113          0
   115          1
   116          0
   117          2
   118         21
   119          9
   120         14
   121          1
   125          2
   126          0
   127          3
   128          1
   129          3
   130          3
   131          1
   132          1
   133          8
   134          2
   139          2
   140          0
   145          2
   146         90
   147         57
   148          4
   149          0
   150          1
   151          6
   152         11
   153          3
   154          0
   155          0
   163          0
   164          1
   165          8
   166          5
   167          5
   168          1
   171          1
   177          2
   178          5
   179          3
   180          9
   181          3
   182          0
   192          0
   193          1
   194          2
   195          5
   196          1
   205          2
   206          5
   207          9
   208          1
   209          2
   214          0
   221          6
   222          3
   223         44
   224        781
   225        128
   226         11