##TITLE=Library Entry 69249
##JCAMP-DX=Revision 4.10 
##DATA TYPE=MASS SPECTRUM
##SAMPLE DESCRIPTION=ORMSBG,10(10)885(1975); G. COOPER
##NAMES=HP
##CAS NAME=1H-Imidazole-1-ethanol, 2-methyl-.alpha.-phenyl-
##MOLFORM=C12H14N2O
##CAS REGISTRY NO=22159-32-6
##MP= -300
##BP= -300
##MW= 202
##$RETENTION INDEX=0
##$CONDENSED SPECTRUM=NO
##NPOINTS= 15
##XYDATA=(XY..XY) 1 
    50        100
    51        190
    52        170
    54        120
    55        180
    77        310
    78        870
    79        350
    81        130
    82         50
    95        370
    96        999
    97         80
   107        290
   202        150