##TITLE=Library Entry 87713
##JCAMP-DX=Revision 4.10 
##DATA TYPE=MASS SPECTRUM
##SAMPLE DESCRIPTION=ORMSBG,10(2)122(1975); G. PEIFFER
##NAMES=HP
##CAS NAME=Phosphonic acid, (3-methyl-3-penten-1-ynyl)-, diethyl ester, (E)-
##MOLFORM=C10H17O3P
##CAS REGISTRY NO=22152-31-4
##MP= -300
##BP= -300
##MW= 216
##$RETENTION INDEX=0
##$CONDENSED SPECTRUM=NO
##NPOINTS= 42
##XYDATA=(XY..XY) 1 
    26        312
    27        906
    28        906
    29        968
    31        656
    39          2
    41        125
    42        156
    43        781
    44        562
    45        625
    47        250
    55        125
    63         12
    69        156
    81        656
    82        500
    91        125
    93        687
    94        187
    99        781
   108        125
   109        500
   110        218
   111        999
   112          3
   121        125
   122        156
   125        187
   127        343
   137        156
   138        281
   143          4
   146        156
   154         62
   155         78
   156          6
   158          4
   182         56
   188          6
   201          3
   216         62