##TITLE=Library Entry 7942
##JCAMP-DX=Revision 4.10 
##DATA TYPE=MASS SPECTRUM
##SAMPLE DESCRIPTION=Japan AIST/NIMC Database- Spectrum MS-NW-3490
##NAMES=HP
##CAS NAME=Heptane, 4-ethyl-
##MOLFORM=C9H20
##CAS REGISTRY NO=2216-32-2
##MP= -300
##BP= -300
##MW= 128
##$RETENTION INDEX=858
##$CONDENSED SPECTRUM=NO
##NPOINTS= 47
##XYDATA=(XY..XY) 1 
    15          5
    26          5
    27        110
    28          3
    29        128
    30          3
    38          3
    39         70
    40         10
    41        250
    42         67
    43        999
    44         34
    50          3
    51          6
    52          3
    53         17
    54          9
    55        129
    56        111
    57        826
    58         36
    59          1
    62          1
    63          1
    65          3
    66          1
    67          7
    68          4
    69         61
    70         42
    71         33
    72          2
    73          3
    77          1
    79          1
    81          1
    83          6
    84        255
    85        376
    86         23
    97          1
    98        171
    99         74
   100          6
   128         12
   129          1