##TITLE=Library Entry 38205
##JCAMP-DX=Revision 4.10 
##DATA TYPE=MASS SPECTRUM
##SAMPLE DESCRIPTION=Chuck Anderson, Aldrich Chemical Co.
##NAMES=HP
##CAS NAME=Cyclohexanol, 5-methyl-2-(1-methylethyl)-, [1S-(1.alpha.,2.alpha.
,5.beta.)]-
##MOLFORM=C10H20O
##CAS REGISTRY NO=2216-52-6
##MP= -300
##BP= -300
##MW= 156
##$RETENTION INDEX=0
##$CONDENSED SPECTRUM=NO
##NPOINTS= 67
##XYDATA=(XY..XY) 1 
    26          0
    27        104
    28         13
    29        162
    30          4
    31         36
    38          5
    39        194
    40         40
    41        782
    42        110
    43        589
    44         69
    45         45
    50          5
    51         25
    52         13
    53        143
    54         64
    55        594
    56        237
    57        330
    58         33
    59         16
    63          1
    65         21
    66          9
    67        291
    68        121
    69        280
    70        112
    71        999
    72         47
    73          9
    77         30
    78          5
    79         68
    80         70
    81        641
    82        291
    83        108
    84         29
    85        102
    86         31
    87          3
    91         15
    92          1
    93         33
    94         96
    95        471
    96        155
    97         28
    98          1
    99         28
   100          4
   109         91
   110         67
   111         26
   112         23
   113         15
   123        301
   124         26
   125          2
   138        334
   139         35
   141          5
   156          3