##TITLE=Library Entry 39852
##JCAMP-DX=Revision 4.10 
##DATA TYPE=MASS SPECTRUM
##SAMPLE DESCRIPTION=Japan AIST/NIMC Database- Spectrum MS-NW-2009
##NAMES=HP
##CAS NAME=3-Undecanone
##MOLFORM=C11H22O
##CAS REGISTRY NO=2216-87-7
##MP= -300
##BP= -300
##MW= 170
##$RETENTION INDEX=1283
##$CONDENSED SPECTRUM=NO
##NPOINTS= 81
##XYDATA=(XY..XY) 1 
    14          1
    15          4
    17          3
    18         15
    26          6
    27        107
    28         18
    29        358
    30          8
    31          5
    32          5
    38          1
    39         47
    40          8
    41        194
    42         37
    43        340
    44          9
    45          3
    50          1
    51          3
    52          2
    53         13
    54         11
    55        106
    56         29
    57        629
    58         29
    59          9
    60          1
    65          2
    66          1
    67         41
    68          9
    69         22
    70         10
    71        364
    72        999
    73        219
    74          9
    77          1
    79          2
    80          1
    81         59
    82         10
    83         11
    84          5
    85        164
    86         15
    87          1
    93          1
    95          6
    96         37
    97         10
    98         15
    99         24
   100          3
   109          5
   110          4
   111          2
   112          1
   113          5
   114         17
   115          1
   117          2
   123         31
   124          4
   125          1
   127         14
   128          9
   129          1
   139          1
   140          1
   141        368
   142         36
   143          3
   151          1
   152          4
   155          1
   170         48
   171          6