##TITLE=Library Entry 19854
##JCAMP-DX=Revision 4.10 
##DATA TYPE=MASS SPECTRUM
##SAMPLE DESCRIPTION=Chemical Concepts
##NAMES=HP
##CAS NAME=2-Nonene
##MOLFORM=C9H18
##CAS REGISTRY NO=2216-38-8
##MP= -300
##BP= -300
##MW= 126
##$RETENTION INDEX=906
##$CONDENSED SPECTRUM=NO
##NPOINTS= 64
##XYDATA=(XY..XY) 1 
    26          6
    27        170
    28         18
    29        248
    30          5
    31          1
    37          1
    38          5
    39        179
    40         28
    41        545
    42        358
    43        581
    44         15
    45          8
    50          4
    51         15
    52          7
    53         69
    54         76
    55        999
    56        697
    57        118
    58          9
    59          2
    62          0
    63          2
    65         11
    66          7
    67         69
    68         43
    69        379
    70        376
    71         84
    72          5
    73          0
    74          0
    77          6
    78          1
    79          8
    80          1
    81         12
    82         30
    83        106
    84        116
    85         19
    86          1
    91          1
    93          1
    95          2
    96         13
    97        116
    98         41
    99          4
   103          1
   108          0
   111          4
   112          0
   113          1
   124          1
   125          2
   126        159
   127         17
   128          1