##TITLE=Library Entry 38984
##JCAMP-DX=Revision 4.10 
##DATA TYPE=MASS SPECTRUM
##SAMPLE DESCRIPTION=Japan AIST/NIMC Database- Spectrum MS-NW-1468
##NAMES=HP
##CAS NAME=Levomenthol
##MOLFORM=C10H20O
##CAS REGISTRY NO=2216-51-5
##MP= -300
##BP= -300
##MW= 156
##$RETENTION INDEX=1175
##$CONDENSED SPECTRUM=NO
##NPOINTS= 79
##XYDATA=(XY..XY) 1 
    15          9
    17          1
    18          3
    26          3
    27        152
    28         20
    29        144
    30          3
    31         38
    32          1
    38          3
    39        122
    40         20
    41        408
    42         61
    43        246
    44         32
    45         23
    46          1
    50          3
    51         12
    52          6
    53         73
    54         42
    55        405
    56        193
    57        180
    58         24
    59         15
    63          3
    65         13
    66          7
    67        256
    68        128
    69        309
    70        100
    71        999
    72         58
    73         12
    77         17
    78          4
    79         28
    80         94
    81        766
    82        380
    83        134
    84         28
    85         85
    86         38
    87          5
    91          9
    92          1
    93         22
    94         47
    95        702
    96        289
    97         44
    98          4
    99         38
   100          7
   105          1
   107          2
   108          2
   109        113
   110         68
   111         14
   112         15
   113         15
   114          2
   121          2
   123        312
   124         32
   125          3
   137          9
   138        275
   139         33
   140          2
   141          9
   155          2