##TITLE=Library Entry 9899
##JCAMP-DX=Revision 4.10 
##DATA TYPE=MASS SPECTRUM
##SAMPLE DESCRIPTION=Exported from NIST MS Search
##NAMES=HP
##CAS NAME=Octane, 4-methyl-
##MOLFORM=C9H20
##CAS REGISTRY NO=2216-34-4
##MP= -300
##BP= -300
##MW= 128
##$RETENTION INDEX=863
##$CONDENSED SPECTRUM=NO
##NPOINTS= 55
##XYDATA=(XY..XY) 1 
    26          6
    27        175
    28         26
    29        208
    30          5
    38          1
    39         77
    40         15
    41        256
    42         96
    43        999
    44         33
    45          1
    50          1
    51          2
    52          1
    53         16
    54          7
    55        124
    56         81
    57        253
    58         11
    59          1
    63          1
    65          2
    66          1
    67          4
    68          2
    69         27
    70        208
    71        276
    72         15
    73          1
    77          1
    78          1
    79          1
    80          1
    81          1
    82          1
    83          2
    84        183
    85        285
    86         18
    87          1
    97          1
    98         31
    99         14
   100          1
   111          1
   112          4
   113          8
   114          1
   127          1
   128         24
   129          2