##TITLE=Library Entry 83117
##JCAMP-DX=Revision 4.10 
##DATA TYPE=MASS SPECTRUM
##SAMPLE DESCRIPTION=Japan AIST/NIMC Database- Spectrum MS-IW-6534
##NAMES=HP
##CAS NAME=Glycine, N-phenyl-, ethyl ester
##MOLFORM=C10H13NO2
##CAS REGISTRY NO=2216-92-4
##MP= -300
##BP= -300
##MW= 179
##$RETENTION INDEX=0
##$CONDENSED SPECTRUM=NO
##NPOINTS= 35
##XYDATA=(XY..XY) 1 
    27          6
    28          6
    29          9
    30          5
    38          2
    39          7
    42          1
    50          9
    51         36
    52          7
    53          4
    63          3
    64          2
    65          5
    66          1
    73          1
    74          3
    75          2
    76          5
    77        100
    78         21
    79         36
    80          2
    91          2
    92          1
    93          3
   104         24
   105         15
   106        999
   107         80
   108          3
   134          1
   179        280
   180         36
   181          3