##TITLE=Library Entry 25663
##JCAMP-DX=Revision 4.10 
##DATA TYPE=MASS SPECTRUM
##SAMPLE DESCRIPTION=Japan AIST/NIMC Database- Spectrum MS-IW-3528
##NAMES=HP
##CAS NAME=Propanoic acid, heptyl ester
##MOLFORM=C10H20O2
##CAS REGISTRY NO=2216-81-1
##MP= -300
##BP= -300
##MW= 172
##$RETENTION INDEX=1201
##$CONDENSED SPECTRUM=NO
##NPOINTS= 74
##XYDATA=(XY..XY) 1 
    15          3
    18          2
    26          7
    27        100
    28         44
    29        353
    30          9
    31         18
    32          1
    38          1
    39         50
    40         10
    41        235
    42        142
    43        200
    44          9
    45          6
    50          1
    51          2
    52          1
    53         12
    54         35
    55        286
    56        546
    57        999
    58         41
    59          5
    61          2
    65          1
    66          1
    67         11
    68         59
    69        266
    70        497
    71         36
    72         22
    73          9
    74         29
    75        557
    76         18
    77          4
    79          1
    81          7
    82          4
    83         60
    84          7
    85         11
    86          3
    87         57
    88          5
    89          2
    95          2
    96          6
    97         42
    98        323
    99         27
   100          5
   101         12
   102          2
   105          1
   111          1
   112         11
   113         20
   114          3
   115         18
   116          3
   125          2
   127          1
   128          1
   129          1
   130         13
   131          2
   143         10
   144          1