##TITLE=Library Entry 6206
##JCAMP-DX=Revision 4.10 
##DATA TYPE=MASS SPECTRUM
##SAMPLE DESCRIPTION=NIST Mass Spectrometry Data Center, 1994
##NAMES=HP
##CAS NAME=2-Bromononane
##MOLFORM=C9H19Br
##CAS REGISTRY NO=2216-35-5
##MP= -300
##BP= -300
##MW= 206
##$RETENTION INDEX=0
##$CONDENSED SPECTRUM=NO
##NPOINTS= 57
##XYDATA=(XY..XY) 1 
     4          0
    15         26
    18          5
    26         31
    27        437
    28        135
    29        494
    30         12
    32          6
    37          2
    38         14
    39        330
    40         69
    41        901
    42        275
    43        999
    44         35
    50          8
    51         20
    52          9
    53         68
    54         40
    55        401
    56        167
    57        638
    58         30
    63          4
    65          9
    66          4
    67         32
    68         13
    69        134
    70         63
    71        812
    72         47
    77          6
    79         10
    80          6
    81          7
    82          8
    83         27
    84          6
    85        472
    86         33
    91          1
    93          3
    95          4
    97         17
    98          4
   107         18
   109         15
   121          5
   123          4
   127         79
   128          6
   149          3
   151          3