##TITLE=Library Entry 24138
##JCAMP-DX=Revision 4.10 
##DATA TYPE=MASS SPECTRUM
##SAMPLE DESCRIPTION=Japan AIST/NIMC Database- Spectrum MS-NW-3916
##NAMES=HP
##CAS NAME=Heptane, 2,5-dimethyl-
##MOLFORM=C9H20
##CAS REGISTRY NO=2216-30-0
##MP= -300
##BP= -300
##MW= 128
##$RETENTION INDEX=833
##$CONDENSED SPECTRUM=NO
##NPOINTS= 46
##XYDATA=(XY..XY) 1 
    15          4
    26          3
    27         62
    28          4
    29        119
    30          2
    38          2
    39         45
    40          7
    41        200
    42         42
    43        366
    44         11
    50          2
    51          3
    52          1
    53          9
    54          4
    55         61
    56        213
    57        999
    58         44
    59          2
    65          1
    67          3
    68          2
    69         24
    70         66
    71        115
    72          7
    73          1
    77          1
    83          5
    84          9
    85         17
    86          1
    98         52
    99        134
   100          9
   112          2
   113          9
   114          1
   126          1
   127          1
   128         14
   129          1