##TITLE=Library Entry 49855
##JCAMP-DX=Revision 4.10 
##DATA TYPE=MASS SPECTRUM
##SAMPLE DESCRIPTION=Chuck Anderson, Aldrich Chemical Co.
##NAMES=HP
##CAS NAME=Bicyclo[2.2.1]heptan-2-ol, 1,3,3-trimethyl-, (1R-endo)-
##MOLFORM=C10H18O
##CAS REGISTRY NO=2217-02-9
##MP= -300
##BP= -300
##MW= 154
##$RETENTION INDEX=0
##$CONDENSED SPECTRUM=NO
##NPOINTS= 66
##XYDATA=(XY..XY) 1 
    27         96
    28         11
    29        134
    31         27
    38          8
    39        261
    40         47
    41        705
    42         57
    43        823
    44         33
    45         59
    50         11
    51         50
    52         20
    53        170
    54         39
    55        273
    56         55
    57        185
    58         10
    59         13
    63          6
    65         39
    66         18
    67        216
    68         29
    69        240
    70         40
    71        213
    72        196
    73         21
    77         79
    78         14
    79        264
    80        771
    81        999
    82        163
    83        169
    84        189
    85         38
    86          6
    91         56
    92         43
    93        128
    94         19
    95         55
    96         34
    97         38
    98         32
    99         11
   105         22
   107        141
   108         24
   109         20
   110         30
   111        187
   112         19
   121        176
   122         28
   123         76
   124         11
   125         31
   136         26
   139         39
   154         19