##TITLE=Library Entry 46693
##JCAMP-DX=Revision 4.10 
##DATA TYPE=MASS SPECTRUM
##SAMPLE DESCRIPTION=Asinex Ltd, Moscow, Russia
##NAMES=HP
##CAS NAME=3-Phenyl-5-trifluoromethoxy-benzo[c]isoxazole
##MOLFORM=C14H8F3NO2
##CAS REGISTRY NO=22172-64-1
##MP= -300
##BP= -300
##MW= 279
##$RETENTION INDEX=0
##$CONDENSED SPECTRUM=NO
##NPOINTS= 125
##XYDATA=(XY..XY) 1 
    33         34
    34         76
    38         71
    39        139
    40         60
    41         74
    42         37
    43         79
    44         23
    45         12
    46          1
    47         16
    48          2
    50        206
    51        536
    52        135
    53         94
    54         22
    55         53
    56         21
    57         48
    58          4
    61         18
    62         47
    63         80
    64         49
    65         23
    66         26
    67         13
    69        350
    70         26
    71         15
    73         10
    74         56
    75         64
    77        999
    78         79
    79         62
    80         86
    81         15
    82         12
    83         22
    84         11
    85         14
    86         13
    87         18
    88         10
    89         16
    90         10
    91         27
    92         24
    93         29
    94          4
    95         10
    96          8
    97          9
    98         13
    99          8
   100          6
   101         21
   102         25
   103         10
   105        169
   106         20
   107         39
   108         11
   109          3
   110          7
   111          5
   112          8
   113          8
   114          5
   115          9
   117          0
   119          1
   121         38
   122          2
   125          6
   126         31
   127        106
   128         88
   129         13
   130          2
   132          1
   134          1
   137          2
   138          6
   139         23
   140         18
   141          2
   149          3
   150          5
   151          9
   152         17
   153         56
   154        256
   155         30
   156          3
   157          5
   158          2
   164         11
   165         13
   166         24
   167          5
   171          4
   175          1
   176         20
   179          7
   182        499
   183         62
   184         10
   185          1
   193          0
   194         50
   195          7
   196          3
   204         12
   210        161
   211         23
   212          3
   264          1
   279        519
   280        141
   281         56
   282          5