##TITLE=Library Entry 38307
##JCAMP-DX=Revision 4.10 
##DATA TYPE=MASS SPECTRUM
##SAMPLE DESCRIPTION=V.G.Zaikin, TIPS RAS, Moscow, Russia
##NAMES=HP
##CAS NAME=Hexanoic acid, 2-tetrahydrofurylmethyl ester
##MOLFORM=C11H20O3
##CAS REGISTRY NO=2217-34-7
##MP= -300
##BP= -300
##MW= 200
##$RETENTION INDEX=0
##$CONDENSED SPECTRUM=NO
##NPOINTS= 37
##XYDATA=(XY..XY) 1 
    26         19
    27        149
    28         18
    29        143
    30          6
    31         19
    37          6
    38          8
    39         99
    40         26
    41        208
    42        125
    43        422
    44         29
    45         12
    51          4
    53         18
    54         12
    55        108
    56         26
    57         26
    60         29
    67          8
    69         19
    70         41
    71        999
    72         51
    73         17
    74          6
    83         12
    84        151
    85         35
    86          3
    87          9
    98          9
    99         56
   100          5