##TITLE=Library Entry 81352
##JCAMP-DX=Revision 4.10 
##DATA TYPE=MASS SPECTRUM
##SAMPLE DESCRIPTION=A.Pleshkova, Nesmeyanov Inst.Org.Elem.Cpds, Moscow
##NAMES=HP
##CAS NAME=1-(1-Phenylethyl)-3,3-dimethyldiaziridine
##MOLFORM=C11H16N2
##CAS REGISTRY NO=22184-67-4
##MP= -300
##BP= -300
##MW= 176
##$RETENTION INDEX=0
##$CONDENSED SPECTRUM=NO
##NPOINTS= 42
##XYDATA=(XY..XY) 1 
    41         90
    42        280
    43         53
    55         48
    56        290
    57         73
    58        730
    59          7
    71         70
    72        164
    73         15
    75         14
    76         30
    77        430
    78         96
    79        214
    80         16
    83         17
    84         19
    89         23
    90          6
    91         88
    92         12
    99        158
   100          8
   102         17
   103        133
   104        108
   105        999
   106        171
   107         13
   117          7
   118         46
   119         18
   120         22
   146          6
   161        998
   162        109
   163          8
   175         10
   176         11
   177          1