##TITLE=Library Entry 60044
##JCAMP-DX=Revision 4.10 
##DATA TYPE=MASS SPECTRUM
##SAMPLE DESCRIPTION=A.Pleshkova, Nesmeyanov Inst.Org.Elem.Cpds, Moscow
##NAMES=HP
##CAS NAME=1-Benzyl-3,3-dimethyldiaziridine
##MOLFORM=C10H14N2
##CAS REGISTRY NO=22184-65-2
##MP= -300
##BP= -300
##MW= 162
##$RETENTION INDEX=0
##$CONDENSED SPECTRUM=NO
##NPOINTS= 30
##XYDATA=(XY..XY) 1 
    51        105
    52          6
    58        132
    59         26
    65        184
    66         21
    71        447
    72         40
    73          5
    77        132
    78         92
    85        316
    86         32
    91        999
    92         66
   103         55
   104        158
   105         79
   106        408
   107         44
   108          6
   119         53
   120          5
   146        132
   147         66
   148          7
   161         53
   162        263
   163         30
   164          6