##TITLE=Library Entry 81934
##JCAMP-DX=Revision 4.10 
##DATA TYPE=MASS SPECTRUM
##SAMPLE DESCRIPTION=Chemical Concepts
##NAMES=HP
##CAS NAME=(2-Butynyl)oxytriphenylmethane
##MOLFORM=C23H20O
##CAS REGISTRY NO=221911-25-7
##MP= -300
##BP= -300
##MW= 312
##$RETENTION INDEX=0
##$CONDENSED SPECTRUM=NO
##NPOINTS= 235
##XYDATA=(XY..XY) 1 
    26          4
    27         42
    29         16
    30          3
    31          6
    34          2
    35          3
    36          7
    37          3
    38          6
    39         40
    40         21
    41         26
    42         14
    43         59
    44         39
    45          7
    48          3
    49          9
    50         11
    51         58
    52         13
    53        180
    54         12
    55         15
    56          7
    57         15
    58          3
    59          3
    60          7
    61          2
    62          3
    63         13
    64          4
    65         12
    66          4
    67         17
    68         10
    69         31
    70          8
    71         12
    72          4
    73          4
    74          4
    75          8
    76         19
    77        213
    78         33
    79          8
    80          2
    81          8
    82         10
    83         19
    84         13
    85          5
    86          8
    87          5
    88          6
    89         12
    90          4
    91         52
    92         11
    93          5
    94          7
    95         10
    96          5
    97          9
    98          5
    99          4
   100          3
   101         11
   102         12
   103         25
   104         10
   105        999
   106         82
   107         21
   108         16
   109          4
   110          4
   111         11
   112          8
   113         18
   114         19
   115         74
   116         13
   117          4
   118          6
   119         13
   120         18
   121         10
   122          6
   123          4
   124          2
   125          5
   126         11
   127         19
   128         26
   129         51
   130         50
   131          7
   133          6
   135          2
   136          2
   137          4
   138          4
   139         28
   140          5
   141         12
   142          4
   143          4
   149         18
   150          8
   151         13
   152         53
   153         29
   154         37
   155         10
   156          3
   157         26
   158          6
   159         40
   160          7
   161          3
   162          4
   163         27
   164         36
   165        471
   166        169
   167        136
   168         18
   169          4
   174          3
   175          5
   176         12
   177          8
   178         23
   179         13
   180          6
   181         52
   182         28
   183        241
   184         54
   185          7
   186          2
   187          7
   188          2
   189         19
   190          6
   191         16
   192         11
   193         16
   194         23
   195          8
   196          2
   197          7
   198          3
   199          2
   200          8
   201         11
   202         44
   203         18
   204          7
   205         12
   206         35
   207         96
   208         21
   209          9
   210          2
   211          4
   212          3
   213         18
   214          7
   215         70
   216         20
   217          9
   218          4
   219          4
   220          4
   221         29
   222          7
   223          3
   224          4
   225          6
   226         34
   227         29
   228         75
   229         28
   230          8
   231          3
   232          2
   233          3
   234         16
   235        511
   236        137
   237         32
   238         12
   239        104
   240         42
   241        115
   242         71
   243        781
   244        520
   245        142
   246         14
   249         10
   252          4
   253          3
   254          5
   255          4
   256          9
   257         14
   258         48
   259         36
   260         15
   261          3
   265          4
   266          2
   267         11
   268          5
   269          7
   270          3
   274          4
   279          5
   280          2
   281          6
   282         25
   283         14
   284         12
   297         54
   298         11
   299          2
   312        131
   313         31
   314          8