##TITLE=Library Entry 11329
##JCAMP-DX=Revision 4.10 
##DATA TYPE=MASS SPECTRUM
##SAMPLE DESCRIPTION=A. SELVA, C.N.R., IST. CHIM. POLITEC., MILAN, IT_ -
##NAMES=HP
##CAS NAME=S-Phenyl 2-acetoxypropanethioate
##MOLFORM=C11H12O3S
##CAS REGISTRY NO=22198-55-6
##MP= -300
##BP= -300
##MW= 224
##$RETENTION INDEX=0
##$CONDENSED SPECTRUM=NO
##NPOINTS= 36
##XYDATA=(XY..XY) 1 
    15         20
    18         20
    27         10
    28         20
    29         10
    39         50
    42         10
    43        999
    44         20
    45         60
    50         10
    51         40
    55         10
    59         10
    63         10
    65         80
    66         30
    69         20
    77         30
    87        230
    88         10
   108         10
   109        110
   110        230
   111         20
   112         10
   115        390
   116         20
   123         80
   124         10
   136          2
   137          8
   164          2
   182         50
   183         10
   224          1