##TITLE=Library Entry 49467
##JCAMP-DX=Revision 4.10 
##DATA TYPE=MASS SPECTRUM
##SAMPLE DESCRIPTION=D.HENNEBERG, MAX-PLANCK INSTITUTE, MULHEIM, WEST GERMAN
Y
##NAMES=HP
##CAS NAME=Bicyclo[2.2.2]oct-5-en-2-one
##MOLFORM=C8H10O
##CAS REGISTRY NO=2220-40-8
##MP= -300
##BP= -300
##MW= 122
##$RETENTION INDEX=1084
##$CONDENSED SPECTRUM=NO
##NPOINTS= 85
##XYDATA=(XY..XY) 1 
    26         29
    27        143
    28         17
    29          9
    31          2
    32          0
    33          0
    35          0
    36          0
    37          7
    38         25
    39        181
    40         43
    41         60
    42         13
    43         16
    44          3
    45          6
    46          4
    49          3
    50         29
    51         56
    52         35
    53        126
    54         20
    55         18
    56          1
    57          1
    58          0
    59          1
    60          0
    61          3
    62          7
    63         17
    64          5
    65         43
    66         68
    67         18
    68         52
    69          3
    70          0
    71          0
    73          0
    74          3
    75          5
    76          2
    77        121
    78         57
    79        476
    80        999
    81        110
    82          6
    83          0
    84          0
    85          0
    86          0
    87          0
    88          3
    89          2
    90          0
    91         35
    92          5
    93         24
    94         55
    95          5
    96          0
    97          0
    98          0
    99          1
   101          0
   102          0
   103          1
   104          1
   105          1
   107         14
   108          1
   113          0
   114          0
   115          0
   117          0
   119          0
   120          0
   121         15
   122        120
   123         11