##TITLE=Library Entry 88732
##JCAMP-DX=Revision 4.10 
##DATA TYPE=MASS SPECTRUM
##SAMPLE DESCRIPTION=Japan AIST/NIMC Database- Spectrum MS-IW-5998
##NAMES=HP
##CAS NAME=2-Methyl-trans-2,trans-4-hexadienedioic acid
##MOLFORM=C7H8O4
##CAS REGISTRY NO=22209-04-7
##MP= -300
##BP= -300
##MW= 156
##$RETENTION INDEX=0
##$CONDENSED SPECTRUM=NO
##NPOINTS= 99
##XYDATA=(XY..XY) 1 
    15          4
    16          3
    17         38
    18         41
    19          1
    25          1
    26          9
    27         32
    28         73
    29         33
    30          1
    31         16
    32          9
    33          5
    37          8
    38         25
    39        161
    40         49
    41         63
    42         11
    43         51
    44        107
    45         45
    46          7
    47          8
    49          3
    50         11
    51         18
    52          6
    53         28
    54         24
    55        112
    56          9
    57          7
    60          4
    61          9
    62         14
    63         37
    64         30
    65        124
    66         73
    67         27
    68         14
    69         40
    70          5
    71          4
    72          1
    73          4
    74          2
    76          1
    77          4
    78          8
    79          7
    80          2
    81         21
    82         77
    83        106
    84         11
    85          4
    87          2
    91          1
    92         25
    93        107
    94        106
    95         18
    96          9
    97          9
    98          1
    99          2
   101          2
   105          1
   106          1
   107          2
   108          1
   109         11
   110         83
   111        999
   112         71
   113          7
   119          1
   120          4
   121         11
   122          2
   123          4
   125          1
   127          1
   128          1
   129          1
   134          6
   135          1
   137          2
   138         69
   139         28
   140          3
   141          8
   155          1
   156        424
   157         34
   158          5