##TITLE=Library Entry 79619
##JCAMP-DX=Revision 4.10 
##DATA TYPE=MASS SPECTRUM
##SAMPLE DESCRIPTION=Exported from NIST MS Search
##NAMES=HP
##CAS NAME=Quinoline, 1-benzoyldecahydro-, trans-
##MOLFORM=C16H21NO
##CAS REGISTRY NO=22218-33-3
##MP= -300
##BP= -300
##MW= 243
##$RETENTION INDEX=0
##$CONDENSED SPECTRUM=NO
##NPOINTS= 33
##XYDATA=(XY..XY) 1 
    39         40
    41         10
    42         30
    50         30
    51         80
    53         30
    54         30
    55         50
    56         20
    67         40
    68         20
    69         20
    76         20
    77        420
    78         40
    79         30
    80         20
    81         30
   105        999
   106         80
   109         40
   110         30
   122         40
   134         30
   137        130
   138         50
   148         20
   200        310
   201         70
   214         20
   242         70
   243        250
   244         50