##TITLE=Library Entry 86092
##JCAMP-DX=Revision 4.10 
##DATA TYPE=MASS SPECTRUM
##SAMPLE DESCRIPTION=NIST Mass Spectrometry Data Center
##NAMES=HP
##CAS NAME=(4aS,8aS)-3,8a-Dimethyl-5-methylene-4,4a,5,6,8a,9-hexahydronaphth
o[2,3-b]furan
##MOLFORM=C15H18O
##CAS REGISTRY NO=2221-88-7
##MP= -300
##BP= -300
##MW= 214
##$RETENTION INDEX=1652
##$CONDENSED SPECTRUM=NO
##NPOINTS= 138
##XYDATA=(XY..XY) 1 
    26          1
    27         17
    28          2
    29          9
    37          1
    38          4
    39         81
    40         16
    41         51
    42          3
    43         33
    44          1
    50         13
    51         56
    52         25
    53         51
    54          6
    55         14
    56          1
    57          4
    58          4
    61          1
    62          9
    63         44
    64         19
    65         95
    66         23
    67         18
    68          4
    69          9
    70          7
    71         10
    72          3
    73          1
    74          7
    75         12
    76         22
    77        187
    78         59
    79        185
    80         22
    81         11
    82          9
    83         12
    84         11
    85          6
    86          4
    87          5
    88          3
    89         23
    90          8
    91        750
    92         74
    93         20
    94          2
    95         37
    96         98
    97         13
    98         13
    99          8
   101          4
   102         15
   103         48
   104         17
   105        147
   106        962
   107        105
   108        490
   109        999
   110         76
   111          5
   113          3
   114          3
   115        120
   116         29
   117         53
   118         85
   119         50
   120          6
   121         11
   122          7
   125          1
   126          6
   127         35
   128        100
   129         63
   130         12
   131         23
   132         10
   138          1
   139         14
   140          4
   141         61
   142         31
   143         25
   144          8
   145         24
   146          5
   150          2
   151          7
   152         31
   153         39
   154         19
   155         30
   156         15
   157         18
   158          6
   159          9
   164          2
   165         27
   166         12
   167          8
   168          5
   169         12
   170          9
   171         12
   172          4
   173          2
   176          1
   178          3
   179          4
   180          4
   181         12
   182          5
   183          7
   184          5
   185          6
   186          1
   195          4
   196          2
   197          4
   198          3
   199         20
   200          3
   213          5
   214        543
   215         88
   216          8