##TITLE=Library Entry 48993
##JCAMP-DX=Revision 4.10 
##DATA TYPE=MASS SPECTRUM
##SAMPLE DESCRIPTION=Exported from NIST MS Search
##NAMES=HP
##CAS NAME=2-Naphthalenemethanol, decahydro-5-methylene-8-vinyl-
##MOLFORM=C14H22O
##CAS REGISTRY NO=2221-71-8
##MP= -300
##BP= -300
##MW= 206
##$RETENTION INDEX=0
##$CONDENSED SPECTRUM=NO
##NPOINTS= 86
##XYDATA=(XY..XY) 1 
    52        120
    53        160
    54        144
    55        559
    56         56
    63         72
    64         48
    66        160
    67        799
    68        132
    69        160
    70         80
    71         40
    78        232
    79        999
    80        551
    81        507
    82        120
    83         72
    84         32
    89         32
    91        939
    92        388
    93        807
    94        280
    95        240
    96         60
    97         92
   103         72
   104         92
   105        480
   106         92
   107        224
   108        132
   109        136
   110         64
   111        148
   115         72
   116         40
   117        160
   118         88
   119        380
   120        128
   121        232
   122         64
   123         40
   124         32
   128         32
   129         36
   130         32
   131        160
   132         88
   133        220
   134        240
   135         80
   136         40
   137         48
   146        152
   147        112
   148        148
   149         40
   150         48
   151         32
   152         40
   153        208
   154         40
   159        132
   160        112
   161         40
   163         28
   164         52
   165         40
   166         32
   168         32
   173         72
   174         28
   175        212
   176         52
   177         68
   178        120
   179         48
   188         80
   189         32
   191         40
   206        132
   207         48