##TITLE=Library Entry 79140
##JCAMP-DX=Revision 4.10 
##DATA TYPE=MASS SPECTRUM
##SAMPLE DESCRIPTION=J. SHAW, BORRISTON RESEARCH, ROCKVILLE, MD, USA
##NAMES=HP
##CAS NAME=Benzoylprop-ethyl
##MOLFORM=C18H17Cl2NO3
##CAS REGISTRY NO=22212-55-1
##MP= -300
##BP= -300
##MW= 365
##$RETENTION INDEX=0
##$CONDENSED SPECTRUM=NO
##NPOINTS= 108
##XYDATA=(XY..XY) 1 
    14          1
    15          7
    16          3
    17          5
    18         10
    26          4
    27         26
    28         19
    29         58
    30          2
    31          1
    36          2
    38          2
    39          4
    41          3
    42          4
    43         13
    44          3
    45          4
    49          1
    50         12
    51         59
    52          4
    53          1
    55          4
    56          2
    57          3
    58          3
    61          1
    62          2
    63          4
    64          1
    65          1
    69          1
    71          1
    73          4
    74          6
    75         13
    77        392
    78         24
    79          1
    83          1
    84          1
    85          2
    86          1
    87          1
    88          1
    89          3
    90          2
    91          1
    97          2
    98          1
    99          1
   100          1
   101          1
   105        999
   106        106
   107          6
   109         15
   110          4
   111          6
   112          2
   113          1
   116          1
   117          2
   123          1
   124          2
   125          1
   126          1
   133          1
   138          1
   145         26
   147         18
   148          1
   149          5
   150          1
   151          2
   152          2
   153          2
   161          1
   166          3
   172         24
   174         17
   175          2
   176          3
   177          1
   180          1
   186         10
   187         13
   188          9
   189          8
   190          3
   191          1
   204          3
   260         22
   262         16
   263          1
   264          2
   265          1
   292         51
   294         38
   295          4
   296          4
   320          5
   322          4
   365         21
   367         15
   369          2