##TITLE=Library Entry 53687
##JCAMP-DX=Revision 4.10 
##DATA TYPE=MASS SPECTRUM
##SAMPLE DESCRIPTION=CARL DJERASSI DEPT OF CHEM STANFORD UNIV STANFORD CALIF
 94305
##NAMES=HP
##CAS NAME=5.alpha.-Cholestan-6.beta.-amine, N,N-dimethyl-
##MOLFORM=C29H53N
##CAS REGISTRY NO=2222-54-0
##MP= -300
##BP= -300
##MW= 415
##$RETENTION INDEX=0
##$CONDENSED SPECTRUM=NO
##NPOINTS= 89
##XYDATA=(XY..XY) 1 
    41        488
    42        329
    43        840
    44        784
    45        318
    46         90
    55        568
    56        215
    57        727
    58        397
    59         56
    60         56
    61         34
    67        238
    68         79
    69        806
    70        204
    71        738
    72        125
    73         68
    74         11
    75         34
    76         22
    77         45
    79        136
    80         34
    81        318
    82        136
    83        261
    84        999
    85        284
    86         45
    91        102
    92         22
    93        159
    94         68
    95        295
    96        181
    97        272
    98         79
    99         68
   105        102
   106         34
   107        136
   108         90
   109        227
   110        352
   111        136
   112         79
   113         45
   119        181
   120         22
   121         90
   122         68
   123        136
   124        102
   125         68
   126         45
   127         45
   128         56
   129         79
   131        125
   133         79
   134         22
   135         90
   136         90
   137         90
   138        102
   151        284
   152         68
   161         56
   162         68
   163        295
   164         90
   165         79
   167        227
   168         34
   169         79
   262        329
   274         11
   276        227
   277         45
   397          9
   398          6
   399         11
   400         18
   401         11
   415        136
   416         45