##TITLE=Library Entry 97515
##JCAMP-DX=Revision 4.10 
##DATA TYPE=MASS SPECTRUM
##SAMPLE DESCRIPTION=J.VOTH UNIV. OF CALIFORNIA, DAVIS, CALIFORNIA, 95616, U
SA
##NAMES=HP
##CAS NAME=Cycloprop[a]inden-6-ol, 1,1a,6,6a-tetrahydro-
##MOLFORM=C10H10O
##CAS REGISTRY NO=22228-27-9
##MP= -300
##BP= -300
##MW= 146
##$RETENTION INDEX=0
##$CONDENSED SPECTRUM=NO
##NPOINTS= 111
##XYDATA=(XY..XY) 1 
    12          3
    13          5
    14         16
    15         35
    16          4
    19          5
    25          3
    26         34
    27        105
    28         19
    29         59
    30          4
    31         22
    32          2
    36          4
    37         28
    38         55
    39        226
    40         21
    41         23
    42          5
    43         17
    44          4
    45          7
    46          2
    48          1
    49         11
    50        221
    51        317
    52         62
    53         37
    54          4
    55         28
    56          4
    57         19
    58         24
    59         10
    60         18
    61          2
    62        124
    63        266
    64        115
    65        102
    66         17
    67          5
    68          8
    69          5
    71          7
    72         51
    73         24
    74        109
    75         96
    76         64
    77        182
    78         62
    79         20
    80          1
    81          3
    83          1
    84          2
    85         17
    86         33
    87         45
    88         19
    89        107
    90         74
    91        221
    92         20
    93          2
    94          6
    95          3
    96          1
    97          4
    98         18
    99         10
   100          6
   101         34
   102         97
   103        137
   104         23
   105         22
   106          2
   107         10
   108          1
   109          2
   110          3
   111          3
   113         20
   114         33
   115        499
   116        394
   117        999
   118        175
   119         12
   120          3
   122          4
   125          7
   126         49
   127        261
   128        641
   129        216
   130         25
   131        485
   132         49
   133          4
   143          3
   144          3
   145        383
   146        202
   147         20
   148          1