##TITLE=Library Entry 34548
##JCAMP-DX=Revision 4.10 
##DATA TYPE=MASS SPECTRUM
##SAMPLE DESCRIPTION=Chemical Concepts
##NAMES=HP
##CAS NAME=Cyclohexane, 1,1,4,4-tetramethyl-
##MOLFORM=C10H20
##CAS REGISTRY NO=2223-52-1
##MP= -300
##BP= -300
##MW= 140
##$RETENTION INDEX=0
##$CONDENSED SPECTRUM=NO
##NPOINTS= 85
##XYDATA=(XY..XY) 1 
    25          0
    26         13
    27        241
    28         43
    29        229
    30          5
    31          0
    32          7
    35          0
    36          0
    37          4
    38         13
    39        278
    40         35
    41        690
    42         84
    43        452
    44         14
    45          6
    46          1
    47          0
    49          0
    50         11
    51         34
    52         16
    53        123
    54         28
    55        525
    56        149
    57        167
    58          8
    59          3
    61          0
    62          1
    63          7
    64          2
    65         26
    66          9
    67         93
    68         47
    69        999
    70        339
    71        332
    72         20
    73         26
    74          2
    75          3
    76          0
    77         30
    78          6
    79         32
    80          6
    81         51
    82         14
    83        246
    84         38
    85          7
    86          2
    87          0
    89          0
    91         17
    92          2
    93          8
    94          2
    95         18
    96          5
    97         14
    98          1
   103          0
   105          1
   107          1
   109          9
   110          1
   111          4
   112          1
   113          1
   123          9
   124         44
   125        647
   126         67
   127          2
   128          2
   138          0
   140         15
   141          1