##TITLE=Library Entry 23191
##JCAMP-DX=Revision 4.10 
##DATA TYPE=MASS SPECTRUM
##SAMPLE DESCRIPTION=Japan AIST/NIMC Database- Spectrum MS-NW-1363
##NAMES=HP
##CAS NAME=Ethylene glycol diglycidyl ether
##MOLFORM=C8H14O4
##CAS REGISTRY NO=2224-15-9
##MP= -300
##BP= -300
##MW= 174
##$RETENTION INDEX=0
##$CONDENSED SPECTRUM=NO
##NPOINTS= 123
##XYDATA=(XY..XY) 1 
    13          1
    14         10
    15        103
    16          3
    17          5
    18         25
    19         10
    25          2
    26         24
    27        277
    28         89
    29        828
    30         29
    31        866
    32         14
    33          4
    36          4
    37          1
    38          3
    39         41
    40         12
    41        144
    42         64
    43        180
    44        109
    45        611
    46         24
    47          2
    49          9
    50          2
    51          3
    52          1
    53          2
    54          7
    55         35
    56         52
    57        999
    58         79
    59         75
    60          7
    61          8
    62          1
    63          8
    65          4
    67          4
    68          2
    69         40
    70         78
    71        151
    72         36
    73        153
    74         13
    75         31
    76          6
    77          9
    78          2
    79         26
    80          1
    81          9
    82          2
    83         16
    84          7
    85         12
    86         11
    87        131
    88          9
    89          6
    90          2
    91          4
    92          7
    93         47
    94          4
    95         16
    96          1
    97          2
    98          1
    99         47
   100        409
   101         90
   102          7
   103          3
   104          1
   105          6
   106          2
   107          6
   108          1
   109          2
   111          1
   112          1
   113         16
   114          3
   115          7
   116          1
   117          6
   118          6
   119          4
   120          2
   121          9
   122          1
   123          6
   125          2
   127          1
   129          2
   130          1
   131          3
   133          2
   134          6
   135         11
   136          5
   137          7
   138          2
   139          2
   143          2
   144          3
   145          1
   147          5
   148          9
   149          6
   150          3
   151          1
   157         15
   158          2
   159          1