##TITLE=Library Entry 23907
##JCAMP-DX=Revision 4.10 
##DATA TYPE=MASS SPECTRUM
##SAMPLE DESCRIPTION=James Little,Eastman Chem.Co.,Kingsport,TN
##NAMES=HP
##CAS NAME=1.3.5-Trimethyl-5-amino-1,3-diazacyclohexane
##MOLFORM=C7H17N3
##CAS REGISTRY NO=2224-51-3
##MP= -300
##BP= -300
##MW= 143
##$RETENTION INDEX=0
##$CONDENSED SPECTRUM=NO
##NPOINTS= 40
##XYDATA=(XY..XY) 1 
    27         47
    28         57
    29         48
    30         49
    31        189
    41         35
    42        318
    43         40
    44        224
    45         74
    46         36
    55          8
    56         44
    57        999
    58        159
    69         12
    70         25
    71         19
    72          7
    73         17
    82          8
    83         13
    84         35
    85         18
    86         10
    87        118
    97         15
    98          6
    99         48
   100        103
   101          7
   111         21
   112          8
   114          6
   125          7
   126          5
   141         43
   142         64
   143         27
   144          3