##TITLE=Library Entry 83905
##JCAMP-DX=Revision 4.10 
##DATA TYPE=MASS SPECTRUM
##SAMPLE DESCRIPTION=Chemical Concepts
##NAMES=HP
##CAS NAME=1,3-Dioxane-5-methanol, 5-ethyl-2-phenyl-
##MOLFORM=C13H18O3
##CAS REGISTRY NO=22251-63-4
##MP= -300
##BP= -300
##MW= 222
##$RETENTION INDEX=0
##$CONDENSED SPECTRUM=NO
##NPOINTS= 80
##XYDATA=(XY..XY) 1 
    26          4
    27        103
    28         14
    29        154
    31        159
    37          3
    38          9
    39        125
    40         22
    41        137
    42         26
    43         86
    44         45
    45         22
    50         68
    51        182
    52         57
    53         68
    54         22
    55        137
    56         28
    57         44
    58         28
    62          6
    63         26
    64          7
    65         19
    66          6
    67        107
    68         90
    69         79
    70         37
    71        245
    72         71
    73         11
    74         19
    75         17
    76         30
    77        468
    78        159
    79        462
    80         29
    81         57
    82         51
    83         17
    84          3
    85         28
    86        359
    87         22
    89         37
    90         31
    91         52
    92          6
    98          3
    99         63
   100         11
   104         11
   105        879
   106        102
   107        999
   108        102
   109          3
   117          6
   119          5
   120          6
   122         66
   123        129
   124          9
   144          3
   145        142
   146          9
   149          6
   173         11
   176          6
   194          5
   220         12
   221        714
   222        428
   223         57
   224          3