##TITLE=Library Entry 14423
##JCAMP-DX=Revision 4.10 
##DATA TYPE=MASS SPECTRUM
##SAMPLE DESCRIPTION=Chemical Concepts
##NAMES=HP
##CAS NAME=Anthra[2,3-d]-1,3-dioxole-5,10-dione, 3a,4,11,11a-tetrahydro-9-hy
droxy-7-methoxy-2,2,3a-trimethyl-, cis-
##MOLFORM=C19H20O6
##CAS REGISTRY NO=22254-16-6
##MP= -300
##BP= -300
##MW= 344
##$RETENTION INDEX=0
##$CONDENSED SPECTRUM=NO
##NPOINTS= 312
##XYDATA=(XY..XY) 1 
    26          4
    27         29
    28          9
    29         43
    30          5
    31         54
    33          0
    36          2
    37          2
    38          5
    39         59
    40         14
    41         70
    42         21
    43        999
    44         43
    45         35
    46          6
    47          1
    48          0
    49          1
    50         12
    51         53
    52         20
    53         43
    54          7
    55         52
    56         15
    57         39
    58         11
    59         57
    60         10
    61          9
    62         18
    63         46
    64         33
    65         64
    66         18
    67         22
    68          9
    69        101
    70         16
    71         18
    72          4
    73         11
    74         23
    75         21
    76         27
    77         76
    78         29
    79         44
    80         14
    81         18
    82         28
    83         12
    84          9
    85          8
    86          4
    87         11
    88          9
    89         33
    90         27
    91         85
    92         34
    93         31
    94          9
    95         45
    96          7
    97          8
    98          7
    99         71
   100         10
   101         15
   102         25
   103         20
   104         13
   105         31
   106         18
   107         22
   108         25
   109          7
   110          5
   111          5
   112          7
   113         16
   114         68
   115         97
   116         34
   117         13
   118         15
   119         53
   120         14
   121         15
   122         69
   123         29
   124          6
   125          6
   126         23
   127         44
   128         53
   129         31
   130          9
   131         20
   132          8
   133         11
   134         14
   135         23
   136          6
   137         16
   138          8
   139         30
   140         16
   141         37
   142         16
   143         22
   144         39
   145         23
   146          6
   147          6
   148          4
   149         25
   150         37
   151        209
   152         55
   153         26
   154         15
   155         31
   156         16
   157         19
   158         13
   159         21
   160         11
   161         13
   162          5
   163          5
   164          4
   165         23
   166          7
   167          9
   168         20
   169         24
   170         14
   171         33
   172         22
   173         16
   174          7
   175          8
   176          6
   177          5
   178          3
   179         16
   180         11
   181         23
   182         16
   183         22
   184         24
   185         26
   186         13
   187         46
   188         12
   189         18
   190          5
   191          5
   192          4
   193          4
   194          7
   195          9
   196         12
   197         36
   198         33
   199         28
   200         29
   201         38
   202         15
   203         24
   204          9
   205          8
   206          3
   207          5
   208         15
   209         13
   210         17
   211         24
   212         18
   213         26
   214         21
   215         93
   216         27
   217         10
   218          5
   219          3
   220          3
   221          3
   222          4
   223          8
   224          7
   225         19
   226         27
   227         49
   228         18
   229         44
   230         24
   231         42
   232         11
   233          5
   234          4
   235          2
   236          9
   237         18
   238         14
   239         21
   240         18
   241         38
   242         37
   243        820
   244        451
   245         79
   246         14
   247          3
   248          1
   249          1
   250          3
   251          6
   252          6
   253         11
   254         17
   255         35
   256         16
   257        128
   258        127
   259         55
   260         11
   261          3
   262          1
   263          1
   264          1
   265          2
   266          1
   267          7
   268         52
   269        549
   270        109
   271         98
   272         26
   273         11
   274          2
   275          2
   276          1
   277          1
   278          0
   279          1
   280          1
   281          1
   282          6
   283          5
   284          4
   285         19
   286        912
   287        622
   288        116
   289         27
   290          4
   291          1
   292          1
   293          0
   294          0
   295          0
   296          0
   297          0
   298          1
   299          0
   300          1
   301          2
   302          7
   303          1
   304          1
   305          0
   306          1
   307          0
   308          1
   309          0
   310          1
   311          1
   312          0
   313          1
   314          1
   315          1
   316          1
   317          1
   318          1
   319          0
   320          0
   321          0
   322          0
   323          0
   325          0
   326          2
   327          1
   328          2
   329        261
   330         61
   331         19
   332          3
   333          1
   342          0
   343          1
   344        165
   345         40
   346         14
   347          2
   348          1
   349          0