##TITLE=Library Entry 7408
##JCAMP-DX=Revision 4.10 
##DATA TYPE=MASS SPECTRUM
##SAMPLE DESCRIPTION=Chemical Concepts
##NAMES=HP
##CAS NAME=Cyclooctanone, 5-(acetyloxy)-
##MOLFORM=C10H16O3
##CAS REGISTRY NO=22253-83-4
##MP= -300
##BP= -300
##MW= 184
##$RETENTION INDEX=0
##$CONDENSED SPECTRUM=NO
##NPOINTS= 90
##XYDATA=(XY..XY) 1 
    26         11
    27        139
    28          9
    29         53
    30          1
    31         11
    37          1
    38          5
    39        115
    40         22
    41        192
    42         97
    43        999
    44         26
    45         10
    47          1
    50          4
    51          9
    52          5
    53         34
    54         63
    55        249
    56         24
    57         36
    58        102
    59          9
    60         75
    61          7
    62          1
    63          2
    65          8
    66         11
    67         70
    68        167
    69         42
    70         85
    71         95
    72         11
    73         80
    74          9
    75          1
    77          6
    78          3
    79         18
    80         30
    81         54
    82         79
    83         61
    84         18
    85         20
    86         59
    87         13
    91          4
    92          1
    93          5
    94          2
    95         47
    96        226
    97         28
    98          3
    99         39
   100         22
   101          3
   105          1
   106          8
   107          5
   108          4
   109         21
   110          1
   112          1
   113         36
   114        173
   115         11
   116          1
   120          1
   123          9
   124        171
   125         19
   126          5
   127          2
   128          3
   138          1
   140          1
   141          8
   142        112
   143         11
   156          3
   166         14
   167          1
   184          4