##TITLE=Library Entry 98327
##JCAMP-DX=Revision 4.10 
##DATA TYPE=MASS SPECTRUM
##SAMPLE DESCRIPTION=Chemical Concepts
##NAMES=HP
##CAS NAME=Bicyclo[4.2.0]octa-1,3,5-triene, 3-methyl-
##MOLFORM=C9H10
##CAS REGISTRY NO=22250-74-4
##MP= -300
##BP= -300
##MW= 118
##$RETENTION INDEX=0
##$CONDENSED SPECTRUM=NO
##NPOINTS= 78
##XYDATA=(XY..XY) 1 
    26         13
    27         87
    28         19
    29          1
    30          1
    34          0
    36          0
    37         16
    38         41
    39        241
    40         25
    41         29
    42          1
    43          4
    44          1
    45          3
    46          0
    48          0
    49          8
    50        100
    51        189
    52         59
    53         40
    54          2
    55          3
    56          3
    57         21
    58         74
    59          7
    60          2
    61         18
    62         56
    63        130
    64         25
    65        101
    66         17
    67          2
    69          0
    70          1
    71          0
    72          0
    73          6
    74         37
    75         32
    76         28
    77        123
    78         68
    79         14
    84          1
    85          7
    86         12
    87         11
    88          5
    89         60
    90         27
    91        371
    92         59
    93          2
    98          4
    99          2
   100          0
   101          7
   102         45
   103        192
   104         19
   105          0
   109          0
   110          1
   111          1
   112          1
   113         13
   114         13
   115        297
   116        124
   117        843
   118        999
   119         91
   120          3