##TITLE=Library Entry 47589
##JCAMP-DX=Revision 4.10 
##DATA TYPE=MASS SPECTRUM
##SAMPLE DESCRIPTION=Humboldt-Universitat zu Berlin, Department of Chemistry
, Analytical Group
##NAMES=HP
##CAS NAME=1,2,3,4,5,6-Hexahydro-1,2-diphenylpyridazin-3,6-dion
##MOLFORM=C16H14N2O2
##CAS REGISTRY NO=22264-17-1
##MP= -300
##BP= -300
##MW= 266
##$RETENTION INDEX=0
##$CONDENSED SPECTRUM=NO
##NPOINTS= 191
##XYDATA=(XY..XY) 1 
    12          1
    13          0
    14          4
    15          3
    16          1
    26         43
    27        208
    28         30
    29         16
    30          1
    31          1
    32          0
    37         13
    38         48
    39        112
    40         20
    41         38
    42         52
    43          4
    44          2
    45          1
    46          0
    48          0
    50         59
    51        305
    52         50
    53          9
    54         12
    55        190
    56         68
    57          3
    58          0
    59          0
    60          0
    61          3
    62         14
    63         94
    64        182
    65        104
    66         16
    67          2
    68          0
    69          0
    70          0
    71          0
    73          1
    74         12
    75         16
    76         34
    77        999
    78         77
    79          7
    80          5
    81         16
    82          3
    83          0
    84          0
    85          0
    86          0
    87          1
    88          3
    89          6
    90         16
    91        250
    92         70
    93        113
    94         11
    95          1
    96          0
    97          0
    98          0
    99          0
   100          1
   101          2
   102          6
   103         10
   104         47
   105        109
   106         13
   107          4
   108          1
   109          0
   110          0
   113          1
   114          1
   115         11
   116          3
   117         16
   118         46
   119        177
   120         33
   121          2
   122          0
   124          0
   125          0
   126          4
   127          8
   128         16
   129          5
   130         19
   131         11
   132          7
   133          4
   134          3
   135          3
   136          0
   138          0
   139          4
   140          2
   141          1
   142          0
   143          2
   144          2
   145         15
   146         46
   147         20
   148          2
   149          0
   150          2
   151         10
   152         41
   153         18
   154          9
   155          3
   156          5
   157          6
   158          1
   159          0
   160          0
   161          3
   162          0
   163          4
   164          1
   165          4
   166         14
   167         17
   168         11
   169          7
   170          2
   171          0
   172          1
   173          3
   174          8
   175         12
   176          1
   177          0
   178          0
   179          0
   180          1
   181         12
   183        493
   184        146
   185         15
   186          1
   191          0
   192          0
   193          1
   194          3
   195         38
   196          9
   197          1
   198          0
   201          0
   202          0
   205          0
   206          0
   207          2
   208          0
   209          5
   210          7
   211         16
   212          2
   213          0
   217          0
   219          0
   221         17
   222          3
   223          2
   224          0
   237          6
   238          6
   239          1
   240          0
   247          0
   249          9
   250          1
   251          0
   266        457
   267         86
   268          9
   269          0