##TITLE=Library Entry 4184
##JCAMP-DX=Revision 4.10 
##DATA TYPE=MASS SPECTRUM
##SAMPLE DESCRIPTION=Chuck Anderson, Aldrich Chemical Co.
##NAMES=HP
##CAS NAME=Methyl 3-bromo-2-(bromomethyl)propionate
##MOLFORM=C5H8Br2O2
##CAS REGISTRY NO=22262-60-8
##MP= -300
##BP= -300
##MW= 258
##$RETENTION INDEX=0
##$CONDENSED SPECTRUM=NO
##NPOINTS= 109
##XYDATA=(XY..XY) 1 
    14          7
    15        313
    16          4
    25          2
    26         21
    27         73
    28          6
    29         50
    30          8
    31         11
    32          0
    33          2
    36          3
    37         27
    38         71
    39        656
    40         63
    41        999
    42         42
    43         15
    44          3
    45         75
    46          1
    50          1
    51          0
    53         10
    54          2
    55        101
    56          4
    57          6
    58          1
    59        417
    60         10
    61          1
    67          0
    68          4
    69         15
    71         28
    72          2
    79          7
    80          2
    81          8
    82          2
    83          1
    85          1
    91          2
    92          3
    93         87
    94         10
    95         88
    96          7
    97          3
    99        167
   100         21
   101          1
   104          1
   105          9
   106          1
   107         11
   109          3
   117          5
   118          1
   119        260
   120         31
   121        249
   122         30
   123          3
   125          2
   133         43
   134          0
   135         44
   136          1
   137         13
   139         14
   141          1
   146          1
   147         17
   148          1
   149         16
   151         19
   153         19
   165        566
   166         18
   167        550
   168         20
   169          2
   171          2
   173          5
   175          2
   178          3
   179        680
   180         31
   181        648
   182         28
   183          2
   198          2
   199         60
   200          4
   201        116
   202          4
   203         54
   204          1
   227         14
   229         29
   231         14
   258          9
   260         18
   261          0
   262          9