##TITLE=Library Entry 83702
##JCAMP-DX=Revision 4.10 
##DATA TYPE=MASS SPECTRUM
##SAMPLE DESCRIPTION=Chemical Concepts
##NAMES=HP
##CAS NAME=Ethanol, 2-(3,3-dimethylbicyclo[2.2.1]hept-2-ylidene)-
##MOLFORM=C11H18O
##CAS REGISTRY NO=2226-05-3
##MP= -300
##BP= -300
##MW= 166
##$RETENTION INDEX=1628
##$CONDENSED SPECTRUM=NO
##NPOINTS= 116
##XYDATA=(XY..XY) 1 
    26          8
    27        194
    28         10
    29        171
    30          6
    31         69
    38         14
    39        339
    40         64
    41        653
    42         47
    43        271
    44         24
    45         17
    50         28
    51        117
    52         53
    53        260
    54         44
    55        427
    56         47
    57         97
    58         17
    59         36
    60          8
    61          6
    62         12
    63         48
    64         21
    65        195
    66        134
    67        602
    68         82
    69        324
    70        110
    71         71
    72         12
    73          5
    74          7
    75         13
    76         10
    77        354
    78        111
    79        651
    80        123
    81        500
    82        122
    83        688
    84        156
    85         34
    86          5
    87          6
    89         16
    90         10
    91        562
    92        140
    93        541
    94        495
    95        362
    96        161
    97        135
    98         53
    99         35
   100         13
   101          4
   102          9
   103         55
   104         36
   105        548
   106        141
   107        999
   108        141
   109        339
   110         58
   111         24
   112          7
   113          2
   115         33
   116         14
   117         42
   118         18
   119        127
   120        134
   121         97
   122        259
   123        331
   124         42
   125         21
   126          3
   127          3
   128          6
   129          6
   130          3
   131         21
   132         11
   133        404
   134         54
   135        432
   136         53
   137         44
   138         12
   139          4
   140          2
   141         13
   142          6
   147         12
   148        237
   149         52
   150          7
   151        153
   152         20
   153          7
   165         10
   166        344
   167         47
   168          5