##TITLE=Library Entry 38757
##JCAMP-DX=Revision 4.10 
##DATA TYPE=MASS SPECTRUM
##SAMPLE DESCRIPTION=NIST Mass Spectrometry Data Center, 1994
##NAMES=HP
##CAS NAME=1-Piperidinyloxy, 4-hydroxy-2,2,6,6-tetramethyl-
##MOLFORM=C9H18NO2
##CAS REGISTRY NO=2226-96-2
##MP= -300
##BP= -300
##MW= 172
##$RETENTION INDEX=0
##$CONDENSED SPECTRUM=NO
##NPOINTS= 98
##XYDATA=(XY..XY) 1 
    14          1
    15         47
    16          3
    18          6
    19          1
    26          9
    27        131
    28         59
    29        256
    30         82
    31         42
    32          0
    33          2
    37          1
    39        218
    40         48
    41        533
    42        141
    43        233
    44         40
    45         20
    46          4
    50          4
    51         13
    52          7
    53         66
    54         24
    55        118
    56        192
    57        566
    58         81
    59         75
    60          4
    63          1
    65         16
    67         90
    68        180
    69         95
    70          1
    71        999
    72        118
    73         61
    74         55
    75          2
    77          8
    78          2
    79         16
    80          8
    81         60
    82         37
    83         33
    84         36
    85        289
    86        148
    87         12
    88          6
    91          5
    93          3
    94          6
    95         14
    96          7
    97         14
    98         59
    99         29
   100          9
   101         15
   102         51
   103          2
   107         14
   108         10
   109         73
   110          7
   111          3
   112          7
   113          1
   114          6
   115          1
   116        100
   117          6
   121          2
   122         14
   123         10
   124         60
   125         12
   126          3
   127         15
   128          3
   139          9
   140         32
   141          4
   142         25
   143          2
   154         10
   157         37
   158         21
   159          1
   172        104
   173         12