##TITLE=Library Entry 57035
##JCAMP-DX=Revision 4.10 
##DATA TYPE=MASS SPECTRUM
##SAMPLE DESCRIPTION=Exported from NIST MS Search
##NAMES=HP
##CAS NAME=Cyclobutanecarboxylic acid, 1-amino-
##MOLFORM=C5H9NO2
##CAS REGISTRY NO=22264-50-2
##MP= -300
##BP= -300
##MW= 115
##$RETENTION INDEX=0
##$CONDENSED SPECTRUM=NO
##NPOINTS= 23
##XYDATA=(XY..XY) 1 
    39         81
    40         49
    41        465
    42        608
    43         41
    44         10
    45        161
    51         10
    52         20
    53         19
    54         31
    55         41
    56         20
    57         10
    60         29
    67         10
    68         22
    69         38
    70        111
    71         10
    87        999
    88         38
   115         10