##TITLE=Library Entry 65914
##JCAMP-DX=Revision 4.10 
##DATA TYPE=MASS SPECTRUM
##SAMPLE DESCRIPTION=Chemical Concepts
##NAMES=HP
##CAS NAME=Molybdenum, tricarbonyltris(trimethyl phosphite-P)-
##MOLFORM=C12H27MoO12P3
##CAS REGISTRY NO=22261-14-9
##MP= -300
##BP= -300
##MW= 554
##$RETENTION INDEX=0
##$CONDENSED SPECTRUM=NO
##NPOINTS= 320
##XYDATA=(XY..XY) 1 
    26          2
    27          1
    28         88
    29        122
    30         50
    31         67
    33          7
    35          0
    45         63
    46          1
    47        179
    48         22
    49         12
    50          2
    51          0
    61          4
    62         37
    63        354
    64          3
    65          2
    77         23
    78          8
    79        100
    80          4
    92          4
    93        999
    94        144
    95          8
    96          0
   109        274
   110          9
   111          1
   124        186
   125          9
   126          1
   127          0
   128          0
   129          0
   138          1
   139          1
   140          2
   141          2
   142          3
   143          3
   144          3
   145          2
   146          3
   147          1
   152          1
   153          2
   154          5
   155          5
   156          8
   157         10
   158         12
   159         10
   160         11
   161          6
   162          4
   163          2
   164          1
   167          1
   168          4
   169          9
   170         14
   171         15
   172         20
   173         26
   174         27
   175         26
   176         22
   177         13
   178          7
   179          4
   180          0
   181          2
   182          2
   183          3
   184          6
   185         14
   186         15
   187         19
   188         24
   189         28
   190         26
   191         27
   192         16
   193         14
   194          5
   195          3
   198          1
   199          2
   200          3
   201         17
   202          6
   203         15
   204         22
   205         24
   206         17
   207         28
   208          5
   209         11
   210          2
   211          0
   215          1
   216         11
   217          8
   218          9
   219         16
   220         19
   221         14
   222         21
   223         10
   224          7
   225          3
   230          0
   231          4
   232          8
   233          8
   234         10
   235         13
   236          9
   237         10
   238          5
   239          4
   240          2
   241          0
   246          1
   247         11
   248          3
   249         11
   250         14
   251         15
   252         11
   253         21
   254          3
   255          9
   256          0
   257          0
   260          3
   261          1
   262         10
   263          7
   264         11
   265         14
   266         17
   267         13
   268         21
   269          8
   270         12
   271          5
   272          1
   273          1
   277          1
   278          3
   279          2
   280          3
   281          5
   282          5
   283          5
   284          6
   285          2
   286          2
   290          3
   291          0
   292          3
   293          5
   294          9
   295          8
   296         10
   297          9
   298         12
   299          9
   300         10
   301          7
   302          3
   303          2
   308          0
   309         16
   310          2
   311         11
   312         19
   313         19
   314         13
   315         26
   316          3
   317         10
   318          1
   325         33
   326          1
   327         22
   328         37
   329         40
   330         25
   331         59
   332          3
   333         22
   334          1
   337          4
   338          0
   339          3
   340         50
   341          9
   342         32
   343         57
   344         55
   345         35
   346         75
   347          6
   348         29
   349          2
   353          0
   355          0
   356          1
   357          1
   358          1
   359          2
   360          0
   361          1
   365          2
   367          2
   368         35
   369          7
   370         25
   371         45
   372         43
   373         30
   374         60
   375         10
   376         24
   377          8
   378          1
   379          2
   384          0
   386          0
   387          1
   388          1
   389          1
   390          2
   391          0
   392          1
   393          0
   396         23
   397          2
   398         14
   399         30
   400         29
   401         20
   402         44
   403          7
   404         18
   405          7
   406          1
   407          2
   408          1
   427          1
   429          0
   430          1
   431          1
   432          1
   433          6
   434          1
   435          4
   436          6
   437          6
   438          5
   439          8
   440          1
   441          3
   461         16
   462          2
   463         11
   464         59
   465         24
   466         39
   467         71
   468         51
   469         40
   470         65
   471          7
   472         26
   473          2
   474          0
   489         11
   490          1
   491          7
   492         51
   493         18
   494         34
   495         62
   496         48
   497         38
   498         67
   499          7
   500         26
   501          2
   517         19
   518          2
   519         12
   520         45
   521         27
   522         30
   523         59
   524         35
   525         34
   526         42
   527          5
   528         16
   529          2
   548         22
   549          3
   550         14
   551         24
   552         28
   553         17
   554         39
   555          5
   556         14
   557          1
   558          0