##TITLE=Library Entry 86952
##JCAMP-DX=Revision 4.10 
##DATA TYPE=MASS SPECTRUM
##SAMPLE DESCRIPTION=A.A.Kutin, Moscow, Russia
##NAMES=HP
##CAS NAME=4(1H)-Pyrimidinone, 1-methyl-
##MOLFORM=C5H6N2O
##CAS REGISTRY NO=2228-30-0
##MP= -300
##BP= -300
##MW= 110
##$RETENTION INDEX=0
##$CONDENSED SPECTRUM=NO
##NPOINTS= 56
##XYDATA=(XY..XY) 1 
    34          6
    36          4
    37          7
    38         27
    39         39
    40        165
    41        137
    42        841
    44         88
    45          2
    47          0
    48          0
    50          8
    51         25
    52         59
    53         68
    54         99
    55        235
    56         32
    57         18
    58          1
    59          2
    62          0
    63          0
    64          1
    66         11
    67         20
    68         34
    69          9
    70          6
    71          6
    72          1
    73          1
    76          2
    77          1
    79          2
    80          4
    82        518
    83        176
    84         13
    85          3
    87          0
    91          2
    93          2
    94          1
    95          7
    96          1
    97          0
    98          0
   107          1
   109          6
   110        999
   111         55
   112          5
   113          2
   115          0