##TITLE=Library Entry 7370
##JCAMP-DX=Revision 4.10 
##DATA TYPE=MASS SPECTRUM
##SAMPLE DESCRIPTION=D.D.FAULK CENTRAL MISSOURI STATE COLLEGE, WARRENSBURG,
 USA
##NAMES=HP
##CAS NAME=3-Penten-2-one, 3-ethyl-4-methyl-
##MOLFORM=C8H14O
##CAS REGISTRY NO=22287-11-2
##MP= -300
##BP= -300
##MW= 126
##$RETENTION INDEX=0
##$CONDENSED SPECTRUM=NO
##NPOINTS= 95
##XYDATA=(XY..XY) 1 
    12          4
    13         10
    14         64
    15        446
    16         11
    17          8
    18         28
    19          2
    20          0
    25          3
    26         41
    27        260
    28         48
    29        127
    30          4
    31         10
    32          3
    36          0
    37         14
    38         36
    39        306
    40         53
    41        412
    42         52
    43        999
    44         25
    45         10
    47          1
    49          3
    50         33
    51         59
    52         24
    53        101
    54         17
    55        624
    56         38
    57         10
    58         17
    59         48
    60          2
    61          4
    62         11
    63         21
    64          4
    65         28
    66         14
    67         90
    68         18
    69         70
    70          5
    71          6
    72          1
    73          2
    74          3
    75          1
    76          0
    77         21
    78          4
    79         15
    80          2
    81         18
    82         18
    83        458
    84         36
    85          9
    86          1
    87         21
    88          1
    89          0
    91          9
    92          1
    93         15
    94          1
    95          7
    96          2
    97         19
    98         10
    99          3
   100          7
   101          7
   105          2
   107          2
   108          2
   109          6
   110          5
   111        340
   112         26
   113          1
   120          1
   123          2
   124          1
   125          5
   126        374
   127         34
   128          2