##TITLE=Library Entry 23603
##JCAMP-DX=Revision 4.10 
##DATA TYPE=MASS SPECTRUM
##SAMPLE DESCRIPTION=CONTINENTAL OIL CO., PONCA CITY, OKLA, USA
##NAMES=HP
##CAS NAME=Cyclohexene, 4-(1,1-dimethylethyl)-
##MOLFORM=C10H18
##CAS REGISTRY NO=2228-98-0
##MP= -300
##BP= -300
##MW= 138
##$RETENTION INDEX=0
##$CONDENSED SPECTRUM=NO
##NPOINTS= 82
##XYDATA=(XY..XY) 1 
    12          0
    13          1
    14         14
    15         43
    16          4
    26         13
    27        164
    28         34
    29        159
    30          4
    37          3
    38         11
    39        183
    40         29
    41        378
    42         26
    43         71
    44          3
    50         16
    51         44
    52         24
    53         98
    54         96
    55        108
    56         57
    57        999
    58         45
    59          3
    61          3
    62          3
    63         10
    64          2
    65         30
    66         21
    67        360
    68         41
    69        179
    70         38
    71         18
    74          2
    75          3
    77         67
    78         29
    79        136
    80        263
    81        321
    82        306
    83         73
    84         44
    85          4
    87          1
    89          3
    91         50
    92         10
    93         21
    94         20
    95         97
    96         57
    97         18
    98          3
   102          1
   103          5
   104          2
   105         14
   106          3
   107          9
   108          3
   109         19
   110         18
   111          2
   115          3
   117          2
   118          2
   119          3
   120          2
   121          3
   122          3
   123         98
   124         13
   135          2
   138        101
   139         12