##TITLE=Library Entry 109888
##JCAMP-DX=Revision 4.10 
##DATA TYPE=MASS SPECTRUM
##SAMPLE DESCRIPTION=NIST Mass Spectrometry Data Center
##NAMES=HP
##CAS NAME=Methyl 3-amino-2-thiophenecarboxylate
##MOLFORM=C6H7NO2S
##CAS REGISTRY NO=22288-78-4
##MP= -300
##BP= -300
##MW= 157
##$RETENTION INDEX=0
##$CONDENSED SPECTRUM=NO
##NPOINTS= 80
##XYDATA=(XY..XY) 1 
    15         27
    25          1
    26          9
    27         12
    29         26
    30          7
    31          6
    32          3
    33          2
    36          1
    37         12
    38         17
    39         30
    40         16
    41         12
    42         10
    43          1
    44         22
    45        157
    46         10
    47          8
    48          8
    50          3
    51         10
    52        105
    53         39
    54        217
    55          9
    56          7
    57         18
    58         23
    59         30
    60          6
    61          1
    63          5
    64          3
    65          7
    66          2
    67          6
    68         23
    69         46
    70        122
    71        171
    72         99
    73         12
    74          6
    77          2
    78          3
    80          5
    81         12
    82          7
    83          2
    84          7
    85          5
    86          4
    87          1
    89          5
    94          2
    95          1
    96         22
    97        231
    98        170
    99         59
   100         15
   101          3
   103          1
   109          1
   110          2
   111          1
   112          1
   114          1
   125        999
   126        550
   127         86
   128         30
   129          2
   157        660
   158         53
   159         36
   160          2