##TITLE=Library Entry 58773
##JCAMP-DX=Revision 4.10 
##DATA TYPE=MASS SPECTRUM
##SAMPLE DESCRIPTION=Div. of Experiment Therapeutics WRAIR, WRAMC, Washingto
n DC 20307
##NAMES=HP
##CAS NAME=6-Chloro-3-nitro-2-picoline
##MOLFORM=C6H5ClN2O2
##CAS REGISTRY NO=22280-60-0
##MP= -300
##BP= -300
##MW= 172
##$RETENTION INDEX=0
##$CONDENSED SPECTRUM=NO
##NPOINTS= 90
##XYDATA=(XY..XY) 1 
    42        269
    43         62
    44         82
    45        186
    46         67
    47        155
    49          9
    50          3
    51          5
    52        179
    53         70
    54         26
    55         12
    56          3
    57          5
    58          2
    60         59
    61        145
    62        346
    63        804
    64        412
    65        120
    66         29
    67          6
    68          6
    69          6
    70          6
    71          3
    73        465
    74         37
    75        166
    76         62
    77         21
    78        116
    79         69
    80         19
    81          5
    82          7
    84          4
    85          1
    86          3
    87         95
    88         87
    90        999
    91        257
    92         40
    93          3
    95          2
    96          1
    97         12
    99        607
   100        565
   101        142
   102        161
   103          9
   105          1
   106          5
   107          2
   108          7
   109          4
   110          2
   111          2
   112         35
   113         57
   114         45
   115         23
   116         14
   117          2
   119          5
   124          8
   125         11
   126        311
   127        160
   128         68
   129         47
   130          4
   137          4
   141          3
   142          2
   143          6
   145          2
   154          0
   155        552
   157        238
   158         15
   159          1
   172        267
   173          8
   174         85
   175          6