##TITLE=Library Entry 51135
##JCAMP-DX=Revision 4.10 
##DATA TYPE=MASS SPECTRUM
##SAMPLE DESCRIPTION=A.E.FONTAINE DYESTUFFS DIV., I.C.I., MANCHESTER
##NAMES=HP
##CAS NAME=2H-Azepin-2-one, 1,5,6,7-tetrahydro-
##MOLFORM=C6H9NO
##CAS REGISTRY NO=2228-79-7
##MP= -300
##BP= -300
##MW= 111
##$RETENTION INDEX=0
##$CONDENSED SPECTRUM=NO
##NPOINTS= 90
##XYDATA=(XY..XY) 1 
    12          6
    13          1
    14          9
    15         49
    16          3
    17         12
    18         51
    19          0
    24          0
    25          4
    26         93
    27        439
    28        631
    29         96
    30        750
    31         15
    32          1
    33          0
    34          0
    35          0
    36          3
    37         19
    38         71
    39        625
    40        192
    41        237
    42        178
    43         75
    44         32
    45          2
    46          2
    47          0
    48          1
    49          7
    50         70
    51        103
    52         87
    53        528
    54        859
    55        465
    56        109
    57         12
    58          4
    59          0
    60          0
    61          3
    62          6
    63         12
    64          8
    65         60
    66         44
    67        393
    68        362
    69        170
    70        471
    71         22
    72          1
    73          0
    74          0
    75          1
    76          1
    77          2
    78          5
    79         10
    80         60
    81        321
    82        999
    84         82
    85         17
    86          1
    87          0
    88          0
    89          0
    90          0
    91          1
    92          3
    93          8
    94         10
    95          2
    96         16
    97          1
   105          0
   106          0
   107          0
   108          1
   109          8
   110         93
   111        750
   112        118
   113         24