##TITLE=Library Entry 82157
##JCAMP-DX=Revision 4.10 
##DATA TYPE=MASS SPECTRUM
##SAMPLE DESCRIPTION=R. J. LOSURE, FDA, WASHINGTON, DC 20204
##NAMES=HP
##CAS NAME=Betamethasone benzoate
##MOLFORM=C29H33FO6
##CAS REGISTRY NO=22298-29-9
##MP= -300
##BP= -300
##MW= 496
##$RETENTION INDEX=0
##$CONDENSED SPECTRUM=NO
##NPOINTS= 86
##XYDATA=(XY..XY) 1 
    36         19
    37         12
    38          6
    50         40
    51         77
    52         34
    53          9
    59         14
    65          6
    73         15
    74         16
    76         21
    77        317
    78         41
    91        106
    92         20
    94          1
    99          4
   103          7
   104         14
   105        999
   106         84
   107         23
   108         16
   109          9
   113          0
   115         16
   116          8
   117          2
   121        184
   122        210
   123          6
   127          9
   128          0
   129         20
   133         29
   134         14
   135         91
   144          4
   145         11
   146         14
   147         51
   148          8
   152         23
   157         16
   159         38
   160         26
   161         18
   163         17
   165         12
   171         27
   175         28
   177         12
   185         15
   187         32
   189         18
   191         18
   195         22
   199          8
   223         35
   224         17
   225         27
   237         16
   251          4
   253          8
   277         53
   279         95
   280         36
   282         11
   295        113
   296         20
   297         32
   307         19
   308          7
   314         10
   315        333
   316         81
   325         36
   343         75
   344         23
   345         14
   374         13
   381          9
   464         99
   465         29
   466         16