##TITLE=Library Entry 76481
##JCAMP-DX=Revision 4.10 
##DATA TYPE=MASS SPECTRUM
##SAMPLE DESCRIPTION=Japan AIST/NIMC Database- Spectrum MS-IW-2080
##NAMES=HP
##CAS NAME=N-(2,2-Diethoxyethyl)-3-phenyl-1,2-carbazoledicarboximide
##MOLFORM=C26H24N2O4
##CAS REGISTRY NO=22293-98-7
##MP= -300
##BP= -300
##MW= 428
##$RETENTION INDEX=0
##$CONDENSED SPECTRUM=NO
##NPOINTS= 141
##XYDATA=(XY..XY) 1 
    15          1
    17          2
    18          9
    19          2
    26          1
    27          6
    28          6
    29         23
    30          1
    31          9
    39          1
    41          1
    42          1
    43          4
    44          3
    45          7
    46          2
    47        222
    48          2
    49          1
    51          1
    57          1
    61          6
    63          1
    75        325
    76         10
    77          3
    87          1
    88          1
    89         12
    93          2
    94          1
   101          1
   102          1
   103        999
   104         56
   105          6
   106          7
   107          3
   113          2
   114          1
   119          4
   120         12
   121          3
   126          1
   127          1
   134          2
   135          1
   138          1
   139          1
   140          2
   148          3
   149          1
   159          1
   162          2
   163          3
   164          2
   165          1
   177          4
   178          1
   187          3
   188          2
   189          3
   190          1
   191          1
   200          1
   201          1
   211          2
   212          4
   213         10
   214          9
   215          4
   216          1
   225          1
   226          1
   227          1
   228          1
   237          1
   238         15
   239         10
   240         86
   241         71
   242         22
   243          4
   251          2
   252          4
   253          6
   254         12
   255          5
   256          1
   265          2
   266          7
   267          8
   268         33
   269         24
   270         10
   271          2
   278          1
   279          3
   280          4
   281          4
   282          8
   283          2
   294          1
   295          7
   296         12
   297          8
   298          9
   299          2
   307          1
   308          1
   309          6
   310          3
   311          6
   312         19
   313          5
   314          1
   323          2
   324          6
   325         95
   326         47
   327          9
   328          1
   336          1
   337          6
   338          3
   339          5
   340          2
   353         12
   354         14
   355         20
   356          5
   382         57
   383         58
   384         15
   385          2
   398          1
   399          1
   428         42
   429         12
   430          2