##TITLE=Library Entry 18914
##JCAMP-DX=Revision 4.10 
##DATA TYPE=MASS SPECTRUM
##SAMPLE DESCRIPTION=D.HENNEBERG, MAX-PLANCK INSTITUTE, MULHEIM, WEST GERMAN
Y
##NAMES=HP
##CAS NAME=4-Hepten-3-one, 5-ethyl-4-methyl-
##MOLFORM=C10H18O
##CAS REGISTRY NO=22319-28-4
##MP= -300
##BP= -300
##MW= 154
##$RETENTION INDEX=0
##$CONDENSED SPECTRUM=NO
##NPOINTS= 96
##XYDATA=(XY..XY) 1 
    22          0
    23          0
    24          1
    25          3
    26         10
    27        170
    28         29
    29        345
    30          8
    31          5
    34          0
    35          0
    36          0
    37          3
    38          6
    39        123
    40         19
    41        254
    42         17
    43        132
    44          2
    45          5
    47          0
    48          0
    49          2
    50          6
    51         19
    52          9
    53         70
    54         13
    55        999
    56         45
    57        159
    58          5
    59          0
    61          0
    62          2
    63          5
    64          1
    65         19
    66          8
    67         50
    68          7
    69        184
    70         10
    71          1
    72          0
    73          0
    74          0
    75          4
    76          2
    77         16
    78          3
    79         23
    80          2
    81         23
    82          2
    83          8
    84          0
    85          0
    86          3
    91          9
    92          1
    93          6
    94          1
    95          8
    96          3
    97         91
    98          7
   101          1
   102          1
   103          0
   105          2
   106          0
   107          6
   108          0
   109          5
   110          2
   111          1
   119          1
   121          5
   122          0
   123          3
   124          3
   125        241
   126         18
   127          0
   136          0
   137          7
   138          0
   139          2
   152          1
   153          0
   154         71
   155          7
   156          0