##TITLE=Library Entry 52069
##JCAMP-DX=Revision 4.10 
##DATA TYPE=MASS SPECTRUM
##SAMPLE DESCRIPTION=D.D.FAULK CENTRAL MISSOURI STATE COLLEGE, WARRENSBURG,
 USA
##NAMES=HP
##CAS NAME=2-Hepten-4-one, 2-methyl-
##MOLFORM=C8H14O
##CAS REGISTRY NO=22319-24-0
##MP= -300
##BP= -300
##MW= 126
##$RETENTION INDEX=0
##$CONDENSED SPECTRUM=NO
##NPOINTS= 89
##XYDATA=(XY..XY) 1 
    12          2
    13          3
    14         19
    15        101
    16          4
    17          6
    18         20
    19          1
    20          0
    25          3
    26         39
    27        305
    28         56
    29        188
    30          4
    31          4
    32          1
    36          0
    37          9
    38         27
    39        220
    40         31
    41        163
    42         29
    43        116
    44          5
    45          3
    49          2
    50         18
    51         33
    52         12
    53         69
    54         17
    55        364
    56         21
    57         10
    58          1
    59          2
    60          0
    61          1
    62          2
    63          5
    64          1
    65          7
    66          4
    67         18
    68          3
    69         85
    70          6
    71         24
    72          1
    73          2
    74          1
    75          0
    77         10
    78          2
    79          6
    80          0
    81          5
    82         17
    83        999
    84         55
    85          5
    86          0
    87          0
    89          0
    91          5
    92          0
    93          4
    94          0
    95          4
    96          2
    97         48
    98         12
    99          1
   105          0
   107          1
   108          0
   109          2
   110          1
   111         40
   112          3
   122          1
   123          1
   124          0
   125          8
   126        139
   127         12
   128          0