##TITLE=Library Entry 82334
##JCAMP-DX=Revision 4.10 
##DATA TYPE=MASS SPECTRUM
##SAMPLE DESCRIPTION=Japan AIST/NIMC Database- Spectrum MS-NW-7930
##NAMES=HP
##CAS NAME=Carbonothioic dihydrazide
##MOLFORM=CH6N4S
##CAS REGISTRY NO=2231-57-4
##MP= -300
##BP= -300
##MW= 106
##$RETENTION INDEX=0
##$CONDENSED SPECTRUM=NO
##NPOINTS= 54
##XYDATA=(XY..XY) 1 
    12          1
    13          3
    14          2
    15          2
    16          4
    26          4
    27         19
    28        109
    29         66
    30         48
    31        231
    32        503
    33         31
    34         13
    35          2
    36          2
    41          6
    42         26
    43        119
    44         14
    45         77
    46         15
    47         26
    48         47
    49          2
    50          4
    54          1
    55          2
    56          6
    57          8
    58         14
    59        103
    60        214
    61         14
    62         11
    63          1
    64          1
    69          2
    71          2
    72          4
    73          3
    74         55
    75        220
    76         15
    77          9
    83          1
    89         26
    90          7
    91          4
   105          1
   106        999
   107         36
   108         44
   109          2