##TITLE=Library Entry 25863
##JCAMP-DX=Revision 4.10 
##DATA TYPE=MASS SPECTRUM
##SAMPLE DESCRIPTION=Chemical Concepts
##NAMES=HP
##CAS NAME=1-t-Butyl-2-hexanone
##MOLFORM=C10H20O
##CAS REGISTRY NO=22319-52-4
##MP= -300
##BP= -300
##MW= 156
##$RETENTION INDEX=0
##$CONDENSED SPECTRUM=NO
##NPOINTS= 95
##XYDATA=(XY..XY) 1 
    15         35
    16          2
    17          3
    18         10
    19          0
    25          0
    26         10
    27        174
    28         85
    29        334
    30          8
    31          5
    32          3
    37          1
    38          4
    39        127
    40         21
    41        367
    42         60
    43        185
    44          6
    45          2
    46          0
    50          2
    51          6
    52          2
    53         25
    54          6
    55         78
    56         71
    57        999
    58        313
    59         53
    60          2
    61          0
    62          0
    63          0
    65          2
    66          0
    67          4
    68          1
    69          4
    70          6
    71        154
    72         19
    73          1
    74          0
    77          2
    78          0
    79          4
    80          0
    81          4
    82          1
    83         17
    84          4
    85        392
    86         27
    87          1
    91          1
    92          0
    93          0
    95          1
    96          0
    97          2
    98          2
    99        325
   100         67
   101         14
   102          0
   103          0
   105          1
   106          0
   107          0
   109          0
   110          0
   111          0
   112          0
   113          1
   114         14
   115          1
   117          0
   119          1
   120          0
   127          4
   128          0
   129          0
   134          0
   138          0
   141         24
   142          2
   143          0
   149          0
   156        119
   157         17
   158          1