##TITLE=Library Entry 11139
##JCAMP-DX=Revision 4.10 
##DATA TYPE=MASS SPECTRUM
##SAMPLE DESCRIPTION=D.D.FAULK CENTRAL MISSOURI STATE COLLEGE, WARRENSBURG,
 USA
##NAMES=HP
##CAS NAME=3-Hepten-2-one, 4-methyl-
##MOLFORM=C8H14O
##CAS REGISTRY NO=22319-25-1
##MP= -300
##BP= -300
##MW= 126
##$RETENTION INDEX=1015
##$CONDENSED SPECTRUM=NO
##NPOINTS= 93
##XYDATA=(XY..XY) 1 
    12          6
    13         11
    14         62
    15        447
    16         11
    17         10
    18         35
    19          2
    24          0
    25          6
    26         68
    27        433
    28         75
    29        208
    30          5
    31          8
    32          2
    36          0
    37         16
    38         50
    39        389
    40         60
    41        436
    42         75
    43        999
    44         26
    45         13
    46          0
    47          0
    49          4
    50         37
    51         61
    52         27
    53        116
    54         42
    55        686
    56         39
    57         17
    58          9
    59          2
    60          0
    61          3
    62          9
    63         18
    64          4
    65         27
    66         14
    67         67
    68         17
    69        359
    70         18
    71         12
    72          1
    73          2
    74          3
    75          1
    77         33
    78          6
    79         19
    80          3
    81         21
    82         56
    83        282
    84         24
    85         12
    86          1
    87          0
    89          0
    91         15
    92          2
    93         33
    94          3
    95         17
    96          7
    97         21
    98        180
    99         14
   100          1
   105          1
   107          3
   108          3
   109         13
   110          4
   111        875
   112         66
   113          4
   122          0
   123          2
   124          2
   125         14
   126        170
   127         17
   128          1