##TITLE=Library Entry 21464
##JCAMP-DX=Revision 4.10 
##DATA TYPE=MASS SPECTRUM
##SAMPLE DESCRIPTION=D.D.FAULK CENTRAL MISSOURI STATE COLLEGE, WARRENSBURG,
 USA
##NAMES=HP
##CAS NAME=4-Hepten-3-one, 5-ethyl-2,4-dimethyl-
##MOLFORM=C11H20O
##CAS REGISTRY NO=22319-29-5
##MP= -300
##BP= -300
##MW= 168
##$RETENTION INDEX=0
##$CONDENSED SPECTRUM=NO
##NPOINTS= 127
##XYDATA=(XY..XY) 1 
    14          5
    15         42
    16          1
    17          1
    18          4
    19          0
    20          0
    24          0
    25          0
    26         12
    27        245
    28         34
    29        150
    30          3
    31          3
    32          0
    36          0
    37          3
    38          8
    39        163
    40         32
    41        364
    42         33
    43        275
    44         10
    45          5
    46          0
    49          1
    50          7
    51         22
    52         12
    53         79
    54         20
    55        999
    56         48
    57         42
    58          3
    59          1
    60          0
    61          0
    62          1
    63          6
    64          2
    65         20
    66         10
    67         61
    68         11
    69        207
    70         15
    71         24
    72          1
    73          0
    74          1
    76          3
    77         12
    78          3
    79         13
    80          2
    81         22
    82          3
    83          5
    84          0
    85          1
    86          0
    87          0
    88          0
    89          0
    90          0
    91          6
    92          1
    93          3
    94          1
    95          7
    96          4
    97         69
    98          6
    99          0
   100          0
   103          0
   104          0
   105          2
   106          0
   107          3
   108          1
   109          5
   110          2
   111          2
   112          0
   113          0
   114          0
   115          0
   117          0
   119          0
   120          0
   121          2
   122          1
   123          5
   124          5
   125        560
   126         48
   127          3
   128          0
   133          0
   135          2
   136          0
   137          3
   138          0
   139          2
   140          0
   141          0
   147          0
   149          1
   150          0
   151          2
   152          0
   153          1
   154          0
   155          0
   161          0
   163          0
   164          0
   165          4
   166          1
   167          0
   168         67
   169          9
   170          0