##TITLE=Library Entry 13877
##JCAMP-DX=Revision 4.10 
##DATA TYPE=MASS SPECTRUM
##SAMPLE DESCRIPTION=Institute of Chemistry, SAS, Bratislava, Slovakia
##NAMES=HP
##CAS NAME=Methyl-3,4-di-O-acetyl-2-O-(methyl-2,3-di-O-acetyl-4-O-methyl.alp
ha.d-glucopyranosyluronate).alpha.d-xylopyranoside
##MOLFORM=C22H32O15
##CAS REGISTRY NO=22329-68-6
##MP= -300
##BP= -300
##MW= 536
##$RETENTION INDEX=0
##$CONDENSED SPECTRUM=NO
##NPOINTS= 46
##XYDATA=(XY..XY) 1 
    29         47
    30          2
    31         23
    32          4
    39          2
    41         27
    42         14
    43        999
    44         10
    45         15
    59          6
    68         16
    69          2
    70          9
    85         51
    86          2
    87         32
    97         24
    98         12
    99         12
   110         12
   112          2
   113          6
   116          5
   117          8
   127         37
   128          2
   129         22
   138          4
   139          3
   140          4
   155         14
   157          6
   168         13
   171         18
   172          2
   187         49
   188          3
   198          0
   199          0
   200          0
   229         67
   230          2
   231          6
   289         41
   290          3