##TITLE=Library Entry 11446
##JCAMP-DX=Revision 4.10 
##DATA TYPE=MASS SPECTRUM
##SAMPLE DESCRIPTION=NIST Mass Spectrometry Data Center, 1994
##NAMES=HP
##CAS NAME=1,3-Dioxolane-4-methanol, 2,2-dimethyl-, (S)-
##MOLFORM=C6H12O3
##CAS REGISTRY NO=22323-82-6
##MP= -300
##BP= -300
##MW= 132
##$RETENTION INDEX=0
##$CONDENSED SPECTRUM=NO
##NPOINTS= 43
##XYDATA=(XY..XY) 1 
    14          7
    15         58
    16          2
    19          4
    26         12
    27         60
    28         22
    29        116
    30         15
    31        138
    32          4
    37          2
    38          9
    39         76
    40         17
    41        106
    42        139
    43        999
    44         35
    45         19
    47          4
    53          2
    55         27
    57        291
    58         26
    59        175
    60          2
    61        159
    62          3
    72        110
    73        103
    74          6
    75         15
    83         38
    85         11
    86          7
    99          9
   101        286
   102         12
   115          3
   117        494
   118         26
   119          3