##TITLE=Library Entry 68656
##JCAMP-DX=Revision 4.10 
##DATA TYPE=MASS SPECTRUM
##SAMPLE DESCRIPTION=A. DANIEL
##NAMES=HP
##CAS NAME=Bicyclo[2.2.1]heptan-2-ol, 4,7,7-trimethyl-
##MOLFORM=C10H18O
##CAS REGISTRY NO=22336-76-1
##MP= -300
##BP= -300
##MW= 154
##$RETENTION INDEX=1164
##$CONDENSED SPECTRUM=NO
##NPOINTS= 66
##XYDATA=(XY..XY) 1 
    39        170
    40         40
    41        560
    42         40
    43        240
    44         40
    50         20
    51         70
    52         30
    53        200
    54         40
    55        340
    56        120
    57        130
    59        370
    60         20
    63         20
    65         50
    66         30
    67        220
    68        100
    69        300
    70         90
    71        170
    72         30
    77        150
    78        160
    79        210
    80        270
    81        420
    82         80
    83        220
    84        370
    85        360
    86         50
    91        100
    92        130
    93        450
    94        120
    95        999
    96        340
    97        200
    98        120
    99        220
   100         20
   105         30
   107        140
   108        100
   110        270
   111        580
   112        120
   119         20
   121        430
   122         50
   123         70
   125         70
   126         90
   136        620
   137         70
   139        580
   140         60
   141         30
   152         30
   153         20
   154        180
   155         20