##TITLE=Library Entry 6032
##JCAMP-DX=Revision 4.10 
##DATA TYPE=MASS SPECTRUM
##SAMPLE DESCRIPTION=D.HENNEBERG, MAX-PLANCK INSTITUTE, MULHEIM, WEST GERMAN
Y
##NAMES=HP
##CAS NAME=Cyclohexanecarboxaldehyde, 6-methyl-3-(1-methylethyl)-2-oxo-1-(3-
oxobutyl)-
##MOLFORM=C15H24O3
##CAS REGISTRY NO=22339-30-6
##MP= -300
##BP= -300
##MW= 252
##$RETENTION INDEX=0
##$CONDENSED SPECTRUM=NO
##NPOINTS= 188
##XYDATA=(XY..XY) 1 
    27        204
    28         28
    29        166
    30          4
    31         13
    36          0
    37          2
    38          4
    39        140
    40         27
    41        512
    42         47
    43        999
    44         26
    45         19
    46          1
    48          0
    49          0
    50          3
    51         12
    52          9
    53         95
    54         25
    55        320
    56         54
    57         58
    58         67
    59         48
    60          1
    61          2
    62          0
    63          3
    64          2
    65         24
    66         18
    67        122
    68         53
    69        240
    70         33
    71        258
    72         17
    73          6
    74          2
    75          1
    76          2
    77         51
    78         13
    79         68
    80         15
    81        138
    82         81
    83        119
    84         53
    85         22
    86          4
    87          2
    88          0
    89          1
    90          1
    91         40
    92         10
    93         93
    94         26
    95        245
    96         53
    97        113
    98         21
    99         40
   100          4
   101          1
   102          0
   103          4
   104          3
   105         49
   106         18
   107         83
   108         31
   109        115
   110         44
   111        127
   112         48
   113         10
   114          2
   115          3
   116          1
   117          3
   118          1
   119         13
   120          5
   121         65
   122         22
   123        260
   124        113
   125         59
   126         19
   127          3
   128          1
   129          2
   130          1
   131          6
   132          2
   133         28
   134          5
   135         39
   136         17
   137         22
   138         22
   139         89
   140         65
   141         51
   142         15
   143          2
   144          1
   145         15
   146          5
   147         15
   148         47
   149         43
   150         12
   151         62
   152         11
   153        143
   154         72
   155          7
   156          1
   157          0
   158          1
   159          1
   160          0
   161          4
   162          4
   163         78
   164         19
   165         12
   166         88
   167        168
   168         22
   169          2
   170          1
   173          5
   174          1
   175          2
   176          2
   177         12
   178          4
   179          2
   180          2
   181         53
   182         52
   183          6
   184          0
   187          1
   188          0
   189          2
   190          1
   191         48
   192          9
   193          2
   194          1
   195          5
   196          5
   197          0
   201          1
   203          1
   204          1
   205          7
   206         39
   207          8
   208          3
   209        204
   210         29
   211          3
   212          0
   216          0
   219          1
   221          0
   222          1
   223         14
   224        286
   225         46
   226          6
   227          0
   233          0
   234          3
   235          1
   237          1
   252          2
   253          0