##TITLE=Library Entry 27649
##JCAMP-DX=Revision 4.10 
##DATA TYPE=MASS SPECTRUM
##SAMPLE DESCRIPTION=Humboldt-Universitat zu Berlin, Department of Chemistry
, Analytical Group
##NAMES=HP
##CAS NAME=Benzeneethanamine, 4-methoxy-N,.alpha.-dimethyl-
##MOLFORM=C11H17NO
##CAS REGISTRY NO=22331-70-0
##MP= -300
##BP= -300
##MW= 179
##$RETENTION INDEX=1464
##$CONDENSED SPECTRUM=NO
##NPOINTS= 117
##XYDATA=(XY..XY) 1 
    14          2
    15         35
    16          3
    17         31
    18        120
    26          3
    27         17
    28         48
    29         26
    30        112
    31          3
    32          5
    37          1
    38          4
    39         25
    40          4
    41         23
    42         51
    43         31
    44         10
    45          3
    50          9
    51         24
    52         17
    53          8
    54          4
    55          8
    56         50
    58        999
    59         36
    60          2
    61          1
    62          3
    63         12
    64          6
    65         16
    66          2
    67          2
    68          1
    69          2
    70          4
    71          6
    72          2
    73          1
    74          2
    75          2
    76          3
    77         40
    78         37
    79          9
    80          2
    82          4
    83          4
    84          1
    86         80
    87          5
    88          2
    89         10
    90          5
    91         26
    92          6
    93          5
    94          3
    95          1
    97          2
    99          1
   100          4
   101          0
   102          2
   103          5
   104          3
   105          5
   106          6
   107          8
   108          3
   109          2
   112          1
   114          0
   115          5
   116          2
   117          5
   118          3
   119          3
   120          5
   121         80
   122         24
   123          3
   130          1
   131          2
   132          3
   133          5
   134          6
   135         11
   136          2
   137          1
   144          0
   146          2
   147          5
   148         47
   149         11
   150          3
   151          2
   152          2
   160          1
   161          0
   162          9
   163          2
   164          5
   165          1
   166          1
   174          0
   175          1
   176          1
   177          1
   178          2
   179          4
   180          0