##TITLE=Library Entry 60288
##JCAMP-DX=Revision 4.10 
##DATA TYPE=MASS SPECTRUM
##SAMPLE DESCRIPTION=Chemical Concepts
##NAMES=HP
##CAS NAME=Bicyclo[3.1.1]hept-2-ene, 2-(bromomethyl)-6,6-dimethyl-
##MOLFORM=C10H15Br
##CAS REGISTRY NO=22339-11-3
##MP= -300
##BP= -300
##MW= 214
##$RETENTION INDEX=0
##$CONDENSED SPECTRUM=NO
##NPOINTS= 108
##XYDATA=(XY..XY) 1 
    26          4
    27        108
    29         68
    30          1
    31          1
    37          1
    38          6
    39        126
    40         23
    41        218
    42         12
    43        149
    44          5
    45          2
    46          0
    50         11
    51         45
    52         24
    53         72
    54         10
    55        106
    56          7
    57         38
    58         16
    59          5
    62          2
    63         13
    64         10
    65         71
    66         18
    67         68
    68         28
    69         80
    70          7
    71          1
    74          0
    75          1
    76          1
    77        160
    78         35
    79        349
    80         31
    81         54
    82         15
    83         12
    84          1
    85          0
    87          0
    89          3
    90          2
    91        999
    92        161
    93        323
    94         31
    95          7
    96          1
    97          1
    98          1
   102          1
   103         12
   104          6
   105         63
   106         11
   107        114
   108         12
   109          5
   110          1
   115          9
   116          2
   117         10
   118          2
   119         36
   120         18
   121         19
   122          2
   123          9
   124          1
   127          0
   128          1
   129          1
   130          2
   131          0
   133          2
   134          7
   135        284
   136         30
   137          5
   138          0
   149          0
   150          0
   152          4
   153          1
   158          6
   159          1
   160          6
   161          0
   170         25
   171         77
   172         37
   173         82
   174          8
   199          4
   201          3
   214        105
   215         12
   216        103
   217         11
   218          0