##TITLE=Library Entry 36035
##JCAMP-DX=Revision 4.10 
##DATA TYPE=MASS SPECTRUM
##SAMPLE DESCRIPTION=NIST Mass Spectrometry Data Center, 1990.
##NAMES=HP
##CAS NAME=Cyclohexane, 1,2,4-trimethyl-
##MOLFORM=C9H18
##CAS REGISTRY NO=2234-75-5
##MP= -300
##BP= -300
##MW= 126
##$RETENTION INDEX=849
##$CONDENSED SPECTRUM=NO
##NPOINTS= 43
##XYDATA=(XY..XY) 1 
    15         12
    27        120
    28         22
    29        114
    39        237
    40         52
    41        467
    42        141
    43        145
    44          7
    50         10
    51         29
    52         15
    53         86
    54          7
    55        660
    56        311
    57         64
    63          7
    65         25
    66         10
    67         97
    68          7
    69        999
    70        227
    71         42
    77         25
    78          7
    79         21
    81         28
    82         34
    83         90
    84        160
    85         21
    91         12
    95         15
    96         10
    97         73
    98         16
   111        781
   112         68
   126        329
   127         34