##TITLE=Library Entry 51466
##JCAMP-DX=Revision 4.10 
##DATA TYPE=MASS SPECTRUM
##SAMPLE DESCRIPTION=Japan AIST/NIMC Database- Spectrum MS-NW-9112
##NAMES=HP
##CAS NAME=Cyclohexane, nonadecyl-
##MOLFORM=C25H50
##CAS REGISTRY NO=22349-03-7
##MP= -300
##BP= -300
##MW= 350
##$RETENTION INDEX=2574
##$CONDENSED SPECTRUM=NO
##NPOINTS= 94
##XYDATA=(XY..XY) 1 
    26          1
    27          7
    28          2
    29         21
    39          7
    40          1
    41         74
    42         13
    43        117
    44          4
    53          4
    54         13
    55        183
    56         36
    57        126
    58          6
    65          1
    66          2
    67         75
    68         27
    69         77
    70         27
    71         64
    72          3
    77          1
    79          3
    80          1
    81         21
    82        999
    83        612
    84         50
    85         38
    86          2
    95          7
    96         39
    97         97
    98         15
    99         10
   109          4
   110          9
   111         42
   112          9
   113          7
   123          2
   124          8
   125         24
   126          7
   127          5
   137          1
   138          8
   139         22
   140          7
   141          3
   152          5
   153         11
   154          5
   155          2
   166          4
   167          8
   168          4
   169          2
   180          3
   181          6
   182          4
   183          2
   194          3
   195          5
   196          3
   197          1
   208          2
   209          4
   210          2
   211          1
   222          1
   223          3
   224          2
   236          1
   237          2
   238          5
   239          1
   251          1
   252          1
   265          1
   266         37
   267         14
   268          2
   279          1
   293          1
   322          1
   348          1
   349          1
   350        138
   351         37
   352          5