##TITLE=Library Entry 16665
##JCAMP-DX=Revision 4.10 
##DATA TYPE=MASS SPECTRUM
##SAMPLE DESCRIPTION=Chemical Concepts
##NAMES=HP
##CAS NAME=1,4-Dioxan-2-ol
##MOLFORM=C4H8O3
##CAS REGISTRY NO=22347-47-3
##MP= -300
##BP= -300
##MW= 104
##$RETENTION INDEX=0
##$CONDENSED SPECTRUM=NO
##NPOINTS= 47
##XYDATA=(XY..XY) 1 
    25          6
    26         95
    27        288
    28        950
    29        658
    30        105
    31        392
    32          8
    33          2
    37          0
    39          2
    40          2
    41         14
    42        103
    43        542
    44        293
    45        999
    46         26
    47        129
    48          1
    49          0
    53          0
    54          0
    55          2
    56          9
    57         62
    58        382
    59         22
    60         16
    61          9
    69          0
    71          2
    72          0
    73         33
    74        137
    75        182
    76         26
    77          3
    83          0
    85          0
    86          6
    87         22
    88          0
    97          0
   103          1
   104         22
   105          1