##TITLE=Library Entry 37571
##JCAMP-DX=Revision 4.10 
##DATA TYPE=MASS SPECTRUM
##SAMPLE DESCRIPTION=NIST Mass Spectrometry Data Center
##NAMES=HP
##CAS NAME=(R)-Alpha-(2-pyrrolidinyl)benzhydryl alcohol
##MOLFORM=C17H19NO
##CAS REGISTRY NO=22348-32-9
##MP= -300
##BP= -300
##MW= 253
##$RETENTION INDEX=0
##$CONDENSED SPECTRUM=NO
##NPOINTS= 101
##XYDATA=(XY..XY) 1 
    18          4
    27          3
    28         70
    30         16
    37          1
    38          2
    39         26
    40          7
    41         51
    42         18
    43         69
    44          6
    50         14
    51         66
    52          6
    53          5
    54          2
    55          3
    56          2
    62          2
    63          8
    64          3
    65          6
    66          2
    68         55
    70        999
    71         50
    72          1
    75          3
    77        188
    78         23
    79          4
    81          1
    82          2
    83          1
    86          1
    87          1
    88          2
    89          7
    90          3
    91          9
    92          1
    98          1
   101          1
   102          4
   103          5
   105        173
   106         13
   107          1
   113          1
   115          8
   116          2
   117          2
   118          2
   119          1
   126          2
   127          4
   128          5
   129          2
   130          6
   131          2
   139          3
   144          1
   146          3
   150          2
   151          4
   152         14
   153          7
   154          3
   155          1
   156          1
   158          4
   163          2
   164          3
   165         17
   166          3
   167          5
   168          1
   174          3
   175          1
   176          5
   177          2
   178          4
   179          3
   180          2
   181         15
   182         20
   183         48
   184          7
   189          1
   191          2
   193          1
   203          1
   206          5
   207          1
   232          1
   233          1
   234          6
   235          5
   239          2
   251          2