##TITLE=Library Entry 31448
##JCAMP-DX=Revision 4.10 
##DATA TYPE=MASS SPECTRUM
##SAMPLE DESCRIPTION=NIST Mass Spectrometry Data Center
##NAMES=HP
##CAS NAME=tri-n-Propylphosphine
##MOLFORM=C9H21P
##CAS REGISTRY NO=2234-97-1
##MP= -300
##BP= -300
##MW= 160
##$RETENTION INDEX=0
##$CONDENSED SPECTRUM=NO
##NPOINTS= 77
##XYDATA=(XY..XY) 1 
    11          1
    14          5
    15         67
    17          3
    18         11
    27        685
    28        108
    29        273
    30          7
    31          5
    32          9
    33          4
    34          3
    35         11
    37          3
    39        305
    41        931
    42         92
    43        354
    45        329
    46         85
    47        317
    48        326
    49        116
    50          2
    51          3
    53         11
    55        114
    57        207
    58         61
    59        155
    60         32
    61        322
    62        999
    63         36
    67          4
    68          7
    69         69
    70         13
    71         87
    72         35
    73        151
    74         66
    75        303
    76        819
    77        101
    78          3
    79          2
    81          2
    83         12
    85          7
    87         16
    88         21
    89        105
    90        923
    91         50
    92          1
    99          2
   101         10
   103        155
   104        121
   105          6
   108          2
   115          5
   117        184
   118        584
   119         43
   129          5
   131         45
   132         28
   133          2
   143          4
   145        370
   146         29
   147          2
   160        292
   161         30