##TITLE=Library Entry 12977
##JCAMP-DX=Revision 4.10 
##DATA TYPE=MASS SPECTRUM
##SAMPLE DESCRIPTION=Chemical Concepts
##NAMES=HP
##CAS NAME=.beta.-D-Glucopyranose, 4-O-(2,3,4,6-tetra-O-acetyl-.alpha.-D-glu
copyranosyl)-, tetraacetate
##MOLFORM=C28H38O19
##CAS REGISTRY NO=22352-19-8
##MP= -300
##BP= -300
##MW= 678
##$RETENTION INDEX=0
##$CONDENSED SPECTRUM=NO
##NPOINTS= 138
##XYDATA=(XY..XY) 1 
    27          1
    28          2
    29          3
    31          1
    39          1
    41          4
    42          5
    43        999
    44         19
    45          4
    53          2
    54          2
    55          4
    56          1
    57          4
    60          3
    61          7
    68          2
    69         24
    70         11
    71          6
    73         13
    74          1
    80          4
    81         62
    82          8
    83          3
    84          1
    85         15
    86          6
    87          2
    89          1
    95          1
    96          2
    97         32
    98         33
    99         13
   100          1
   101          4
   102         11
   103         25
   104          1
   109        137
   110         14
   111          6
   112         36
   113          7
   114          4
   115         38
   116          5
   117          0
   123          1
   124          1
   125          4
   126          7
   127         44
   128          5
   129          2
   131          2
   135          1
   136          1
   138          1
   139         26
   140         22
   141         15
   142          3
   143          7
   144          9
   145         33
   146          2
   151          1
   152          7
   153          5
   155          4
   156          1
   157         28
   158          7
   159          1
   167          1
   168          5
   169        261
   170         23
   171          5
   173          1
   181          0
   182          4
   183          1
   184          1
   185          2
   186          2
   187          6
   197          3
   199          4
   200         13
   201          2
   203          2
   210          1
   211         12
   212          4
   213          1
   215          2
   222          1
   223          1
   227          1
   228          2
   229         10
   230          1
   242         19
   243         13
   244          2
   245          6
   246          1
   247          0
   259          1
   270          2
   271         11
   272          2
   275          1
   287          1
   288          1
   289          3
   302          2
   317         17
   318          2
   330          2
   331        124
   332         17
   333          3
   343          1
   347          1
   383          1
   443          1
   456          2
   457          1
   558          1
   559          1
   619          1
   620          1