##TITLE=Library Entry 76770
##JCAMP-DX=Revision 4.10 
##DATA TYPE=MASS SPECTRUM
##SAMPLE DESCRIPTION=Exported from NIST MS Search
##NAMES=HP
##CAS NAME=2-Pentanone, 5-phenyl-
##MOLFORM=C11H14O
##CAS REGISTRY NO=2235-83-8
##MP= -300
##BP= -300
##MW= 162
##$RETENTION INDEX=1942
##$CONDENSED SPECTRUM=NO
##NPOINTS= 27
##XYDATA=(XY..XY) 1 
    41         32
    43        269
    44         13
    50         16
    51         48
    52         13
    58         54
    63         27
    64          8
    65         73
    71         13
    77         35
    78         48
    79         13
    89         22
    90          8
    91        228
    92         32
   103         30
   104        999
   105        126
   106         13
   115         22
   117         13
   119         13
   162         89
   163         11