##TITLE=Library Entry 29034
##JCAMP-DX=Revision 4.10 
##DATA TYPE=MASS SPECTRUM
##SAMPLE DESCRIPTION=Drug Lab
##NAMES=HP
##CAS NAME=Etryptamine
##MOLFORM=C12H16N2
##CAS REGISTRY NO=2235-90-7
##MP= -300
##BP= -300
##MW= 188
##$RETENTION INDEX=1848
##$CONDENSED SPECTRUM=NO
##NPOINTS= 68
##XYDATA=(XY..XY) 1 
    18          9
    27         25
    28         85
    30         95
    32         17
    37          4
    38          7
    39         29
    41        127
    42         28
    43         37
    44          3
    49          2
    50         20
    51         58
    52         25
    53          8
    54          8
    56         27
    58        999
    59         39
    62         11
    63         26
    64          8
    65         12
    66          3
    74         11
    75         22
    76         24
    77        129
    78         18
    79         23
    86          1
    87          3
    89         19
    90         11
    91          6
    98          1
   101         14
   102         61
   103         89
   104         10
   114          5
   115         16
   116          6
   117         22
   118          4
   127          4
   128         45
   129         32
   130        500
   131        621
   132         75
   133          5
   140          5
   142          5
   143          4
   144          2
   154          4
   155          3
   156          3
   157          4
   158          9
   159         16
   160          2
   168          1
   188         27
   189          3