##TITLE=Library Entry 48883
##JCAMP-DX=Revision 4.10 
##DATA TYPE=MASS SPECTRUM
##SAMPLE DESCRIPTION=Exported from NIST MS Search
##NAMES=HP
##CAS NAME=1,3,5-Hexatriene
##MOLFORM=C6H8
##CAS REGISTRY NO=2235-12-3
##MP= -300
##BP= -300
##MW= 80
##$RETENTION INDEX=647
##$CONDENSED SPECTRUM=NO
##NPOINTS= 56
##XYDATA=(XY..XY) 1 
     2          5
    12          8
    13         10
    14         16
    15         35
    16          1
    24          2
    25          9
    26         82
    27        308
    28         40
    29          5
    30          1
    31          3
    32          1
    34          1
    35          1
    36          6
    37         53
    38         83
    39        369
    40         69
    41         80
    43          1
    44          1
    48          4
    49         27
    50        157
    51        216
    52        176
    53        120
    54         44
    55          2
    56          1
    57          1
    58          1
    59          1
    60          3
    61         12
    62         17
    63         37
    64          7
    65        107
    66          6
    67          1
    72          1
    73         10
    74         28
    75         40
    76         18
    77        387
    78        115
    79        999
    80        539
    81         34
    82          1