##TITLE=Library Entry 27987
##JCAMP-DX=Revision 4.10 
##DATA TYPE=MASS SPECTRUM
##SAMPLE DESCRIPTION=Japan AIST/NIMC Database- Spectrum MS-NW-4811
##NAMES=HP
##CAS NAME=Butanamide, N,N-diethyl-3-oxo-
##MOLFORM=C8H15NO2
##CAS REGISTRY NO=2235-46-3
##MP= -300
##BP= -300
##MW= 157
##$RETENTION INDEX=0
##$CONDENSED SPECTRUM=NO
##NPOINTS= 73
##XYDATA=(XY..XY) 1 
    12          1
    14          6
    15         53
    16          1
    17          1
    18          4
    25          1
    26         10
    27         73
    28         38
    29        126
    30        129
    31          7
    32          1
    37          1
    38          3
    39         11
    40          7
    41         21
    42         73
    43        382
    44        226
    45          8
    46          4
    52          2
    53          2
    54          6
    55          7
    56        104
    57         12
    58        999
    59         38
    60          1
    67          2
    68          7
    69         25
    70         17
    71         35
    72        325
    73         44
    74         11
    83          1
    84         13
    85         91
    86         30
    87         13
    88          1
    96          2
    97          2
    98          2
   100         42
   101          3
   111          2
   112          3
   113          1
   114         75
   115         10
   116          1
   124          3
   125          1
   126          1
   128          7
   129          4
   138          1
   139          1
   140         33
   141          4
   142         61
   143          6
   156          2
   157        152
   158         15
   159          1