##TITLE=Library Entry 82659
##JCAMP-DX=Revision 4.10 
##DATA TYPE=MASS SPECTRUM
##SAMPLE DESCRIPTION=Japan AIST/NIMC Database- Spectrum MS-IW-8137
##NAMES=HP
##CAS NAME=2'-(1,4-Dioxo-1,4-dihydro-2-naphthyl)isonicotinohydrazide
##MOLFORM=C16H11N3O3
##CAS REGISTRY NO=22360-15-2
##MP= -300
##BP= -300
##MW= 293
##$RETENTION INDEX=0
##$CONDENSED SPECTRUM=NO
##NPOINTS= 164
##XYDATA=(XY..XY) 1 
    14          1
    16          1
    25          1
    26         18
    27         39
    28        189
    29          6
    37          7
    38          7
    39         15
    40          7
    41          9
    42          2
    43          9
    44         24
    45          2
    48          1
    49          8
    50         82
    51        159
    52         48
    53         21
    54          2
    55          8
    56          2
    57          9
    58          8
    59          1
    60          1
    61          3
    62          7
    63         16
    64         19
    65          5
    66          3
    67          4
    68         23
    69          7
    70          3
    71          6
    72          3
    73          3
    74         16
    75         34
    76        111
    77        134
    78        466
    79        134
    80          9
    81          4
    82          2
    83          5
    84          2
    85          3
    86          2
    87          3
    88          6
    89         40
    90         13
    91          4
    92          1
    93          2
    94          4
    95          4
    96          2
    97          7
    98          3
    99          3
   100          4
   101         20
   102         45
   103         26
   104        197
   105         94
   106        999
   107        151
   108          9
   109          2
   111          4
   112          1
   113          4
   114          5
   115         11
   116         23
   117         13
   118          7
   119          2
   120          3
   121          1
   122        134
   123         13
   124          2
   125          1
   126          2
   127         10
   128          4
   129          9
   130         10
   131         10
   132          6
   133          4
   134          1
   136          1
   137          6
   138          1
   139          1
   141          3
   142          2
   143         12
   144         33
   145         17
   146         64
   147          7
   149          1
   151          1
   152          2
   154          2
   155          8
   156          1
   157          1
   158          3
   159         35
   160          5
   161          1
   168          1
   170          3
   171         22
   172          6
   173        119
   174         14
   175          1
   179          1
   180          2
   181          1
   187         51
   188          8
   189          3
   190          1
   191          1
   192          1
   193          2
   198          1
   208          2
   211          1
   212          1
   215          2
   219          1
   235          1
   236          2
   237          9
   238          2
   247          7
   248          4
   249          2
   264          3
   265         22
   266          4
   267          1
   275          2
   276          1
   278          1
   293        358
   294         70
   295          9