##TITLE=Library Entry 77556
##JCAMP-DX=Revision 4.10 
##DATA TYPE=MASS SPECTRUM
##SAMPLE DESCRIPTION=Chuck Anderson, Aldrich Chemical Co.
##NAMES=HP
##CAS NAME=2-Methylbenzyl cyanide
##MOLFORM=C9H9N
##CAS REGISTRY NO=22364-68-7
##MP= -300
##BP= -300
##MW= 131
##$RETENTION INDEX=0
##$CONDENSED SPECTRUM=NO
##NPOINTS= 56
##XYDATA=(XY..XY) 1 
    15          2
    26          5
    27         16
    28          4
    37          2
    38          6
    39         28
    40          4
    41          4
    49          1
    50         19
    51         40
    52         17
    53          5
    61          5
    62         14
    63         40
    64         15
    65         56
    66          3
    73          1
    74         13
    75         18
    76         21
    77        100
    78         78
    79         10
    84          1
    85          1
    86          5
    87          8
    88          4
    89         69
    90          6
    91        302
    92         17
    98          2
    99          3
   100          3
   101          9
   102         37
   103        152
   104        999
   105         65
   106          3
   114          2
   115          2
   116        230
   117         13
   127          1
   128         12
   129          1
   130         53
   131        374
   132         27
   133          1