##TITLE=Library Entry 57252
##JCAMP-DX=Revision 4.10 
##DATA TYPE=MASS SPECTRUM
##SAMPLE DESCRIPTION=Exported from NIST MS Search
##NAMES=HP
##CAS NAME=Cyclohexanecarboxylic acid, 2-hydroxy-, methyl ester
##MOLFORM=C8H14O3
##CAS REGISTRY NO=2236-11-5
##MP= -300
##BP= -300
##MW= 158
##$RETENTION INDEX=0
##$CONDENSED SPECTRUM=NO
##NPOINTS= 118
##XYDATA=(XY..XY) 1 
    14          4
    15         58
    16          2
    17          7
    18         33
    19          1
    26          6
    27         88
    28         68
    29         78
    30          4
    31         40
    32         17
    33         13
    36          7
    37          2
    38          9
    39         82
    40         14
    41        125
    42         44
    43         95
    44         34
    45         18
    47          2
    50          9
    51         24
    52         10
    53         45
    54         32
    55        357
    56         26
    57         85
    58          7
    59         57
    60          6
    61         11
    62          4
    63         14
    64          6
    65         25
    66         11
    67         40
    68         14
    69         73
    70         92
    71         31
    72          7
    73         17
    74         89
    75         25
    76          4
    77         45
    78         12
    79         61
    80        137
    81        309
    82         31
    83         85
    84         27
    85         10
    86          4
    87        999
    88         59
    89         18
    90          7
    91         45
    92         18
    93          9
    94          2
    95          5
    96          3
    97         64
    98        152
    99         38
   100          6
   101         78
   102         14
   103          4
   104          1
   105          5
   106          3
   107         54
   108        132
   109         73
   110          6
   111         17
   112          6
   113          5
   114          2
   115         67
   119          5
   120         39
   121         45
   122          7
   123          2
   124          2
   125         45
   126         77
   127         74
   128          8
   129          7
   130        302
   131         24
   132          3
   133          2
   134          5
   135          3
   138         22
   139          7
   140         56
   141         59
   142         28
   143         20
   144          2
   157          9
   158         11
   159          2