##TITLE=Library Entry 6694
##JCAMP-DX=Revision 4.10 
##DATA TYPE=MASS SPECTRUM
##SAMPLE DESCRIPTION=A.A.Kutin, Moscow, Russia
##NAMES=HP
##CAS NAME=2,4,6,8-Tetraazabicyclo[3.3.0]octan-3-one, 7-nitroimino-
##MOLFORM=C4H6N6O3
##CAS REGISTRY NO=223690-54-8
##MP= -300
##BP= -300
##MW= 186
##$RETENTION INDEX=0
##$CONDENSED SPECTRUM=NO
##NPOINTS= 102
##XYDATA=(XY..XY) 1 
    33          1
    35          4
    36          4
    37          5
    38         24
    39         38
    40         64
    41        176
    42        580
    43        999
    44        640
    46        193
    47         20
    48          1
    49          5
    51         14
    52         18
    53         66
    54         31
    55         53
    56         90
    57         20
    58         38
    59         11
    60         15
    61          0
    63         11
    64          4
    65          7
    66          4
    67         15
    68         47
    69         56
    70         40
    71         27
    72          4
    73          1
    74          9
    75          5
    76          4
    77          9
    78          5
    79          1
    80          0
    81          2
    82          6
    83         12
    84         53
    85         10
    86          4
    87          1
    89          2
    90          3
    91         14
    92          4
    93          2
    94          1
    95          5
    96          9
    97         37
    98         14
    99          8
   100          2
   101          0
   103          2
   104          5
   105          2
   106          0
   107          0
   108          2
   109          1
   110          1
   111          8
   112          6
   113          3
   114          3
   116          0
   118          0
   119          0
   121          0
   122          0
   123          1
   124          5
   126          4
   127          2
   129          0
   131          0
   135          3
   136          2
   137          0
   138          0
   139         10
   140         24
   141          3
   142          3
   144          1
   149          1
   156          0
   163          0
   176          0
   186          6
   192          1