##TITLE=Library Entry 83155
##JCAMP-DX=Revision 4.10 
##DATA TYPE=MASS SPECTRUM
##SAMPLE DESCRIPTION=Gary D. Byrd, R. J. Reynolds Tobacco Company
##NAMES=HP
##CAS NAME=2-Pyrrolidinone, 3-hydroxy-1-methyl-5-(3-pyridinyl)-, (3R,5R)-
##MOLFORM=C10H12N2O2
##CAS REGISTRY NO=223655-46-7
##MP= -300
##BP= -300
##MW= 192
##$RETENTION INDEX=0
##$CONDENSED SPECTRUM=NO
##NPOINTS= 111
##XYDATA=(XY..XY) 1 
    15          9
    26          4
    27         17
    29         17
    30         11
    31          5
    37          2
    38         10
    39         36
    40          6
    41         16
    42        105
    43         28
    44          9
    49          2
    50         30
    51         90
    52         55
    53         29
    54         10
    55         16
    56         35
    57         20
    58         84
    59          3
    60          3
    61          2
    62          9
    63         43
    64         24
    65         55
    66         19
    67         14
    68         10
    69          2
    70          1
    74          4
    75          7
    76         15
    77        101
    78        149
    79        270
    80        126
    81         11
    82          2
    84          4
    85          5
    86         82
    87          5
    88          1
    89         22
    90         36
    91         25
    92        200
    93        326
    94         27
    95          2
    96          2
    97          2
    98          1
   102          3
   103          5
   104         99
   105         79
   106        999
   107        126
   108         32
   109          3
   113          3
   114        180
   115         13
   116         26
   117         69
   118        110
   119        231
   120         70
   121         45
   122          6
   123          1
   130          2
   131          6
   132         17
   133         25
   134        248
   135        469
   136         45
   137          3
   144          1
   145          7
   146          4
   147          7
   148         38
   149          8
   150          1
   159          1
   161         28
   162          4
   163         44
   164         14
   165          2
   173          2
   174         55
   175         19
   176          2
   177          4
   190          1
   191         28
   192        736
   193         91
   194          9
   195          1