##TITLE=Library Entry 68347
##JCAMP-DX=Revision 4.10 
##DATA TYPE=MASS SPECTRUM
##SAMPLE DESCRIPTION=Chemical Concepts
##NAMES=HP
##CAS NAME=2-(Benzyloxymethyl)-5-methylfuran
##MOLFORM=C13H14O2
##CAS REGISTRY NO=223696-93-3
##MP= -300
##BP= -300
##MW= 202
##$RETENTION INDEX=0
##$CONDENSED SPECTRUM=NO
##NPOINTS= 164
##XYDATA=(XY..XY) 1 
    25         12
    26         67
    27         90
    28         90
    29         49
    30         15
    31          7
    33          1
    34          2
    36          4
    37         22
    38         38
    39        167
    40         43
    41        131
    42         31
    43        297
    44         16
    45         12
    46          5
    47          5
    48          5
    49         22
    50        132
    51        201
    52        112
    53        163
    54         27
    55         68
    56         10
    57          9
    58         13
    59         19
    60          8
    61         14
    62         23
    63         59
    64         20
    65        193
    66         53
    67         66
    68         22
    69         13
    70         10
    71         13
    72         16
    73         15
    74         41
    75         23
    76         33
    77        269
    78        190
    79         89
    80         22
    81        199
    82         29
    83         61
    84          7
    85         13
    86         10
    87         12
    88          3
    89         44
    90         40
    91        792
    92        244
    93         25
    94         73
    95        999
    96        883
    97         85
    98         16
    99         24
   100          4
   101         11
   102         14
   103         14
   104         17
   105        200
   106        167
   107         60
   108         46
   109         74
   110         77
   111        208
   112         19
   113         23
   114         10
   115         48
   116         20
   117         39
   118         11
   119         33
   120         19
   121          6
   122          4
   123          2
   124          8
   125          2
   126          4
   127         19
   128         51
   129         58
   130         16
   131         31
   132          8
   133         23
   134          7
   135          7
   136          2
   139          4
   140          2
   141         11
   142          9
   143          8
   144         10
   145         46
   146         12
   147          5
   148          2
   149          5
   150          4
   151          2
   152          5
   153          4
   154          4
   155          4
   156          3
   157         22
   158         10
   159         21
   160          4
   161          4
   162         11
   163          5
   165          5
   166          2
   167          5
   168          3
   169          4
   170          2
   171         16
   172         14
   173          9
   174          4
   175          7
   176         15
   177          3
   178          3
   179          3
   180          2
   181          2
   182          3
   183          3
   184          3
   185          3
   186          5
   187          3
   188          1
   200          1
   201          3
   202        163
   203         29
   204          1