##TITLE=Library Entry 70963
##JCAMP-DX=Revision 4.10 
##DATA TYPE=MASS SPECTRUM
##SAMPLE DESCRIPTION=Chemical Concepts
##NAMES=HP
##CAS NAME=Bicyclo[6.2.0]decan-9-one, 10,10-dichloro-
##MOLFORM=C10H14Cl2O
##CAS REGISTRY NO=22374-13-6
##MP= -300
##BP= -300
##MW= 220
##$RETENTION INDEX=0
##$CONDENSED SPECTRUM=NO
##NPOINTS= 121
##XYDATA=(XY..XY) 1 
    26         25
    27        272
    28         35
    29        113
    35          4
    36         12
    37          8
    38         23
    39        292
    40         44
    41        383
    42         39
    43         30
    47          9
    49         15
    50         27
    51        126
    52         30
    53        122
    54        115
    55        577
    56         31
    57         25
    60          3
    61         22
    62          9
    63         25
    64          7
    65        105
    66         35
    67        342
    68         93
    69         54
    70        191
    71         15
    72          2
    73         40
    74          9
    75         46
    76          5
    77         96
    78         20
    79        126
    80         52
    81        156
    82         67
    83        256
    84         63
    85         14
    86          6
    87         67
    88         18
    89         38
    90          7
    91         57
    92         10
    93         79
    94         16
    95         60
    96         23
    97        144
    98        999
    99         68
   100          9
   101         25
   102          9
   103         10
   104          8
   105         16
   106          5
   107         18
   108          4
   109         51
   110          9
   111         36
   112          5
   113         14
   114          4
   115         20
   116         10
   117          8
   118          3
   119          7
   120          3
   121         19
   122        100
   123          9
   124         65
   125         11
   126         12
   127          6
   128          3
   129         18
   130          3
   131         17
   135          6
   136          4
   137          9
   138         22
   139          5
   140         11
   141          8
   142          3
   143          6
   144          2
   149         17
   151          4
   155          2
   163          3
   164          3
   167          5
   169          2
   176          2
   177         14
   178          2
   179          7
   185         14
   187          4
   220          5
   221          1
   222          3