##TITLE=Library Entry 22199
##JCAMP-DX=Revision 4.10 
##DATA TYPE=MASS SPECTRUM
##SAMPLE DESCRIPTION=D.HENNEBERG, MAX-PLANCK INSTITUTE, MULHEIM, WEST GERMAN
Y
##NAMES=HP
##CAS NAME=1-Undecene, 10-methyl-
##MOLFORM=C12H24
##CAS REGISTRY NO=22370-55-4
##MP= -300
##BP= -300
##MW= 168
##$RETENTION INDEX=1157
##$CONDENSED SPECTRUM=NO
##NPOINTS= 79
##XYDATA=(XY..XY) 1 
    24          1
    25          2
    26          6
    27        124
    28         15
    29        200
    30          2
    31          2
    32          3
    33          0
    34          1
    35          1
    36          0
    37          7
    38          3
    39        110
    40         21
    41        495
    42        105
    43        703
    44         10
    45          0
    46          0
    47          1
    49          1
    50          2
    51          5
    52          5
    53         35
    54         59
    55        484
    56        999
    57        587
    58         27
    60          0
    62          0
    63          1
    64          0
    65          5
    66          5
    67         54
    68         73
    69        542
    70        246
    71         90
    72          4
    75          0
    77          5
    79          4
    80          1
    81         20
    82         44
    83        228
    84        128
    85         41
    86          2
    91          0
    93          1
    95          8
    96          5
    97         99
    98         33
    99          1
   110          8
   111         47
   112         45
   113          4
   117          0
   124          3
   125         13
   126          8
   139          0
   140         20
   141          0
   153          7
   154          0
   167          0
   168         12
   169          2