##TITLE=Library Entry 98067
##JCAMP-DX=Revision 4.10 
##DATA TYPE=MASS SPECTRUM
##SAMPLE DESCRIPTION=Japan AIST/NIMC Database- Spectrum MS-NW-7766
##NAMES=HP
##CAS NAME=Benzonitrile, m-amino-
##MOLFORM=C7H6N2
##CAS REGISTRY NO=2237-30-1
##MP= -300
##BP= -300
##MW= 118
##$RETENTION INDEX=0
##$CONDENSED SPECTRUM=NO
##NPOINTS= 56
##XYDATA=(XY..XY) 1 
    14          1
    15          1
    26          5
    27          6
    28         34
    32          2
    36          2
    37         19
    38         28
    39         44
    40         13
    41         37
    42          4
    43          1
    44          3
    45          7
    49          4
    50         16
    51         15
    52         35
    53          5
    54          6
    58          3
    59         11
    60          2
    61         10
    62         20
    63         58
    64         81
    65         33
    66         10
    67          9
    73          2
    74          5
    75         13
    76         11
    77          8
    78          9
    79          5
    86          2
    87          4
    88          6
    89          8
    90         65
    91        241
    92         22
    99          2
   100          1
   101          2
   102          3
   103          2
   116          4
   117         45
   118        999
   119         85
   120          3