##TITLE=Library Entry 15963
##JCAMP-DX=Revision 4.10 
##DATA TYPE=MASS SPECTRUM
##SAMPLE DESCRIPTION=Japan AIST/NIMC Database- Spectrum MS-NW-6644
##NAMES=HP
##CAS NAME=Benzenepropanamine, .alpha.-methyl-
##MOLFORM=C10H15N
##CAS REGISTRY NO=22374-89-6
##MP= -300
##BP= -300
##MW= 149
##$RETENTION INDEX=1257
##$CONDENSED SPECTRUM=NO
##NPOINTS= 72
##XYDATA=(XY..XY) 1 
    15          4
    26          1
    27         13
    28          9
    29          2
    30         12
    38          3
    39         26
    40          3
    41         11
    42         29
    43         17
    44        999
    45         30
    50          9
    51         24
    52          7
    53          4
    54          4
    55          1
    56          7
    57         12
    58         12
    62          3
    63         11
    64          3
    65         34
    66          3
    67          1
    70          5
    71         21
    72          1
    74          3
    75          3
    76          3
    77         27
    78         14
    79         13
    80          1
    84          2
    87          1
    89          7
    90          3
    91        189
    92         25
    93          2
   102          3
   103         11
   104         11
   105         10
   106          3
   107          2
   108          3
   115         10
   116          4
   117         78
   118          9
   120          1
   127          1
   128          3
   129          2
   130          2
   131          8
   132        141
   133         14
   134         17
   135          2
   146          2
   147          2
   148          7
   149          9
   150          2