##TITLE=Library Entry 67349
##JCAMP-DX=Revision 4.10 
##DATA TYPE=MASS SPECTRUM
##SAMPLE DESCRIPTION=Exported from NIST MS Search
##NAMES=HP
##CAS NAME=Kauran-18-oic acid, 16-hydroxy-, (4.alpha.)-
##MOLFORM=C20H32O3
##CAS REGISTRY NO=22376-06-3
##MP= -300
##BP= -300
##MW= 320
##$RETENTION INDEX=0
##$CONDENSED SPECTRUM=NO
##NPOINTS= 177
##XYDATA=(XY..XY) 1 
    56         50
    57        160
    58        130
    59        190
    60         10
    61         10
    65        120
    66        100
    67        550
    68        100
    69        300
    70         30
    71        200
    76         10
    77        200
    78         60
    79        520
    80        200
    81        720
    82        170
    83        100
    84         30
    85         50
    86         20
    87        150
    88         20
    91        470
    92        200
    93        600
    94        999
    95        600
    96        120
    97        130
    98         40
    99         20
   102         20
   103         30
   104         70
   105        530
   106        270
   107        480
   108        300
   109        780
   110         90
   111         90
   114         30
   116         30
   117         80
   118         50
   119        400
   120        110
   121        700
   122        170
   123        530
   124         50
   125         70
   129         30
   131        190
   132         60
   133        180
   134        360
   135        410
   136        140
   137        220
   138         70
   139        300
   140         40
   142         20
   143         50
   144         30
   145        120
   146         60
   147        420
   148        230
   149        180
   150         40
   151         50
   152         50
   153         40
   155         30
   157         30
   158         20
   159        120
   160         60
   161        110
   163         50
   164         30
   165         40
   166        180
   167        130
   168         30
   169         20
   171         20
   172         10
   173         40
   174         20
   175         50
   176         30
   177         50
   180         50
   181         20
   182         10
   183         20
   185         40
   186         20
   187        150
   188         50
   189         40
   191         20
   192         10
   193         40
   194         10
   195         10
   197         10
   199         40
   200         10
   201         70
   202         30
   203         40
   204         30
   205         40
   206         10
   207         10
   212         20
   213         60
   214         20
   215         40
   216         70
   217        150
   218         50
   219         30
   220         30
   221         30
   222         30
   229         30
   230         30
   231         30
   232         30
   233         30
   241         50
   242         30
   243         60
   244         30
   245         30
   246         30
   247        110
   248         30
   249         30
   250         20
   256         40
   257         70
   258         50
   259        100
   260        100
   261         80
   262        430
   263        110
   264         20
   270         20
   273         20
   274         50
   275         50
   276         50
   277         20
   278         20
   285         20
   286         10
   287        110
   288         30
   289         20
   302        400
   303         90
   304         50
   305         50
   306         20
   320         70
   321         20