##TITLE=Library Entry 38947
##JCAMP-DX=Revision 4.10 
##DATA TYPE=MASS SPECTRUM
##SAMPLE DESCRIPTION=Exported from NIST MS Search
##NAMES=HP
##CAS NAME=2-Undecen-4-ol
##MOLFORM=C11H22O
##CAS REGISTRY NO=22381-86-8
##MP= -300
##BP= -300
##MW= 170
##$RETENTION INDEX=0
##$CONDENSED SPECTRUM=NO
##NPOINTS= 14
##XYDATA=(XY..XY) 1 
    41         50
    43         50
    56         10
    57         10
    58         40
    71        999
    72        100
    86         50
    99         24
   100          2
   127         24
   128          2
   152          2
   170          4