##TITLE=Library Entry 26999
##JCAMP-DX=Revision 4.10 
##DATA TYPE=MASS SPECTRUM
##SAMPLE DESCRIPTION=CARL DJERASSI DEPT OF CHEM STANFORD UNIV STANFORD CALIF
 94305
##NAMES=HP
##CAS NAME=5-Nonanone, thiosemicarbazone
##MOLFORM=C10H21N3S
##CAS REGISTRY NO=22397-20-2
##MP= -300
##BP= -300
##MW= 215
##$RETENTION INDEX=0
##$CONDENSED SPECTRUM=NO
##NPOINTS= 65
##XYDATA=(XY..XY) 1 
    26         40
    27        210
    28        130
    29        310
    30         70
    31         10
    32         50
    33         50
    34        110
    39        120
    41        440
    42        230
    43        150
    44         40
    51         10
    53         40
    54        100
    55        160
    56         80
    57        999
    58         90
    60         80
    67         40
    68         20
    69         30
    70        110
    71         20
    72        100
    75         80
    76         10
    77         10
    79         10
    80         10
    81         10
    82         50
    83         30
    84        290
    85         20
    89        150
    90         40
    91         20
    96         10
    97        110
    98         10
    99         60
   102         10
   103         30
   110         30
   112        120
   113         10
   116         60
   126         10
   131         70
   132         10
   139         20
   140         20
   142         10
   144         10
   158        640
   159         50
   160         30
   173         20
   215        170
   216         30
   217         10