##TITLE=Library Entry 11889
##JCAMP-DX=Revision 4.10 
##DATA TYPE=MASS SPECTRUM
##SAMPLE DESCRIPTION=RADIAN CORP
##NAMES=HP
##CAS NAME=Carbamic acid, (4-chlorophenyl)-, 1-methylethyl ester
##MOLFORM=C10H12ClNO2
##CAS REGISTRY NO=2239-92-1
##MP= -300
##BP= -300
##MW= 213
##$RETENTION INDEX=0
##$CONDENSED SPECTRUM=NO
##NPOINTS= 90
##XYDATA=(XY..XY) 1 
    14          2
    15         11
    19          4
    26          7
    27        101
    28         17
    29         21
    31         19
    32          1
    37         15
    38         33
    39        113
    40         18
    41        324
    42         33
    43        999
    44         40
    45        157
    46          2
    47          4
    49         12
    50         32
    51         19
    52         20
    53          2
    54          1
    59         43
    60          4
    61         19
    62         48
    63        143
    64         68
    65         55
    66          5
    72          8
    73         91
    74         24
    75         82
    76         14
    77          2
    78          1
    80          2
    84          2
    85          5
    86          2
    87          5
    88          9
    89         20
    90        112
    91         50
    92         41
    93          4
    97          3
    98         11
    99        178
   100         44
   101         58
   102         13
   108          2
   111         28
   112          2
   113          9
   114          1
   118          7
   119         14
   124          3
   125         96
   126        101
   127        743
   128         83
   129        231
   130         15
   135          1
   136          5
   140          4
   142          1
   153        153
   154        167
   155         63
   156         54
   157          4
   170          7
   171        405
   172         36
   173        134
   174         10
   213        274
   214         30
   215         90
   216          9