##TITLE=Library Entry 31168
##JCAMP-DX=Revision 4.10 
##DATA TYPE=MASS SPECTRUM
##SAMPLE DESCRIPTION=V.G. Zaikin, R.S.Borisov, TIPS RAS, Moscow, Russia
##NAMES=HP
##CAS NAME=Hexadecanoic acid, propyl ester
##MOLFORM=C19H38O2
##CAS REGISTRY NO=2239-78-3
##MP= -300
##BP= -300
##MW= 298
##$RETENTION INDEX=2091
##$CONDENSED SPECTRUM=NO
##NPOINTS= 165
##XYDATA=(XY..XY) 1 
    15          2
    26          4
    27         73
    28         53
    29        132
    30          5
    31         21
    38          3
    39         36
    40         12
    41        346
    42        159
    43        637
    44         25
    45         12
    53         15
    54         29
    55        288
    56         80
    57        338
    58         31
    59         41
    60        378
    61        999
    62         25
    63          5
    65          3
    66          3
    67         52
    68         30
    69        197
    70         53
    71        182
    72         17
    73        459
    74         36
    75         12
    77          3
    78          1
    79         14
    80          6
    81         50
    82         27
    83        158
    84         75
    85        106
    86         12
    87        107
    88          8
    89          8
    91          3
    93         13
    94          5
    95         47
    96         24
    97        126
    98         73
    99         25
   100          6
   101         47
   102        393
   103        152
   104          9
   105          2
   107         10
   108          3
   109         26
   110         10
   111         52
   112         19
   113         12
   115        327
   116         31
   117          5
   119          1
   121         13
   122          2
   123         13
   124          6
   125         28
   126          5
   127          7
   128          3
   129        125
   130         13
   131          2
   133          1
   134          1
   135         11
   136          2
   137          6
   138          4
   139         14
   140          3
   141          3
   142          1
   143         25
   144         11
   145          1
   147          2
   148          1
   149         11
   150          1
   151          3
   152          4
   153          9
   154          2
   155          1
   157         56
   158         13
   159          2
   163          5
   165          3
   166          2
   167          5
   168          2
   169          1
   171        106
   172         13
   173          1
   177          2
   181          3
   185         33
   186          6
   187          1
   191          2
   192          1
   193          1
   194          4
   195          3
   196          1
   199         30
   200          5
   201          1
   209          1
   212          1
   213         72
   214         11
   215          1
   219          6
   220          2
   221          2
   223          1
   225          1
   227         32
   228          5
   229          1
   236          6
   237          9
   238          4
   239        192
   240         32
   241         11
   242          2
   254          1
   255         32
   256         43
   257        180
   258         31
   259          3
   269          6
   270          1
   298         76
   299         13
   300          1