##TITLE=Library Entry 95143
##JCAMP-DX=Revision 4.10 
##DATA TYPE=MASS SPECTRUM
##SAMPLE DESCRIPTION=NIST Mass Spectrometry Data Center, 1994
##NAMES=HP
##CAS NAME=3-Diethylamino-1-phenylpropyne
##MOLFORM=C13H17N
##CAS REGISTRY NO=22396-72-1
##MP= -300
##BP= -300
##MW= 187
##$RETENTION INDEX=0
##$CONDENSED SPECTRUM=NO
##NPOINTS= 88
##XYDATA=(XY..XY) 1 
    14          1
    15         18
    17          0
    18          8
    26         10
    27         74
    28        102
    29        109
    30         28
    37          3
    38          5
    39         42
    40          5
    41         19
    42         67
    43          5
    44         13
    49          1
    50         21
    51         30
    52          8
    53          3
    54         11
    55          6
    56         55
    57         14
    58         10
    61          4
    62         23
    63         74
    64         10
    65         42
    66          3
    68          2
    70         12
    71          5
    72          6
    74         15
    75         22
    76         12
    77         22
    78          4
    80          1
    82          3
    84          2
    85          3
    86         25
    87         17
    88         20
    89         94
    90          7
    91         15
    98          2
   100          1
   101          4
   102         11
   103         14
   104         14
   105          3
   110          6
   111          1
   113         22
   115        999
   116        112
   117         16
   118          1
   127          6
   128         11
   129          7
   130          6
   131          2
   132         10
   141          1
   142          3
   143         11
   144         17
   145          2
   156          4
   157          3
   158          8
   170          2
   172        302
   173         40
   174          2
   184          1
   186         22
   187         54
   188          8