##TITLE=Library Entry 78017
##JCAMP-DX=Revision 4.10 
##DATA TYPE=MASS SPECTRUM
##SAMPLE DESCRIPTION=CARL DJERASSI DEPT OF CHEM STANFORD UNIV STANFORD CALIF
 94305
##NAMES=HP
##CAS NAME=2-Indolinol, 1-benzoyl-3-methyl-
##MOLFORM=C16H15NO2
##CAS REGISTRY NO=22397-26-8
##MP= -300
##BP= -300
##MW= 253
##$RETENTION INDEX=0
##$CONDENSED SPECTRUM=NO
##NPOINTS= 43
##XYDATA=(XY..XY) 1 
    39         60
    40         10
    41        140
    42         60
    43        560
    44         70
    45         70
    47         50
    51        100
    55        110
    57        120
    58        230
    59         20
    67         40
    69        230
    70         40
    71         60
    77        500
    78         40
    81        120
    83        190
    85        110
    91         50
    93         40
    94         40
    95         60
    97         40
   105        999
   106        120
   109         50
   120         40
   121         40
   122         40
   123         40
   130         60
   131        100
   136         40
   137         50
   150         50
   177         50
   235        300
   236         60
   253        170