##TITLE=Library Entry 7093
##JCAMP-DX=Revision 4.10 
##DATA TYPE=MASS SPECTRUM
##SAMPLE DESCRIPTION=R.T.HOLMAN,UNIVERSITY OF MINNESOTA
##NAMES=HP
##CAS NAME=Myristic acid, 9-hexadecenyl ester, (Z)-
##MOLFORM=C30H58O2
##CAS REGISTRY NO=22393-89-1
##MP= -300
##BP= -300
##MW= 450
##$RETENTION INDEX=3130
##$CONDENSED SPECTRUM=NO
##NPOINTS= 193
##XYDATA=(XY..XY) 1 
    26          8
    27        140
    28         54
    29        330
    30         10
    31          7
    32          9
    38          7
    39        100
    40         31
    41        760
    42        260
    43        999
    44         40
    45         11
    50          5
    51          9
    52          8
    53         66
    54        230
    55        920
    56        290
    57        500
    58         27
    59         11
    60         85
    61         40
    62          4
    63          5
    65         16
    66         29
    67        320
    68        200
    69        550
    70        160
    71        180
    72         13
    73         67
    74         11
    77         18
    78          8
    79         54
    80         41
    81        280
    82        350
    83        330
    84         61
    85         76
    86          8
    87         22
    88          5
    89          6
    91         13
    92          6
    93         20
    94         22
    95        230
    96        320
    97        210
    98         38
    99         17
   100          6
   101         22
   102          5
   103          6
   104          4
   105          7
   107         12
   108         14
   109        130
   110        170
   111         87
   112         18
   113         12
   114          6
   115         18
   116          6
   117          4
   118          4
   119          6
   121         15
   122         13
   123         70
   124        120
   125         43
   126          9
   127          9
   128          6
   129         18
   130          5
   131          4
   133          6
   135         12
   136          9
   137         50
   138         66
   139         24
   140         11
   141          9
   142          4
   143          8
   147          5
   149          8
   150          6
   151         25
   152         28
   153         15
   154          9
   155          6
   156          4
   157          6
   161          4
   163          5
   164          5
   165         15
   166         32
   167         11
   168          6
   169          5
   171          7
   179         10
   180         20
   181          8
   182          3
   183          3
   185         12
   186          4
   191          7
   192          4
   193         11
   194         29
   195          7
   196          3
   197          3
   198          3
   199          5
   207          4
   208          4
   209          7
   210          4
   211        250
   212         40
   213          6
   220          4
   221          4
   222        300
   223         53
   224          9
   225          4
   226          3
   227          5
   228         16
   229        120
   230         17
   231          4
   236          3
   237          3
   238          6
   239          4
   240          3
   255          3
   264          4
   265          3
   266          3
   267          4
   269          3
   279          3
   282          4
   283          3
   284          3
   293          3
   295          3
   323          3
   324          3
   337          3
   350          3
   351          3
   352          3
   366          3
   367          3
   368          3
   369          3
   378          3
   379          3
   380          3
   407          3
   432          3
   438          3
   449          3
   450          6
   451          4
   452          4
   453          3