##TITLE=Library Entry 24712
##JCAMP-DX=Revision 4.10 
##DATA TYPE=MASS SPECTRUM
##SAMPLE DESCRIPTION=R.T.HOLMAN,UNIVERSITY OF MINNESOTA
##NAMES=HP
##CAS NAME=9-Octadecenoic acid (Z)-, tetradecyl ester
##MOLFORM=C32H62O2
##CAS REGISTRY NO=22393-85-7
##MP= -300
##BP= -300
##MW= 478
##$RETENTION INDEX=3321
##$CONDENSED SPECTRUM=NO
##NPOINTS= 344
##XYDATA=(XY..XY) 1 
    25          4
    26         10
    27         57
    28        370
    29        150
    30          9
    31          9
    32         10
    34          3
    35          6
    36         36
    37          6
    38         14
    39         53
    40         16
    41        440
    42        110
    43        820
    44        710
    45         20
    46          6
    47          4
    48          4
    49          4
    50          8
    51         10
    52          7
    53         35
    54        140
    55        890
    56        300
    57        999
    58         51
    59         12
    60         32
    61         29
    62          5
    63          6
    64          8
    65         13
    66         20
    67        200
    68        180
    69        780
    70        290
    71        580
    72         37
    73         67
    74         12
    75          7
    76          5
    77         19
    78         20
    79         51
    80         40
    81        250
    82        230
    83        680
    84        370
    85        370
    86         29
    87         39
    88          8
    89          5
    90          4
    91         32
    92         14
    93         43
    94         52
    95        200
    96        290
    97        610
    98        400
    99        110
   100         31
   101         64
   102         12
   103          7
   104          8
   105         22
   106         10
   107         35
   108         44
   109        120
   110        180
   111        340
   112        140
   113         71
   114         72
   115         61
   116         23
   117         11
   118          8
   119         32
   120         15
   121         50
   122         30
   123        120
   124        100
   125        180
   126         84
   127        105
   128         31
   129         52
   130         12
   131         10
   132          6
   133         36
   134         43
   135         55
   136         23
   137         94
   138         86
   139        103
   140         55
   141         51
   142         20
   143         33
   144          9
   145         10
   146          6
   147         34
   148         38
   149         36
   150         23
   151         89
   152        110
   153         70
   154         40
   155         39
   156         13
   157         25
   158          8
   159          6
   160          4
   161         27
   162         14
   163         27
   164         23
   165         79
   166         91
   167         55
   168         44
   169         45
   170         13
   171         22
   172         11
   173          6
   174          4
   175         20
   176         10
   177         15
   178         12
   179         57
   180        150
   181         59
   182         22
   183         34
   184         12
   185         27
   186         20
   187          7
   188          4
   189         13
   190          7
   191          9
   192          8
   193         39
   194         42
   195         26
   196         66
   197         32
   198         10
   199         24
   200         14
   201          8
   202          3
   203          7
   204          6
   205          7
   206          6
   207         37
   208         33
   209         19
   210         15
   211         15
   212          8
   213         14
   214          9
   215          5
   216          3
   217          5
   218          5
   219          7
   220         83
   221         56
   222        150
   223         43
   224         11
   225         12
   226          7
   227          9
   228          5
   229          6
   230          4
   231          4
   232          3
   233          4
   234          5
   235         28
   236         26
   237         11
   238         11
   239         16
   240          7
   241         24
   242          7
   243          4
   244          4
   245         28
   246         59
   247         31
   248         10
   249          8
   250          5
   251          5
   252          5
   253          7
   254          7
   255          4
   256          6
   257         10
   258          5
   259          4
   260          3
   261          4
   262         13
   263         59
   264        780
   265        270
   266         42
   267          9
   268          4
   269         13
   270          5
   271          3
   272          3
   273          3
   274          3
   275          3
   276          3
   277          3
   278          5
   279          8
   280         29
   281         17
   282         47
   283        110
   284         25
   285         10
   286          4
   287          3
   290          3
   291          3
   292          3
   293          4
   294          5
   295          3
   296          6
   297          5
   298          3
   305          3
   306          3
   307          3
   308          3
   309          7
   310          5
   311          4
   312          3
   313          3
   319          3
   320          3
   321          3
   322          3
   323         20
   324          9
   325          6
   326          3
   327          3
   333          4
   334          3
   335          3
   336          3
   337          4
   338          4
   339          3
   340          3
   347          3
   348          3
   349          3
   351          4
   352          4
   353          3
   354          3
   365          3
   366          3
   367          3
   368          3
   379          3
   380          3
   381          4
   382          4
   383          3
   392          3
   393          3
   394          3
   395          3
   396          5
   397          3
   404          3
   405          3
   406          3
   407          3
   408          3
   409          3
   410          4
   411          3
   421          3
   422          3
   423          3
   435          4
   436          3
   449          3
   452          3
   460          4
   461          3
   469          3
   470          3
   476          4
   477          4
   478         35
   479         15
   480          6
   481          4