##TITLE=Library Entry 51596
##JCAMP-DX=Revision 4.10 
##DATA TYPE=MASS SPECTRUM
##SAMPLE DESCRIPTION=R.T.HOLMAN,UNIVERSITY OF MINNESOTA
##NAMES=HP
##CAS NAME=Eicosanoic acid, 9-octadecenyl ester, (Z)-
##MOLFORM=C38H74O2
##CAS REGISTRY NO=22393-96-0
##MP= -300
##BP= -300
##MW= 562
##$RETENTION INDEX=3922
##$CONDENSED SPECTRUM=NO
##NPOINTS= 371
##XYDATA=(XY..XY) 1 
    26          7
    27         35
    28         58
    29         87
    30          5
    31          5
    32         10
    33          3
    34          2
    36          4
    38          5
    39         37
    40         10
    41        300
    42         78
    43        580
    44         28
    45          8
    46          2
    50          5
    51          6
    52          4
    53         25
    54        210
    55        740
    56        170
    57        630
    58         35
    59         10
    60         54
    61         33
    62          8
    63          5
    64         34
    65         10
    66         59
    67        420
    68        370
    69        700
    70        140
    71        340
    72         19
    73         86
    74         13
    75          7
    76          8
    77         16
    78         10
    79         54
    80         72
    81        460
    82        999
    83        740
    84        120
    85        200
    86         16
    87         23
    88          4
    89          5
    90          2
    91         18
    92          9
    93         38
    94         49
    95        490
    96        999
    97        570
    98        110
    99         45
   100          8
   101         27
   102          6
   103          5
   104          5
   105          9
   106          6
   107         21
   108         27
   109        330
   110        490
   111        260
   112         51
   113         26
   114          9
   115         33
   116          9
   117          6
   118          3
   119          6
   120          4
   121         26
   122         32
   123        240
   124        330
   125        130
   126         25
   127         17
   128          8
   129         40
   130          6
   131          6
   132          3
   133          5
   134          3
   135         25
   136         24
   137        170
   138        230
   139         62
   140         15
   141         16
   142          7
   143         11
   144          3
   145          5
   146          2
   147          4
   148          3
   149         21
   150         14
   151         73
   152        130
   153         38
   154         15
   155         10
   156          4
   157          9
   158          3
   159          3
   160          2
   161          3
   162          2
   163          8
   164          6
   165         38
   166         85
   167         29
   168         24
   169          9
   170          4
   171         11
   172          5
   173          6
   174          4
   175          3
   176          2
   177          5
   178          5
   179         26
   180         65
   181         22
   182         12
   183          7
   184          2
   185         13
   186          3
   187          2
   188          1
   189          2
   190          1
   191          4
   192          4
   193         34
   194         73
   195         18
   196          8
   197          7
   198          4
   199          6
   200          3
   201          8
   202          3
   203          2
   204          1
   205          4
   206          3
   207         23
   208         55
   209         15
   210          5
   211          4
   212          2
   213          9
   214          3
   215          3
   216          2
   217          3
   218          4
   219          9
   220          5
   221         22
   222         89
   223         20
   224          6
   225          3
   226          2
   227          6
   228          2
   229          4
   230          2
   231          2
   232          1
   233          2
   234          2
   235          5
   236          3
   237          4
   238          3
   239          3
   240          2
   241          5
   242          2
   243          2
   244          2
   245          2
   246          2
   247          3
   248         15
   249         16
   250        890
   251        190
   252         22
   253          4
   254          2
   255          3
   256          2
   257          3
   258          2
   259          1
   260          1
   262          2
   263          2
   264          3
   265          5
   266         18
   267         11
   268          3
   269         16
   270          4
   271          2
   272          1
   273          1
   274          2
   275          4
   276          3
   277          4
   278          3
   279          3
   280          2
   281          2
   282          1
   283          4
   284          3
   285          2
   286          1
   287          1
   288          1
   290          1
   291          2
   292         16
   293         14
   294          6
   295        160
   296         36
   297          6
   298          1
   299          2
   300          1
   301          1
   302          1
   303          1
   304          1
   305          1
   306          1
   307          1
   308          1
   309          2
   310          8
   311         12
   312         36
   313        330
   314         72
   315         12
   316          2
   319          1
   320          1
   321          1
   322          2
   323          3
   324          1
   325          1
   326          1
   327          1
   335          1
   336          1
   337          2
   338          1
   339          2
   340          1
   341          1
   349          1
   350          1
   351          2
   352          2
   353          2
   361          1
   363          2
   364          2
   365          2
   366          1
   367          1
   368          1
   377          2
   378          2
   379          2
   380          1
   381          1
   390          1
   391          2
   392          2
   393          2
   394          2
   395          1
   404          2
   405          2
   406          3
   407          2
   419          2
   420          2
   421          2
   422          2
   423          1
   424          2
   425          1
   433          2
   434          1
   435          2
   436          2
   437          1
   447          2
   448          1
   449          2
   450          2
   451          1
   452          1
   461          1
   462          1
   463          2
   464          1
   465          1
   469          1
   475          2
   476          2
   477          2
   478          2
   479          1
   489          1
   490          1
   491          1
   492          1
   493          1
   505          1
   506          1
   519          1
   533          1
   544          2
   560          2
   562         10
   563          5
   564          3
   565          1