##TITLE=Library Entry 61699
##JCAMP-DX=Revision 4.10 
##DATA TYPE=MASS SPECTRUM
##SAMPLE DESCRIPTION=J.W.CLARK-LEWIS FLINDERS UNIV., BEDFORD PARK, S. AUSTRA
LIA
##NAMES=HP
##CAS NAME=[2]Benzopyrano[4,3-b][1]benzopyran-6a(7H)-ol, 5,12a-dihydro-
##MOLFORM=C16H14O3
##CAS REGISTRY NO=22396-09-4
##MP= -300
##BP= -300
##MW= 254
##$RETENTION INDEX=0
##$CONDENSED SPECTRUM=NO
##NPOINTS= 57
##XYDATA=(XY..XY) 1 
    39        420
    41        130
    50        150
    51        300
    52        200
    63        280
    64        100
    65        420
    76        170
    77        640
    78        340
    79        190
    89        330
    90        270
    91        999
    92        150
   102        100
   103        620
   104        220
   105        140
   106         25
   107        430
   108         50
   115        100
   116         70
   117        100
   118        300
   119        900
   120        555
   121         75
   147        160
   148        420
   149         50
   165        135
   166         50
   167         70
   177         55
   178        170
   179        385
   180        150
   191        170
   192         40
   193         50
   194        170
   195        475
   196         70
   207        230
   208        385
   209         90
   218        175
   219        100
   220         25
   235        200
   236        460
   237         90
   254        880
   255        145