##TITLE=Library Entry 41300
##JCAMP-DX=Revision 4.10 
##DATA TYPE=MASS SPECTRUM
##SAMPLE DESCRIPTION=Exported from NIST MS Search
##NAMES=HP
##CAS NAME=Monomethyl octadecanedioate, TMS derivative
##MOLFORM=C22H44O4Si
##CAS REGISTRY NO=22396-28-7
##MP= -300
##BP= -300
##MW= 400
##$RETENTION INDEX=0
##$CONDENSED SPECTRUM=NO
##NPOINTS= 159
##XYDATA=(XY..XY) 1 
    51         10
    53         20
    54         30
    55        550
    56         80
    57        150
    58         40
    59        150
    60         20
    61         50
    63         10
    67        120
    68         40
    69        270
    70         40
    71         50
    72         40
    73        999
    74        320
    75        940
    76         70
    77        100
    78         10
    79         30
    80         20
    81        120
    82         40
    83        160
    84        150
    85         30
    86         10
    87        120
    88         20
    89         50
    91         20
    93         40
    94         20
    95        120
    96         30
    97        120
    98        450
    99         50
   100         10
   101         20
   103         10
   105         50
   106         10
   107         30
   108         20
   109         50
   110         20
   111         50
   112        100
   113         20
   115         20
   116         70
   117        550
   118         60
   119         30
   121         30
   122         10
   123         20
   124         10
   125         20
   126         30
   127         10
   128         10
   129        220
   130         40
   131         60
   132        210
   133        200
   134         30
   135         30
   136         10
   137         10
   138         10
   139         10
   140         20
   141         10
   143         20
   144         10
   145        100
   146        250
   147         50
   148         20
   149         20
   150         10
   151         10
   152         10
   153         10
   154         30
   155         20
   156         10
   157         10
   158         10
   159        180
   160         30
   161         20
   163         20
   168         20
   169         30
   170         30
   171         20
   172         10
   173         10
   181         10
   182         10
   183         10
   184         10
   185         10
   186         10
   187         10
   188         10
   195         10
   196         20
   197         10
   199         10
   201         10
   202         10
   207         10
   213         10
   215         10
   227         10
   229         10
   236         10
   237         10
   241         10
   243         10
   254         10
   255         10
   257         10
   269         10
   271         10
   278         20
   297         50
   298         10
   299         10
   308         10
   309         10
   310         10
   311         20
   312         10
   313         10
   325         20
   327         30
   328         10
   335         50
   336         10
   340         30
   341         40
   342         10
   351         10
   352         10
   369         30
   385        150
   386         50
   387         10
   400         10