##TITLE=Library Entry 71174
##JCAMP-DX=Revision 4.10 
##DATA TYPE=MASS SPECTRUM
##SAMPLE DESCRIPTION=R. RYHAGE KAROLINSKA INSTITUTET, STOCKHOLM
##NAMES=HP
##CAS NAME=Docosanedioic acid, dimethyl ester
##MOLFORM=C24H46O4
##CAS REGISTRY NO=22399-98-0
##MP= -300
##BP= -300
##MW= 398
##$RETENTION INDEX=0
##$CONDENSED SPECTRUM=NO
##NPOINTS= 331
##XYDATA=(XY..XY) 1 
    12          4
    14          3
    15         33
    16         14
    17         87
    18        390
    19          4
    20         12
    21          3
    22          2
    26          4
    27         26
    28         71
    29         89
    30         14
    31         88
    32         60
    33          3
    34          3
    35          2
    36          2
    37          2
    38          3
    39         37
    40          8
    41        250
    42         54
    43        310
    44        380
    45         25
    46          7
    47          2
    48         11
    49          9
    50         12
    51          9
    52          8
    53         26
    54         40
    55        530
    56         90
    57        240
    58         26
    59        170
    60         11
    61         14
    62          4
    65          9
    66          7
    67        130
    68         68
    69        440
    70         82
    71        150
    72         14
    73         56
    74        880
    75        120
    76         16
    77         28
    78         34
    79         48
    80         43
    81        190
    82         94
    83        340
    84        400
    85        120
    86         11
    87        500
    88         57
    89          8
    90          4
    91         25
    92          6
    93         43
    94         66
    95        150
    96        130
    97        270
    98        999
    99        110
   100         34
   101         91
   102         14
   103          5
   104         10
   105         19
   106          7
   107         40
   108         48
   109        110
   110         54
   111        170
   112        320
   113         52
   114         18
   115         48
   116         22
   117          9
   118          4
   119         15
   120          9
   121         76
   122         33
   123         65
   124         35
   125         99
   126         87
   127         29
   128         19
   129         54
   130         32
   131          9
   132          3
   133         15
   134         10
   135         61
   136         23
   137         44
   138         29
   139         60
   140         69
   141         28
   142         19
   143         65
   144         39
   145          7
   146          3
   147         11
   148         10
   149         23
   150         10
   151         24
   152         28
   153         39
   154         99
   155         21
   156          8
   157         27
   158         44
   159          8
   160          2
   161          8
   162          5
   163         25
   164         10
   165         16
   166         17
   167         28
   168         53
   169         14
   170          5
   171         28
   172         34
   173          6
   175          6
   176          3
   177         17
   178          9
   179         12
   180         12
   181         22
   182         34
   183         12
   184          4
   185         26
   186         16
   187          4
   189          5
   190          3
   191         15
   192         10
   193         10
   194         14
   195         21
   196         35
   197         11
   198         16
   199         24
   200         27
   201         14
   202         28
   204          8
   205         13
   206         10
   207         10
   208         17
   209         22
   210         39
   211         12
   212          3
   213         18
   214         14
   215          4
   217          3
   218          3
   219         10
   220          8
   221         10
   222         14
   223         21
   224         33
   225         10
   226          3
   227         20
   228         15
   229          3
   231          2
   232          3
   233         10
   234          7
   235         10
   236         16
   237         23
   238         34
   239         15
   240          5
   241         18
   242         13
   243          3
   244          2
   245          3
   246          2
   247          5
   248          8
   249         10
   250         27
   251         28
   252         60
   253         15
   254          5
   255         14
   256         10
   257          3
   259          2
   260          2
   261          4
   262          7
   263         10
   264         13
   265         11
   266         10
   267          6
   268         12
   269         19
   270         17
   271          4
   272          2
   273          3
   274          8
   275         34
   276          8
   277          7
   278          9
   279          8
   280          5
   281          5
   282         15
   283         27
   284          9
   285          3
   287          3
   288          6
   289          8
   290          4
   291         10
   292         94
   293        120
   294         25
   295          8
   296          3
   297          6
   298          7
   299          3
   300          2
   302          2
   304          2
   305          8
   306         58
   307         28
   308          7
   309          4
   310         35
   311         14
   312         26
   313          8
   314          2
   315          5
   316         14
   317          7
   318          2
   319          2
   320          3
   322          4
   323         10
   324         37
   325        200
   326         50
   327          6
   331          3
   332          2
   333         15
   334         82
   335         33
   336          7
   337          2
   338         10
   339          7
   340         13
   341          4
   343          2
   348         11
   349          3
   353          3
   354          2
   355          4
   364          2
   365          6
   366        140
   367        260
   368         60
   369         10
   370          2
   373          8
   374          2
   375          3
   396          2
   398         29
   399          7
   400          2