##TITLE=Library Entry 20276
##JCAMP-DX=Revision 4.10 
##DATA TYPE=MASS SPECTRUM
##SAMPLE DESCRIPTION=R.T.HOLMAN,UNIVERSITY OF MINNESOTA
##NAMES=HP
##CAS NAME=9-Hexadecenoic acid, 9-octadecenyl ester, (Z,Z)-
##MOLFORM=C34H64O2
##CAS REGISTRY NO=22393-98-2
##MP= -300
##BP= -300
##MW= 504
##$RETENTION INDEX=3503
##$CONDENSED SPECTRUM=NO
##NPOINTS= 361
##XYDATA=(XY..XY) 1 
    26         11
    27         45
    28        150
    29        101
    30          6
    31          6
    32         33
    33          5
    34          5
    36          7
    37          8
    38          9
    39         57
    40         20
    41        390
    42         98
    43        440
    44         43
    45         10
    50          9
    51         11
    52          8
    53         45
    54        250
    55        999
    56        210
    57        460
    58         25
    59         10
    60         22
    61         12
    62          7
    63          8
    64         72
    65         16
    66         48
    67        470
    68        310
    69        900
    70        170
    71        240
    72         16
    73         46
    74         10
    75          6
    76          7
    77         26
    78         16
    79         81
    80         80
    81        480
    82        620
    83        800
    84        180
    85        160
    86         15
    87         24
    88          5
    89          5
    90          4
    91         34
    92         13
    93         54
    94         57
    95        450
    96        580
    97        630
    98        180
    99         48
   100         17
   101         40
   102          8
   103          5
   104          6
   105         21
   106          9
   107         38
   108         40
   109        270
   110        310
   111        310
   112         74
   113         40
   114         34
   115         41
   116         11
   117         10
   118          7
   119         21
   120         11
   121         62
   122         41
   123        200
   124        210
   125        140
   126         39
   127         41
   128         17
   129         33
   130          9
   131         11
   132          6
   133         21
   134         14
   135         56
   136         41
   137        140
   138        140
   139         73
   140         25
   141         34
   142         34
   143         20
   144          5
   145          9
   146          4
   147         20
   148         12
   149         42
   150         36
   151         83
   152        120
   153         55
   154         20
   155         22
   156         10
   157         17
   158          8
   159          7
   160          4
   161         14
   162          6
   163         19
   164         17
   165         54
   166         56
   167         36
   168         19
   169         15
   170          7
   171         16
   172          6
   173          5
   174          4
   175          9
   176          5
   177         12
   178         11
   179         36
   180         37
   181         22
   182         14
   183         12
   184          5
   185         15
   186          6
   187          3
   188          3
   189          6
   190          6
   191         11
   192         53
   193         43
   194         67
   195         24
   196         13
   197          8
   198          6
   199          8
   200          7
   201         23
   202          8
   203          7
   204          4
   205          6
   206         12
   207         22
   208         25
   209         14
   210         10
   211          8
   212          4
   213          5
   214          3
   215          4
   216          4
   217         23
   218         18
   219         42
   220         21
   221         18
   222         35
   223         11
   224          9
   225          6
   226          5
   227          4
   228          4
   229          8
   230          4
   231          4
   232          3
   233          6
   234         60
   235         43
   236        140
   237        170
   238         34
   239         18
   240          5
   241          4
   242          3
   243          4
   244          3
   245          4
   246          4
   247          6
   248         60
   249         26
   250        180
   251         67
   252         37
   253         13
   254         13
   255         63
   256         14
   257         14
   258          4
   259          3
   260          2
   261          3
   262          4
   263          6
   264         10
   265         18
   266         14
   267          8
   268          5
   269          5
   270          3
   271          1
   272          1
   273          1
   274          1
   275          3
   276          3
   277          5
   278          4
   279          7
   280          7
   281          6
   282          4
   283          4
   284          4
   285          6
   286          2
   287          2
   288          2
   289          2
   290          2
   291          4
   292          4
   293          6
   294          6
   295          6
   296          3
   297          2
   298          2
   299          2
   300          2
   303          3
   304          3
   305          4
   306          4
   307          6
   308          7
   309          4
   310          4
   311          3
   312          3
   313          4
   314          3
   319          4
   320          4
   321          5
   322          6
   323          4
   324          3
   325          3
   326          3
   331          3
   332          3
   333          4
   334          4
   335          6
   336          6
   337          4
   338          3
   339          3
   341          3
   345          3
   346          4
   347          4
   348          4
   349          6
   350          6
   351          5
   352          4
   353          3
   359          3
   360          3
   361          4
   362          3
   363          7
   364          9
   365          5
   374          4
   375          4
   377          9
   378         12
   379          6
   380          4
   389          4
   390          4
   391          8
   392         12
   393          6
   394          3
   401          3
   403          4
   405          9
   406         12
   407          6
   417          4
   419          7
   420         11
   421          5
   422          3
   424          4
   425          3
   430          3
   431          3
   433          6
   434          8
   435          4
   436          3
   447          6
   448          6
   449          4
   461          5
   462          5
   463          4
   469          3
   475          4
   485          3
   502          6
   503          7
   504         51
   505         23
   506          8
   507          4