##TITLE=Library Entry 41507
##JCAMP-DX=Revision 4.10 
##DATA TYPE=MASS SPECTRUM
##SAMPLE DESCRIPTION=Exported from NIST MS Search
##NAMES=HP
##CAS NAME=Octadecanedioic acid, 2TMS derivative
##MOLFORM=C24H50O4Si2
##CAS REGISTRY NO=22396-20-9
##MP= -300
##BP= -300
##MW= 458
##$RETENTION INDEX=0
##$CONDENSED SPECTRUM=NO
##NPOINTS= 188
##XYDATA=(XY..XY) 1 
    51         10
    52         10
    53         10
    54         10
    55        200
    56         30
    57         70
    58         20
    59         30
    60         10
    61         50
    67         70
    68         20
    69        150
    70         20
    71         30
    72         50
    73        999
    74        100
    75        800
    76         70
    77         60
    78         10
    79         40
    80         10
    81        100
    82         10
    83        110
    84         30
    85         20
    86         10
    87         10
    89         30
    91         20
    93         30
    94         10
    95        100
    96         20
    97         80
    98         70
    99         20
   101         10
   103         10
   105         20
   107         30
   108         10
   109         50
   110         10
   111         40
   112         40
   113         10
   115         10
   116         70
   117        300
   118         40
   119         20
   121         40
   122         10
   123         30
   124         10
   125         20
   126         20
   129        320
   130         50
   131         80
   132         70
   133         50
   134         10
   135         30
   136         10
   137         20
   139         10
   140         20
   143         40
   144         10
   145         70
   146         10
   147        120
   148         20
   149         60
   150         10
   151         10
   153         10
   154         20
   155         10
   156         30
   157         20
   159         20
   161         10
   163         10
   168         10
   169         10
   170         80
   171         40
   172         10
   173         20
   174         10
   181         10
   182         20
   183         10
   184         40
   185         40
   186         10
   187         10
   188         10
   189         10
   196         20
   197         10
   198         10
   199         20
   201         20
   202         10
   203         20
   204        630
   205        140
   206         70
   207         20
   212         10
   213         10
   214         20
   215         10
   216         10
   217        350
   218         80
   219         50
   220         10
   226         10
   227         10
   229         10
   230         10
   231         20
   232         10
   233         10
   237         30
   241         20
   243         20
   244         10
   250         10
   251         10
   253         10
   255         30
   256         10
   257         20
   258         10
   259         20
   269         20
   271         50
   272         10
   273         10
   277         10
   278         20
   279         10
   283         10
   285         10
   287         10
   297         40
   298         10
   301         10
   309         10
   311         50
   312         10
   313         10
   314         20
   315         10
   325         40
   326         40
   327        230
   328         70
   329         30
   335         30
   343         10
   352         10
   357         10
   368         10
   369         10
   371         10
   399         50
   414         10
   427         30
   428         20
   429         10
   443        500
   444        180
   445         70
   446         20
   458         50
   459         20
   460         10