##TITLE=Library Entry 27387
##JCAMP-DX=Revision 4.10 
##DATA TYPE=MASS SPECTRUM
##SAMPLE DESCRIPTION=R.T.HOLMAN,UNIVERSITY OF MINNESOTA
##NAMES=HP
##CAS NAME=9-Hexadecenoic acid, octadecyl ester, (Z)-
##MOLFORM=C34H66O2
##CAS REGISTRY NO=22393-84-6
##MP= -300
##BP= -300
##MW= 506
##$RETENTION INDEX=3529
##$CONDENSED SPECTRUM=NO
##NPOINTS= 330
##XYDATA=(XY..XY) 1 
    26          7
    27         32
    28         18
    29        101
    30          5
    31          4
    32          2
    37          4
    38          4
    39         36
    40         12
    41        370
    42        102
    43        780
    44         32
    45         10
    50          5
    51          5
    52          4
    53         31
    54        140
    55        920
    56        270
    57        999
    58         48
    59         10
    60         25
    61         25
    62          6
    63          6
    64          9
    65         10
    66         17
    67        220
    68        180
    69        900
    70        280
    71        640
    72         36
    73         77
    74          9
    75          5
    76          4
    77         11
    78          7
    79         41
    80         34
    81        240
    82        230
    83        790
    84        460
    85        460
    86         34
    87         45
    88          7
    89          2
    90          1
    91         14
    92          6
    93         33
    94         43
    95        200
    96        340
    97        690
    98        490
    99        150
   100         50
   101         88
   102         13
   103          4
   104          2
   105         10
   106          5
   107         29
   108         37
   109        130
   110        210
   111        390
   112        170
   113         97
   114        120
   115         74
   116         25
   117          8
   118          5
   119         27
   120         12
   121         45
   122         29
   123        160
   124        120
   125        200
   126         94
   127        140
   128         39
   129         63
   130         12
   131          7
   132          4
   133         34
   134         34
   135         51
   136         30
   137        130
   138        140
   139        130
   140         60
   141         76
   142         19
   143         34
   144         11
   145          5
   146          3
   147         34
   148         28
   149         34
   150         20
   151        120
   152        260
   153        130
   154         44
   155         59
   156         16
   157         34
   158         24
   159          7
   160          3
   161         23
   162          9
   163         17
   164          9
   165         83
   166         50
   167         46
   168         23
   169         34
   170         10
   171         33
   172         17
   173          6
   174          1
   175         13
   176          6
   177          9
   178          7
   179         54
   180         27
   181         29
   182         25
   183         26
   184          9
   185         18
   186         11
   187          5
   188          2
   189          6
   190          3
   191          7
   192        140
   193         79
   194        240
   195         63
   196         16
   197         16
   198          8
   199         12
   200          7
   201         12
   205          3
   206          3
   207         29
   208         33
   209         14
   210          7
   211         19
   212          7
   213          7
   214          2
   215          1
   216          1
   217         43
   218         70
   219         53
   220         22
   221         13
   222          6
   223          5
   224         15
   225         10
   226          8
   227          3
   228          2
   229          2
   230          1
   233          3
   234          9
   235         90
   236        930
   237        340
   238         51
   239         11
   240          3
   241          2
   242          2
   243          6
   244          2
   245          1
   247          1
   248          1
   249          2
   250         13
   251          9
   252         74
   253         38
   254         69
   255        150
   256         31
   257         27
   258          5
   259          1
   263          1
   264          1
   265          2
   266          3
   267          3
   268          4
   269          4
   270          1
   277          1
   278          2
   279          3
   280          2
   281          3
   282          3
   283          2
   284          1
   285          1
   291          1
   292          2
   293          2
   294          4
   295          5
   296          3
   297         20
   298          5
   299          1
   305          3
   306          2
   307          3
   308          2
   309          2
   310          3
   311          1
   312          3
   313          2
   314          1
   319          1
   320          1
   321          1
   322          2
   323          3
   324          2
   325          7
   326          3
   335          2
   336          2
   337          2
   338          1
   339          1
   348          1
   349          3
   350          3
   351          2
   352          1
   353          2
   354          1
   361          1
   362          1
   363          1
   364          1
   365          3
   366          2
   367          2
   368          1
   379         10
   380          4
   381          3
   382          2
   389          1
   390          1
   391          1
   392          1
   393          2
   394          1
   395          2
   396          1
   404          1
   407          3
   408          2
   409          2
   410          3
   411          1
   417          1
   418          1
   421          2
   422          2
   423          2
   424          4
   425          2
   426          1
   435          2
   436          1
   437          1
   438          3
   439          1
   449          1
   451          1
   452          1
   463          3
   464          2
   477          2
   478          1
   488          2
   489          1
   494          1
   504          2
   506         28
   507         13
   508          5
   509          2