##TITLE=Library Entry 42910
##JCAMP-DX=Revision 4.10 
##DATA TYPE=MASS SPECTRUM
##SAMPLE DESCRIPTION=Exported from NIST MS Search
##NAMES=HP
##CAS NAME=1,10-Decanedithiol, 2TMS derivative
##MOLFORM=C16H38S2Si2
##CAS REGISTRY NO=22396-25-4
##MP= -300
##BP= -300
##MW= 350
##$RETENTION INDEX=0
##$CONDENSED SPECTRUM=NO
##NPOINTS= 70
##XYDATA=(XY..XY) 1 
    54         20
    55        100
    56         10
    57         10
    58         10
    59         50
    67         50
    68         50
    69         50
    72         10
    73        999
    74         90
    75         50
    77         30
    81         50
    82         50
    83         40
    87         30
    90         30
    91        180
    92         20
    93         20
    95         50
    96         40
    97         20
    99         20
   101         20
   105         20
   106         20
   107         20
   109         10
   110         20
   115         20
   117         20
   119         30
   131         20
   133         20
   138         70
   139         20
   160         20
   161         10
   163        330
   164         50
   165         40
   171         20
   172         10
   178        100
   179         50
   180         20
   210         10
   213         10
   229         40
   230         10
   244         20
   245        150
   246         30
   247         50
   248         10
   261         10
   275         10
   289         10
   303         10
   317         40
   318         10
   335         50
   336         20
   337         20
   350         80
   351         30
   352         20