##TITLE=Library Entry 67323
##JCAMP-DX=Revision 4.10 
##DATA TYPE=MASS SPECTRUM
##SAMPLE DESCRIPTION=NIST Mass Spectrometry Data Center
##NAMES=HP
##CAS NAME=Ethyl 3-phenoxypropionate
##MOLFORM=C11H14O3
##CAS REGISTRY NO=22409-91-2
##MP= -300
##BP= -300
##MW= 194
##$RETENTION INDEX=0
##$CONDENSED SPECTRUM=NO
##NPOINTS= 86
##XYDATA=(XY..XY) 1 
    15          8
    19          1
    25          1
    26         25
    27        150
    29        377
    30         12
    31         42
    37          9
    38         36
    39        231
    40         35
    41         26
    42         18
    43         56
    44          8
    45         87
    46          3
    47          3
    49          2
    50         47
    51        167
    52         14
    53         16
    54          8
    55        280
    56         25
    57          7
    58          4
    59        176
    60         34
    62         17
    63         65
    64         32
    65        334
    66        170
    67         12
    68          3
    69          1
    70          1
    71         13
    73        720
    74         45
    76         18
    77        394
    78         42
    79         84
    80          5
    81          1
    82          4
    83          1
    85          3
    88          1
    89          2
    91         45
    92         14
    93         51
    94        999
    95        108
    96          6
    99          8
   101        835
   102         47
   103         14
   104          1
   105          6
   106          3
   107        320
   108         24
   109          1
   119          8
   120         25
   121         53
   122         17
   123         16
   124          1
   131          1
   147          3
   148         20
   149        408
   150         40
   151          4
   166          5
   194        426
   195         51
   196          5