##TITLE=Library Entry 63263
##JCAMP-DX=Revision 4.10 
##DATA TYPE=MASS SPECTRUM
##SAMPLE DESCRIPTION=Japan AIST/NIMC Database- Spectrum MS-NW-1077
##NAMES=HP
##CAS NAME=Dimethylphenylphosphonate
##MOLFORM=C8H11O3P
##CAS REGISTRY NO=2240-41-7
##MP= -300
##BP= -300
##MW= 186
##$RETENTION INDEX=0
##$CONDENSED SPECTRUM=NO
##NPOINTS= 103
##XYDATA=(XY..XY) 1 
    14          4
    15        129
    16          3
    17          2
    18          7
    26          3
    27         32
    28         59
    29         24
    30          8
    31         18
    32         13
    37          5
    38         13
    39         63
    40          4
    41          5
    43          1
    44          4
    45          8
    47        132
    48          6
    49         10
    50        148
    51        444
    52         33
    53          5
    55          2
    56          3
    57          4
    61          2
    62          9
    63         56
    64         12
    65         56
    66          5
    68          3
    69          6
    70          1
    73          5
    74         42
    75         38
    76         52
    77        809
    78        558
    79        306
    80          8
    81          4
    82          1
    83          3
    84          2
    85          1
    86          1
    89          5
    90         16
    91        999
    92        143
    93        167
    94          8
    95         12
    96          8
    97          3
    99          1
   103          1
   104         69
   105         43
   106          5
   107          9
   108         22
   109         61
   110          5
   111          2
   112          2
   113          1
   123          2
   124         26
   125         16
   126         14
   127          4
   137          3
   138          3
   139          8
   140         17
   141        607
   142         46
   143          7
   149          3
   153         61
   154         23
   155        282
   156        410
   157         32
   158          3
   168          7
   169          6
   170          5
   171         28
   172          3
   184          6
   185        860
   186        777
   187         70
   188          8