##TITLE=Library Entry 87599
##JCAMP-DX=Revision 4.10 
##DATA TYPE=MASS SPECTRUM
##SAMPLE DESCRIPTION=NIST Mass Spectrometry Data Center
##NAMES=HP
##CAS NAME=4-Amino-5-bromo-2-hydroxypyrimidine
##MOLFORM=C4H4BrN3O
##CAS REGISTRY NO=2240-25-7
##MP= -300
##BP= -300
##MW= 189
##$RETENTION INDEX=0
##$CONDENSED SPECTRUM=NO
##NPOINTS= 89
##XYDATA=(XY..XY) 1 
    16          4
    17          2
    18          5
    26          5
    27         22
    29         21
    30         11
    31          6
    32          2
    37          4
    38         48
    39         52
    40         90
    41         31
    42         44
    43        104
    44         46
    45          7
    50         10
    51         28
    52         47
    53         74
    54         31
    55         57
    56          8
    62          6
    63         15
    64          9
    65         28
    66         64
    67         86
    68         40
    69         49
    71         10
    74         11
    75         19
    77          7
    79         12
    80         11
    81         17
    82         15
    83         40
    91         23
    92         14
    93         63
    94         18
    95          7
   104         16
   105          4
   106         26
   107          9
   108         13
   109         10
   110        999
   111         64
   112          5
   113         18
   117         13
   118         41
   119         84
   120         56
   121         73
   122         19
   130          5
   132          9
   133         37
   134         11
   135         16
   136          7
   141          7
   143         16
   144         16
   145         25
   146         39
   147         68
   148         36
   149         44
   160         20
   161         25
   163         17
   172          8
   173         13
   175         12
   186          6
   188         14
   189        318
   190         23
   191        291
   192         18