##TITLE=Library Entry 1531
##JCAMP-DX=Revision 4.10 
##DATA TYPE=MASS SPECTRUM
##SAMPLE DESCRIPTION=A. Musjce, AT&T Bell Labs., Murray Hill, N.J., USA
##NAMES=HP
##CAS NAME=3,3,3-Trifluoro-1-propanol
##MOLFORM=C3H5F3O
##CAS REGISTRY NO=2240-88-2
##MP= -300
##BP= -300
##MW= 114
##$RETENTION INDEX=0
##$CONDENSED SPECTRUM=NO
##NPOINTS= 73
##XYDATA=(XY..XY) 1 
    14          7
    15         11
    16          2
    17          4
    18          4
    19          7
    20          1
    21          2
    24          3
    25          7
    26         37
    27         68
    29        215
    31        999
    32         18
    33         38
    34          1
    36          3
    37          5
    38          5
    39          3
    40          2
    41          8
    42         29
    43         63
    44         48
    45        116
    46         24
    47         29
    49         63
    50         23
    51         57
    52          2
    53          3
    54          0
    55          6
    56          9
    57          7
    58          1
    59         15
    60          2
    61          0
    64        467
    65        454
    66         12
    67         17
    69        196
    70          3
    71         10
    72          0
    73         14
    74         10
    75         43
    77         54
    78          3
    79          0
    80          1
    81          1
    82          1
    83         13
    84          4
    85          0
    91         35
    94        348
    95         53
    96          8
    97          3
    98          0
   111          6
   113         15
   114         19
   115          2
   116          0