##TITLE=Library Entry 48562
##JCAMP-DX=Revision 4.10 
##DATA TYPE=MASS SPECTRUM
##SAMPLE DESCRIPTION=Chemical Concepts
##NAMES=HP
##CAS NAME=Borane, diethyl-1-propynyl-
##MOLFORM=C7H13B
##CAS REGISTRY NO=22405-32-9
##MP= -300
##BP= -300
##MW= 108
##$RETENTION INDEX=0
##$CONDENSED SPECTRUM=NO
##NPOINTS= 72
##XYDATA=(XY..XY) 1 
    26         15
    27         42
    28         14
    29         13
    30          0
    31          4
    35          0
    36         13
    37         53
    38         15
    39         34
    40         20
    41         33
    42          1
    43          0
    45          1
    48          2
    49         24
    50        216
    51        765
    52         49
    53         75
    54          5
    55          2
    56          2
    57          8
    58          0
    59          2
    60          3
    61         12
    62          8
    63         26
    64         15
    65         27
    66          5
    67          4
    68          3
    69         11
    70          0
    72          1
    73          6
    74         10
    75          8
    76         13
    77         40
    78        248
    79        999
    80         67
    81          2
    82          0
    83          1
    84          0
    85          1
    86          0
    87          0
    88          0
    89          2
    90          0
    91          1
    92          1
    93          4
    94          0
    95          0
    96          1
    97          2
    98          0
   103          0
   105          0
   107         37
   108        141
   109         11
   110          0