##TITLE=Library Entry 86943
##JCAMP-DX=Revision 4.10 
##DATA TYPE=MASS SPECTRUM
##SAMPLE DESCRIPTION=Chemical Concepts
##NAMES=HP
##CAS NAME=Cyclohexanamine, N-methyl-N-2-propenyl-
##MOLFORM=C10H19N
##CAS REGISTRY NO=22416-98-4
##MP= -300
##BP= -300
##MW= 153
##$RETENTION INDEX=0
##$CONDENSED SPECTRUM=NO
##NPOINTS= 111
##XYDATA=(XY..XY) 1 
    26          0
    27        102
    28         44
    29         74
    30         50
    31          1
    36          0
    37          3
    38          8
    39        144
    40         22
    41        355
    42        414
    43         41
    44        147
    45          4
    47          0
    48          0
    49          0
    50          5
    51         11
    52          8
    53         35
    54         43
    55        158
    56         54
    57         49
    58         18
    59          0
    60          0
    61          0
    62          4
    63          1
    64          0
    65          8
    66          7
    67         35
    68         90
    69         21
    70        140
    71         28
    72         13
    73          3
    74          0
    75          0
    76          0
    77          8
    78          3
    79         15
    80          9
    81         42
    82        229
    83         38
    84         74
    85          6
    86          1
    88          0
    89          0
    90          0
    91          3
    92          1
    93          3
    94         24
    95         22
    96        149
    97        215
    98         18
    99          1
   102          0
   103          0
   106          1
   107          0
   108         19
   109          3
   110        999
   111         80
   112         20
   113          7
   114          0
   117          0
   118          0
   119          0
   120          1
   121          0
   122          3
   123          2
   124         42
   125          6
   126         20
   127          4
   128          0
   130          0
   132          0
   133          0
   134          0
   136          4
   137          1
   138         26
   139          4
   140          0
   142          0
   144          0
   147          0
   148          0
   149          0
   150          1
   151          0
   152         18
   153        145
   154         17
   155          0