##TITLE=Library Entry 40982
##JCAMP-DX=Revision 4.10 
##DATA TYPE=MASS SPECTRUM
##SAMPLE DESCRIPTION=Chemical Concepts
##NAMES=HP
##CAS NAME=.alpha.-d-Lyxofuranoside, methyl
##MOLFORM=C6H12O5
##CAS REGISTRY NO=22416-73-5
##MP= -300
##BP= -300
##MW= 164
##$RETENTION INDEX=0
##$CONDENSED SPECTRUM=NO
##NPOINTS= 98
##XYDATA=(XY..XY) 1 
    25          1
    26         13
    27         77
    29        157
    30         26
    31        195
    33        120
    34          1
    36          0
    37          1
    38          2
    39         24
    41         49
    42         43
    43        161
    44         57
    45        366
    46          7
    47         10
    49          1
    50          0
    51          1
    52          0
    53          2
    54         27
    55         76
    56         43
    57        433
    58         87
    59         61
    60         87
    61        213
    62          4
    63          1
    66          0
    67          1
    68         80
    69         40
    70          3
    71        109
    72         45
    73        999
    74        177
    75        168
    76          8
    77          1
    79          3
    80          0
    81          1
    82          0
    83          9
    84          3
    85        101
    86        170
    87        125
    88          7
    89          6
    90          0
    91          2
    93          1
    95          0
    96          1
    97          8
    98          1
    99          2
   100          2
   101         11
   102          8
   103         37
   104         42
   105         19
   106          1
   107          0
   109          0
   110          0
   111          1
   112          0
   113          1
   114          6
   115         40
   116         23
   117         15
   118          0
   127          0
   128          0
   129          4
   130          0
   131          0
   132          1
   133        153
   134          9
   135          1
   145          0
   146          2
   149          1
   159          0
   165          2
   167          0