##TITLE=Library Entry 34141
##JCAMP-DX=Revision 4.10 
##DATA TYPE=MASS SPECTRUM
##SAMPLE DESCRIPTION=D.HENNEBERG, MAX-PLANCK INSTITUTE, MULHEIM, WEST GERMAN
Y
##NAMES=HP
##CAS NAME=2,6-Octadien-1-ol, 2,7-dimethyl-
##MOLFORM=C10H18O
##CAS REGISTRY NO=22410-74-8
##MP= -300
##BP= -300
##MW= 154
##$RETENTION INDEX=0
##$CONDENSED SPECTRUM=NO
##NPOINTS= 110
##XYDATA=(XY..XY) 1 
    22          1
    24          1
    26          8
    27        162
    28         54
    29        171
    30          4
    31         37
    32          3
    36          3
    37         11
    38         10
    39        243
    40         45
    41        988
    42         70
    43        542
    44         15
    45         14
    50         14
    51         48
    52         19
    53        128
    54         21
    55        159
    56         34
    57         57
    58          9
    59         12
    61          1
    62          5
    63         18
    64          5
    65         50
    66         23
    67        151
    68        205
    69        999
    70        118
    71         56
    72         45
    73          2
    74          4
    75          5
    76          2
    77         83
    78         24
    79         98
    80         68
    81         51
    82         67
    83         41
    84         85
    85         24
    86         10
    87          2
    89          8
    90          2
    91        116
    92         69
    93        214
    94         39
    95         22
    96         26
    97         24
    98         25
    99          0
   102          3
   103         10
   104          5
   105         32
   106         11
   107         30
   108          9
   109          6
   110          3
   111         24
   112         18
   113          2
   115         17
   116          3
   117         22
   118          2
   119         58
   120          8
   121         57
   122          5
   123         10
   124          2
   125          3
   126          0
   128          3
   129          1
   130          1
   131          3
   132         11
   133          5
   134         18
   135          4
   136         25
   137          3
   139         12
   140          1
   144          0
   145          3
   146          3
   148          2
   150          1
   154         20
   155          1