##TITLE=Library Entry 38179
##JCAMP-DX=Revision 4.10 
##DATA TYPE=MASS SPECTRUM
##SAMPLE DESCRIPTION=Exported from NIST MS Search
##NAMES=HP
##CAS NAME=1-Propene, 3-methoxy-2-methyl-
##MOLFORM=C5H10O
##CAS REGISTRY NO=22418-49-1
##MP= -300
##BP= -300
##MW= 86
##$RETENTION INDEX=0
##$CONDENSED SPECTRUM=NO
##NPOINTS= 50
##XYDATA=(XY..XY) 1 
    14         15
    15        114
    16          7
    26         25
    27        213
    28        155
    29        339
    30         27
    31         91
    32          4
    33          2
    36          6
    37         15
    38         33
    39        319
    40         45
    41        665
    42         56
    43        448
    44         53
    45        530
    46         17
    47         10
    49         12
    50         27
    51         31
    52         13
    53        134
    54         79
    55        497
    56         98
    57        131
    58         59
    59         91
    60         20
    61         12
    62         12
    63          6
    64          4
    65          6
    67         30
    68         11
    69        124
    70         32
    71        999
    72         96
    84         14
    85        240
    86        431
    87         74