##TITLE=Library Entry 19348
##JCAMP-DX=Revision 4.10 
##DATA TYPE=MASS SPECTRUM
##SAMPLE DESCRIPTION=A.Kamal-Eldin ET AL.J.Chrom.,776,245(1997)
##NAMES=HP
##CAS NAME=Methyl 12-oxo-9-dodecenoate
##MOLFORM=C13H22O3
##CAS REGISTRY NO=22418-58-2
##MP= -300
##BP= -300
##MW= 226
##$RETENTION INDEX=1800
##$CONDENSED SPECTRUM=NO
##NPOINTS= 64
##XYDATA=(XY..XY) 1 
    41        852
    42        157
    43        350
    53        147
    54        125
    55        999
    56        138
    57        345
    65         47
    66         58
    67        366
    68        171
    69        436
    70        483
    71        124
    73        146
    74        650
    79        165
    80        128
    81        382
    82        131
    83        596
    84        319
    85         85
    87        342
    88         45
    91         88
    92         43
    93        160
    94        108
    95        228
    96        238
    97        269
    98        622
    99        101
   101         61
   105         49
   106         39
   107         95
   108         86
   109        145
   110         97
   111        109
   112        138
   115         43
   119         47
   121         69
   122         52
   123        100
   124         66
   125        100
   129         38
   134         80
   135         63
   137         42
   138         54
   148         35
   149         51
   150         48
   151         42
   166         57
   194         67
   195         63
   226         28