##TITLE=Library Entry 8034
##JCAMP-DX=Revision 4.10 
##DATA TYPE=MASS SPECTRUM
##SAMPLE DESCRIPTION=R.T.HOLMAN,UNIVERSITY OF MINNESOTA
##NAMES=HP
##CAS NAME=Eicosanoic acid, tetradecyl ester
##MOLFORM=C34H68O2
##CAS REGISTRY NO=22413-04-3
##MP= -300
##BP= -300
##MW= 508
##$RETENTION INDEX=3548
##$CONDENSED SPECTRUM=NO
##NPOINTS= 324
##XYDATA=(XY..XY) 1 
    26          8
    27         63
    28         46
    29        180
    30          6
    31          5
    32         10
    36          2
    37          2
    38          3
    39         44
    40         13
    41        430
    42        130
    43        999
    44         39
    45          9
    50          3
    51          4
    52          3
    53         22
    54         68
    55        580
    56        250
    57        990
    58         52
    59         13
    60        100
    61        140
    62          6
    63          4
    64          2
    65          5
    66          7
    67        100
    68        120
    69        460
    70        220
    71        510
    72         30
    73        160
    74         15
    75          3
    76          1
    77          6
    78          3
    79         15
    80         10
    81         76
    82        170
    83        420
    84        180
    85        300
    86        220
    87        400
    88          5
    89          5
    91          6
    92          3
    93         11
    94          6
    95         61
    96         93
    97        340
    98        150
    99         68
   100         11
   101         34
   102         10
   103          6
   104          2
   105          4
   106          2
   107          9
   108          4
   109         33
   110         39
   111        190
   112         84
   113         42
   114          7
   115         40
   116         32
   117          7
   118          2
   119          4
   120          2
   121         12
   122          4
   123         17
   124         24
   125        110
   126         52
   127         31
   128          7
   129         80
   130         11
   131          4
   132          1
   133          3
   134          2
   135         11
   136          3
   137         10
   138         16
   139         52
   140         36
   141         24
   142          6
   143         15
   144          3
   145          3
   146          1
   147          2
   148          2
   149         10
   150          2
   151          5
   152         10
   153         30
   154         23
   155         13
   156          4
   157         14
   158          4
   159          2
   161          1
   162          1
   163          6
   164          2
   165          4
   166          7
   167         21
   168         80
   169         16
   170          4
   171         19
   172          5
   173          3
   174          1
   175          2
   176          1
   177          5
   178          2
   179          3
   180          3
   181          9
   182          4
   183          4
   184          2
   185         23
   186          5
   187          2
   188          1
   189          1
   190          1
   191          4
   192          2
   193          2
   194          7
   195          7
   196        360
   197         72
   198          9
   199          9
   200          3
   201          3
   202          1
   203          1
   204          1
   205          3
   206          1
   207          3
   208          5
   209          6
   210          4
   211          7
   212          2
   213         20
   214          6
   215          3
   216          1
   217          1
   218          1
   219          3
   220          2
   221          3
   222          3
   223          5
   224          5
   225          2
   226          1
   227         15
   228          8
   229         20
   230          4
   231          1
   232          1
   233          2
   234          1
   235          2
   236          2
   237          4
   238          3
   239          3
   240          2
   241         57
   242         12
   243          3
   244          1
   247          1
   248          3
   249          2
   250          7
   251          4
   252          7
   253          4
   254          2
   255          7
   256         11
   257         44
   258          9
   259          2
   263          2
   264          2
   265          3
   266          3
   267          2
   268          1
   269         47
   270         12
   271          3
   272          1
   274          2
   275          5
   276          4
   277          3
   278          2
   279          1
   280          1
   281          1
   282          1
   283         10
   284          4
   285          5
   286          2
   292         14
   293         14
   294          7
   295        110
   296         21
   297          6
   298          3
   299          4
   300          1
   310          3
   311         13
   312        200
   313        760
   314        170
   315         19
   316         30
   321          1
   322          1
   323          1
   324          1
   325          6
   326          2
   337          1
   338          1
   339          3
   340          2
   341          1
   349          1
   350          2
   351          1
   352          2
   353          4
   354          2
   355          1
   363          2
   364          1
   365          1
   367          2
   368         10
   369          4
   370          1
   377          1
   380          2
   381          3
   382          3
   383          2
   384          1
   395          1
   396          1
   397          1
   409          2
   410          1
   423          1
   424          2
   436          1
   437          1
   438          1
   451          1
   452          2
   453          1
   465          3
   466          2
   467          1
   479          2
   480          5
   481          3
   482          1
   490          2
   491          1
   493          1
   494          2
   495          1
   507          4
   508        310
   509        120
   510         21
   511          4
   512          1