##TITLE=Library Entry 81
##JCAMP-DX=Revision 4.10 
##DATA TYPE=MASS SPECTRUM
##SAMPLE DESCRIPTION=Chemical Concepts
##NAMES=HP
##CAS NAME=2-Butenoic acid, 4-oxo-
##MOLFORM=C4H4O3
##CAS REGISTRY NO=22418-77-5
##MP= -300
##BP= -300
##MW= 100
##$RETENTION INDEX=0
##$CONDENSED SPECTRUM=NO
##NPOINTS= 58
##XYDATA=(XY..XY) 1 
    24          0
    26        498
    27        999
    28         59
    29        525
    30         15
    31          5
    33          0
    35          1
    36         16
    37         54
    38         43
    39         34
    41          5
    42         22
    43         38
    44         73
    45        382
    46         57
    47          1
    48          0
    50          0
    52         24
    53        197
    54        147
    55        660
    56         38
    57          4
    58          1
    59          0
    60          1
    63          1
    65          2
    66          0
    67          1
    68          0
    69          1
    70          4
    71         63
    72        323
    73         16
    74          7
    76          1
    77          1
    78          1
    80          1
    81         56
    82         56
    83         74
    84         17
    85          1
    86          0
    91          0
    96          0
    99        259
   100        396
   101         20
   102          3