##TITLE=Library Entry 11751
##JCAMP-DX=Revision 4.10 
##DATA TYPE=MASS SPECTRUM
##SAMPLE DESCRIPTION=NIST Mass Spectrometry Data Center
##NAMES=HP
##CAS NAME=(1S,2R,5E,9E,12R)-12-Isopropyl-1,5,9-trimethyl-15-oxabicyclo[10.2
.1]pentadeca-5,9-dien-2-ol
##MOLFORM=C20H34O2
##CAS REGISTRY NO=22419-74-5
##MP= -300
##BP= -300
##MW= 306
##$RETENTION INDEX=2167
##$CONDENSED SPECTRUM=NO
##NPOINTS= 162
##XYDATA=(XY..XY) 1 
    19          1
    27         54
    28          2
    29        101
    30          4
    31          4
    39        127
    40         30
    41        704
    42         89
    43        999
    44         69
    46          3
    48          1
    51         13
    52          9
    53        254
    54         24
    55        529
    56         37
    57        118
    58         26
    59          7
    60         10
    62         11
    63          6
    64          5
    65         38
    66         22
    67        332
    68        177
    69        516
    70         54
    71        268
    72         87
    73         13
    75          8
    76          1
    77        132
    78         30
    79        213
    80        149
    81        126
    82         87
    83        191
    84        159
    85        179
    86        114
    87         17
    89          9
    90          5
    91        249
    92         64
    93        604
    94        122
    95        220
    96         21
    97         77
    98        123
    99        120
   100         14
   101          7
   102          7
   103         14
   104          6
   105         76
   106         41
   107        208
   108         75
   109        256
   110         25
   111        126
   112         22
   113         47
   114          7
   115         26
   116          4
   117         20
   118         11
   119         65
   120         62
   121        308
   123        173
   124         97
   125        807
   126         66
   128         70
   129         19
   131         47
   132         29
   133        127
   134         54
   136        366
   137        198
   138         24
   139        125
   140          6
   143         28
   144          2
   145         34
   147         56
   148         56
   149         54
   151        196
   152         35
   155        193
   156        338
   157         53
   158          9
   159         30
   160         17
   161         40
   164         36
   165          6
   166         22
   168         14
   169          1
   170         28
   171          6
   172          1
   173         14
   174          7
   175         10
   176          8
   177         25
   178          3
   179         14
   180          9
   181          7
   182          3
   183          1
   184          2
   185          4
   186          4
   187         47
   189          4
   190          7
   193          4
   194         16
   195          5
   196          3
   199          5
   200          2
   201         15
   202          7
   203         27
   204         16
   205         28
   207          3
   218          7
   219         18
   221         28
   238         29
   239          6
   263         60
   264         13
   265          2
   288          6
   305          1
   306        395
   307         81
   308         11