##TITLE=Library Entry 67798
##JCAMP-DX=Revision 4.10 
##DATA TYPE=MASS SPECTRUM
##SAMPLE DESCRIPTION=CARL DJERASSI DEPT OF CHEM STANFORD UNIV STANFORD CALIF
 94305
##NAMES=HP
##CAS NAME=Lanostan-3.beta.-ol, 11.beta.,19-epoxy-, acetate
##MOLFORM=C32H54O3
##CAS REGISTRY NO=22417-93-2
##MP= -300
##BP= -300
##MW= 486
##$RETENTION INDEX=0
##$CONDENSED SPECTRUM=NO
##NPOINTS= 292
##XYDATA=(XY..XY) 1 
    41        460
    42         50
    43        970
    44         30
    45         10
    53         50
    54         20
    55        640
    56         80
    57        490
    58         20
    59         20
    65         10
    67        290
    68         50
    69        760
    70         70
    71        220
    72         20
    77         60
    78         20
    79        220
    80         40
    81        480
    82        160
    83        300
    84         40
    85         60
    86         10
    91        220
    92         60
    93        340
    94        220
    95        999
    96        310
    97        170
    98         10
    99         20
   103         10
   104         20
   105        320
   106         80
   107        390
   108        130
   109        420
   110         70
   111         80
   112         20
   113         10
   115         10
   117         80
   118         40
   119        420
   120        140
   121        330
   122        180
   123        280
   124         40
   125         40
   129         40
   130         20
   132        340
   133        310
   134        160
   135        280
   136        170
   137        130
   138         30
   139         50
   140         10
   141         20
   142         20
   143         80
   144         30
   145        270
   146        360
   147        270
   148         90
   149        160
   150         80
   151         60
   152         30
   153         10
   155         30
   156         10
   157        100
   158         40
   159        230
   160         80
   161        220
   162         60
   163         90
   164         30
   165         30
   166         10
   169         30
   170         10
   171        120
   172         50
   173        240
   174        160
   175        210
   176         50
   177         70
   178         10
   179         20
   181         10
   183         30
   184         10
   185        160
   186         60
   187        150
   188         60
   189        140
   190         70
   191         80
   192         20
   193         50
   197         30
   198         10
   199         90
   200         40
   201        160
   202         70
   203        470
   204        100
   205         50
   206         50
   207        370
   208         80
   211         20
   212         10
   213        210
   214         80
   215        140
   216         50
   217         60
   218         10
   219         30
   220         20
   221        100
   222         20
   223         10
   225         40
   226         20
   227         70
   228         20
   229         60
   230         30
   231         60
   232         10
   233         20
   234         20
   239         40
   240         10
   241        210
   242        130
   243        530
   244        240
   245        120
   246         10
   247         20
   249         10
   250         70
   251         10
   253        110
   254         60
   255        710
   256        450
   257        160
   258         40
   259         40
   260         20
   261         30
   262         10
   263        420
   264        100
   265         10
   267         10
   268         30
   269         40
   271        140
   272         60
   273        320
   274         80
   275         20
   276         20
   277         70
   278         10
   281         10
   283         60
   284         10
   285         30
   286        280
   287         80
   288         20
   289         30
   290         40
   291         80
   292         20
   295         30
   298         10
   301        310
   302         90
   303        370
   304        150
   305         70
   306         10
   311         20
   313         60
   314         30
   315        290
   316         90
   317         40
   318         80
   319         30
   320         10
   325         10
   327         20
   328         20
   329         10
   330         10
   331        200
   332        510
   333        260
   334        100
   335         20
   340         10
   341         30
   342         30
   343         20
   344         10
   345        100
   346        440
   347        110
   348         30
   353         50
   354         10
   355         30
   356         30
   357         20
   359         20
   360         10
   361         30
   362         20
   369         50
   370         20
   371         20
   372         20
   373         70
   374         20
   381         90
   382         40
   383         40
   384         50
   385         40
   386         10
   393         40
   394         30
   395        280
   396        340
   397        170
   398         50
   399         20
   400         20
   401         30
   407         20
   408         40
   409         20
   411         80
   412         40
   413         20
   425         20
   426        190
   427         80
   428         20
   429         20
   441         20
   443         40
   444         20
   455        330
   456        130
   457         50
   458         20
   468         20
   469         20
   471         50
   472         20
   485         50
   486        310
   487        120
   488         40