##TITLE=Library Entry 21113
##JCAMP-DX=Revision 4.10 
##DATA TYPE=MASS SPECTRUM
##SAMPLE DESCRIPTION=Exported from NIST MS Search
##NAMES=HP
##CAS NAME=Cyclohexanethiol, 2-methyl-, cis-
##MOLFORM=C7H14S
##CAS REGISTRY NO=22425-07-6
##MP= -300
##BP= -300
##MW= 130
##$RETENTION INDEX=988
##$CONDENSED SPECTRUM=NO
##NPOINTS= 91
##XYDATA=(XY..XY) 1 
    12          1
    13          1
    14          2
    15         33
    16          1
    25          1
    26         16
    27        219
    28         38
    29        133
    30          3
    31          1
    32          3
    33         15
    34          9
    35         10
    36          1
    37          3
    38         13
    39        207
    40         30
    41        316
    42         38
    43         69
    44          2
    45        115
    46         12
    47         64
    48          2
    49          4
    50         11
    51         25
    52         11
    53         83
    54        102
    55        999
    56         50
    57         10
    58         19
    59         41
    60        107
    61         35
    62          8
    63          7
    64          1
    65         15
    66         15
    67        167
    68        122
    69         66
    70          6
    71          2
    72          7
    73         51
    74         20
    75          7
    76          1
    77         15
    78          3
    80          5
    81        318
    82         21
    83          4
    84          1
    85          7
    86          2
    87         30
    88          3
    89          2
    90          1
    91          3
    92          1
    93          3
    94          1
    95         28
    96        132
    97        508
    98         37
    99          2
   100          1
   101          9
   102          1
   103          1
   111          1
   113          1
   115          1
   129          1
   130        201
   131         15
   132          9
   133          1