##TITLE=Library Entry 80861
##JCAMP-DX=Revision 4.10 
##DATA TYPE=MASS SPECTRUM
##SAMPLE DESCRIPTION=P.A. SZCZEPANIK, ARGONNE NATIONAL LABORATORY, USA
##NAMES=HP
##CAS NAME=Chol-11-en-24-oic acid, 3-(acetyloxy)-, methyl ester, (3.alpha.,5
.beta.)-
##MOLFORM=C27H42O4
##CAS REGISTRY NO=2242-12-8
##MP= -300
##BP= -300
##MW= 430
##$RETENTION INDEX=0
##$CONDENSED SPECTRUM=NO
##NPOINTS= 232
##XYDATA=(XY..XY) 1 
   100         25
   101         32
   102         10
   103         75
   104         81
   105        999
   106        633
   107        848
   108        271
   109        604
   110         79
   111         71
   112         22
   113         31
   114         19
   115        372
   116        101
   117        379
   118        559
   119        934
   120        397
   121        396
   122        142
   123        190
   124         51
   125         66
   126         10
   127         54
   128        111
   129        223
   130        118
   131        884
   132        324
   133        590
   134        173
   135        263
   136         40
   137         72
   138         11
   139         17
   141        262
   142         90
   143        329
   144        161
   145        731
   146        286
   147        670
   148        131
   149        259
   150         33
   151         31
   152         17
   153         31
   154         48
   155        170
   156         77
   157        523
   158        224
   159        598
   160        154
   161        341
   162         65
   163         63
   164         28
   165         15
   166         34
   167         19
   168        133
   169         54
   171        344
   172        118
   173        316
   174        111
   175        134
   176         35
   177        111
   178         25
   179         22
   180        116
   181         31
   182         77
   184         32
   185        256
   186         81
   187        163
   188        104
   189         84
   190         20
   191         17
   192         10
   193         27
   194         19
   195         69
   196         23
   197        132
   198         46
   199        301
   200        208
   201        322
   202        105
   203         38
   204          9
   205         13
   206         15
   207         43
   208         64
   209        113
   210         29
   211        105
   212         62
   213        682
   214        384
   215        231
   216         82
   217         33
   218          7
   219         13
   220         14
   221         38
   222         18
   223         29
   224         13
   225         42
   227        152
   228        882
   229        276
   230         61
   231         26
   232          6
   233         17
   234          7
   236          5
   237         17
   239         43
   240         42
   241         33
   243         25
   244         23
   245         10
   246         29
   247         13
   249         36
   251         24
   252         22
   253         83
   255        706
   256        412
   257         64
   258         11
   259         18
   260         19
   261         50
   262         70
   263         48
   264         13
   265         32
   266         11
   268         10
   269         10
   270          3
   271          6
   272          5
   273         18
   274         47
   275         68
   276         23
   279         25
   280          7
   281         56
   282         21
   283         61
   284         15
   285          8
   286          4
   287         17
   288         26
   289         15
   294         15
   295         12
   296         12
   297          3
   299         11
   300         19
   301         16
   302         10
   305         35
   306         12
   307          4
   308          2
   309          4
   310         12
   311          6
   313        119
   315        216
   316        187
   317         43
   319          4
   321         66
   322         25
   323        120
   324         39
   326          4
   329         54
   331          4
   332          2
   339         97
   340         29
   341         29
   342         18
   343          5
   344          4
   346          2
   347          2
   349          2
   351          4
   353         16
   355        517
   356        183
   360          1
   361          2
   362          2
   364          2
   370        682
   371        251
   374          2
   375          2
   387          4
   388          2
   413          1
   415          3
   428          3
   430          5