##TITLE=Library Entry 59692
##JCAMP-DX=Revision 4.10 
##DATA TYPE=MASS SPECTRUM
##SAMPLE DESCRIPTION=NIST Mass Spectrometry Data Center, 1994
##NAMES=HP
##CAS NAME=5-Benzyloxy-2-nitrotoluene
##MOLFORM=C14H13NO3
##CAS REGISTRY NO=22424-58-4
##MP= -300
##BP= -300
##MW= 243
##$RETENTION INDEX=0
##$CONDENSED SPECTRUM=NO
##NPOINTS= 114
##XYDATA=(XY..XY) 1 
    10          0
    13          0
    17          0
    18          3
    24          0
    25          0
    26          4
    27         11
    28          2
    29          0
    30         62
    36          0
    37          3
    38         18
    39        118
    40         13
    41         21
    42          1
    43          0
    46          1
    50         32
    51         89
    52         60
    53         12
    54          7
    55          3
    58          0
    60          0
    61          3
    62         15
    63         62
    64         20
    65        203
    66         20
    67          2
    68          3
    69          1
    70          0
    71          0
    74          3
    75          5
    76          7
    77         30
    78         22
    79          7
    80          7
    82          4
    83          1
    85          0
    86          1
    87          2
    89         46
    91        999
    92        123
    93          5
    94          5
    95          0
    96          3
    97          0
    98          1
   101          0
   102          0
   103          0
   104          0
   105          2
   106          2
   107          1
   108          0
   109          0
   113          0
   115          3
   116          0
   119          0
   120          0
   121          0
   122          7
   123          0
   126          0
   127          1
   128          1
   129          0
   134          0
   135          0
   136          0
   137          0
   139          0
   141          1
   150          0
   151          0
   152          3
   153          2
   154          0
   155          0
   164          0
   165          2
   166          0
   167          1
   168          0
   178          0
   179          0
   180          0
   181          0
   182          0
   194          0
   195          1
   196          0
   197          0
   213          0
   226          0
   227          0
   240          0
   243         33
   244          5
   245          0