##TITLE=Library Entry 96959
##JCAMP-DX=Revision 4.10 
##DATA TYPE=MASS SPECTRUM
##SAMPLE DESCRIPTION=Chemical Concepts
##NAMES=HP
##CAS NAME=1,3-Dimethyl-2-phenyl-1,3,2-diazaphospholidine
##MOLFORM=C10H15N2P
##CAS REGISTRY NO=22429-12-5
##MP= -300
##BP= -300
##MW= 194
##$RETENTION INDEX=0
##$CONDENSED SPECTRUM=NO
##NPOINTS= 127
##XYDATA=(XY..XY) 1 
    25          0
    26          5
    27         19
    28         59
    29          9
    30         17
    31          2
    32         11
    33          3
    37          0
    38          2
    39         19
    40          3
    41         15
    42         82
    43         12
    44         33
    45          6
    46         13
    47         32
    48          0
    49          1
    50         10
    51         29
    52          4
    53          2
    54          3
    55          7
    56         12
    57         17
    58          9
    59         17
    60        177
    61          4
    62          3
    63          7
    64          2
    65         15
    66          2
    67          2
    68          3
    69         10
    70          2
    71          3
    72          3
    73          3
    74        163
    75          8
    76          7
    77         21
    78         11
    79          4
    80          5
    81         12
    82          7
    83         16
    84          1
    85          1
    86          1
    87          1
    88         10
    89          1
    90          3
    91         21
    92          3
    93          1
    94          0
    95          2
    96          1
    97          1
    99          1
   100          1
   101          3
   102          0
   103          1
   104          2
   105          5
   106          4
   107         61
   108         45
   109         42
   110          3
   111          1
   113          1
   114          0
   115         30
   116          7
   117        999
   118         52
   119          2
   120          0
   121          3
   122          3
   123          6
   124          1
   125          1
   127          0
   128          1
   129          1
   130          0
   131          1
   133          0
   134          0
   135          2
   136          5
   137          1
   138          1
   141          3
   142          1
   143          0
   144          1
   145          1
   146          1
   148          1
   149          2
   150         29
   151         12
   152          3
   153          0
   154          0
   159          0
   165          0
   193          1
   194        171
   195         20
   196          1
   198          0