##TITLE=Library Entry 72304
##JCAMP-DX=Revision 4.10 
##DATA TYPE=MASS SPECTRUM
##SAMPLE DESCRIPTION=CARL DJERASSI DEPT OF CHEM STANFORD UNIV STANFORD CALIF
 94305
##NAMES=HP
##CAS NAME=1,4-Dioxaspiro[4.5]decan-8-ol
##MOLFORM=C8H14O3
##CAS REGISTRY NO=22428-87-1
##MP= -300
##BP= -300
##MW= 158
##$RETENTION INDEX=0
##$CONDENSED SPECTRUM=NO
##NPOINTS= 28
##XYDATA=(XY..XY) 1 
    41         90
    42        190
    43        140
    44         20
    45         30
    53         30
    54         20
    55        220
    56         20
    57         50
    60         10
    67         20
    68         10
    69         10
    71         30
    79         20
    81         10
    83         10
    84         20
    85         20
    86        330
    87         20
    99        999
   100         70
   110         10
   129         10
   141         10
   158         30