##TITLE=Library Entry 31064
##JCAMP-DX=Revision 4.10 
##DATA TYPE=MASS SPECTRUM
##SAMPLE DESCRIPTION=Exported from NIST MS Search
##NAMES=HP
##CAS NAME=1,3-Oxathiane, 2,4,6-trimethyl-, (2.alpha.,4.beta.,6.alpha.)-
##MOLFORM=C7H14OS
##CAS REGISTRY NO=22425-90-7
##MP= -300
##BP= -300
##MW= 146
##$RETENTION INDEX=0
##$CONDENSED SPECTRUM=NO
##NPOINTS= 28
##XYDATA=(XY..XY) 1 
    41         58
    42         65
    43         83
    44         73
    45         35
    53         22
    55         80
    59         30
    60        999
    61        257
    62         65
    67         80
    68        217
    69        585
    70        133
    73         42
    74         90
    87        171
   102        555
   103         63
   104         45
   113         25
   131        575
   132         42
   133         35
   146        853
   147         75
   148         42