##TITLE=Library Entry 50096
##JCAMP-DX=Revision 4.10 
##DATA TYPE=MASS SPECTRUM
##SAMPLE DESCRIPTION=Japan AIST/NIMC Database- Spectrum MS-NW-3978
##NAMES=HP
##CAS NAME=1-Undecyne
##MOLFORM=C11H20
##CAS REGISTRY NO=2243-98-3
##MP= -300
##BP= -300
##MW= 152
##$RETENTION INDEX=1095
##$CONDENSED SPECTRUM=NO
##NPOINTS= 90
##XYDATA=(XY..XY) 1 
    14          1
    15          7
    16          1
    17          2
    18         12
    25          1
    26         10
    27        215
    28         11
    29        293
    30          7
    31          1
    32          3
    37          3
    38         12
    39        222
    40         48
    41        647
    42        132
    43        679
    44         24
    45          2
    47          1
    50         12
    51         30
    52         21
    53        139
    54        364
    55        630
    56        182
    57        281
    58         14
    59          1
    60          3
    61          1
    62          2
    63          7
    64          2
    65         39
    66         49
    67        801
    68        287
    69        351
    70        140
    71        102
    72          7
    73          3
    74          1
    75          1
    77         35
    78          8
    79        109
    80         52
    81        999
    82        319
    83         96
    84         41
    85          9
    86          1
    87          1
    91         16
    92          3
    93         27
    94         14
    95        413
    96        111
    97         37
    98          8
    99          2
   105          4
   106          1
   107          7
   108          3
   109        104
   110         22
   111          8
   112         11
   113          2
   115          1
   117          1
   119          2
   121          3
   122          1
   123         17
   124          5
   125          1
   135          1
   137          6
   138          1
   151          1