##TITLE=Library Entry 97646
##JCAMP-DX=Revision 4.10 
##DATA TYPE=MASS SPECTRUM
##SAMPLE DESCRIPTION=D.HENNEBERG, MAX-PLANCK INSTITUTE, MULHEIM, WEST GERMAN
Y
##NAMES=HP
##CAS NAME=3-Butenoic acid, 4-phenyl-
##MOLFORM=C10H10O2
##CAS REGISTRY NO=2243-53-0
##MP= -300
##BP= -300
##MW= 162
##$RETENTION INDEX=0
##$CONDENSED SPECTRUM=NO
##NPOINTS= 101
##XYDATA=(XY..XY) 1 
    27         24
    28          2
    29          3
    31          1
    36          0
    37          3
    38         13
    39        114
    40          8
    41         10
    42          3
    43          2
    44          2
    45         29
    46          0
    47          0
    49          1
    50         33
    51         78
    52         17
    53          5
    54          0
    55         10
    56          3
    58          9
    59          0
    60          4
    61          5
    62         22
    63         61
    64         12
    65         60
    66          5
    67          0
    68          0
    69          1
    70          0
    71          1
    73          1
    74         13
    75         14
    76         13
    77         44
    78         20
    79          8
    80          0
    81          1
    84          1
    85          3
    86          6
    87          8
    88          5
    89         41
    90          8
    91        214
    92         17
    93          0
    94          0
    98          1
    99          0
   100          0
   101          2
   102         25
   103         16
   104          2
   105          8
   106          0
   107         15
   108          1
   109          0
   110          0
   111          0
   112          0
   113         12
   114         10
   115        379
   116        119
   117        999
   118        104
   119          6
   120         54
   121          5
   122          0
   127          0
   128          0
   129          0
   131          1
   132          0
   133          2
   134          0
   143          0
   144         21
   145          3
   146          0
   147          1
   160          0
   161          1
   162        409
   163         45
   164          4
   165          0