##TITLE=Library Entry 94062
##JCAMP-DX=Revision 4.10 
##DATA TYPE=MASS SPECTRUM
##SAMPLE DESCRIPTION=Chemical Concepts
##NAMES=HP
##CAS NAME=Benzene,1-methyl-1,2-propadienyl-
##MOLFORM=C10H10
##CAS REGISTRY NO=22433-39-2
##MP= -300
##BP= -300
##MW= 130
##$RETENTION INDEX=0
##$CONDENSED SPECTRUM=NO
##NPOINTS= 92
##XYDATA=(XY..XY) 1 
    27         67
    28         49
    29          7
    30          2
    35          0
    36          2
    37          7
    38         18
    39        101
    40          6
    41         11
    42          3
    43         16
    44          6
    46          2
    47          0
    48          1
    49          7
    50         98
    51        296
    52         50
    53         19
    54          1
    55          3
    56          2
    57          2
    58          4
    61         13
    62         40
    63        156
    64        193
    65         87
    66          4
    67          1
    68          0
    69         16
    70          0
    71          2
    72          1
    74         47
    75         47
    76         39
    77        143
    78         54
    79          9
    80          1
    81          1
    82          0
    83          2
    84          1
    85          5
    86         16
    87         21
    88         15
    89         96
    90         10
    91         62
    92         15
    93          1
    94          0
    95          0
    96          1
    97          1
    98          6
    99          3
   100          3
   101         19
   102         73
   103         37
   104          6
   105         22
   106          1
   107          0
   108          0
   109          1
   110          2
   111          0
   112          1
   113         18
   114         17
   115        999
   116         95
   117          9
   123          0
   125          2
   126         35
   127        237
   128        534
   129        655
   130        842
   131         88
   132          5