##TITLE=Library Entry 31317
##JCAMP-DX=Revision 4.10 
##DATA TYPE=MASS SPECTRUM
##SAMPLE DESCRIPTION=Exported from NIST MS Search
##NAMES=HP
##CAS NAME=Sulfide, sec-butyl isopropyl
##MOLFORM=C7H16S
##CAS REGISTRY NO=22438-36-4
##MP= -300
##BP= -300
##MW= 132
##$RETENTION INDEX=887
##$CONDENSED SPECTRUM=NO
##NPOINTS= 69
##XYDATA=(XY..XY) 1 
    25          2
    26         42
    27        444
    28         59
    29        344
    30          9
    32          5
    33          4
    34          6
    35         33
    37         11
    38         24
    39        264
    40         32
    41        540
    42         56
    43        485
    44         17
    45        128
    46         18
    47        104
    48          5
    49         16
    50          7
    51         10
    52          3
    53         22
    54          6
    55        100
    56        214
    57        270
    58         56
    59        153
    60        108
    61        999
    62         35
    63         45
    64          1
    69          6
    70          2
    71          9
    72          2
    73         10
    74         18
    75        139
    76         72
    77         67
    78          6
    79          3
    83          1
    84          1
    85          1
    86          1
    87          2
    88          6
    89         38
    90         13
    91          4
    92          1
   103        643
   104         40
   105         30
   106          2
   117         80
   118          6
   119          3
   132        320
   133         27
   134         15