##TITLE=Library Entry 31620
##JCAMP-DX=Revision 4.10 
##DATA TYPE=MASS SPECTRUM
##SAMPLE DESCRIPTION=Japan AIST/NIMC Database- Spectrum MS-IW-1363
##NAMES=HP
##CAS NAME=Benzene, [2-(2-chloroethoxy)ethoxy]-
##MOLFORM=C10H13ClO2
##CAS REGISTRY NO=2243-44-9
##MP= -300
##BP= -300
##MW= 200
##$RETENTION INDEX=0
##$CONDENSED SPECTRUM=NO
##NPOINTS= 99
##XYDATA=(XY..XY) 1 
    14          1
    15          8
    18          1
    26          9
    27        215
    28         27
    29         14
    30          2
    31         16
    36          6
    37          3
    38         16
    39        102
    40         16
    41          8
    42          4
    43        138
    44         19
    45        602
    46         12
    47          1
    49          9
    50         32
    51        154
    52         11
    53          6
    54          1
    55         13
    57          5
    58          1
    60          7
    61          5
    62         74
    63        999
    64         58
    65        464
    66        102
    67          7
    68          2
    70         11
    71          8
    73          6
    74          8
    75         45
    76         18
    77        629
    78         55
    79        129
    80          9
    81          1
    86         47
    87         25
    88          1
    89          2
    90          1
    91         55
    92         33
    93         83
    94        900
    95         81
    96          5
   102          1
   103         20
   104          2
   105          3
   106        199
   107        654
   108         97
   109        150
   110          7
   111          3
   113          1
   117          1
   119         16
   120         89
   121        185
   122         42
   123          2
   124          9
   133         10
   134          1
   135          2
   136          1
   137          4
   138          5
   147          1
   151         40
   152          4
   156          2
   157          1
   158          3
   164         45
   165          7
   182          1
   200        545
   201         62
   202        180
   203         20
   204          1