##TITLE=Library Entry 48265
##JCAMP-DX=Revision 4.10 
##DATA TYPE=MASS SPECTRUM
##SAMPLE DESCRIPTION=J.Sanz-Asensio ET AL.J.Chrom.,840,235(1999)
##NAMES=HP
##CAS NAME=2-Methylbenzo[e][1,3]oxathiane
##MOLFORM=C9H10OS
##CAS REGISTRY NO=224308-95-6
##MP= -300
##BP= -300
##MW= 166
##$RETENTION INDEX=0
##$CONDENSED SPECTRUM=NO
##NPOINTS= 60
##XYDATA=(XY..XY) 1 
    46         49
    47         57
    48         26
    49         77
    50        303
    51        337
    52        280
    53         69
    54         18
    55         64
    56         59
    57        162
    58        172
    59        422
    60        234
    61         57
    62         77
    63        224
    64         41
    65         31
    66         31
    67         31
    68         21
    69         72
    70         44
    71         26
    73         21
    74         46
    75         36
    76         62
    77        306
    78        999
    79        116
    81         31
    82         26
    83         80
    85         57
    87         41
    89         51
    90         26
    91         36
    92         21
   103         21
   105        113
   106        134
   107        681
   108         69
   109         18
   110         18
   111         18
   120         33
   121        105
   122         33
   124         18
   133         28
   137         39
   140         23
   165         15
   166        275
   167         36