##TITLE=Library Entry 31205
##JCAMP-DX=Revision 4.10 
##DATA TYPE=MASS SPECTRUM
##SAMPLE DESCRIPTION=TNO Volatile Compounds in Food - Chemical Concepts
##NAMES=HP
##CAS NAME=Decyl methyl sulfide
##MOLFORM=C11H24S
##CAS REGISTRY NO=22438-39-7
##MP= -300
##BP= -300
##MW= 188
##$RETENTION INDEX=1419
##$CONDENSED SPECTRUM=NO
##NPOINTS= 98
##XYDATA=(XY..XY) 1 
    36          0
    37          3
    38          4
    39        159
    41        899
    42        305
    43        775
    44         17
    45         73
    46         48
    47        130
    48        425
    49        202
    50         24
    51         14
    52          3
    53         56
    54         86
    55        912
    56        747
    57        461
    58         26
    59         29
    60         23
    61        999
    62        145
    63         55
    64          6
    65          7
    66          6
    67         94
    68        188
    69        632
    70        697
    71        158
    72         10
    73         10
    74         15
    75        159
    76         56
    77         14
    78          3
    79          6
    80          1
    81         24
    82        131
    83        477
    84        295
    85         92
    86          5
    87         18
    88          2
    89         38
    90          5
    91          3
    92          0
    93          0
    95          4
    96         33
    97        260
    98        136
    99         14
   101          4
   103        167
   104         11
   105          8
   109          0
   110         12
   111        122
   112        103
   113         10
   115          0
   117         27
   118          1
   119          0
   123          0
   124          0
   125          2
   129          0
   131          9
   132          0
   140         51
   141          6
   145          4
   159         19
   160          2
   161          0
   162          0
   171          1
   173        546
   174         61
   175         28
   176          2
   187         63
   188        427
   189         64
   190         22
   191          2