##TITLE=Library Entry 79750
##JCAMP-DX=Revision 4.10 
##DATA TYPE=MASS SPECTRUM
##SAMPLE DESCRIPTION=Chuck Anderson, Aldrich Chemical Co.
##NAMES=HP
##CAS NAME=3-Nitrobenzophenone
##MOLFORM=C13H9NO3
##CAS REGISTRY NO=2243-80-3
##MP= -300
##BP= -300
##MW= 227
##$RETENTION INDEX=0
##$CONDENSED SPECTRUM=NO
##NPOINTS= 56
##XYDATA=(XY..XY) 1 
    17          5
    18         13
    27         12
    28          7
    29          1
    30         11
    38          7
    39         18
    50         70
    51        123
    52         11
    53          3
    62          8
    63         25
    64         12
    65         30
    66          3
    74         29
    75         43
    76        133
    77        494
    78         35
    87          2
    90          3
    91          2
    92         47
    93          1
    99          1
   104         74
   105        999
   106         76
   107          4
   115          5
   120         74
   121          6
   122          6
   126          8
   127          1
   134          6
   139          2
   150         98
   151         24
   152         32
   153          9
   167          3
   168          3
   169          5
   180         18
   181         12
   196          7
   197         63
   198          9
   210         21
   211          9
   227        149
   228         22