##TITLE=Library Entry 22544
##JCAMP-DX=Revision 4.10 
##DATA TYPE=MASS SPECTRUM
##SAMPLE DESCRIPTION=CARL DJERASSI DEPT OF CHEM STANFORD UNIV STANFORD CALIF
 94305
##NAMES=HP
##CAS NAME=Methanamine, N-(1-methylbutylidene)-
##MOLFORM=C6H13N
##CAS REGISTRY NO=22431-09-0
##MP= -300
##BP= -300
##MW= 99
##$RETENTION INDEX=0
##$CONDENSED SPECTRUM=NO
##NPOINTS= 17
##XYDATA=(XY..XY) 1 
    41         99
    42        356
    43         79
    44          9
    52          9
    53          9
    54         39
    55         49
    56        999
    57         49
    68          9
    70         19
    71        475
    72         19
    84        198
    98          9
    99          9