##TITLE=Library Entry 3695
##JCAMP-DX=Revision 4.10 
##DATA TYPE=MASS SPECTRUM
##SAMPLE DESCRIPTION=Japan AIST/NIMC Database- Spectrum MS-NW-3984
##NAMES=HP
##CAS NAME=Nonanenitrile
##MOLFORM=C9H17N
##CAS REGISTRY NO=2243-27-8
##MP= -300
##BP= -300
##MW= 139
##$RETENTION INDEX=1184
##$CONDENSED SPECTRUM=NO
##NPOINTS= 89
##XYDATA=(XY..XY) 1 
    15         18
    16          1
    25          1
    26         26
    27        343
    28         88
    29        466
    30         36
    31         17
    32         11
    37          5
    38         14
    39        254
    40         50
    41        999
    42        224
    43        758
    44         40
    45          4
    46          1
    47          4
    49          1
    50          8
    51         19
    52         21
    53         67
    54        768
    55        592
    56        204
    57        460
    58         25
    59         24
    60          1
    61          1
    62          2
    63          4
    64          5
    65         11
    66         14
    67         66
    68        138
    69        806
    70        115
    71         84
    72          6
    73          2
    74          1
    75          1
    76          1
    77         12
    78          3
    79         29
    80         21
    81         47
    82        865
    83        727
    84        107
    85         20
    86          1
    87          1
    88          1
    91         10
    92          2
    93         39
    94         15
    95         17
    96        845
    97        504
    98         44
    99          3
   105          2
   106          1
   107          9
   108          8
   109          5
   110        489
   111        134
   112         15
   113          4
   121          2
   122          3
   123          1
   124         93
   125          9
   126          1
   136          1
   138         35
   139          4
   140          2