##TITLE=Library Entry 17932
##JCAMP-DX=Revision 4.10 
##DATA TYPE=MASS SPECTRUM
##SAMPLE DESCRIPTION=CALIFORNIA RESEARCH CORP., RICHMOND, CAL, USA
##NAMES=HP
##CAS NAME=Thietane, 3-methyl-
##MOLFORM=C4H8S
##CAS REGISTRY NO=22438-40-0
##MP= -300
##BP= -300
##MW= 88
##$RETENTION INDEX=736
##$CONDENSED SPECTRUM=NO
##NPOINTS= 76
##XYDATA=(XY..XY) 1 
    13         12
    14         28
    15         66
    16          1
    17          0
    18          0
    19          0
    20          0
    24          1
    25          4
    26         36
    27        145
    28         20
    29         31
    30          0
    32         20
    33          8
    34          5
    35          3
    36          4
    37         29
    38         52
    39        239
    40         48
    41        170
    42        148
    43         17
    44         12
    45        306
    46        999
    47        210
    48         52
    49         13
    50         12
    51         10
    52          2
    53         23
    54         65
    55         72
    56          5
    57          9
    58         21
    59         34
    60        118
    61         10
    62          6
    63          0
    64          0
    65          0
    66          0
    67          0
    68          2
    69         14
    70          2
    71         18
    72          7
    73         77
    74          4
    75          3
    76          1
    77          0
    78          0
    79          0
    80          0
    81          1
    82          0
    83          0
    84          0
    85          4
    86          0
    87          9
    88        415
    89         24
    90         21
    91          1
    92          0