##TITLE=Library Entry 70661
##JCAMP-DX=Revision 4.10 
##DATA TYPE=MASS SPECTRUM
##SAMPLE DESCRIPTION=CARL DJERASSI DEPT OF CHEM STANFORD UNIV STANFORD CALIF
 94305
##NAMES=HP
##CAS NAME=Androstan-17-one, (5.alpha.,14.beta.)-
##MOLFORM=C19H30O
##CAS REGISTRY NO=22430-34-8
##MP= -300
##BP= -300
##MW= 274
##$RETENTION INDEX=0
##$CONDENSED SPECTRUM=NO
##NPOINTS= 105
##XYDATA=(XY..XY) 1 
    39         50
    40         20
    41        270
    42         20
    43         40
    51         10
    52         10
    53         80
    54         30
    55        260
    56         20
    57         10
    65         40
    66         20
    67        300
    68         70
    69         60
    74         10
    77         90
    78         20
    79        180
    80         40
    81        240
    82         50
    83         40
    91        130
    92         20
    93        170
    94         50
    95        200
    96        130
    97        999
    98         70
   103         10
   104         10
   105         90
   106         40
   107        120
   108        180
   109        270
   110        240
   111         20
   115         20
   116         10
   117         20
   118         10
   119         40
   120         30
   121        140
   122        100
   123         70
   124        210
   125         20
   129         10
   131         20
   132         10
   133         40
   134         20
   135         50
   136         40
   137         10
   145         30
   146         20
   147         70
   148         80
   149        110
   150         30
   151         20
   152         10
   159         10
   160         10
   161         50
   162         30
   163         30
   164         40
   165         20
   173         10
   175         60
   176         20
   177         20
   178        140
   179         20
   189         10
   190         10
   199         10
   201         10
   203         60
   204         10
   215         30
   216         50
   217         40
   218         40
   219         10
   230         50
   231         20
   232         10
   241         50
   242         10
   246         10
   256         10
   259         70
   260         10
   274        600
   275        120
   276         10