##TITLE=Library Entry 51146
##JCAMP-DX=Revision 4.10 
##DATA TYPE=MASS SPECTRUM
##SAMPLE DESCRIPTION=Japan AIST/NIMC Database- Spectrum MS-NW-3621
##NAMES=HP
##CAS NAME=D-Carvone
##MOLFORM=C10H14O
##CAS REGISTRY NO=2244-16-8
##MP= -300
##BP= -300
##MW= 150
##$RETENTION INDEX=1246
##$CONDENSED SPECTRUM=NO
##NPOINTS= 102
##XYDATA=(XY..XY) 1 
    14          2
    15          9
    26          8
    27        105
    28          4
    29         32
    31          2
    35          1
    37          4
    38         13
    39        231
    40         37
    41        177
    42         14
    43         40
    44          2
    45          6
    46          1
    49          1
    50         17
    51         42
    52         25
    53        122
    54        440
    55         44
    56          3
    57          4
    58         91
    59          5
    60          5
    61          3
    62          6
    63         14
    64          4
    65         36
    66         18
    67         74
    68         23
    69         40
    70          7
    71          4
    72          1
    73          1
    74          4
    75          3
    76          1
    77         63
    78         15
    79        101
    80         53
    81         33
    82        999
    83         57
    84          6
    85          4
    86          1
    87          2
    89          2
    90          3
    91         83
    92         51
    93        268
    94         64
    95         38
    96          8
    97          5
    98         10
    99          1
   102          1
   103          6
   104          2
   105         26
   106        127
   107        171
   108        330
   109         51
   110          6
   111          3
   115          4
   116          2
   117          8
   118          1
   119          9
   120          5
   121         20
   122         20
   123          7
   124          2
   125          1
   131          2
   132          7
   133          4
   134          1
   135         46
   136          5
   137          2
   147          1
   148          5
   149          5
   150         86
   151         10
   152          1