##TITLE=Library Entry 2535
##JCAMP-DX=Revision 4.10 
##DATA TYPE=MASS SPECTRUM
##SAMPLE DESCRIPTION=Japan AIST/NIMC Database- Spectrum MS-NW-5209
##NAMES=HP
##CAS NAME=Undecanenitrile
##MOLFORM=C11H21N
##CAS REGISTRY NO=2244-07-7
##MP= -300
##BP= -300
##MW= 167
##$RETENTION INDEX=0
##$CONDENSED SPECTRUM=NO
##NPOINTS= 112
##XYDATA=(XY..XY) 1 
    14          2
    15         19
    16          1
    26         18
    27        338
    28         35
    29        525
    30         54
    31          5
    32          1
    33          1
    37          3
    38          8
    39        238
    40         46
    41        999
    42        239
    43        954
    44         59
    45         87
    46          3
    47          1
    50          5
    51         15
    52         15
    53         75
    54        529
    55        633
    56        281
    57        591
    58         35
    59          9
    60          1
    62          1
    63          3
    64          3
    65         13
    66         14
    67         84
    68        134
    69        580
    70        297
    71        152
    72         13
    73          6
    74          3
    75          1
    76          1
    77         12
    78          3
    79         60
    80         28
    81         73
    82        675
    83        637
    84        117
    85         66
    86          9
    87          3
    91         13
    92          3
    93         42
    94         27
    95         43
    96        693
    97        857
    98        101
    99          9
   100          1
   101          1
   104          1
   105          5
   106          1
   107         21
   108         14
   109         14
   110        644
   111        285
   112         51
   113          5
   115          1
   118          1
   119          1
   120          2
   121         16
   122         12
   123          5
   124        475
   125         67
   126         16
   127          2
   129          1
   135          3
   136          5
   137          1
   138        226
   139         33
   140         14
   141          2
   143          1
   148          6
   149          5
   150          1
   152         37
   153          4
   157          2
   163          2
   164          1
   166         27
   167          5
   168          7
   169          1