##TITLE=Library Entry 82972
##JCAMP-DX=Revision 4.10 
##DATA TYPE=MASS SPECTRUM
##SAMPLE DESCRIPTION=NIST Mass Spectrometry Data Center
##NAMES=HP
##CAS NAME=Benzeneacetic acid, 2-hydroxy-, methyl ester
##MOLFORM=C9H10O3
##CAS REGISTRY NO=22446-37-3
##MP= -300
##BP= -300
##MW= 166
##$RETENTION INDEX=1371
##$CONDENSED SPECTRUM=NO
##NPOINTS= 81
##XYDATA=(XY..XY) 1 
    15         31
    25          1
    26         12
    27         41
    28          8
    29         43
    30          8
    31         37
    32         19
    33          2
    36          1
    37         15
    38         44
    39        149
    40         13
    41          8
    42          8
    43          9
    44          3
    45          7
    48          1
    49         12
    50        127
    51        281
    52        170
    53        129
    55         22
    56          1
    57          1
    59         57
    60          3
    61         13
    62         33
    63         80
    64         17
    65         24
    66         14
    67         13
    68          3
    69          1
    73          6
    74         28
    75         16
    76         26
    77        682
    78        906
    79        249
    80         15
    81          8
    82          1
    84          1
    85          3
    86          5
    87          4
    88          1
    89         23
    90         14
    91         32
    92          5
    93          3
    94          6
    95         11
    96          1
   103          2
   105         85
   106        999
   107        856
   108         66
   109          6
   121          8
   122          2
   123          7
   124          1
   134        947
   135         97
   136          9
   137          3
   151          4
   166        398
   167         40
   168          4