##TITLE=Library Entry 3300
##JCAMP-DX=Revision 4.10 
##DATA TYPE=MASS SPECTRUM
##SAMPLE DESCRIPTION=V.G. Zaikin, TIPS RAS, Moscow, Russia
##NAMES=HP
##CAS NAME=Cyclopropanecarboxamide, N-(3-bromo-4-chlorophenyl)-
##MOLFORM=C10H9BrClNO
##CAS REGISTRY NO=22444-08-2
##MP= -300
##BP= -300
##MW= 273
##$RETENTION INDEX=0
##$CONDENSED SPECTRUM=NO
##NPOINTS= 137
##XYDATA=(XY..XY) 1 
    25          5
    26         45
    27        119
    28        106
    29         36
    30        195
    35         39
    36         41
    37         76
    38        145
    39        581
    40         98
    41        999
    42         69
    43         36
    44         19
    45          7
    47          9
    48          2
    49         19
    50         39
    51         31
    52         88
    53         37
    54         15
    55         49
    56         21
    57         15
    58          8
    59          7
    60         16
    61         59
    62        115
    63        231
    64         65
    65         27
    67         15
    68         39
    69        815
    70         52
    71          5
    72         29
    73         71
    74         49
    75         75
    76         15
    77         15
    78          5
    79         21
    80          5
    81         11
    82          7
    83          8
    84          9
    85          5
    86         11
    87          8
    88         45
    89         36
    90         89
    91         27
    92          4
    93          9
    94          6
    95         21
    96          9
    97         28
    98         55
    99         45
   100         19
   101         12
   102          7
   103          7
   104          7
   105          4
   106          4
   108          4
   109          9
   110         11
   111          9
   112          9
   113          7
   114          8
   117          9
   119         11
   124         65
   125        153
   126         56
   127         69
   128         19
   129          9
   130         19
   131         11
   133          4
   134          4
   135          4
   136          4
   137          8
   138          7
   139          8
   140          8
   141         11
   143          9
   145          7
   151          4
   152          6
   153          6
   157          4
   159          6
   164         11
   165          6
   167          6
   168          4
   169          7
   170          7
   177         33
   179         69
   180          6
   181          8
   182          2
   189          2
   193         15
   194        127
   195         19
   196         39
   204         31
   205        207
   206         65
   207        271
   208         38
   209         81
   210          9
   273         35
   274          2
   275         59
   276          4
   277          9