##TITLE=Library Entry 69505
##JCAMP-DX=Revision 4.10 
##DATA TYPE=MASS SPECTRUM
##SAMPLE DESCRIPTION=Chemical Concepts
##NAMES=HP
##CAS NAME=2,4(1H,3H)-Pyrimidinedione, 1-(2-hydroxyethyl)-5-methyl-
##MOLFORM=C7H10N2O3
##CAS REGISTRY NO=22441-51-6
##MP= -300
##BP= -300
##MW= 170
##$RETENTION INDEX=0
##$CONDENSED SPECTRUM=NO
##NPOINTS= 43
##XYDATA=(XY..XY) 1 
    26         23
    27         87
    28         83
    29         36
    30         11
    31         55
    38         22
    39        133
    40         47
    41        294
    42         84
    43         47
    44         31
    45         73
    52         26
    53         17
    54         47
    55        123
    56         18
    66         20
    67         35
    68         89
    69         65
    70         26
    80         18
    81          8
    82         25
    83         35
    96        999
    97         82
    98         15
   109         12
   110          9
   126        490
   127        112
   139        157
   140        115
   141         13
   152          6
   168          8
   169          7
   170        246
   171         22