##TITLE=Library Entry 96692
##JCAMP-DX=Revision 4.10 
##DATA TYPE=MASS SPECTRUM
##SAMPLE DESCRIPTION=NIST Mass Spectrometry Data Center, 1994
##NAMES=HP
##CAS NAME=Benzonitrile, 3,5-dimethyl-
##MOLFORM=C9H9N
##CAS REGISTRY NO=22445-42-7
##MP= -300
##BP= -300
##MW= 131
##$RETENTION INDEX=0
##$CONDENSED SPECTRUM=NO
##NPOINTS= 57
##XYDATA=(XY..XY) 1 
    14          4
    15         25
    26         18
    27         83
    28          8
    37         25
    38         49
    39        152
    40         14
    41         16
    48          1
    49         11
    50         90
    51        152
    52         55
    53         23
    54          3
    61         23
    62         49
    63        106
    64         53
    65         35
    66          6
    73          6
    74         32
    75         52
    76         67
    77        151
    78         49
    79          9
    80          1
    85          3
    86          9
    87         16
    88         29
    89        116
    90         22
    91         33
    92          4
    98          4
    99          7
   100          7
   101         21
   102         50
   103        127
   104         64
   105          9
   114          9
   116        999
   117         91
   118          4
   127          5
   128         19
   130        209
   131        545
   132         56
   133          2