##TITLE=Library Entry 23461
##JCAMP-DX=Revision 4.10 
##DATA TYPE=MASS SPECTRUM
##SAMPLE DESCRIPTION=CARL DJERASSI DEPT OF CHEM STANFORD UNIV STANFORD CALIF
 94305
##NAMES=HP
##CAS NAME=Oxirane, (2,2-dimethylpropyl)-
##MOLFORM=C7H14O
##CAS REGISTRY NO=2245-29-6
##MP= -300
##BP= -300
##MW= 114
##$RETENTION INDEX=0
##$CONDENSED SPECTRUM=NO
##NPOINTS= 23
##XYDATA=(XY..XY) 1 
    41        940
    42         70
    43        320
    44         10
    50         20
    51         30
    52         10
    53         80
    54         10
    55        190
    56        180
    57        999
    58        240
    59         30
    65         10
    67         20
    69        120
    70         10
    71         70
    79         30
    81        170
    97         10
    99         90