##TITLE=Library Entry 20327
##JCAMP-DX=Revision 4.10 
##DATA TYPE=MASS SPECTRUM
##SAMPLE DESCRIPTION=NIST Mass Spectrometry Data Center
##NAMES=HP
##CAS NAME=3,3-Dimethyl-1,2-epoxybutane
##MOLFORM=C6H12O
##CAS REGISTRY NO=2245-30-9
##MP= -300
##BP= -300
##MW= 100
##$RETENTION INDEX=705
##$CONDENSED SPECTRUM=NO
##NPOINTS= 41
##XYDATA=(XY..XY) 1 
    12          1
    13          6
    14         31
    15        144
    16          3
    18          1
    26         33
    27        293
    28         56
    29        400
    30         20
    31         12
    37         12
    38         41
    39        354
    40         50
    41        378
    42        264
    43        121
    44          3
    49          3
    50         26
    51         33
    52         12
    53         83
    55        999
    56         65
    57        124
    58          6
    62          1
    63          2
    65          3
    66          1
    67         11
    70        469
    71         25
    72          1
    83          2
    85         83
    86          4
    99          1