##TITLE=Library Entry 13628
##JCAMP-DX=Revision 4.10 
##DATA TYPE=MASS SPECTRUM
##SAMPLE DESCRIPTION=NIST Mass Spectrometry Data Center
##NAMES=HP
##CAS NAME=4-Bromo-3-chloroacetanilide
##MOLFORM=C8H7BrClNO
##CAS REGISTRY NO=22459-81-0
##MP= -300
##BP= -300
##MW= 247
##$RETENTION INDEX=0
##$CONDENSED SPECTRUM=NO
##NPOINTS= 141
##XYDATA=(XY..XY) 1 
    13          1
    14          5
    15         53
    26          4
    27          4
    29          3
    35          2
    36          4
    37         33
    38         39
    39         30
    40         15
    41         33
    42         53
    43        999
    44         26
    47          4
    48          2
    49         19
    50         35
    51         18
    52         37
    53          3
    54          2
    55          1
    60         10
    61         72
    62        161
    63        299
    64         70
    65         26
    66          4
    71          3
    72         21
    73         63
    74         65
    75         64
    76         11
    77          8
    78          3
    79          5
    80          1
    81          4
    82          1
    84         12
    85          5
    86         13
    87         15
    88         33
    89         39
    90        232
    91         79
    92          5
    93          2
    95          2
    96          4
    97         48
    98         38
    99        153
   100         24
   101         46
   102          6
   103          2
   104         10
   105          5
   106          1
   108          3
   109         11
   110         23
   111          9
   112          9
   113          3
   114          1
   115          2
   116          9
   117         19
   118          9
   119         15
   120          1
   121          1
   123          1
   124         52
   125        103
   126        249
   127         59
   128         78
   129         16
   130          2
   131          3
   132          4
   133          7
   134          1
   136          1
   138          6
   139          8
   140          6
   141         10
   142          4
   143         19
   144          3
   145         12
   151         10
   152          1
   153         16
   154          1
   155          6
   167         12
   168          8
   169         21
   170         13
   171         17
   172          7
   177         38
   178          4
   179         50
   180          4
   181         12
   182          1
   189          5
   191          6
   193          1
   203          3
   204         19
   205        694
   206         73
   207        832
   208         63
   209        201
   210         13
   218          2
   220          2
   231          2
   232          1
   233          3
   234          2
   247        144
   248         15
   249        184
   250         18
   251         45
   252          4