##TITLE=Library Entry 51946
##JCAMP-DX=Revision 4.10 
##DATA TYPE=MASS SPECTRUM
##SAMPLE DESCRIPTION=Chemical Concepts
##NAMES=HP
##CAS NAME=Cyclohexanone, 3-ethyl-
##MOLFORM=C8H14O
##CAS REGISTRY NO=22461-89-8
##MP= -300
##BP= -300
##MW= 126
##$RETENTION INDEX=0
##$CONDENSED SPECTRUM=NO
##NPOINTS= 60
##XYDATA=(XY..XY) 1 
    26         19
    27        277
    28          3
    29        217
    30          9
    31         12
    37          3
    38         19
    39        332
    40         10
    41        801
    42        223
    43         81
    44          5
    45          6
    50          9
    51         33
    52         10
    53         80
    54         45
    55        491
    56        187
    57         23
    58         12
    59          5
    60          3
    63          9
    65         15
    66         14
    67        128
    68         62
    69        214
    70        277
    71         18
    72          5
    74          2
    77         14
    78          6
    79         31
    80          2
    81         13
    82        218
    83        999
    84         87
    85          4
    86         16
    93         32
    95          4
    96          3
    97        739
    98        145
    99         13
   105          4
   107          4
   108          5
   111         35
   112          3
   125          4
   126        310
   127         22