##TITLE=Library Entry 38172
##JCAMP-DX=Revision 4.10 
##DATA TYPE=MASS SPECTRUM
##SAMPLE DESCRIPTION=Chemical Concepts
##NAMES=HP
##CAS NAME=1,7-Octadien-3-ol, 2,6-dimethyl-
##MOLFORM=C10H18O
##CAS REGISTRY NO=22460-59-9
##MP= -300
##BP= -300
##MW= 154
##$RETENTION INDEX=1095
##$CONDENSED SPECTRUM=NO
##NPOINTS= 83
##XYDATA=(XY..XY) 1 
    25          2
    26          3
    27        451
    28         28
    29        288
    30          7
    31         53
    36          1
    37          6
    38         20
    39        351
    40         66
    41        689
    42         84
    43        561
    44         28
    45         24
    49          2
    50         14
    51         40
    52         20
    53        166
    54         51
    55        379
    56        120
    57         89
    58         93
    59         12
    62          4
    63          9
    64          3
    65         27
    66         17
    67        169
    68        184
    69        253
    70         68
    71        999
    72        145
    73         14
    75          1
    77         31
    78          9
    79         72
    80         24
    81        116
    82         73
    83        126
    84        108
    85         51
    86         41
    87          2
    91         21
    92         13
    93         93
    94         31
    95         62
    96         25
    97        187
    98         64
    99         13
   103          2
   105          8
   106          3
   107         46
   108         23
   109         11
   110          9
   111         58
   112         12
   119          3
   121         41
   122          5
   123         21
   124          4
   125         29
   126         26
   127          3
   136         14
   137          5
   139         48
   140          4
   154          4