##TITLE=Library Entry 86701
##JCAMP-DX=Revision 4.10 
##DATA TYPE=MASS SPECTRUM
##SAMPLE DESCRIPTION=Japan AIST/NIMC Database- Spectrum MS-NW-7144
##NAMES=HP
##CAS NAME=4-(2-Thiazolylazo)resorcinol
##MOLFORM=C9H7N3O2S
##CAS REGISTRY NO=2246-46-0
##MP= -300
##BP= -300
##MW= 221
##$RETENTION INDEX=0
##$CONDENSED SPECTRUM=NO
##NPOINTS= 184
##XYDATA=(XY..XY) 1 
    12          1
    13          2
    14          7
    15          6
    16          1
    25          6
    26         40
    27        128
    28         76
    29         40
    30          2
    31         11
    32         10
    33          4
    34          2
    36          3
    37         18
    38         47
    39        232
    40         58
    41         55
    42         51
    43         20
    44         19
    45        186
    46         23
    47         10
    48          2
    49          8
    50         51
    51        117
    52        214
    53        265
    54         45
    55        207
    56          9
    57         81
    58        233
    59         56
    60         15
    61          9
    62         15
    63         61
    64         17
    65         26
    66         45
    67         52
    68         63
    69        319
    70         25
    71         24
    72          9
    73         26
    74          4
    75          8
    76         15
    77         25
    78         27
    79         61
    80        201
    81        572
    82         39
    83         13
    84         33
    85         66
    86        119
    87         10
    88          7
    89          3
    90          3
    91          8
    92         12
    93         21
    94         19
    95         98
    96         16
    97          8
    98         11
    99         27
   100         97
   101         12
   102          8
   103          2
   104         11
   105          6
   106          5
   107          6
   108         62
   109        999
   110         80
   111         13
   112         12
   113          3
   114          2
   115          2
   116          1
   117          1
   118          1
   119          2
   120        109
   121         17
   122         52
   123         25
   124         16
   125         18
   126         13
   127          7
   128          2
   129          1
   130          1
   132         18
   133          5
   134          3
   135         20
   136        101
   137        380
   138         37
   139         11
   140          2
   141          2
   142          1
   144          1
   146          1
   147          3
   148         36
   149          7
   150          7
   151          7
   152         24
   153          4
   154          2
   155          1
   160          4
   161          1
   163          6
   164         30
   165        108
   166         14
   167         24
   168          4
   169          2
   170          1
   171          1
   172          1
   173          1
   174          1
   175          2
   176         10
   177          2
   178         12
   179          3
   180          2
   181          1
   182          1
   183          2
   184          1
   185          1
   186          1
   187          1
   188          2
   189          1
   190          1
   191          3
   192         90
   193        521
   194         65
   195         32
   196          4
   197          1
   200          1
   201          1
   202          1
   203          2
   204          6
   205          1
   206          1
   218          1
   219          2
   220         20
   221        821
   222        104
   223         51
   224          6
   225          1