##TITLE=Library Entry 2085
##JCAMP-DX=Revision 4.10 
##DATA TYPE=MASS SPECTRUM
##SAMPLE DESCRIPTION=NIST Mass Spectrometry Data Center, 1994
##NAMES=HP
##CAS NAME=Ethyl (+)-camphorcarboxylate
##MOLFORM=C13H20O3
##CAS REGISTRY NO=22469-70-1
##MP= -300
##BP= -300
##MW= 224
##$RETENTION INDEX=0
##$CONDENSED SPECTRUM=NO
##NPOINTS= 128
##XYDATA=(XY..XY) 1 
    12          7
    13          8
    14         21
    15         80
    16          6
    18          3
    19         11
    25          6
    26         54
    27        560
    28        127
    29        766
    30         36
    31        145
    37          6
    38         30
    39        559
    40        134
    41        999
    42         95
    43        312
    44         35
    45         79
    46         21
    50         29
    51        109
    52         54
    53        285
    54         67
    55        689
    56         49
    57         55
    60          4
    61          4
    62          7
    63         28
    64         10
    65        130
    66         72
    67        339
    68        252
    69        308
    70         46
    71         22
    73         10
    77        187
    78         37
    79        255
    80         59
    81        243
    82         72
    83        608
    84         53
    85         18
    86        120
    87         33
    89          6
    91        201
    92         32
    93        252
    94         75
    95        691
    96         81
    97         59
    98          8
    99         24
   100          8
   101          3
   103          9
   104          4
   105         52
   106          3
   107        346
   108        400
   109        340
   110         94
   111         48
   112         54
   113         23
   114        199
   115         89
   116         12
   117         13
   119         17
   121         81
   122        169
   123        207
   124         32
   125         61
   126          8
   127         26
   128         26
   131          7
   132         63
   133         33
   134          7
   135        236
   136         98
   137         36
   138          4
   139         21
   140         25
   141          7
   142          9
   149         19
   150         99
   151        367
   152         54
   153        141
   154         69
   155         18
   160         11
   163         45
   164          5
   167         10
   168         53
   169          7
   178        119
   179        152
   180         30
   181        250
   182         32
   196         40
   197          6
   209         32
   224        145
   225         21
   226          1