##TITLE=Library Entry 58225
##JCAMP-DX=Revision 4.10 
##DATA TYPE=MASS SPECTRUM
##SAMPLE DESCRIPTION=Japan AIST/NIMC Database- Spectrum MS-IW- 143
##NAMES=HP
##CAS NAME=o-Phenyl 2-(p-fluorophenyl)-4,4-dimethyl-1,3-dithioallophanate
##MOLFORM=C16H15FN2OS2
##CAS REGISTRY NO=22477-02-7
##MP= -300
##BP= -300
##MW= 334
##$RETENTION INDEX=0
##$CONDENSED SPECTRUM=NO
##NPOINTS= 126
##XYDATA=(XY..XY) 1 
    15          6
    27          2
    28          1
    30          4
    32          2
    37          1
    38          3
    39         16
    40          2
    41          1
    42         32
    43          7
    44         21
    45          7
    46          1
    47         13
    49          1
    50          9
    51         25
    52          2
    55          1
    56         15
    57          5
    58          1
    59          1
    60          1
    61          9
    62          3
    63          6
    64          2
    65         18
    66          4
    68          3
    69          9
    70          3
    71          2
    72        233
    73         45
    74          8
    75         40
    76         13
    77        126
    78          9
    81          2
    82          5
    83          8
    87          5
    88        999
    89         47
    90         46
    91          4
    92          1
    93          7
    94         26
    95        108
    96          9
    97          1
    99          3
   102          3
   105          4
   108          4
   109         30
   110          4
   111          3
   114          1
   120          2
   121         14
   122          5
   123          1
   124          1
   126         11
   127         13
   128          1
   133          8
   134          1
   135          1
   137          5
   139          1
   147          1
   149          4
   150         22
   151          2
   152          2
   153        232
   154         30
   155         11
   156          1
   165        130
   166         15
   167          2
   168          2
   169          4
   170          1
   171          8
   172          1
   181         55
   182         11
   183          3
   185          1
   186         16
   187          2
   196         18
   197          8
   198          1
   207         21
   208          4
   209          1
   214        159
   215         22
   216          2
   225        258
   226         31
   227         13
   228          1
   230          1
   239          1
   241         47
   242          6
   243          5
   246          1
   257          4
   258          2
   334        164
   335         32
   336         17
   337          3