##TITLE=Library Entry 57812
##JCAMP-DX=Revision 4.10 
##DATA TYPE=MASS SPECTRUM
##SAMPLE DESCRIPTION=Japan AIST/NIMC Database- Spectrum MS-IW- 150
##NAMES=HP
##CAS NAME=o-(p-Thiocyanatophenyl) 4,4-dimethyl-2-phenyl-1,3-dithioallophana
te
##MOLFORM=C17H15N3OS3
##CAS REGISTRY NO=22477-13-0
##MP= -300
##BP= -300
##MW= 373
##$RETENTION INDEX=0
##$CONDENSED SPECTRUM=NO
##NPOINTS= 146
##XYDATA=(XY..XY) 1 
    15          9
    26          1
    27          8
    28          2
    29          1
    30          2
    32          3
    34          1
    37          3
    38          6
    39         10
    40          1
    41          2
    42         33
    43          6
    44         20
    45         14
    46          2
    47         14
    49          2
    50         22
    51         58
    52          6
    53          2
    54          3
    55          1
    56         16
    57          2
    58          3
    59          2
    60          2
    61          9
    62          4
    63         17
    64         11
    65          7
    66          1
    67         11
    68          1
    69         10
    70          8
    71          3
    72        611
    73         54
    74         10
    75          9
    76         48
    77        206
    78         18
    79          2
    81          2
    82          4
    83          2
    84          4
    87          4
    88        999
    89         47
    90         63
    91         23
    92          3
    93          3
    94          1
    95          3
    96          9
    97          3
    98          1
    99          2
   102          1
   103          8
   104          4
   105          3
   106          2
   107          6
   108         19
   109         10
   110          2
   111          1
   114          1
   119          6
   120          2
   121          1
   122          6
   123          5
   124          3
   125          2
   126          5
   131          6
   132         31
   133          5
   134         23
   135        350
   136         37
   137         17
   138          1
   139          1
   147        175
   148         19
   149          2
   150          5
   151         21
   152          2
   153          5
   162          3
   163          2
   164          2
   165          1
   166          5
   167          9
   168          1
   178          1
   179          3
   180          2
   190          2
   194          1
   195          9
   196          1
   204          1
   205          1
   207        232
   208         29
   209         11
   210          1
   213          1
   222          1
   223         24
   224          4
   225          3
   226          1
   238         32
   239          8
   240          4
   241          1
   253         54
   254          9
   255          3
   264          5
   265          1
   296          1
   297         26
   298          5
   299          1
   300          2
   373         52
   374         10
   375          8
   376          1