##TITLE=Library Entry 83479
##JCAMP-DX=Revision 4.10 
##DATA TYPE=MASS SPECTRUM
##SAMPLE DESCRIPTION=ASES Database, Dalian Institute, P.R. China
##NAMES=HP
##CAS NAME=Pentafluorophenyl-tetra-fluorophosphorane
##MOLFORM=C6F9P
##CAS REGISTRY NO=22474-70-0
##MP= -300
##BP= -300
##MW= 274
##$RETENTION INDEX=0
##$CONDENSED SPECTRUM=NO
##NPOINTS= 11
##XYDATA=(XY..XY) 1 
    69        337
    88          9
   107        999
   117        209
   129         20
   148         80
   167         79
   217          9
   236        100
   255        190
   274        190