##TITLE=Library Entry 22015
##JCAMP-DX=Revision 4.10 
##DATA TYPE=MASS SPECTRUM
##SAMPLE DESCRIPTION=NIST Mass Spectrometry Data Center, 1990.
##NAMES=HP
##CAS NAME=2-Heptene, 5-methyl-
##MOLFORM=C8H16
##CAS REGISTRY NO=22487-87-2
##MP= -300
##BP= -300
##MW= 112
##$RETENTION INDEX=805
##$CONDENSED SPECTRUM=NO
##NPOINTS= 33
##XYDATA=(XY..XY) 1 
    27        194
    28        124
    29        294
    39        336
    40         79
    41        809
    42         81
    43         45
    44         21
    50         33
    51         65
    52         27
    53        144
    54        126
    55        798
    56        999
    57        742
    58         31
    65         32
    66         17
    67        114
    68         30
    69         71
    70        320
    71         37
    77         28
    79         27
    81         22
    82         21
    83        156
    84         82
   112        296
   113         25