##TITLE=Library Entry 36322
##JCAMP-DX=Revision 4.10 
##DATA TYPE=MASS SPECTRUM
##SAMPLE DESCRIPTION=B. Derendyaev, Novosibirsk Institute of Organic Chemist
ry
##NAMES=HP
##CAS NAME=Grossheimin
##MOLFORM=C15H18O4
##CAS REGISTRY NO=22489-66-3
##MP= -300
##BP= -300
##MW= 262
##$RETENTION INDEX=0
##$CONDENSED SPECTRUM=NO
##NPOINTS= 158
##XYDATA=(XY..XY) 1 
    40         38
    41        441
    42         38
    43        109
    44         10
    45          9
    47        131
    49         11
    51         36
    52         23
    53        103
    54         24
    55        127
    56         25
    57         48
    58          9
    59          9
    60         29
    63          8
    64          6
    65         69
    66         35
    67        197
    68        227
    69        999
    70         77
    71         85
    72          7
    77        125
    78         27
    79        148
    80         57
    81        114
    82         62
    83         46
    84         28
    85         11
    87          6
    91        136
    92         29
    93        219
    94         47
    95        145
    96        125
    97        222
    98        108
    99         27
   103         11
   104          8
   105         60
   106         29
   107         65
   108         46
   109        185
   110         51
   111         26
   112          8
   113          5
   115         19
   116          9
   117        166
   118         20
   119        184
   120         32
   121        191
   122         82
   123        171
   124         61
   125         59
   126         13
   127          8
   128         12
   129         14
   130          9
   131         37
   132         10
   133         32
   134         16
   135         32
   136        435
   137        460
   138        133
   139         25
   140         10
   141         15
   142         34
   143         14
   144          9
   145         40
   146         36
   147         50
   148         53
   149        110
   150         24
   151         30
   152          7
   153          7
   155          8
   156          6
   157         11
   158          8
   159         39
   160         27
   161         37
   162         29
   163         40
   164         57
   165        297
   166        279
   167         46
   168         10
   169          9
   171         15
   172         11
   173         60
   174         51
   175         46
   176         53
   177         28
   178         22
   179         15
   185          7
   186          8
   187         33
   188         49
   189         32
   190         29
   191         43
   192         27
   193         21
   194          5
   198          8
   199          9
   200        110
   201         57
   202         79
   203         21
   204         10
   205         11
   206         13
   215         17
   216         75
   217         25
   218         33
   219         57
   220         22
   226          7
   229         17
   233         21
   234         40
   235          8
   244        386
   245         73
   246          9
   247          8
   262        421
   263         70
   264          5