##TITLE=Library Entry 45148
##JCAMP-DX=Revision 4.10 
##DATA TYPE=MASS SPECTRUM
##SAMPLE DESCRIPTION=Chuck Anderson, Aldrich Chemical Co.
##NAMES=HP
##CAS NAME=Aminoacetaldehyde dimethyl acetal
##MOLFORM=C4H11NO2
##CAS REGISTRY NO=22483-09-6
##MP= -300
##BP= -300
##MW= 105
##$RETENTION INDEX=0
##$CONDENSED SPECTRUM=NO
##NPOINTS= 43
##XYDATA=(XY..XY) 1 
    14          4
    15         34
    16          1
    17          1
    18          8
    26          1
    27         11
    28         78
    29         66
    30        236
    31        130
    32          4
    33         13
    39          1
    40          6
    41         18
    42        239
    43         54
    44        212
    45         96
    46          4
    47        273
    48          6
    49          0
    55          0
    56         16
    57          5
    58         36
    59         39
    60          2
    61          1
    71          1
    72         12
    73          8
    74        253
    75        999
    76         38
    77          5
    86          0
    88          3
   104          1
   105          1
   106          4