##TITLE=Library Entry 3946
##JCAMP-DX=Revision 4.10 
##DATA TYPE=MASS SPECTRUM
##SAMPLE DESCRIPTION=Div. of Experiment Therapeutics WRAIR, WRAMC, Washingto
n DC 20307
##NAMES=HP
##CAS NAME=Cyclooctanol, o-[5-[1-cycloazapropyl]-n-pentyl]-
##MOLFORM=C15H29NO
##CAS REGISTRY NO=22498-18-6
##MP= -300
##BP= -300
##MW= 239
##$RETENTION INDEX=0
##$CONDENSED SPECTRUM=NO
##NPOINTS= 94
##XYDATA=(XY..XY) 1 
    41        999
    42        518
    43        425
    44        523
    46         83
    47          5
    49         65
    51         28
    53         73
    54         48
    55        545
    56        597
    57        372
    58        126
    59          8
    60          1
    61          0
    63          1
    65         11
    67        120
    69        521
    71        414
    72         20
    73          2
    74          6
    77          7
    79         16
    81         36
    82         69
    83         26
    84        381
    85        123
    86         20
    87          8
    88          5
    90          0
    91          4
    93          3
    94          1
    95         10
    96         27
    98        180
    99        113
   100         26
   101          3
   102          2
   103          1
   105          1
   107          3
   108          7
   109          5
   110         20
   112        882
   113         88
   114         12
   115          3
   121          1
   123          2
   124          2
   125          3
   126          3
   128        481
   129         40
   130         36
   131          3
   133          0
   135          1
   137          1
   138          3
   140          5
   141          1
   142          1
   149          1
   151          1
   152          2
   153          0
   154          3
   155          1
   156          1
   166          3
   168          7
   169          1
   170          0
   180          1
   182          3
   183          0
   194          1
   196          3
   198          0
   210          1
   224          0
   238          2
   239         16
   240          2