##TITLE=Library Entry 8084
##JCAMP-DX=Revision 4.10 
##DATA TYPE=MASS SPECTRUM
##SAMPLE DESCRIPTION=NIST Mass Spectrometry Data Center
##NAMES=HP
##CAS NAME=2-Methoxyethyl acetoacetate
##MOLFORM=C7H12O4
##CAS REGISTRY NO=22502-03-0
##MP= -300
##BP= -300
##MW= 160
##$RETENTION INDEX=0
##$CONDENSED SPECTRUM=NO
##NPOINTS= 65
##XYDATA=(XY..XY) 1 
    13          1
    14          7
    15         85
    16          2
    19          1
    25          2
    26         18
    27         58
    28          7
    29        183
    30         12
    31         97
    32          1
    33          4
    37          2
    38          5
    39         18
    40          4
    41         25
    42        142
    43        999
    44         33
    45        622
    46         15
    47          7
    53          2
    55          7
    56          3
    57          7
    58        696
    59        162
    60          7
    61          2
    69         39
    70          5
    71          3
    72          5
    73         24
    74          2
    75         10
    76          4
    77         17
    84         24
    85        252
    86         33
    87         19
    88          5
    99          1
   100          1
   101          1
   102         24
   103         22
   104          1
   112          1
   113         14
   114          1
   115          6
   117          2
   118          5
   129          1
   130         19
   131          1
   142          6
   145          2
   160          5