##TITLE=Library Entry 100158
##JCAMP-DX=Revision 4.10 
##DATA TYPE=MASS SPECTRUM
##SAMPLE DESCRIPTION=J.M. MILLER,BROCK UNIVERSITY,ONTARIO,CANADA
##NAMES=HP
##CAS NAME=Germane, trimethyl[(pentafluorophenyl)thio]-
##MOLFORM=C9H9F5GeS
##CAS REGISTRY NO=22529-99-3
##MP= -300
##BP= -300
##MW= 318
##$RETENTION INDEX=0
##$CONDENSED SPECTRUM=NO
##NPOINTS= 99
##XYDATA=(XY..XY) 1 
    43        210
    44         32
    45         39
    63         51
    69         38
    70         14
    71         24
    72         19
    73         33
    74         29
    75         39
    77         14
    78         22
    79         19
    84         13
    85         86
    86         21
    87        146
    88         54
    89        196
    90         18
    91        123
    92         33
    93        140
    95         36
    98         19
    99         22
   100         44
   101         17
   102         46
   103         31
   104         60
   105         24
   106         25
   107          8
   108         13
   111         54
   115        556
   117        764
   118        292
   119        999
   120         47
   121        396
   122         60
   123        236
   124         15
   125         60
   130         16
   131         20
   135         18
   136         26
   137         31
   139         33
   141         15
   149         33
   150         34
   155         81
   156         40
   161         33
   163         23
   167         10
   168         63
   180         28
   181         28
   184         28
   195         56
   199         78
   200        197
   201         23
   202         14
   235         11
   237         14
   238          8
   239         11
   253          8
   255          9
   269         17
   271         23
   273         26
   283         11
   284         35
   285         13
   286         44
   287         24
   288         51
   289          8
   290         15
   299         58
   300         16
   301         78
   302         36
   303        104
   304         16
   305         31
   314         35
   316         49
   317         23
   318         63
   320         21