##TITLE=Library Entry 29992
##JCAMP-DX=Revision 4.10 
##DATA TYPE=MASS SPECTRUM
##SAMPLE DESCRIPTION=R.ERRA BALSELLS,DEP. QUIM. ORG.,CITY UNIV. BUENOS AIRES
,ARGENT
##NAMES=HP
##CAS NAME=meso-3,4-Hexanediol
##MOLFORM=C6H14O2
##CAS REGISTRY NO=22520-39-4
##MP= -300
##BP= -300
##MW= 118
##$RETENTION INDEX=0
##$CONDENSED SPECTRUM=NO
##NPOINTS= 11
##XYDATA=(XY..XY) 1 
    27        200
    29        180
    30         60
    41        310
    43        210
    55         90
    57        130
    58        400
    59        999
    69         80
    71         20