##TITLE=Library Entry 40926
##JCAMP-DX=Revision 4.10 
##DATA TYPE=MASS SPECTRUM
##SAMPLE DESCRIPTION=R.ERRA BALSELLS,DEP. QUIM. ORG.,CITY UNIV. BUENOS AIRES
,ARGENT
##NAMES=HP
##CAS NAME=(SS)- or (RR)-2,3-hexanediol
##MOLFORM=C6H14O2
##CAS REGISTRY NO=22520-19-0
##MP= -300
##BP= -300
##MW= 118
##$RETENTION INDEX=0
##$CONDENSED SPECTRUM=NO
##NPOINTS= 14
##XYDATA=(XY..XY) 1 
    27        170
    28         70
    29        140
    30        110
    41        270
    43        560
    45        620
    54         60
    55        750
    57        230
    69         10
    71         20
    72        210
    73        999