##TITLE=Library Entry 43064
##JCAMP-DX=Revision 4.10 
##DATA TYPE=MASS SPECTRUM
##SAMPLE DESCRIPTION=J.M. MILLER,BROCK UNIVERSITY,ONTARIO,CANADA
##NAMES=HP
##CAS NAME=Pentafluoroaniline, TMS derivative
##MOLFORM=C9H10F5NSi
##CAS REGISTRY NO=22529-97-1
##MP= -300
##BP= -300
##MW= 255
##$RETENTION INDEX=0
##$CONDENSED SPECTRUM=NO
##NPOINTS= 83
##XYDATA=(XY..XY) 1 
    31        133
    42         26
    43        260
    45        162
    47        170
    49        139
    51         36
    52         43
    55         36
    56         18
    57         32
    58        183
    59         67
    63        115
    66        145
    69        103
    70         57
    73        999
    74        104
    75         26
    77         50
    78          4
    79          5
    81         30
    82          4
    83         33
    85         68
    86         36
    87         52
    91         83
    93        116
    94         50
    95         22
    98         38
    99         56
   100         46
   101         20
   105         41
   106         81
   108         23
   111         25
   112         22
   113        266
   117        196
   120        100
   124         37
   127         25
   131         65
   132         40
   133         77
   136        173
   137        102
   140         59
   143         26
   144        206
   145         82
   147        106
   148         20
   149         10
   152         54
   155        187
   156         97
   157         17
   158        186
   159         24
   160         19
   163        135
   164         33
   165         18
   168         67
   174         22
   179         41
   182         67
   183        799
   184         67
   213         19
   220         34
   240        145
   241         36
   242         13
   255        606
   256        180
   257         43