##TITLE=Library Entry 14336
##JCAMP-DX=Revision 4.10 
##DATA TYPE=MASS SPECTRUM
##SAMPLE DESCRIPTION=A.A.Kutin, Moscow, Russia
##NAMES=HP
##CAS NAME=Benzofurane-5-carboxylic acid, 3-(2-benzofuroyl)-, methyl ester
##MOLFORM=C19H12O5
##CAS REGISTRY NO=225217-51-6
##MP= -300
##BP= -300
##MW= 320
##$RETENTION INDEX=0
##$CONDENSED SPECTRUM=NO
##NPOINTS= 136
##XYDATA=(XY..XY) 1 
    29          9
    30          0
    38          1
    39         32
    40          1
    42         17
    43        999
    44         26
    45          1
    50         16
    51         34
    52          0
    53          4
    54          9
    55          0
    59          0
    62          8
    63         62
    64          2
    65          0
    74          1
    75          9
    76         36
    77         23
    78          1
    79          4
    80          0
    82         27
    87          6
    88         24
    89        322
    90         33
    91          2
   100          0
   101          1
   102          1
   103          0
   104         20
   105        110
   106          5
   110          0
   112          0
   113          0
   114          1
   115          5
   116          4
   118          4
   119          0
   125          0
   126          1
   129          0
   130          2
   131          6
   132         10
   133         50
   134          2
   137          0
   138          7
   139         54
   140          8
   141          0
   142          0
   143          0
   144         10
   145        228
   146         17
   148          0
   150          5
   151          6
   159          1
   160         45
   161        394
   162         45
   163         33
   164         30
   165        134
   166         24
   167          2
   168         13
   169          0
   170          0
   171          0
   174          0
   175          0
   176         11
   177          1
   178          1
   179          1
   180          0
   181          0
   190          0
   191          0
   192         14
   193         20
   194         26
   195          5
   200          0
   203          2
   204          1
   205         21
   206          1
   210          0
   219          0
   220          6
   221         81
   222         19
   223          2
   231          0
   233          0
   234          9
   235          0
   249         19
   250         94
   251         14
   252          0
   259          0
   260         12
   261        113
   262         22
   263          1
   270          0
   275          1
   276         14
   277        163
   278        952
   279        148
   280         24
   281          0
   291          0
   301          0
   310          0
   318          0
   319         25
   320        146
   321         88
   322         13