##TITLE=Library Entry 48544
##JCAMP-DX=Revision 4.10 
##DATA TYPE=MASS SPECTRUM
##SAMPLE DESCRIPTION=Exported from NIST MS Search
##NAMES=HP
##CAS NAME=1,4-Cyclohexadiene-1-methanol, 4-(1-methylethyl)-
##MOLFORM=C10H16O
##CAS REGISTRY NO=22539-72-6
##MP= -300
##BP= -300
##MW= 152
##$RETENTION INDEX=1330
##$CONDENSED SPECTRUM=NO
##NPOINTS= 70
##XYDATA=(XY..XY) 1 
    27         83
    28          8
    29         39
    31         78
    39         83
    40         12
    41        144
    42         10
    43        483
    44         18
    50         12
    51         45
    52         19
    53         48
    54          8
    55         43
    56          6
    57         15
    58          7
    59          7
    60          9
    61          6
    63         17
    64          6
    65         47
    66         17
    67         74
    68         10
    69         17
    70          5
    75         12
    76          5
    77        144
    78         50
    79        999
    80         78
    81         78
    82         11
    83          8
    89          7
    90          9
    91        408
    92        248
    93         78
    94          8
    95         31
    96         21
   103         19
   104         10
   105         87
   106         14
   107         87
   108         83
   109         91
   110         11
   115         11
   117         21
   118          6
   119         92
   120         25
   121        100
   122          9
   123          9
   133          6
   134        144
   135         45
   136          6
   137          7
   150         13
   152         27