##TITLE=Library Entry 63397
##JCAMP-DX=Revision 4.10 
##DATA TYPE=MASS SPECTRUM
##SAMPLE DESCRIPTION=Japan AIST/NIMC Database- Spectrum MS-IW-7915
##NAMES=HP
##CAS NAME=Alpha-phenyl-alpha-tropylacetaldehyde tosylhydrazone
##MOLFORM=C22H22N2O2S
##CAS REGISTRY NO=22532-16-7
##MP= -300
##BP= -300
##MW= 378
##$RETENTION INDEX=0
##$CONDENSED SPECTRUM=NO
##NPOINTS= 167
##XYDATA=(XY..XY) 1 
    14          1
    17          9
    18         13
    26          2
    27          9
    28         22
    29          1
    32          2
    34          2
    37          3
    38          9
    39         58
    40          5
    41         13
    42          1
    43          6
    44          4
    45         20
    46          3
    47          1
    48          9
    49          3
    50         23
    51         55
    52         16
    53          6
    55          3
    56          1
    57          4
    58          2
    59          1
    60          5
    61          9
    62         20
    63         55
    64         39
    65        199
    66         13
    67          9
    68          1
    69          8
    70          3
    71          4
    73          2
    74         10
    75         12
    76         37
    77         98
    78         52
    79         27
    80          6
    81          5
    82         22
    83         14
    84          3
    85          3
    86          6
    87          7
    88         10
    89        103
    90         42
    91        999
    92        214
    93         12
    94         19
    95         16
    96         19
    97         11
    98          2
    99          1
   101          4
   102         63
   103        155
   104         52
   105         11
   106          8
   107         22
   108         15
   109          4
   110          2
   111          6
   113          4
   114          4
   115        248
   116        147
   117         66
   118         11
   119          3
   120          2
   121         10
   122          9
   123         28
   124         95
   125          9
   126          8
   127          5
   128         14
   129          5
   130          2
   131         16
   132          4
   133          4
   134          1
   135          1
   137          1
   138          2
   139         94
   140         28
   141          9
   142          2
   144          1
   145          6
   146          1
   149          1
   150          3
   151          8
   152         28
   153         11
   154          4
   155          4
   156         56
   157          7
   158          3
   163          5
   164          6
   165         64
   166         17
   167         20
   168          3
   171          1
   175          1
   176         13
   177         17
   178        241
   179        282
   180         49
   181          7
   182          2
   187          2
   188          3
   189         30
   190         16
   191         52
   192         51
   193        236
   194        337
   195         53
   196          4
   202          1
   203          2
   204          4
   205          6
   206          8
   207          3
   208         11
   209          2
   211          1
   214          3
   219          2
   220          4
   221          2
   222          2
   223          1
   226          1
   234          1
   246          2
   299          1