##TITLE=Library Entry 4013
##JCAMP-DX=Revision 4.10 
##DATA TYPE=MASS SPECTRUM
##SAMPLE DESCRIPTION=A.A.Kutin, Moscow, Russia
##NAMES=HP
##CAS NAME=Sulfide, bis(2-chloropropyl)
##MOLFORM=C6H12Cl2S
##CAS REGISTRY NO=22535-54-2
##MP= -300
##BP= -300
##MW= 186
##$RETENTION INDEX=1261
##$CONDENSED SPECTRUM=NO
##NPOINTS= 60
##XYDATA=(XY..XY) 1 
     8         17
    26         20
    27        165
    36         48
    37         24
    39        324
    41        999
    42        115
    44         18
    45        287
    46        149
    47        344
    48         17
    49         68
    53         18
    57         15
    58         24
    59         99
    60         19
    61        123
    63         50
    65         17
    69         18
    71         37
    72         26
    73         95
    74        183
    75        239
    76         61
    77        381
    78         22
    79        117
    81         51
    83         24
    85         24
    87        377
    89         25
    95         44
    97         23
   101         43
   109         13
   110        200
   111         26
   112         72
   115         39
   123        949
   124         54
   125        376
   126         21
   137        161
   139         77
   150         28
   151        138
   152         23
   153         47
   186        291
   187         20
   188        220
   189         20
   190         39