##TITLE=Library Entry 90190
##JCAMP-DX=Revision 4.10 
##DATA TYPE=MASS SPECTRUM
##SAMPLE DESCRIPTION=A.A.Kutin, Moscow, Russia
##NAMES=HP
##CAS NAME=Pyrimidine-4-carboxamide, 2-chloro-
##MOLFORM=C5H4ClN3O
##CAS REGISTRY NO=22536-66-9
##MP= -300
##BP= -300
##MW= 157
##$RETENTION INDEX=0
##$CONDENSED SPECTRUM=NO
##NPOINTS= 81
##XYDATA=(XY..XY) 1 
    33          8
    34         22
    35         13
    36         30
    37         22
    38         45
    40         87
    41         55
    42         16
    43         59
    44        448
    45         17
    46          1
    47         28
    48          3
    49         13
    51        190
    52        353
    53        256
    54         13
    55         40
    56         13
    57         27
    59        104
    60         26
    62        117
    64         44
    65          7
    66         10
    67         20
    68          4
    69         19
    70          8
    71         12
    72         63
    73         12
    74          1
    75          2
    76          9
    77         44
    79        484
    80         23
    81         10
    82         13
    83         24
    84         12
    86        135
    87         41
    88         30
    89         14
    91          0
    93          2
    94          8
    95         16
    96          5
    97          2
    98          7
    99          1
   100          2
   102          1
   105          3
   107          3
   110          4
   111          7
   112        107
   113        999
   114         44
   115        320
   116         14
   123          3
   124          0
   139          3
   140          2
   141          0
   142          0
   143          2
   155          6
   157        442
   158         24
   159        142
   160          7