##TITLE=Library Entry 32425
##JCAMP-DX=Revision 4.10 
##DATA TYPE=MASS SPECTRUM
##SAMPLE DESCRIPTION=S.A. Rang et al., IR & MS of Unsatd. Hydrocarbons, 1977
##NAMES=HP
##CAS NAME=Cyclopentene,3-butyl-
##MOLFORM=C9H16
##CAS REGISTRY NO=22531-00-6
##MP= -300
##BP= -300
##MW= 124
##$RETENTION INDEX=914
##$CONDENSED SPECTRUM=NO
##NPOINTS= 63
##XYDATA=(XY..XY) 1 
    15          2
    16          1
    25          0
    26          6
    27         58
    28         28
    29         35
    30          1
    31          0
    37          0
    38          3
    39         93
    40         18
    41        173
    42         10
    43          7
    44          0
    45          0
    50          2
    51         12
    52          4
    53         30
    54         19
    55         28
    56          4
    57          4
    58          0
    60          0
    61          0
    62          0
    63          4
    64          1
    65         45
    66        102
    67        999
    68         71
    69          4
    70          0
    71          0
    74          0
    75          0
    76          0
    77         20
    78          4
    79         34
    80          8
    81         37
    82         92
    83         11
    89          0
    91          4
    92          0
    93          2
    94          1
    95         27
    96          7
    97          0
   109          1
   122          1
   123          4
   124         61
   125          7
   126          0