##TITLE=Library Entry 73721
##JCAMP-DX=Revision 4.10 
##DATA TYPE=MASS SPECTRUM
##SAMPLE DESCRIPTION=NIST Mass Spectrometry Data Center
##NAMES=HP
##CAS NAME=Isopropyl isothiocyanate
##MOLFORM=C4H7NS
##CAS REGISTRY NO=2253-73-8
##MP= -300
##BP= -300
##MW= 101
##$RETENTION INDEX=837
##$CONDENSED SPECTRUM=NO
##NPOINTS= 60
##XYDATA=(XY..XY) 1 
    12          5
    13          7
    14         27
    15        122
    16          3
    18          1
    24          1
    25         11
    26         87
    27        486
    28         85
    30          1
    32         82
    33          8
    34          6
    36          5
    37         36
    38         73
    39        319
    40         94
    41        724
    42        311
    43        484
    44         63
    45         37
    46          8
    47          3
    48          1
    49          1
    50          4
    51         20
    52         23
    53          1
    54          4
    55          2
    56          9
    57         37
    58        112
    59        207
    60        265
    61         16
    62         15
    63          1
    64          2
    68          3
    70         52
    71         22
    72         65
    73          3
    82          4
    83          8
    84         33
    86        285
    87         12
    88         13
    98          1
   101        999
   102         54
   103         42
   104          2