##TITLE=Library Entry 50195
##JCAMP-DX=Revision 4.10 
##DATA TYPE=MASS SPECTRUM
##SAMPLE DESCRIPTION=Chemical Concepts
##NAMES=HP
##CAS NAME=Propanedioic acid, (3-methyl-2-butenyl)-, diethyl ester
##MOLFORM=C12H20O4
##CAS REGISTRY NO=22539-80-6
##MP= -300
##BP= -300
##MW= 228
##$RETENTION INDEX=0
##$CONDENSED SPECTRUM=NO
##NPOINTS= 69
##XYDATA=(XY..XY) 1 
    39        109
    40         55
    41        479
    42         36
    43        101
    45         34
    51         10
    53        125
    54         14
    55        127
    56         24
    57         13
    59         39
    65         31
    66         18
    67        128
    68        148
    69        577
    70         26
    71         10
    73         25
    77         20
    78         14
    79         74
    80        245
    81        999
    82         89
    83         12
    85         44
    86         94
    87         61
    88         80
    95         64
    97         23
   101         23
   104         19
   105         25
   107         11
   108         74
   109        369
   110         26
   111        244
   112         20
   114         43
   115        297
   116         17
   125         47
   126         12
   127         21
   132         34
   133         89
   134          4
   135         12
   136         39
   137         61
   139        397
   140         40
   141         15
   154        357
   155        100
   156          6
   160        398
   161         28
   173         34
   181         31
   182         49
   183         44
   228        163
   229         37