##TITLE=Library Entry 57245
##JCAMP-DX=Revision 4.10 
##DATA TYPE=MASS SPECTRUM
##SAMPLE DESCRIPTION=L. Tsai, LB, NHLBI, NIH, Bethesda, MD 20892
##NAMES=HP
##CAS NAME=Piperidin-2-one-5-carboxylic acid
##MOLFORM=C6H9NO3
##CAS REGISTRY NO=22540-50-7
##MP= -300
##BP= -300
##MW= 143
##$RETENTION INDEX=0
##$CONDENSED SPECTRUM=NO
##NPOINTS= 89
##XYDATA=(XY..XY) 1 
    41        319
    42        723
    43        437
    44        156
    45        276
    46         17
    47         10
    48          0
    49         12
    50         31
    51         44
    52          7
    53        139
    54         43
    55        904
    56        300
    57         46
    58         97
    59         10
    60         29
    61          5
    62          2
    63          7
    64          1
    65         15
    66          3
    67         68
    68        144
    69        344
    70        164
    71         52
    72        182
    73         83
    74         23
    75          3
    76          1
    77         21
    78         16
    79          3
    80         23
    81         25
    82         31
    83         25
    84          5
    85         53
    86        402
    87        999
    88        692
    89          3
    91         11
    92          3
    93          3
    94          1
    95         15
    96         42
    97        153
    98        240
    99         39
   100         31
   101          4
   102          2
   103          2
   104          1
   105         17
   106          5
   107          7
   108          8
   109          3
   110          4
   111          4
   112          3
   113          1
   114         30
   115        219
   116         14
   117          9
   118          0
   119          1
   125          4
   126         36
   127          6
   128          2
   141          2
   142          6
   143        651
   144        223
   145         19
   146          2
   147          1