##TITLE=Library Entry 84209
##JCAMP-DX=Revision 4.10 
##DATA TYPE=MASS SPECTRUM
##SAMPLE DESCRIPTION=NIST Mass Spectrometry Data Center
##NAMES=HP
##CAS NAME=4-Ethoxyphenethyl alcohol
##MOLFORM=C10H14O2
##CAS REGISTRY NO=22545-15-9
##MP= -300
##BP= -300
##MW= 166
##$RETENTION INDEX=0
##$CONDENSED SPECTRUM=NO
##NPOINTS= 73
##XYDATA=(XY..XY) 1 
    15          4
    18          1
    19          1
    26         14
    27         82
    28          8
    29         71
    30          8
    31         73
    37          1
    38          8
    39         62
    40          8
    41         10
    42          2
    43         11
    44          2
    50         24
    51         69
    52         38
    53         38
    54          3
    55         16
    61          2
    62          9
    63         32
    64         11
    65         37
    66          9
    67          2
    68          1
    69          1
    74          3
    75          5
    77        187
    78         71
    79         45
    80          5
    81          7
    82          1
    86          1
    87          1
    89         36
    90         24
    91         42
    92          6
    93          2
    94          9
    95          2
   101          1
   102          2
   103          5
   104          1
   105          9
   107        999
   108         90
   109          7
   117          1
   119          8
   120         12
   121          9
   122          2
   133          3
   135        602
   136         59
   137          5
   148          3
   149          1
   150          2
   164          5
   166        219
   167         25
   168          2