##TITLE=Library Entry 30062
##JCAMP-DX=Revision 4.10 
##DATA TYPE=MASS SPECTRUM
##SAMPLE DESCRIPTION=TNO Volatile Compounds in Food - Chemical Concepts
##NAMES=HP
##CAS NAME=.alpha.-(Methylthio)acetamide
##MOLFORM=C3H7NOS
##CAS REGISTRY NO=22551-24-2
##MP= -300
##BP= -300
##MW= 105
##$RETENTION INDEX=0
##$CONDENSED SPECTRUM=NO
##NPOINTS= 32
##XYDATA=(XY..XY) 1 
    26         28
    27        190
    28         35
    30         79
    31          5
    32          1
    33          3
    35        220
    37          4
    39          1
    41         29
    42        110
    43         62
    44        319
    45        251
    46        216
    47        368
    48         21
    49         11
    57          3
    58         20
    59        999
    60         38
    61        543
    62        144
    63         24
    64          5
    72          2
    87          6
   105        454
   106         20
   107         14