##TITLE=Library Entry 86744
##JCAMP-DX=Revision 4.10 
##DATA TYPE=MASS SPECTRUM
##SAMPLE DESCRIPTION=J.E. WILKINSON S-CUBED, SAN DIEGO, CA.
##NAMES=HP
##CAS NAME=Phosphoric acid, dimethyl 3-methyl-4-nitrophenyl ester
##MOLFORM=C9H12NO6P
##CAS REGISTRY NO=2255-17-6
##MP= -300
##BP= -300
##MW= 261
##$RETENTION INDEX=1871
##$CONDENSED SPECTRUM=NO
##NPOINTS= 164
##XYDATA=(XY..XY) 1 
    45          4
    46          2
    47         51
    48          3
    49          6
    50         52
    51        144
    52        121
    53         31
    54         14
    55         14
    56          0
    57          0
    59          0
    60          0
    61          3
    62         32
    63        150
    64         30
    65         40
    66         29
    67          8
    68          8
    69          2
    70          0
    71          0
    73          1
    74         12
    75         13
    76         23
    77        117
    78         82
    79        207
    80         30
    81         13
    82         10
    83          2
    84          0
    85          0
    86          4
    87          8
    88          8
    89        132
    90        138
    91         78
    92         18
    93         75
    94         22
    95         33
    96         47
    97          3
    98          1
    99          0
   100          0
   101          0
   102         10
   103         37
   104         22
   105         26
   106         27
   107         19
   108         35
   109        999
   110         30
   111          6
   112          0
   113         20
   114          0
   115          0
   116          0
   117          1
   118         57
   119         15
   120         15
   121         28
   122         25
   123          7
   124          5
   125          3
   126          1
   127        151
   128          2
   129          1
   130          0
   131          0
   132         12
   133          1
   134          7
   135          8
   136         27
   137          6
   138          1
   139          0
   140          0
   141          0
   142          0
   143          0
   144          0
   148          1
   149          6
   150         41
   151          4
   152          1
   153          2
   154          2
   155         11
   156          2
   157          0
   158          0
   159          0
   161          1
   162          0
   165          0
   166          2
   167          0
   168          0
   169          1
   170          1
   171          1
   172          0
   173          0
   175          1
   182          1
   183          3
   184         14
   185          6
   186          3
   187          9
   188          8
   189          4
   190          0
   196          0
   197          0
   198          1
   199         12
   200         11
   201          6
   202          1
   203          0
   212          8
   213          0
   214         14
   215          6
   216         12
   217          2
   218          0
   219          0
   226          0
   228          0
   229          2
   230          1
   231          5
   232          0
   233          0
   236          0
   244        521
   245         57
   246          7
   247          0
   260          2
   261        103
   262         11
   263          1
   266          0