##TITLE=Library Entry 66627
##JCAMP-DX=Revision 4.10 
##DATA TYPE=MASS SPECTRUM
##SAMPLE DESCRIPTION=NIST Mass Spectrometry Data Center, 2010
##NAMES=HP
##CAS NAME=(S)-2,2,6-Trimethyl-6-((S)-4-methylcyclohex-3-en-1-yl)dihydro-2H-
pyran-3(4H)-one
##MOLFORM=C15H24O2
##CAS REGISTRY NO=22567-38-0
##MP= -300
##BP= -300
##MW= 236
##$RETENTION INDEX=1679
##$CONDENSED SPECTRUM=NO
##NPOINTS= 86
##XYDATA=(XY..XY) 1 
    27         50
    29         62
    31         15
    38          4
    39        114
    40         37
    42        100
    43        579
    44         19
    50          8
    51         26
    52         17
    53        153
    54         33
    55        211
    59        181
    60          8
    61         10
    63         11
    65         72
    66         28
    67        445
    68        352
    70         52
    75          3
    77        181
    78         43
    79        319
    80        157
    81        215
    82        118
    84         55
    85         27
    86         12
    89          4
    91        215
    92        340
    93        999
    94        639
    95        446
    97        133
    98         15
   103         15
   105         89
   106         30
   107        343
   108        132
   113         22
   114          2
   115         27
   117         14
   118         34
   121        476
   122        168
   123        106
   124         11
   125         30
   131          9
   132        144
   134        375
   135        138
   136        150
   140         40
   141        837
   142        184
   143        122
   144         13
   145        105
   146         18
   149         11
   150        221
   151         25
   153          5
   157          8
   159         21
   160         43
   163         31
   177          7
   178         67
   179          9
   185          4
   200         32
   201          4
   218          9
   221          4
   236          5