##TITLE=Library Entry 49567
##JCAMP-DX=Revision 4.10 
##DATA TYPE=MASS SPECTRUM
##SAMPLE DESCRIPTION=Chemical Concepts
##NAMES=HP
##CAS NAME=Spiro[bicyclo[2.2.1]heptane-2,2'-[1,3]dioxolane]-6-methanol, (1.a
lpha.,4.alpha.,6.beta.)-
##MOLFORM=C10H16O3
##CAS REGISTRY NO=22562-39-6
##MP= -300
##BP= -300
##MW= 184
##$RETENTION INDEX=0
##$CONDENSED SPECTRUM=NO
##NPOINTS= 112
##XYDATA=(XY..XY) 1 
    26         17
    27        243
    28         37
    29        144
    30          9
    31        103
    37          5
    38         16
    39        258
    40         53
    41        320
    42         67
    43        218
    44         46
    45        256
    46         10
    47          3
    50         17
    51         49
    52         34
    53        206
    54        163
    55        239
    56         23
    57         62
    58          6
    59          6
    60         32
    61         57
    62          5
    63         14
    64          6
    65         70
    66        113
    67        328
    68        157
    69         42
    70         70
    71         30
    72          4
    73         69
    74         12
    75         22
    76          3
    77        180
    78        103
    79        378
    80        999
    81        492
    82        122
    83         59
    84         26
    85        182
    86         87
    87         19
    88          4
    89         14
    91         93
    92         25
    93        181
    94        244
    95        303
    96         68
    97        205
    98         87
    99        207
   100         16
   101         12
   102         15
   103          4
   104         28
   105         17
   106          6
   107         31
   108         12
   109         64
   110         82
   111        222
   112         58
   113        194
   114         21
   115          4
   116          2
   117         11
   121         14
   122         86
   123        150
   124         17
   125         66
   126         27
   127         10
   128          4
   129         60
   130         12
   138          3
   139        215
   140        268
   141         96
   142         21
   143         22
   144          3
   153         28
   154        116
   155         79
   156         11
   166          2
   167          6
   169         10
   183          6
   184        356
   185         59
   186          6