##TITLE=Library Entry 43176
##JCAMP-DX=Revision 4.10 
##DATA TYPE=MASS SPECTRUM
##SAMPLE DESCRIPTION=J.M. MILLER,BROCK UNIVERSITY,ONTARIO,CANADA
##NAMES=HP
##CAS NAME=Pentafluorothiophenol, TMS derivative
##MOLFORM=C9H9F5SSi
##CAS REGISTRY NO=22577-87-3
##MP= -300
##BP= -300
##MW= 272
##$RETENTION INDEX=0
##$CONDENSED SPECTRUM=NO
##NPOINTS= 83
##XYDATA=(XY..XY) 1 
    31         97
    42         29
    43        131
    44         40
    45        170
    46         14
    47         93
    49         81
    51         20
    52         39
    53         20
    55         34
    57         20
    58         25
    59         79
    63        125
    66        104
    69         68
    72         21
    73        999
    74         97
    75         63
    77         43
    78          3
    79         38
    81         80
    85         22
    86         24
    87        107
    90         26
    93        100
    98         34
    99         35
   100         34
   105         25
   106         29
   111         88
   113         49
   117        136
   118         21
   119         13
   124         13
   125         17
   130         30
   131         55
   132         13
   133         23
   136         23
   137         64
   138          9
   145         16
   147        103
   148         18
   149          9
   150          7
   151         16
   152         27
   155        151
   156         86
   157         34
   161         26
   162         18
   163         51
   167         17
   168        138
   169         12
   175         16
   180         62
   181         36
   182         11
   183         15
   199        185
   200        536
   201         58
   202         32
   221         34
   222          9
   227         14
   257         21
   258          6
   272        185
   273         33
   274         18