##TITLE=Library Entry 82875
##JCAMP-DX=Revision 4.10 
##DATA TYPE=MASS SPECTRUM
##SAMPLE DESCRIPTION=Asinex Ltd, Moscow, Russia
##NAMES=HP
##CAS NAME=2-(p-Tolyl-hydrazono)-cyclohexanone
##MOLFORM=C13H16N2O
##CAS REGISTRY NO=2257-17-2
##MP= -300
##BP= -300
##MW= 216
##$RETENTION INDEX=0
##$CONDENSED SPECTRUM=NO
##NPOINTS= 157
##XYDATA=(XY..XY) 1 
    33          1
    34          2
    36          0
    37          5
    38         17
    39        222
    40         65
    41        298
    42         49
    43         66
    44         36
    45          6
    46          0
    47          0
    48          0
    50         37
    51        119
    52        109
    53        149
    54        188
    55        662
    56         39
    57         23
    58          3
    59          1
    60          1
    62         12
    63         44
    64         26
    65        148
    66         30
    67         43
    68         25
    69         41
    70          7
    71          8
    72          2
    73          8
    74          4
    75          7
    76         26
    77        505
    78        176
    79        420
    80         49
    81         27
    82        534
    83         46
    84         13
    85          6
    86          1
    87          1
    88          2
    89         21
    90         20
    91        212
    92         28
    93          7
    94          7
    95         26
    96         13
    97         29
    98          4
    99          4
   100          0
   101          1
   102          6
   104         83
   105        107
   106        999
   107        999
   108        125
   109         17
   110         64
   111         22
   112         13
   113          1
   114          0
   115          8
   116          3
   117          7
   118         11
   119         16
   120         26
   121          9
   122          4
   123          2
   124          1
   125          5
   126          0
   127          3
   128          3
   129          4
   130          4
   131         13
   132         16
   133         57
   134         13
   135          3
   136          2
   137          1
   139          1
   141          2
   142          2
   143          5
   144         15
   145         45
   146         43
   147          8
   148          4
   149         13
   150          1
   151          1
   152          0
   153          1
   154          1
   155          1
   156          1
   157          3
   158          6
   159         84
   160         33
   161          7
   162          1
   163          0
   165          0
   167          0
   169          1
   170          4
   171          5
   172          6
   173         15
   174          4
   175          1
   176          1
   180          1
   181          0
   182          2
   183          1
   184          1
   185          2
   187         33
   188         17
   189          3
   190          0
   194          0
   195          0
   197          3
   199         28
   200          6
   201         17
   202          3
   214          9
   216        912
   217        130
   218         11
   219          0