##TITLE=Library Entry 46777
##JCAMP-DX=Revision 4.10 
##DATA TYPE=MASS SPECTRUM
##SAMPLE DESCRIPTION=J.M. MILLER,BROCK UNIVERSITY,ONTARIO,CANADA
##NAMES=HP
##CAS NAME=Pentafluorophenol, TMS derivative
##MOLFORM=C9H9F5OSi
##CAS REGISTRY NO=22577-86-2
##MP= -300
##BP= -300
##MW= 256
##$RETENTION INDEX=0
##$CONDENSED SPECTRUM=NO
##NPOINTS= 108
##XYDATA=(XY..XY) 1 
    27         34
    28         34
    29         35
    31         64
    42         33
    43        124
    44         37
    45        124
    47        235
    49        171
    50         12
    51         11
    52          6
    53         19
    54          5
    55         27
    56          6
    57         23
    58         20
    59         18
    61         14
    62         24
    63        167
    64         13
    66         15
    67         23
    68         13
    69         41
    70          5
    71         15
    72         35
    73        873
    74        100
    75         54
    76         47
    77        999
    78         98
    79         67
    80         17
    81        287
    82         24
    83         16
    85         39
    86         35
    87         10
    89         13
    91         17
    93         67
    95         21
    98         47
    99         44
   100          7
   105         24
   109          7
   111         26
   113        278
   114         26
   115          5
   117        164
   118         20
   120         70
   121         14
   127         21
   131         17
   132         16
   133          6
   136        106
   137         28
   141         68
   142          7
   143         14
   145        135
   146         25
   147        125
   148         23
   149         12
   155         51
   159         18
   160          3
   161          8
   163        373
   164         43
   165          7
   167          8
   168         15
   183         28
   184         57
   185         13
   199          9
   200         34
   201          6
   207         26
   208          6
   209         24
   211          9
   213          9
   221         12
   222          6
   223          9
   225         31
   226         19
   227          7
   241        141
   242         26
   243          8
   256        521
   257        103
   258         34