##TITLE=Library Entry 62855
##JCAMP-DX=Revision 4.10 
##DATA TYPE=MASS SPECTRUM
##SAMPLE DESCRIPTION=Japan AIST/NIMC Database- Spectrum MS-NW-8978
##NAMES=HP
##CAS NAME=Benzene, (2-isothiocyanatoethyl)-
##MOLFORM=C9H9NS
##CAS REGISTRY NO=2257-09-2
##MP= -300
##BP= -300
##MW= 163
##$RETENTION INDEX=1465
##$CONDENSED SPECTRUM=NO
##NPOINTS= 70
##XYDATA=(XY..XY) 1 
    26          1
    27         12
    28          6
    29          1
    30          5
    32          2
    37          1
    38          4
    39         39
    40          4
    41          8
    44          3
    45          8
    46          1
    50         19
    51         58
    52         13
    53          6
    58          2
    59          2
    60          1
    61          1
    62          7
    63         28
    64          7
    65         97
    66          6
    69          1
    70          2
    71          2
    72         43
    73          2
    74          9
    75          8
    76          9
    77         91
    78         30
    79         44
    80          3
    84          1
    85          1
    86          1
    87          2
    88          1
    89         20
    90          8
    91        999
    92         77
    93          3
   101          3
   102         19
   103         48
   104         27
   105        189
   106         16
   116          2
   117          1
   121          1
   128          7
   129          1
   130          1
   131          1
   134          3
   135          9
   136          1
   162          3
   163        442
   164         50
   165         22
   166          2