##TITLE=Library Entry 5571
##JCAMP-DX=Revision 4.10 
##DATA TYPE=MASS SPECTRUM
##SAMPLE DESCRIPTION=Paolo; Giumanini, Angelo G.; Cauci, Sabina. Univ. Udine
, Italy
##NAMES=HP
##CAS NAME=Acetic acid, anhydride with formic acid
##MOLFORM=C3H4O3
##CAS REGISTRY NO=2258-42-6
##MP= -300
##BP= -300
##MW= 88
##$RETENTION INDEX=1436
##$CONDENSED SPECTRUM=NO
##NPOINTS= 26
##XYDATA=(XY..XY) 1 
    12          9
    13         52
    14        207
    15        517
    16         69
    17          8
    18         13
    24          1
    25         18
    26         28
    28         86
    29        844
    30         52
    31         69
    41        138
    42        560
    43        999
    44        410
    45        766
    46         17
    47          4
    56          2
    60        198
    61          4
    73          1
    87         26