##TITLE=Library Entry 109049
##JCAMP-DX=Revision 4.10 
##DATA TYPE=MASS SPECTRUM
##SAMPLE DESCRIPTION=Exported from NIST MS Search
##NAMES=HP
##CAS NAME=Pyridine, 4-(methylthio)-
##MOLFORM=C6H7NS
##CAS REGISTRY NO=22581-72-2
##MP= -300
##BP= -300
##MW= 125
##$RETENTION INDEX=1796
##$CONDENSED SPECTRUM=NO
##NPOINTS= 18
##XYDATA=(XY..XY) 1 
    32         40
    39        101
    45         48
    47         32
    50         48
    51        365
    52         73
    78         97
    79        146
    80         81
    83         73
    92        308
    97         32
   110         56
   124         81
   125        999
   126         97
   127         32