##TITLE=Library Entry 32392
##JCAMP-DX=Revision 4.10 
##DATA TYPE=MASS SPECTRUM
##SAMPLE DESCRIPTION=A.E.WILLIAMS ICI DYESTUFFS DIVISION. BLACKLEY.
##NAMES=HP
##CAS NAME=Benzofurazan, 4,5,6,7-tetrahydro-
##MOLFORM=C6H8N2O
##CAS REGISTRY NO=2258-73-3
##MP= -300
##BP= -300
##MW= 124
##$RETENTION INDEX=0
##$CONDENSED SPECTRUM=NO
##NPOINTS= 95
##XYDATA=(XY..XY) 1 
    12          4
    13          3
    14          1
    15          8
    16          4
    17          1
    18          3
    25          0
    26          5
    27        128
    28        564
    29        410
    30         89
    31        289
    32          5
    33          1
    36          1
    37          7
    38         55
    39        117
    40        732
    41        964
    42        278
    43         63
    44         79
    45          5
    46          0
    49          4
    50         40
    51         87
    52        203
    53        257
    54        267
    55        160
    56        107
    57        203
    58          9
    59          1
    60          1
    61          4
    62          9
    63         32
    64         69
    65        139
    66        225
    67        999
    68        178
    69         34
    70        601
    71         27
    72          3
    73          0
    74          1
    75          5
    76          8
    77         55
    78         29
    79         89
    80        264
    81         47
    82         46
    83         15
    84         85
    85          4
    86          0
    87          1
    88          1
    89          0
    90          3
    91          4
    92         58
    93        185
    94        621
    95        189
    96         60
    97        521
    98         29
    99          3
   100          1
   101          2
   102          0
   103          0
   104          1
   105         62
   106         26
   107        546
   108         40
   109         53
   110          4
   111          0
   121          1
   122          1
   123         56
   124        710
   125         96