##TITLE=Library Entry 51978
##JCAMP-DX=Revision 4.10 
##DATA TYPE=MASS SPECTRUM
##SAMPLE DESCRIPTION=ATLAS OF MASS SPECTRA OF ORGANIC COMPOUNDS, V. A. KOPTY
UG, ED.
##NAMES=HP
##CAS NAME=2-Pyrazoline, 4-ethyl-1-methyl-
##MOLFORM=C6H12N2
##CAS REGISTRY NO=22581-42-6
##MP= -300
##BP= -300
##MW= 112
##$RETENTION INDEX=0
##$CONDENSED SPECTRUM=NO
##NPOINTS= 34
##XYDATA=(XY..XY) 1 
    26         13
    27         80
    28        178
    29         56
    30         26
    38         10
    39         72
    40         24
    41         93
    42        470
    43        103
    44         34
    51          6
    52          8
    53         12
    54         24
    55         25
    56        215
    57         16
    66          8
    67          7
    68         24
    69         11
    70          9
    81         16
    82         21
    83        999
    84         58
    95         13
    96          6
    97         12
   111         34
   112        286
   113         26