##TITLE=Library Entry 87908
##JCAMP-DX=Revision 4.10 
##DATA TYPE=MASS SPECTRUM
##SAMPLE DESCRIPTION=ATLAS OF MASS SPECTRA OF ORGANIC COMPOUNDS, V. A. KOPTY
UG, ED.
##NAMES=HP
##CAS NAME=2-Pyrazoline, 1-isopropyl-3-methyl-
##MOLFORM=C7H14N2
##CAS REGISTRY NO=22581-48-2
##MP= -300
##BP= -300
##MW= 126
##$RETENTION INDEX=0
##$CONDENSED SPECTRUM=NO
##NPOINTS= 32
##XYDATA=(XY..XY) 1 
    26         15
    27         64
    28        119
    29         43
    30         24
    39         55
    40         19
    41        107
    42        333
    43         67
    44         24
    45         13
    53         12
    54         36
    55         31
    56        153
    57         16
    58         14
    68         31
    69         33
    70         36
    71         14
    82         16
    83        238
    84         45
   100         14
   109         11
   111        999
   112         86
   125         22
   126        238
   127         24