##TITLE=Library Entry 34556
##JCAMP-DX=Revision 4.10 
##DATA TYPE=MASS SPECTRUM
##SAMPLE DESCRIPTION=Chemical Concepts
##NAMES=HP
##CAS NAME=3-Pentenoic acid, 4-methyl-, methyl ester
##MOLFORM=C7H12O2
##CAS REGISTRY NO=2258-65-3
##MP= -300
##BP= -300
##MW= 128
##$RETENTION INDEX=1270
##$CONDENSED SPECTRUM=NO
##NPOINTS= 74
##XYDATA=(XY..XY) 1 
    22          0
    23          0
    26         12
    27        105
    28         62
    29         37
    30          3
    31          7
    33          2
    36          0
    37          3
    38         10
    39        132
    40         28
    41        959
    42         44
    43         29
    44          2
    45          7
    47          0
    48          0
    49          0
    50         11
    51         20
    52         12
    53         74
    54         19
    55         30
    56          8
    57          4
    58          0
    59        106
    60          2
    61          1
    62          1
    63          3
    64          0
    65          7
    66          7
    67         71
    68        177
    69        999
    70         46
    71         18
    72          3
    73         13
    74          4
    75          1
    77          0
    79          0
    81         16
    82          1
    83          1
    84          0
    85         16
    86         20
    87          7
    88          0
    94          0
    95          7
    96        106
    97         30
    98          2
    99          1
   100          0
   111          1
   113         11
   114          0
   125          1
   126          0
   127          1
   128        186
   129         11
   130          1