##TITLE=Library Entry 3418
##JCAMP-DX=Revision 4.10 
##DATA TYPE=MASS SPECTRUM
##SAMPLE DESCRIPTION=Chemical Concepts
##NAMES=HP
##CAS NAME=3-Pentenoic acid, 3-methyl-, methyl ester
##MOLFORM=C7H12O2
##CAS REGISTRY NO=2258-58-4
##MP= -300
##BP= -300
##MW= 128
##$RETENTION INDEX=0
##$CONDENSED SPECTRUM=NO
##NPOINTS= 77
##XYDATA=(XY..XY) 1 
    22          0
    23          0
    24          0
    26         10
    27        167
    28         85
    29         68
    30          4
    31         14
    33          2
    34          0
    36          0
    37          4
    38         14
    39        176
    40         46
    41        999
    42         63
    43        113
    44          7
    45         11
    48          0
    49          1
    50         12
    51         29
    52         12
    53        108
    54         28
    55         64
    56         10
    57          5
    58          3
    59        231
    60          5
    61          1
    62          2
    63          3
    64          0
    65         12
    66         12
    67        106
    68        440
    69        623
    70         30
    71         45
    72          7
    73          3
    74         62
    75          4
    76          0
    77          0
    79          0
    81         14
    82          1
    83          2
    84          0
    85         63
    86         27
    87          3
    88          0
    94          0
    95         11
    96        172
    97         67
    98          3
    99          3
   100          1
   101          0
   111          2
   112          0
   113         24
   114          1
   125          1
   127          6
   128        176
   129         14
   130          1