##TITLE=Library Entry 69216
##JCAMP-DX=Revision 4.10 
##DATA TYPE=MASS SPECTRUM
##SAMPLE DESCRIPTION=Chemical Concepts
##NAMES=HP
##CAS NAME=3-Cyano-3-methyl-propionic acid, ethyl ester
##MOLFORM=C7H11NO2
##CAS REGISTRY NO=22584-00-5
##MP= -300
##BP= -300
##MW= 141
##$RETENTION INDEX=0
##$CONDENSED SPECTRUM=NO
##NPOINTS= 111
##XYDATA=(XY..XY) 1 
    25          3
    26         46
    27        208
    28         56
    29        395
    30         28
    31         24
    33          1
    34          2
    35          3
    36         13
    37         10
    38         22
    39        121
    40         42
    41        324
    42        243
    43        193
    44         61
    45        110
    46          4
    47          3
    48          5
    49          2
    50          3
    51         18
    52         71
    53         34
    54        203
    55         78
    56         21
    57         10
    58          5
    59          5
    60        113
    61         74
    62          4
    63         16
    64         13
    65          9
    66         30
    67         49
    68        485
    69        244
    70         77
    71         12
    72          5
    73         12
    74          1
    77          2
    78         12
    79          3
    80         40
    81         12
    82         39
    83          7
    84          7
    85         24
    86         72
    87          7
    88        217
    89         12
    90          2
    91          3
    92          6
    93          3
    94          8
    95         42
    96        999
    97         88
    98         33
    99         12
   100          2
   101          2
   102          2
   103          1
   104          1
   105          2
   106          1
   107          2
   108          2
   109          2
   110          2
   111          4
   112         23
   113         29
   114        394
   115         35
   116          4
   117          2
   118          1
   119          1
   120          1
   121          2
   122          1
   123          1
   124          2
   125          2
   126         19
   127          2
   128          1
   129          2
   135          2
   136          1
   137          1
   138          1
   139          0
   140          6
   141        138
   142         13
   143          3