##TITLE=Library Entry 55980
##JCAMP-DX=Revision 4.10 
##DATA TYPE=MASS SPECTRUM
##SAMPLE DESCRIPTION=Institute of Organic Chemistry, USSR, 1990
##NAMES=HP
##CAS NAME=2-(t-Butylamino)-N-(3-chloro-9,10-dioxoanthracene-2-yl)-ethanamid
e
##MOLFORM=C20H19ClN2O3
##CAS REGISTRY NO=225929-46-4
##MP= -300
##BP= -300
##MW= 370
##$RETENTION INDEX=0
##$CONDENSED SPECTRUM=NO
##NPOINTS= 117
##XYDATA=(XY..XY) 1 
    50          9
    51          6
    52          3
    53          2
    54          2
    55         16
    56         33
    57        222
    58         28
    59         25
    62          4
    63          7
    64          2
    65          3
    68          3
    69          6
    70        208
    71         36
    72          4
    73          4
    74          7
    75          8
    76         19
    77         14
    83          4
    84         25
    85          6
    86        999
    87         97
    88          6
    97          3
    98         19
    99          4
   104          7
   105         19
   106          3
   112          3
   113          6
   114          4
   115          4
   121          3
   122          7
   123          2
   136          3
   137         12
   138         17
   139         13
   140          5
   141          4
   148          2
   149         10
   150         12
   151          6
   152          3
   160          8
   163          6
   164         42
   165         12
   166          9
   167          6
   173         19
   174          4
   175          6
   176          3
   177         15
   178         10
   179          4
   185          4
   186          4
   187          2
   192          6
   193          7
   194          4
   195          3
   199          4
   200          7
   201         12
   202          4
   203          5
   204          3
   221          3
   222          7
   223          6
   224          2
   227          2
   228          9
   229          9
   230          6
   231          6
   256          6
   257         44
   258         14
   259         17
   260          6
   261          2
   262          5
   263          2
   276          2
   277          4
   278          2
   283          3
   284          6
   285          6
   286          4
   287          3
   296          1
   297          2
   298          3
   299          1
   355         81
   356         18
   357         33
   358          4
   370          4
   371          6
   372          3
   373          2