##TITLE=Library Entry 23692
##JCAMP-DX=Revision 4.10 
##DATA TYPE=MASS SPECTRUM
##SAMPLE DESCRIPTION=Japan AIST/NIMC Database- Spectrum MS-IW-5079
##NAMES=HP
##CAS NAME=2-Butanone, 1,1-dichloro-3,3-dimethyl-
##MOLFORM=C6H10Cl2O
##CAS REGISTRY NO=22591-21-5
##MP= -300
##BP= -300
##MW= 168
##$RETENTION INDEX=0
##$CONDENSED SPECTRUM=NO
##NPOINTS= 64
##XYDATA=(XY..XY) 1 
    14          1
    15          4
    26          5
    27         51
    28          6
    29        312
    30          2
    35          2
    36         13
    37          4
    38         10
    39        106
    40         14
    41        499
    42         31
    43         12
    44          2
    47          5
    48         17
    49         11
    50         10
    51         11
    52          2
    53         32
    54          4
    55         40
    56         23
    57        999
    58         72
    59          1
    61          2
    62          1
    63         12
    65          6
    67         10
    68          1
    69         11
    70          6
    73          1
    75          3
    76         17
    77         19
    78          6
    79          6
    81          1
    82          2
    83         51
    84          2
    85        359
    86         20
    87          5
    89         29
    90          1
    91         10
    92          1
    96          1
    97          1
   111          6
   113          3
   117          1
   125          9
   127          5
   153          2
   155          1