##TITLE=Library Entry 69724
##JCAMP-DX=Revision 4.10 
##DATA TYPE=MASS SPECTRUM
##SAMPLE DESCRIPTION=ATLAS OF MASS SPECTRA OF ORGANIC COMPOUNDS, V. A. KOPTY
UG, ED.
##NAMES=HP
##CAS NAME=1H-Pyrazole, 4,5-dihydro-3,4,5-trimethyl-
##MOLFORM=C6H12N2
##CAS REGISTRY NO=22591-95-3
##MP= -300
##BP= -300
##MW= 112
##$RETENTION INDEX=0
##$CONDENSED SPECTRUM=NO
##NPOINTS= 30
##XYDATA=(XY..XY) 1 
    26         24
    27        130
    28        170
    29         80
    30         52
    39         80
    41        125
    42        315
    43         59
    44         31
    53         29
    54         37
    55         48
    56        240
    57         21
    67         14
    68        110
    69        170
    70         62
    81         14
    82         22
    83         18
    95         19
    96         19
    97        999
    98         56
   109          8
   111         48
   112        300
   113         24