##TITLE=Library Entry 35411
##JCAMP-DX=Revision 4.10 
##DATA TYPE=MASS SPECTRUM
##SAMPLE DESCRIPTION=CARL DJERASSI DEPT OF CHEM STANFORD UNIV STANFORD CALIF
 94305
##NAMES=HP
##CAS NAME=Cholestan-3-ol, 2-methylene-, (3.beta.,5.alpha.)-
##MOLFORM=C28H48O
##CAS REGISTRY NO=22599-96-8
##MP= -300
##BP= -300
##MW= 400
##$RETENTION INDEX=0
##$CONDENSED SPECTRUM=NO
##NPOINTS= 144
##XYDATA=(XY..XY) 1 
    61         22
    63         22
    64         11
    65        103
    66         45
    67        632
    68        241
    69        999
    70        287
    71        689
    72         45
    73         80
    74         22
    75         22
    76         11
    77        241
    78         68
    79        413
    80        114
    81        735
    82        229
    83        528
    84        298
    85        310
    86        126
    87         57
    88         34
    89         22
    90         11
    91        310
    92         91
    93        390
    94        183
    95        666
    96        160
    97        344
    98         91
    99        160
   101         34
   102         22
   103         22
   104         34
   105        344
   106        137
   107        333
   108        160
   109        298
   110         80
   111        172
   112         45
   113         45
   114         11
   115         45
   116         11
   117         57
   118         68
   119        206
   120        126
   121        229
   122        114
   123        183
   124         68
   125         68
   126         34
   127         34
   128         22
   129         45
   130         45
   131         80
   132         34
   133        114
   134         57
   135        114
   136         80
   137         80
   138         45
   139         34
   140         11
   141         34
   142         11
   143         34
   144         34
   145         68
   146         34
   147         91
   148         45
   149        114
   150         22
   151         34
   152         22
   153         22
   154         11
   155         11
   156         11
   157         34
   158         11
   159         68
   160         34
   161         91
   162         34
   163         45
   164         11
   165         22
   166         11
   167         22
   168         11
   169         11
   170         11
   171         22
   172         11
   173         34
   174         22
   175         57
   176         34
   177         34
   178         11
   179         11
   185         11
   186         11
   187         22
   188         11
   189         22
   190         11
   191         11
   193         11
   199         11
   201         11
   203         45
   204         11
   213         11
   215         11
   217         22
   227         34
   228         11
   229         11
   245         34
   246         22
   247         11
   260         11
   315         11
   316         11
   329         11
   400         45
   401         11