##TITLE=Library Entry 56114
##JCAMP-DX=Revision 4.10 
##DATA TYPE=MASS SPECTRUM
##SAMPLE DESCRIPTION=Institute of Organic Chemistry, USSR, 1990
##NAMES=HP
##CAS NAME=2-(Diethylamino)-N-(9,10-dioxoanthracene-2-yl)-ethanamide
##MOLFORM=C20H20N2O3
##CAS REGISTRY NO=225929-33-9
##MP= -300
##BP= -300
##MW= 336
##$RETENTION INDEX=0
##$CONDENSED SPECTRUM=NO
##NPOINTS= 92
##XYDATA=(XY..XY) 1 
    55         77
    56         96
    57        173
    58        365
    59         21
    69         64
    70         62
    71        121
    72        100
    73         15
    74         10
    75         21
    76         42
    77         19
    81         42
    82         27
    83         65
    84         46
    85         69
    86        999
    87        269
    93         12
    94         13
    95         39
    96         18
    97         52
    98         14
    99         21
   100         16
   104         10
   105         11
   109         25
   110         14
   111         37
   112         19
   113         29
   114         10
   121         10
   122          8
   123         31
   124         10
   125         21
   126         12
   127         13
   137         14
   138         12
   139         46
   140         15
   149        115
   150         33
   151         44
   152         39
   153          8
   166         12
   167         58
   168         14
   169          4
   179          9
   180         42
   181          7
   190          2
   191          4
   192          2
   193          5
   194         13
   195          8
   207         14
   208         52
   209         10
   222          5
   223         21
   224          7
   236         17
   237          4
   247          4
   248          5
   249          5
   250          7
   251          4
   262          4
   263          3
   264          3
   265          5
   279          9
   280          2
   319          7
   321          2
   322          5
   335          5
   336          6
   337          5
   338          1