##TITLE=Library Entry 32241
##JCAMP-DX=Revision 4.10 
##DATA TYPE=MASS SPECTRUM
##SAMPLE DESCRIPTION=R.E.Ardrey ET AL.Pharmaceutical Mass Spectra,L.,1985
##NAMES=HP
##CAS NAME=Cyclothiazide
##MOLFORM=C14H16ClN3O4S2
##CAS REGISTRY NO=2259-96-3
##MP= -300
##BP= -300
##MW= 389
##$RETENTION INDEX=0
##$CONDENSED SPECTRUM=NO
##NPOINTS= 107
##XYDATA=(XY..XY) 1 
    37         40
    38         60
    39        280
    40        210
    41         60
    43         60
    48         20
    50         10
    51         20
    52         50
    54         20
    55         10
    56         70
    58         30
    60         10
    61         40
    62         80
    63         90
    64         80
    65        250
    66        999
    67         30
    73         20
    74         20
    75         20
    76         10
    77        100
    78         70
    79         80
    80         30
    81         10
    88         20
    89         30
    90         40
    97         30
    98         10
   100         10
   101         10
   103         30
   104         90
   106         10
   109         10
   110         10
   112         10
   113         20
   114         30
   116         10
   117         30
   118        100
   119         20
   120        780
   121         80
   124         60
   125         80
   126         40
   127         20
   131         10
   132         10
   134         10
   140         30
   142         30
   143         20
   144         20
   156         20
   157         30
   158         30
   159         10
   160         10
   172         10
   188         20
   189         10
   190         20
   204         10
   205        120
   206         50
   207         40
   208         10
   221         90
   223         30
   232         10
   242         10
   243         20
   244         10
   253         10
   257         10
   258         10
   259         20
   268         60
   269        130
   270         40
   271         60
   285         90
   286         10
   287         40
   296         70
   297         10
   298         30
   307         30
   308         20
   309         20
   310         30
   311         10
   322         10
   324         60
   389         50
   390         10
   391         20