##TITLE=Library Entry 56123
##JCAMP-DX=Revision 4.10 
##DATA TYPE=MASS SPECTRUM
##SAMPLE DESCRIPTION=Institute of Organic Chemistry, USSR, 1990
##NAMES=HP
##CAS NAME=2-(Diethylamino)-N-(3-chloro-9,10-dioxoanthracene-2-yl)-ethanamid
e
##MOLFORM=C20H19ClN2O3
##CAS REGISTRY NO=225929-43-1
##MP= -300
##BP= -300
##MW= 370
##$RETENTION INDEX=0
##$CONDENSED SPECTRUM=NO
##NPOINTS= 105
##XYDATA=(XY..XY) 1 
    50          9
    51          7
    52          4
    53          2
    54          8
    55          9
    56        136
    57         47
    58        377
    59         19
    62          7
    63         11
    64          3
    70         19
    71          9
    72         79
    73          6
    74          8
    75         12
    76         25
    77         11
    84         28
    85         16
    86        999
    87        209
    88         10
    89          7
    97          6
    98          4
    99          6
   100          5
   101          3
   102          2
   104         10
   105          6
   137         15
   138         34
   139         13
   140          5
   149          7
   150         21
   151          7
   152          4
   153          2
   163          5
   164         57
   165         17
   166          6
   167          3
   173         30
   174          9
   175         15
   176          3
   177          7
   178          3
   185          8
   186          2
   192         13
   193         12
   194          4
   200          6
   201         17
   202          4
   228         26
   229          9
   230          9
   231          3
   234          2
   235          2
   236          2
   240          1
   241          2
   242          1
   243          1
   248          3
   249          2
   256         10
   257          5
   258          5
   259          2
   262          2
   263          3
   264          3
   270         10
   271          3
   272          3
   281          2
   282          3
   283          3
   284          8
   285          2
   286          3
   297          1
   298          2
   299          2
   300          1
   353          1
   354          1
   355          3
   356          1
   357          1
   369          1
   370          1
   371          3
   372          1