##TITLE=Library Entry 98134
##JCAMP-DX=Revision 4.10 
##DATA TYPE=MASS SPECTRUM
##SAMPLE DESCRIPTION=NIST Mass Spectrometry Data Center, 2010
##NAMES=HP
##CAS NAME=N-(Beta-methylphenethyl)acetamide
##MOLFORM=C11H15NO
##CAS REGISTRY NO=22596-62-9
##MP= -300
##BP= -300
##MW= 177
##$RETENTION INDEX=0
##$CONDENSED SPECTRUM=NO
##NPOINTS= 80
##XYDATA=(XY..XY) 1 
    14          1
    15          7
    26          1
    27         11
    28         11
    29         11
    30        269
    31          6
    38          2
    39         21
    40          3
    41         10
    42         12
    43        136
    44          4
    45          5
    50         14
    51         44
    52         12
    53          7
    54          3
    55          1
    56          5
    58          4
    60         12
    61          1
    62          5
    63         18
    64          4
    65         24
    66          3
    67          1
    72        236
    73         47
    74          8
    75          7
    76         10
    77        150
    78         72
    79         97
    80          7
    81          1
    86          2
    87          1
    89         16
    90          7
    91        100
    92         10
    93          3
    94          1
    98          1
   101          2
   102         18
   103        130
   104         89
   105        546
   106         58
   107          4
   115         32
   116          9
   117        137
   118        999
   119        108
   120         21
   121          2
   128          1
   130          3
   131          2
   132          5
   133          7
   134         13
   135          1
   148          2
   160          1
   162         13
   163          2
   175          1
   177        198
   178         28
   179          2