##TITLE=Library Entry 60614
##JCAMP-DX=Revision 4.10 
##DATA TYPE=MASS SPECTRUM
##SAMPLE DESCRIPTION=Exported from NIST MS Search
##NAMES=HP
##CAS NAME=Azetidine, 1-benzyl-3,3-dimethyl-2-phenyl-
##MOLFORM=C18H21N
##CAS REGISTRY NO=22606-97-9
##MP= -300
##BP= -300
##MW= 251
##$RETENTION INDEX=0
##$CONDENSED SPECTRUM=NO
##NPOINTS= 16
##XYDATA=(XY..XY) 1 
    65        120
    66         10
    91        999
    92        320
    93         30
   115         70
   116         80
   117        300
   118         30
   132        160
   133         20
   194        260
   195        140
   196         10
   251        110
   252         20