##TITLE=Library Entry 71311
##JCAMP-DX=Revision 4.10 
##DATA TYPE=MASS SPECTRUM
##SAMPLE DESCRIPTION=CARL DJERASSI DEPT OF CHEM STANFORD UNIV STANFORD CALIF
 94305
##NAMES=HP
##CAS NAME=1,2-Ethanediol, 1-(2-furyl)-2-phenyl-
##MOLFORM=C12H12O3
##CAS REGISTRY NO=22607-19-8
##MP= -300
##BP= -300
##MW= 204
##$RETENTION INDEX=0
##$CONDENSED SPECTRUM=NO
##NPOINTS= 44
##XYDATA=(XY..XY) 1 
    38          9
    39        138
    40          9
    41        227
    42         79
    43        188
    44          9
    45         19
    50         19
    51         89
    52         29
    53         29
    55         39
    56          9
    57         99
    58         39
    63          9
    65          9
    67          9
    68          9
    69         69
    70         59
    71        108
    77        257
    78         49
    79        415
    80         29
    81         19
    83         19
    87          9
    91         59
    92          9
    95         39
    96          9
    97        901
    98        999
    99         49
   103         19
   104         99
   105         39
   107        861
   108        623
   109         39
   204         19