##TITLE=Library Entry 55122
##JCAMP-DX=Revision 4.10 
##DATA TYPE=MASS SPECTRUM
##SAMPLE DESCRIPTION=CARL DJERASSI DEPT OF CHEM STANFORD UNIV STANFORD CALIF
 94305
##NAMES=HP
##CAS NAME=1,5-Heptadiene-3,4-diol, 2,5-dimethyl-
##MOLFORM=C9H16O2
##CAS REGISTRY NO=22607-16-5
##MP= -300
##BP= -300
##MW= 156
##$RETENTION INDEX=0
##$CONDENSED SPECTRUM=NO
##NPOINTS= 35
##XYDATA=(XY..XY) 1 
    39        170
    40         20
    41        370
    42         30
    43        390
    44         20
    45         90
    51         20
    53         60
    54         20
    55        110
    56         20
    57        240
    58         10
    65         20
    67        100
    68         20
    69         40
    70         10
    71        150
    72        530
    73         20
    83         30
    84         30
    85        999
    86        120
    87         10
    95         10
    97         10
    98         10
   109         20
   123         10
   138         10
   139         10
   156         10