##TITLE=Library Entry 7951
##JCAMP-DX=Revision 4.10 
##DATA TYPE=MASS SPECTRUM
##SAMPLE DESCRIPTION=J.Szymanowski ET AL. J.Chromatogr.,455,119(1988)
##NAMES=HP
##CAS NAME=2-Dodecyloxyethanol acetate (ester)
##MOLFORM=C16H32O3
##CAS REGISTRY NO=22606-46-8
##MP= -300
##BP= -300
##MW= 272
##$RETENTION INDEX=0
##$CONDENSED SPECTRUM=NO
##NPOINTS= 54
##XYDATA=(XY..XY) 1 
    25          7
    26          7
    27         70
    28          7
    29        159
    39         44
    40         55
    41        259
    42         96
    43        999
    44         88
    45        122
    55        266
    56         29
    57        629
    58         48
    59         29
    61         85
    63         33
    67         44
    68         85
    69        207
    70        159
    71        296
    72         25
    73         62
    81         37
    82        177
    83        151
    84         85
    85        137
    86         22
    87        348
    88        181
    89         22
    94         51
    96         88
    97        122
    98         62
    99         29
   105         88
   109         33
   110         55
   111         74
   112         29
   113         18
   124         11
   125         44
   126         14
   136         18
   141         22
   167         44
   184         11
   199         18