##TITLE=Library Entry 60001
##JCAMP-DX=Revision 4.10 
##DATA TYPE=MASS SPECTRUM
##SAMPLE DESCRIPTION=Exported from NIST MS Search
##NAMES=HP
##CAS NAME=Azetidine, 1-benzyl-2,2,3,3-tetramethyl-
##MOLFORM=C14H21N
##CAS REGISTRY NO=22606-88-8
##MP= -300
##BP= -300
##MW= 203
##$RETENTION INDEX=0
##$CONDENSED SPECTRUM=NO
##NPOINTS= 16
##XYDATA=(XY..XY) 1 
    39         60
    41        150
    42         20
    56        160
    57         20
    65         60
    69        180
    70         20
    91        999
    92         80
   120         60
   132         50
   146         80
   147        130
   148         10
   203         40