##TITLE=Library Entry 88501
##JCAMP-DX=Revision 4.10 
##DATA TYPE=MASS SPECTRUM
##SAMPLE DESCRIPTION=Chemical Concepts
##NAMES=HP
##CAS NAME=1H-Benzimidazole, 2-(3-fluorophenyl)-5-(2-thienylcarbonyl)-1-hydr
oxy-3-oxide
##MOLFORM=C18H11FN2O3S
##CAS REGISTRY NO=226090-80-8
##MP= -300
##BP= -300
##MW= 354
##$RETENTION INDEX=0
##$CONDENSED SPECTRUM=NO
##NPOINTS= 290
##XYDATA=(XY..XY) 1 
    26         21
    27         39
    28        192
    29         43
    30         19
    31         10
    32         15
    34          4
    36         12
    37         14
    38         50
    39        309
    40         18
    41         70
    42         37
    43        126
    44        450
    45         81
    46         14
    47          3
    48         19
    49          5
    50         53
    51         48
    52         33
    53         30
    54         16
    55         54
    56         32
    57         95
    58         23
    59          9
    60         23
    61         15
    62         88
    63        234
    64         76
    65         13
    66          7
    67         11
    68         19
    69         54
    70         33
    71         40
    72          6
    73         26
    74         37
    75        137
    76         54
    77         42
    78         19
    79         12
    80          8
    81         26
    82         25
    83        123
    84         22
    85         24
    86         18
    87         18
    88         35
    89         52
    90        126
    91         26
    92         10
    93         13
    94         43
    95        363
    96         48
    97         17
    98         14
    99         18
   100         15
   101         18
   102         17
   103         25
   104         18
   105         45
   106         37
   107         21
   108         17
   109         12
   110         10
   111        999
   112         69
   113         53
   114         22
   115         14
   116         12
   117         13
   118         11
   119         17
   120         15
   121         91
   122         91
   123        952
   124         75
   125         21
   126          8
   127         15
   128         62
   129         10
   130          9
   131         35
   132         12
   133         16
   134         10
   135          8
   136          6
   137          8
   138         11
   139         15
   140         99
   141         14
   142          3
   144          4
   145         40
   146         26
   147        116
   148         14
   149         26
   150          7
   151          5
   152          5
   153          4
   154          4
   155         19
   156          8
   157         20
   158         17
   159         22
   160         14
   161         33
   162          7
   163          5
   164          8
   165          8
   166          7
   167          5
   168          3
   169         11
   170          8
   171         10
   172         98
   173         24
   174         11
   175         23
   176          6
   177          6
   178          6
   179          4
   180          5
   181          7
   182         12
   183         11
   184         74
   185         18
   186         11
   187         14
   188         11
   189         10
   190          6
   191          9
   192          8
   193         10
   194          5
   195          3
   196          3
   197          6
   198          8
   199          8
   200          8
   201          9
   202          7
   203          8
   204          3
   205          4
   206          3
   207          6
   208          7
   209         22
   210         61
   211        166
   212         37
   213         10
   214          4
   215         48
   216         16
   217         12
   218          4
   219          4
   220          3
   221         25
   222          8
   223          5
   224          3
   225          4
   226          9
   227         13
   228         16
   229          6
   230         22
   231          6
   232          8
   233         29
   234          5
   235          4
   236          5
   237         10
   238         35
   239        523
   240         90
   241         20
   242         18
   243          6
   244          9
   245          3
   246          3
   247          3
   248          5
   249         19
   250          5
   253          6
   254         46
   255        112
   256         66
   257         12
   258         39
   259          9
   260          9
   261          3
   262          3
   264          3
   265          4
   266          3
   267          6
   268          7
   269          6
   270         10
   271          4
   272         18
   273          5
   274          5
   276          4
   277          3
   278          4
   281          5
   288          5
   289         17
   290          7
   291          5
   292          9
   293         50
   294         81
   295         19
   296          6
   297          5
   298          3
   302          3
   303         10
   304         36
   305         48
   306         14
   307          6
   308          3
   309          8
   310          9
   319          5
   320         51
   321        190
   322        862
   323        188
   324        134
   325         25
   326          7
   330          4
   332          9
   336          4
   337         15
   338        508
   339        109
   340         60
   341         12
   342          3
   350          3
   352          4
   353          5
   354         67
   355         15
   356          6