##TITLE=Library Entry 89170
##JCAMP-DX=Revision 4.10 
##DATA TYPE=MASS SPECTRUM
##SAMPLE DESCRIPTION=Chemical Concepts
##NAMES=HP
##CAS NAME=(1H)Benzimidazole, 2-(4-nitrophenyl)-5-(thien-2-ylcarbonyl)-1-hyd
roxy-3-oxide
##MOLFORM=C18H11N3O5S
##CAS REGISTRY NO=226090-83-1
##MP= -300
##BP= -300
##MW= 381
##$RETENTION INDEX=0
##$CONDENSED SPECTRUM=NO
##NPOINTS= 340
##XYDATA=(XY..XY) 1 
    25          2
    26         19
    27         61
    28        128
    29         53
    30         37
    31          4
    32         10
    34          2
    36          6
    37          8
    38         26
    39        160
    40         17
    41        116
    42        137
    43         46
    44        155
    45         42
    46         12
    47          1
    48         11
    49          3
    50         51
    51         40
    52         15
    53         22
    54         10
    55         37
    56         39
    57         56
    58         15
    59          5
    60         12
    61          6
    62         28
    63         77
    64         41
    65         67
    66          7
    67          5
    68          4
    69         18
    70         18
    71         36
    72          4
    73         11
    74         23
    75         58
    76         66
    77         36
    78         12
    79          7
    80          4
    81         16
    82         13
    83         56
    84         29
    85         15
    86         34
    87         12
    88         15
    89         25
    90         68
    91         21
    92         92
    93         26
    94         13
    95         24
    96         28
    97         10
    98         31
    99         38
   100          8
   101         10
   102         44
   103         62
   104        222
   105         38
   106         18
   107         10
   108         16
   109         24
   110          8
   111        999
   112         63
   113         66
   114         22
   115         14
   116         12
   117         16
   118         19
   119         22
   120         55
   121         76
   122         13
   123         23
   124          4
   125          5
   126          8
   127         11
   128         65
   129          9
   130          6
   131         19
   132          7
   133         12
   134         38
   135         53
   136          8
   137         19
   138         16
   139         12
   140         12
   141          7
   142          4
   143          2
   144          4
   145         25
   146          9
   147          8
   148         10
   149         14
   150        225
   151         45
   152         14
   153         21
   154          5
   155          5
   156          2
   157          4
   158          5
   159          5
   160          6
   161         13
   162         10
   163          5
   164         30
   165         18
   166         17
   167         86
   168          8
   169          4
   170          3
   171          4
   172         39
   173          9
   174          5
   175          6
   176          2
   177          3
   178          5
   179         16
   180         13
   181          6
   182          4
   183          7
   184          4
   185          5
   186          4
   187          5
   188          6
   189          7
   190          8
   191         34
   192         54
   193         14
   194          5
   195          2
   196          8
   197          4
   198          3
   199          4
   200          6
   201          5
   202          5
   203          5
   204          3
   205          4
   206          2
   207         11
   208         17
   209          5
   210          3
   211          4
   212          2
   213          2
   214          4
   215         27
   216          9
   217         29
   218          6
   219         12
   220         63
   221         23
   222         10
   223         13
   224          5
   225          4
   226          2
   227          3
   228         11
   229          8
   230         10
   231          2
   232          3
   233         10
   234          3
   235          7
   236         15
   237         18
   238         25
   239         15
   240          5
   241          3
   242          4
   243          2
   244          8
   245          5
   246          3
   247          3
   248          3
   249          3
   250          4
   251         38
   252          8
   253          4
   254          3
   255          6
   256          3
   257          2
   258          4
   259          2
   260          2
   261          4
   262          8
   263          7
   264          3
   265          9
   266        196
   267         37
   268         11
   269          3
   270          2
   271          4
   272          5
   273          7
   274         12
   275         16
   276          6
   277          4
   278          4
   279          3
   280          3
   281         18
   282         48
   283         38
   284          9
   285          3
   286          3
   287          2
   288          2
   289          3
   290         11
   291         15
   292          5
   293          4
   294          4
   295          3
   296          2
   297          6
   298          2
   299         12
   300          4
   301          9
   302         21
   303         33
   304         22
   305         34
   306         10
   307          4
   308          2
   309          2
   310          2
   311          1
   312          1
   313          1
   314          1
   315          3
   316          9
   317          5
   318          8
   319         14
   320         26
   321         25
   322         17
   323          6
   324          3
   325          2
   326          2
   327          2
   328          1
   329          1
   331          4
   332         22
   333         92
   334        118
   335         33
   336         11
   337          4
   338         13
   339          4
   340          2
   341          2
   346          2
   347         14
   348         63
   349        466
   350        194
   351         95
   352         20
   353          6
   354          3
   355          2
   356          1
   357          1
   362          1
   363          1
   364          6
   365        196
   366         45
   367         41
   368          8
   369          2
   375          1
   379          2
   380          2
   381         30
   382         12
   383          6