##TITLE=Library Entry 34969
##JCAMP-DX=Revision 4.10 
##DATA TYPE=MASS SPECTRUM
##SAMPLE DESCRIPTION=CARL DJERASSI DEPT OF CHEM STANFORD UNIV STANFORD CALIF
 94305
##NAMES=HP
##CAS NAME=4,5-Decanediol, 6-ethyl-
##MOLFORM=C12H26O2
##CAS REGISTRY NO=22607-12-1
##MP= -300
##BP= -300
##MW= 202
##$RETENTION INDEX=0
##$CONDENSED SPECTRUM=NO
##NPOINTS= 52
##XYDATA=(XY..XY) 1 
    39        130
    40         10
    41        650
    42         70
    43        700
    44         50
    45         90
    47         10
    53         40
    54         10
    55        900
    56         90
    57        710
    58         20
    59        310
    60         30
    67         60
    69        999
    70        140
    71        140
    72        230
    73        320
    74         10
    75         30
    81         20
    82         10
    83         50
    84         20
    85        140
    86         30
    87        100
    95         10
    96         10
    97         10
    98         10
    99         10
   102         10
   103        210
   104         10
   109         10
   110         10
   111        410
   112         80
   113         10
   127         10
   128        310
   129        670
   130         60
   141         10
   145         10
   159         20
   202         20