##TITLE=Library Entry 97966
##JCAMP-DX=Revision 4.10 
##DATA TYPE=MASS SPECTRUM
##SAMPLE DESCRIPTION=Exported from NIST MS Search
##NAMES=HP
##CAS NAME=Azetidine, 3,3-dimethyl-2-phenyl-1-propyl-
##MOLFORM=C14H21N
##CAS REGISTRY NO=22606-93-5
##MP= -300
##BP= -300
##MW= 203
##$RETENTION INDEX=0
##$CONDENSED SPECTRUM=NO
##NPOINTS= 55
##XYDATA=(XY..XY) 1 
    17        100
    39        170
    40         30
    41        290
    42        350
    43        180
    44         20
    50         20
    51         80
    52         20
    53         30
    54         20
    55         70
    56         40
    57         20
    63         40
    64         20
    65         80
    69         30
    70        240
    71         30
    72         30
    76         10
    77        100
    78         40
    79         30
    89         40
    90         40
    91        660
    92         60
   103         20
   104        130
   105         60
   106         30
   115         50
   116         40
   117        200
   118        999
   119        310
   120         30
   128         10
   129         10
   130         10
   131         30
   132        160
   133         30
   145         10
   146        230
   147        100
   148         30
   160          3
   174         30
   202         30
   203         90
   204         20