##TITLE=Library Entry 41224
##JCAMP-DX=Revision 4.10 
##DATA TYPE=MASS SPECTRUM
##SAMPLE DESCRIPTION=CARL DJERASSI DEPT OF CHEM STANFORD UNIV STANFORD CALIF
 94305
##NAMES=HP
##CAS NAME=3,4-Hexanediol, 2,5-dimethyl-
##MOLFORM=C8H18O2
##CAS REGISTRY NO=22607-11-0
##MP= -300
##BP= -300
##MW= 146
##$RETENTION INDEX=0
##$CONDENSED SPECTRUM=NO
##NPOINTS= 29
##XYDATA=(XY..XY) 1 
    39         50
    40         10
    41        160
    42         20
    43        250
    44         10
    45         60
    47         10
    53         10
    55        190
    56         70
    57        130
    58         10
    59         20
    60         20
    69         10
    71         20
    72        310
    73        999
    74         40
    75         10
    83          3
    85         40
    86          3
    87          6
   102          3
   103        100
   104          3
   146          3