##TITLE=Library Entry 40975
##JCAMP-DX=Revision 4.10 
##DATA TYPE=MASS SPECTRUM
##SAMPLE DESCRIPTION=O A MAMER, MCGILL UNIVERSITY, MONTRE
##NAMES=HP
##CAS NAME=2-Hydroxyethyl palmitate, TMS derivative
##MOLFORM=C21H44O3Si
##CAS REGISTRY NO=22613-62-3
##MP= -300
##BP= -300
##MW= 372
##$RETENTION INDEX=0
##$CONDENSED SPECTRUM=NO
##NPOINTS= 169
##XYDATA=(XY..XY) 1 
    13          7
    14         30
    16         16
    17         20
    26         21
    27         95
    28         53
    29        254
    30          8
    31         15
    32          6
    38          6
    39         53
    40         17
    41        501
    42        132
    43        884
    44         34
    45         75
    46          7
    47         24
    51          8
    52          9
    53         24
    54         47
    55        525
    56        135
    57        954
    58         79
    59         76
    60         21
    61         50
    65          6
    67        115
    68         48
    69        307
    70         77
    71        537
    72         60
    73        999
    74        103
    75        545
    76         43
    77         37
    78          6
    79         32
    80         13
    81        143
    82         41
    83        261
    84        266
    85        357
    86        288
    87         53
    88         28
    89         32
    90          6
    91         10
    93         23
    94         12
    95        210
    96         36
    97        173
    98        266
    99        204
   100         28
   101        197
   102         27
   103        410
   104         41
   105         30
   107         17
   108          8
   109        116
   110         19
   111         71
   112         76
   113         46
   114          6
   115          7
   116        800
   117        285
   118         56
   119         79
   120         10
   121         23
   122          7
   123         64
   124         12
   125         32
   126         15
   127         23
   129         90
   130         17
   131         50
   132         12
   133         17
   135         76
   136         12
   137         32
   138          7
   139         16
   140         15
   141         25
   142          6
   143          9
   145         12
   146         28
   147         19
   149          8
   151         13
   154         32
   155         48
   156         32
   157         11
   159         49
   160         24
   161          9
   165          8
   168         12
   169         14
   170         16
   171          7
   173         71
   174         12
   175          6
   176        331
   177         48
   178         18
   182         21
   183         16
   184          7
   187          7
   189         80
   190         19
   191          9
   196          7
   197         14
   207         26
   208          6
   209          7
   211         12
   215          6
   221         17
   225         10
   229          6
   238         24
   239        570
   240        104
   241         12
   253         11
   281         20
   282         21
   283         10
   311          6
   313        162
   314         44
   315         12
   327         12
   328          9
   329         33
   330         11
   355         11
   356          7
   357        379
   358        102
   359         29
   360          7
   372          7