##TITLE=Library Entry 49857
##JCAMP-DX=Revision 4.10 
##DATA TYPE=MASS SPECTRUM
##SAMPLE DESCRIPTION=Mark Whitten, Florida Museum of Natural History, U. of
 Florida
##NAMES=HP
##CAS NAME=Fenchol, exo-
##MOLFORM=C10H18O
##CAS REGISTRY NO=22627-95-8
##MP= -300
##BP= -300
##MW= 154
##$RETENTION INDEX=1115
##$CONDENSED SPECTRUM=NO
##NPOINTS= 75
##XYDATA=(XY..XY) 1 
    41        682
    43        699
    44         33
    45         58
    46          2
    47          1
    50         17
    51         53
    52         25
    53        185
    54         48
    55        304
    56         73
    57        246
    58         15
    59         19
    60          1
    61          2
    62          4
    63         11
    65         62
    66         27
    67        277
    68         46
    69        302
    70         57
    71        265
    72        254
    73         28
    74          3
    75          1
    77         87
    78         17
    79        167
    80        695
    81        999
    82        179
    83        151
    84        214
    85         46
    86          9
    89          1
    91         68
    92         48
    93        181
    94         29
    95         69
    96         47
    97         55
    98         46
    99         15
   100          3
   103          3
   105         22
   107        124
   108         21
   109         15
   110         15
   111        146
   112         19
   113          2
   119          2
   121        122
   122         14
   123         42
   124          4
   125         20
   126          3
   135          1
   136         20
   137          3
   139         28
   140          2
   154         17
   155          1