##TITLE=Library Entry 55660
##JCAMP-DX=Revision 4.10 
##DATA TYPE=MASS SPECTRUM
##SAMPLE DESCRIPTION=Exported from NIST MS Search
##NAMES=HP
##CAS NAME=L-Norleucine, ethyl ester
##MOLFORM=C8H17NO2
##CAS REGISTRY NO=22628-26-8
##MP= -300
##BP= -300
##MW= 159
##$RETENTION INDEX=0
##$CONDENSED SPECTRUM=NO
##NPOINTS= 77
##XYDATA=(XY..XY) 1 
    29        165
    30        450
    31         30
    32          1
    37          1
    38          2
    39         33
    40          5
    41         98
    42         51
    43        102
    44         92
    45         14
    46         19
    47          4
    48          1
    49          1
    50          3
    51          4
    52          4
    53          7
    54         15
    55         15
    56         95
    57         36
    58          4
    59          1
    60          1
    61          1
    62          1
    63          1
    64          1
    65          1
    66          1
    67          5
    68          4
    69         47
    70         13
    71          1
    72          1
    73          3
    74         55
    75          3
    76          1
    80          1
    81          1
    82          2
    83          1
    84         13
    85          2
    86        999
    87         59
    88          2
    95          1
    96          1
    97          1
    98          1
    99          1
   100          1
   101          2
   102         63
   103          5
   104          1
   112          1
   113          1
   114          1
   115          1
   116          1
   117          1
   126          1
   127          1
   128          1
   130          2
   131          1
   158          1
   159          1
   160          1