##TITLE=Library Entry 58704
##JCAMP-DX=Revision 4.10 
##DATA TYPE=MASS SPECTRUM
##SAMPLE DESCRIPTION=Exported from NIST MS Search
##NAMES=HP
##CAS NAME=.delta.2(5H),.alpha.-Furanacetic acid, 3-methoxy-5-oxo-.alpha.,4-
diphenyl-, methyl ester, (E)-
##MOLFORM=C20H16O5
##CAS REGISTRY NO=22628-22-4
##MP= -300
##BP= -300
##MW= 336
##$RETENTION INDEX=0
##$CONDENSED SPECTRUM=NO
##NPOINTS= 63
##XYDATA=(XY..XY) 1 
    15         88
    39         97
    50         20
    51         70
    59         96
    62         53
    63        225
    64         17
    65         13
    74         13
    75         36
    76         25
    77        175
    78         35
    87         26
    88         50
    89        999
    90        121
    91         38
   101         15
   102         19
   103         53
   104        170
   105         13
   115         33
   117        162
   118         51
   129         55
   130         13
   131         14
   132         63
   133         13
   145        108
   146         13
   151         14
   152         15
   158         14
   176         53
   177         18
   178        117
   179         22
   189         45
   190         20
   191         73
   192         14
   204         18
   206         26
   219         83
   220         15
   221        433
   222         75
   223         95
   234         25
   249        148
   250         29
   276         25
   277         44
   278         12
   292         13
   293         16
   305         28
   336        283
   337         62