##TITLE=Library Entry 21379
##JCAMP-DX=Revision 4.10 
##DATA TYPE=MASS SPECTRUM
##SAMPLE DESCRIPTION=Chemical Concepts
##NAMES=HP
##CAS NAME=Dimethyl 4-oxoheptane-1,7-dioate
##MOLFORM=C9H14O5
##CAS REGISTRY NO=22634-92-0
##MP= -300
##BP= -300
##MW= 202
##$RETENTION INDEX=1475
##$CONDENSED SPECTRUM=NO
##NPOINTS= 78
##XYDATA=(XY..XY) 1 
    31         51
    33          6
    37          0
    38          4
    39         37
    40          5
    41         80
    42        119
    43         53
    44          9
    45        100
    46          1
    47          0
    50          2
    51          3
    52          2
    53         18
    54         14
    55        999
    56        177
    57         55
    58          4
    59        542
    60         13
    61          3
    64          0
    65          6
    66          2
    67         22
    68          5
    69          6
    70         27
    71          4
    72          0
    73          1
    74          2
    77          5
    79          1
    81          2
    82          6
    83         66
    84          8
    85          5
    86          2
    87        199
    88         28
    89          1
    93          4
    94          0
    95          8
    96          3
    97          7
    98          6
    99          2
   100          0
   101          5
   109          2
   110         11
   111        433
   112         37
   113          3
   114          6
   115        971
   116         54
   117          7
   121          4
   127          0
   129          1
   130          0
   138          5
   139         11
   140          0
   142          7
   143        151
   144         10
   145          0
   170          4
   171         25