##TITLE=Library Entry 17426
##JCAMP-DX=Revision 4.10 
##DATA TYPE=MASS SPECTRUM
##SAMPLE DESCRIPTION=James Little,Eastman Chem.Co.,Kingsport,TN
##NAMES=HP
##CAS NAME=Methoxymethyl 2-hydroxyethyl sulfide
##MOLFORM=C4H10O2S
##CAS REGISTRY NO=22633-01-8
##MP= -300
##BP= -300
##MW= 122
##$RETENTION INDEX=0
##$CONDENSED SPECTRUM=NO
##NPOINTS= 33
##XYDATA=(XY..XY) 1 
    27         50
    29        115
    30         15
    31         68
    34         12
    43         31
    44         34
    45        999
    46         61
    47         63
    48         10
    59          9
    60         33
    61        113
    62        104
    63          9
    64          5
    73          4
    75          4
    76         53
    77         60
    78          5
    79          4
    89          8
    90        180
    91         33
    92         22
    93          5
    94          2
   104          2
   122         57
   123          3
   124          3