##TITLE=Library Entry 37437
##JCAMP-DX=Revision 4.10 
##DATA TYPE=MASS SPECTRUM
##SAMPLE DESCRIPTION=NIST Mass Spectrometry Data Center
##NAMES=HP
##CAS NAME=(E)-Hexadec-2-enal
##MOLFORM=C16H30O
##CAS REGISTRY NO=22644-96-8
##MP= -300
##BP= -300
##MW= 238
##$RETENTION INDEX=1878
##$CONDENSED SPECTRUM=NO
##NPOINTS= 101
##XYDATA=(XY..XY) 1 
    27         62
    29        165
    30          4
    31          3
    37          2
    38          3
    39        133
    40         27
    41        640
    42        133
    43        646
    44         23
    49          1
    51          9
    52          7
    53         89
    54        116
    55        706
    56        194
    57        727
    58         39
    65         25
    66         51
    67        325
    68        237
    69        430
    70        999
    71        233
    72         24
    77         23
    78         17
    79        119
    80         95
    81        284
    82        352
    83        633
    84        218
    85         83
    86         12
    91         17
    92          6
    93         91
    94         85
    95        205
    96        276
    97        299
    98        215
    99         22
   105          6
   107         59
   108         67
   109        109
   110         99
   111        185
   112         85
   113         31
   114          4
   121        141
   122         54
   123         50
   124         61
   125         50
   126         17
   127          6
   131          4
   135         83
   136         24
   137         24
   138         36
   139         19
   140          9
   149         27
   150          9
   151         12
   152         18
   153         11
   154          6
   156          4
   163         12
   164          4
   165          5
   166         11
   167          4
   168          4
   170          2
   177          7
   178          2
   179          2
   180          2
   181          3
   182          4
   183          2
   191          5
   192          3
   194         12
   195          6
   207          3
   209          4
   220          4
   223          1
   238          5