##TITLE=Library Entry 90060
##JCAMP-DX=Revision 4.10 
##DATA TYPE=MASS SPECTRUM
##SAMPLE DESCRIPTION=Chuck Anderson, Aldrich Chemical Co.
##NAMES=HP
##CAS NAME=3,5-Difluoronitrobenzene
##MOLFORM=C6H3F2NO2
##CAS REGISTRY NO=2265-94-3
##MP= -300
##BP= -300
##MW= 159
##$RETENTION INDEX=0
##$CONDENSED SPECTRUM=NO
##NPOINTS= 77
##XYDATA=(XY..XY) 1 
    18          0
    25          1
    26          2
    27          1
    28          3
    29          0
    30        306
    31         64
    32          2
    33          1
    36          4
    37         31
    38         20
    39         11
    44          6
    45          4
    46         13
    48          1
    49         11
    50         59
    51         34
    52          2
    55          4
    56         20
    57         55
    58          2
    60          4
    61         49
    62        110
    63        759
    64         42
    65          1
    67          1
    68         79
    69         43
    70          3
    72          1
    73         17
    74         60
    75         55
    76          8
    77          2
    79          7
    80         11
    81         51
    82          9
    83          0
    86          7
    87         22
    88          2
    91          2
    92         27
    93         90
    94         35
    95          2
    99         11
   100         14
   101        161
   102          9
   106          0
   107          0
   110          2
   111          6
   112         42
   113        999
   114         63
   115          1
   126          1
   127          1
   129         48
   130          2
   131          1
   143         35
   144          2
   159        737
   160         47
   161          4