##TITLE=Library Entry 286
##JCAMP-DX=Revision 4.10 
##DATA TYPE=MASS SPECTRUM
##SAMPLE DESCRIPTION=Exported from NIST MS Search
##NAMES=HP
##CAS NAME=Adenosine, N-(4-hydroxy-3-methylbutyl)-
##MOLFORM=C15H23N5O5
##CAS REGISTRY NO=22663-55-4
##MP= -300
##BP= -300
##MW= 353
##$RETENTION INDEX=0
##$CONDENSED SPECTRUM=NO
##NPOINTS= 126
##XYDATA=(XY..XY) 1 
    26          5
    27         31
    28        999
    29         42
    30         88
    31         71
    33        238
    39         22
    40         14
    41         79
    42         22
    43         93
    44         48
    45         51
    52          8
    53         17
    54         17
    55         56
    56         17
    57         79
    58         17
    59          5
    60         17
    61         31
    65         14
    66         22
    67         34
    68         17
    69         31
    70         14
    71         22
    72          5
    73         56
    74          5
    77          8
    79         17
    80         14
    81         17
    82          8
    83          8
    84          8
    85         28
    86          5
    87          5
    91          5
    92         31
    93         48
    94         39
    95         11
    97          5
    98          5
   106          8
   107          5
   108         45
   109         17
   118          5
   119        142
   120         79
   121         65
   122          5
   133         17
   134         17
   135        505
   136        272
   137         22
   145          8
   147          5
   148        977
   149        409
   150         39
   151          5
   160         39
   161         22
   162        502
   163        119
   164         68
   165          8
   174         17
   175         25
   176          5
   177         19
   178         22
   179          5
   186          2
   188         17
   189          5
   190        127
   191         73
   192         19
   193          5
   200          5
   201         17
   202         17
   203         34
   204         71
   205         22
   206         22
   219          5
   220         51
   221         85
   222        213
   223         22
   232          8
   249          5
   250        352
   251         45
   252          5
   264        130
   265         22
   267         22
   268          5
   280         22
   281         73
   282          5
   294         22
   295          5
   306          8
   307          5
   322         17
   323         22
   324          5
   334          8
   335         22
   336         17
   353         54
   354         17