##TITLE=Library Entry 19499
##JCAMP-DX=Revision 4.10 
##DATA TYPE=MASS SPECTRUM
##SAMPLE DESCRIPTION=Exported from NIST MS Search
##NAMES=HP
##CAS NAME=Octanoic acid, 8,8'-selenodi-
##MOLFORM=C16H30O4Se
##CAS REGISTRY NO=22676-18-2
##MP= -300
##BP= -300
##MW= 366
##$RETENTION INDEX=0
##$CONDENSED SPECTRUM=NO
##NPOINTS= 177
##XYDATA=(XY..XY) 1 
    26          6
    27        143
    28         40
    29        201
    30          7
    31         26
    35          3
    36          9
    37          3
    38          4
    39        141
    40         23
    41        595
    42         94
    43        263
    44         11
    45        195
    46          6
    47          3
    50          3
    51          7
    52          3
    53         70
    54         31
    55        999
    56         59
    57         91
    58          6
    59         67
    60        132
    61          9
    65         11
    66          7
    67        141
    68         39
    69        189
    70         18
    71         31
    72          3
    73         78
    74          7
    75          3
    76          3
    77         11
    78          4
    79         64
    80         20
    81        228
    82         42
    83        291
    84         28
    85         18
    86          4
    87         23
    89          4
    90          7
    91         20
    92         18
    93         39
    94         26
    95        119
    96         29
    97        274
    98        122
    99         28
   100          4
   101         26
   102          3
   103          3
   104          7
   105         29
   106         26
   107        148
   108         26
   109         86
   110          9
   111         55
   112          4
   113          4
   114          4
   115          4
   117          3
   118          3
   119          9
   120          3
   121         15
   122          4
   123         78
   124         31
   125        440
   126         37
   127          6
   129          4
   131         12
   132          9
   133         31
   134          4
   135         53
   136          6
   137         14
   140          3
   141          9
   143         37
   144          3
   145          6
   146          6
   147         12
   148          3
   149         26
   150          3
   151          7
   157          6
   158          6
   159         20
   160          9
   161         42
   162          7
   163         34
   164          6
   165          7
   171          3
   172          3
   173         11
   174         11
   175         23
   176          6
   177         40
   178         11
   179         11
   184          6
   185          7
   186         14
   187         11
   188         29
   189          9
   190          7
   191          6
   192          6
   199          3
   201         26
   202         37
   203         77
   204         44
   205        135
   206         88
   207         37
   208         18
   209          3
   218          4
   219          7
   220         14
   221          7
   222         28
   223         12
   224          4
   225          3
   237          3
   248          1
   249          9
   251         15
   253          3
   277          4
   279          7
   322          4
   336          4
   338          6
   347          6
   349          9
   360          1
   362         26
   363         28
   364         74
   365         14
   366        146
   367         26
   368         29
   369          6