##TITLE=Library Entry 83911
##JCAMP-DX=Revision 4.10 
##DATA TYPE=MASS SPECTRUM
##SAMPLE DESCRIPTION=Humboldt-Universitat zu Berlin, Department of Chemistry
, Analytical Group
##NAMES=HP
##CAS NAME=N-(4-Methylphenyl)-N'-butylurea
##MOLFORM=C12H18N2O
##CAS REGISTRY NO=22671-74-5
##MP= -300
##BP= -300
##MW= 206
##$RETENTION INDEX=0
##$CONDENSED SPECTRUM=NO
##NPOINTS= 130
##XYDATA=(XY..XY) 1 
    12          0
    13          0
    14          1
    15          9
    16          2
    17         18
    18         78
    19          0
    26          6
    27         71
    28         52
    29         94
    30        153
    31          2
    32          1
    36          0
    37          1
    38          5
    39         52
    40          7
    41         78
    42         13
    43         19
    44         24
    45          1
    49          0
    50         10
    51         32
    52         25
    53         20
    54          6
    55          8
    56          9
    57         23
    58          3
    59          0
    60          0
    61          0
    62          3
    63         10
    64          5
    65         34
    66          5
    67          2
    68          0
    69          0
    70          1
    71          1
    72          5
    73          0
    74          1
    75          1
    76          4
    77         92
    78         33
    79         63
    80         10
    81          1
    82          0
    83          0
    84          0
    85          0
    86          0
    87          0
    88          0
    89          7
    90          4
    91         33
    92          4
    93          5
    94          1
    95          0
    96          0
    97          0
    98          0
    99          0
   100          1
   101          0
   102          1
   103          1
   104         20
   105         15
   106        417
   107        999
   108         82
   109          3
   110          0
   111          0
   112          0
   113          0
   115          0
   116          0
   117          0
   118          1
   119          3
   120          4
   121          1
   122          0
   125          0
   127          1
   128          0
   129          0
   130          0
   131          1
   132         14
   133         18
   134          7
   135          1
   145          0
   146          0
   147          1
   148          1
   149          6
   150          2
   151          0
   160          0
   161          0
   162          0
   163          1
   164          0
   171          0
   177          0
   190          0
   191          0
   204          0
   205          1
   206         78
   207         11
   208          1
   209          0