##TITLE=Library Entry 19434
##JCAMP-DX=Revision 4.10 
##DATA TYPE=MASS SPECTRUM
##SAMPLE DESCRIPTION=Exported from NIST MS Search
##NAMES=HP
##CAS NAME=Heptanoic acid, 7,7'-selenodi-
##MOLFORM=C14H26O4Se
##CAS REGISTRY NO=22676-17-1
##MP= -300
##BP= -300
##MW= 338
##$RETENTION INDEX=0
##$CONDENSED SPECTRUM=NO
##NPOINTS= 167
##XYDATA=(XY..XY) 1 
    26         12
    27        248
    28         63
    29        275
    30          9
    31         47
    36          4
    37          3
    38          6
    39        214
    40         34
    41        795
    42        103
    43        314
    44         12
    45        330
    46          9
    47          4
    51         12
    52          7
    53        107
    54         44
    55        999
    56         75
    57         72
    58          9
    59         63
    60        107
    65         22
    66         12
    67        240
    68         89
    69        650
    70         40
    71         25
    72          3
    73         94
    74         11
    77         12
    78          9
    79         40
    80         12
    81        324
    82         63
    83        790
    84        168
    85        122
    86          9
    87         94
    88          4
    89          7
    90         12
    91         39
    92         34
    93         81
    94         47
    95         75
    96         12
    97         45
    98          9
    99         14
   100         11
   101          9
   103          9
   104         12
   105         42
   106         40
   107         86
   108         40
   109        157
   110         36
   111        595
   112         55
   113          7
   115          6
   117          6
   118          6
   119         12
   120          7
   121         25
   122          9
   123         12
   124          1
   125          1
   126          3
   127         56
   128          7
   129        114
   130         11
   131         17
   132         14
   133         45
   134          7
   135         78
   136          9
   137         22
   138          3
   143          3
   144          7
   145         25
   146         29
   147         45
   148         39
   149         75
   150         22
   151         15
   152          3
   158          3
   159         12
   160         22
   161         40
   162         33
   163         61
   164         66
   165         23
   166         12
   167          3
   171          1
   172          6
   173          3
   174         12
   175          6
   176          3
   177          4
   178          3
   185          4
   186          4
   187         31
   188         69
   189        119
   190        124
   191        173
   192        242
   193         55
   194         44
   195          6
   204          7
   205         11
   206         15
   207         11
   208         28
   209         20
   210          7
   211          3
   233          6
   234          6
   235         12
   236          1
   237         26
   238          3
   239          3
   265          3
   317          3
   318          1
   319          7
   320          1
   321         14
   322          1
   323          1
   334         37
   335         39
   336        100
   337         15
   338        207
   339         31
   340         37
   341          4