##TITLE=Library Entry 20692
##JCAMP-DX=Revision 4.10 
##DATA TYPE=MASS SPECTRUM
##SAMPLE DESCRIPTION=Exported from NIST MS Search
##NAMES=HP
##CAS NAME=Octanoic acid, 8,8'-diselenodi-
##MOLFORM=C16H30O4Se2
##CAS REGISTRY NO=22686-32-4
##MP= -300
##BP= -300
##MW= 446
##$RETENTION INDEX=0
##$CONDENSED SPECTRUM=NO
##NPOINTS= 238
##XYDATA=(XY..XY) 1 
    26          9
    27        121
    28         36
    29        176
    30          3
    31         23
    38          3
    39        101
    40         14
    41        463
    42         63
    43        301
    44         14
    45        130
    46          1
    47          1
    50          1
    51          9
    52          1
    53         52
    54         25
    55        999
    56         60
    57        109
    58          9
    59         69
    60         80
    61          5
    63          1
    65          9
    66          5
    67        112
    68         29
    69        247
    70         21
    71         36
    72          7
    73         78
    74          9
    75          1
    76          1
    77         10
    78          7
    79         54
    80         21
    81        190
    82         29
    83        472
    84         41
    85         23
    86          3
    87         32
    88          1
    89          3
    90          7
    91         21
    92         18
    93         47
    94         27
    95        114
    96         23
    97        443
    98         85
    99         23
   100          7
   101         81
   102          7
   103          5
   104          5
   105         20
   106         16
   107        101
   108         25
   109         50
   110          9
   111         69
   112          7
   113          9
   114          1
   115         34
   116          3
   117          3
   118          3
   119          7
   120          3
   121         21
   122          9
   123         50
   124         14
   125        460
   126         41
   127          7
   129         18
   131         16
   132         12
   133         36
   134          9
   135         63
   136         12
   137         18
   138          5
   139          9
   140          7
   141         14
   142          1
   143         94
   144         10
   145          9
   146          7
   147         18
   148          9
   149         32
   150         12
   151         10
   152          3
   153          3
   154          5
   155          3
   156         12
   157         12
   158         23
   159         23
   160         27
   161         38
   162         14
   164         10
   165          7
   171          7
   172          3
   173         25
   174         23
   175         60
   176         16
   177         96
   178         27
   179         21
   180          5
   181          3
   184          3
   185          7
   186          5
   187          9
   188          9
   189          7
   190          5
   191          5
   192         10
   193          3
   194          3
   198          3
   199          5
   200          5
   201         10
   202         12
   203         29
   204         29
   205         21
   206         47
   207         10
   208          9
   209          3
   211          3
   215          5
   217          3
   218          3
   219          9
   220          9
   221          9
   222         12
   223          5
   224          5
   227          5
   233          3
   240          3
   252          3
   253          3
   254          5
   255          5
   256          5
   257          1
   258          9
   260          1
   266          3
   267          1
   268          3
   269          1
   270          9
   272         10
   274          1
   278          7
   279          7
   280         29
   281         21
   282         70
   283         43
   284        120
   285         20
   286        130
   287         10
   288         41
   289          1
   290          1
   310          3
   362          3
   364          3
   366          7
   393          3
   400          1
   402          5
   404          3
   414          3
   416          5
   418          5
   420          1
   422          3
   425          1
   426          3
   427          5
   428          9
   429          7
   430         14
   431          1
   432         14
   433          1
   434          3
   438          5
   439          7
   440         25
   441         18
   442         61
   443         40
   444        100
   445         21
   446        109
   447         18
   448         36
   449          5
   450          1