##TITLE=Library Entry 3008
##JCAMP-DX=Revision 4.10 
##DATA TYPE=MASS SPECTRUM
##SAMPLE DESCRIPTION=Exported from NIST MS Search
##NAMES=HP
##CAS NAME=Acetic acid, [(1-methylpropyl)thio]-
##MOLFORM=C6H12O2S
##CAS REGISTRY NO=22683-43-8
##MP= -300
##BP= -300
##MW= 148
##$RETENTION INDEX=0
##$CONDENSED SPECTRUM=NO
##NPOINTS= 54
##XYDATA=(XY..XY) 1 
    26         60
    27        310
    28         64
    29        790
    30         30
    31         60
    32          5
    38         20
    39        260
    40         50
    41        999
    42        100
    43        110
    44        250
    45        380
    46        160
    47        200
    48         20
    53         70
    54         20
    55        320
    56        770
    57        880
    58         70
    59        130
    60         60
    61         80
    67         30
    69         70
    71         30
    73        320
    74        130
    75        100
    77         40
    81         30
    83         20
    85         20
    87         80
    88         50
    89        560
    90         40
    91        130
    92        100
    93         50
    94         20
   101        140
   103         20
   118         20
   119        170
   120         10
   121         20
   148        270
   149         30
   150         20