##TITLE=Library Entry 19274
##JCAMP-DX=Revision 4.10 
##DATA TYPE=MASS SPECTRUM
##SAMPLE DESCRIPTION=Exported from NIST MS Search
##NAMES=HP
##CAS NAME=Nonanoic acid, 9,9'-diselenodi-
##MOLFORM=C18H34O4Se2
##CAS REGISTRY NO=22686-33-5
##MP= -300
##BP= -300
##MW= 474
##$RETENTION INDEX=0
##$CONDENSED SPECTRUM=NO
##NPOINTS= 277
##XYDATA=(XY..XY) 1 
    26         10
    27        141
    28         48
    29        201
    30          5
    31         25
    38          1
    39        115
    40         17
    41        603
    42         75
    43        389
    44         24
    45        134
    46          3
    47          1
    50          1
    51          8
    52          3
    53         58
    54         34
    55        999
    56         63
    57        151
    58         10
    59         65
    60         96
    61          8
    63          3
    64          3
    65         12
    66          6
    67        162
    68         55
    69        599
    70         41
    71         82
    72          8
    73        113
    74         10
    75          3
    76          3
    77         17
    78         10
    79         55
    80         20
    81        155
    82         34
    83        253
    84         55
    85         27
    86          5
    87         34
    88          3
    89          5
    90          6
    91         27
    92         17
    93         89
    94         37
    95        184
    96         34
    97        362
    98         62
    99         17
   100          8
   101         75
   102          8
   103          5
   104          6
   105         25
   106         22
   107         65
   108         24
   109         82
   110         15
   111        120
   112         44
   113         17
   114          6
   115         46
   116          3
   117          3
   118          5
   119         20
   120         12
   121        206
   122         24
   123         29
   124          8
   125        119
   126         13
   127          8
   129         20
   130          3
   131         25
   132         22
   133         60
   134         12
   135        106
   136         17
   137         50
   138         15
   139        393
   140         43
   141         10
   143         22
   144          3
   145         13
   146         12
   147         25
   148         12
   149         46
   150         13
   151         12
   152          1
   153          8
   154          5
   155          3
   156          8
   157         43
   158         22
   159         10
   160         27
   161         19
   162         12
   163         22
   171          8
   172          5
   173         13
   174         12
   175         27
   176         12
   177         31
   178         13
   179         10
   180          1
   183          3
   184          1
   185          6
   186          5
   187         20
   188         19
   189         48
   190         17
   191         72
   192         22
   193         17
   194          6
   195          3
   197          5
   198          5
   199         12
   200          6
   201         20
   202         17
   203         17
   204         17
   205         10
   206         25
   207          6
   208          6
   209          3
   213          3
   214          1
   215         13
   216         20
   217         48
   218         34
   219         65
   220         65
   221         24
   222         15
   223          3
   224          1
   225          5
   226          3
   231          3
   232          6
   233          8
   234         13
   235          8
   236         20
   237          8
   238          6
   239          3
   251          3
   254          1
   256          1
   258          1
   270         10
   271          1
   272         12
   273          1
   274          3
   278          3
   279          1
   280          5
   281          3
   282         13
   283          8
   284         24
   285          1
   286         25
   287          1
   288          6
   291          3
   292          3
   293          6
   294         17
   295         13
   296         46
   297         27
   298         77
   299         10
   300         82
   301         10
   302         25
   303          3
   304          3
   348          1
   350          3
   352          1
   364          1
   366          6
   376          3
   377          1
   378          1
   380          1
   390         13
   391         13
   392         34
   393          8
   394         65
   395         12
   396         12
   397          1
   408         13
   414          3
   416          3
   418          3
   422          3
   426          1
   428          5
   429          3
   430         10
   432         10
   440          3
   441          3
   442          8
   443          5
   444         12
   445          5
   446         13
   447          1
   448          3
   453          3
   454         10
   455          6
   456         17
   457         10
   458         24
   459          5
   460         24
   461          5
   462          6
   467          3
   468         13
   469          8
   470         31
   471         20
   472         55
   473         13
   474         55
   475         10
   476         17
   477          1