##TITLE=Library Entry 20100
##JCAMP-DX=Revision 4.10 
##DATA TYPE=MASS SPECTRUM
##SAMPLE DESCRIPTION=Exported from NIST MS Search
##NAMES=HP
##CAS NAME=Decanoic acid, 10,10'-diselenodi-
##MOLFORM=C20H38O4Se2
##CAS REGISTRY NO=22686-34-6
##MP= -300
##BP= -300
##MW= 502
##$RETENTION INDEX=0
##$CONDENSED SPECTRUM=NO
##NPOINTS= 305
##XYDATA=(XY..XY) 1 
    12          5
    14          3
    15          9
    16         10
    17         69
    18        312
    19          3
    25          3
    26         21
    27        178
    28         98
    29        245
    30          7
    31         27
    32          3
    35          3
    36         12
    37          3
    38          9
    39        181
    40         29
    41        769
    42        112
    43        450
    44        100
    45        145
    46          9
    47          1
    48          1
    49          1
    50          9
    51         18
    52          9
    53         81
    54         60
    55        999
    56         87
    57        261
    58         16
    59         65
    60        178
    61         16
    62          3
    63         10
    64          7
    65         18
    66         12
    67        269
    68         87
    69        927
    70         76
    71        127
    72         10
    73        163
    74         18
    75          9
    76          5
    77         27
    78         14
    79         65
    80         32
    81        218
    82         58
    83        381
    84         98
    85         63
    86         10
    87         50
    88          5
    89          7
    90          9
    91         34
    92         21
    93         70
    94         25
    95        101
    96         32
    97        223
    98        154
    99         32
   100         12
   101         45
   102          5
   103          7
   104         10
   105         36
   106         32
   107         83
   108         32
   109        120
   110         36
   111        209
   112         23
   113         14
   114         10
   115         43
   116         10
   117          9
   118          7
   119         21
   120         12
   121         29
   122         12
   123         32
   124         16
   125         32
   126         25
   127         14
   128         14
   129         30
   130          7
   131         40
   132         36
   133        114
   134         27
   135        403
   136         47
   137         50
   138          9
   139         18
   140          5
   141        127
   142         32
   143         10
   144          3
   145         27
   146         23
   147         58
   148         14
   149        109
   150         21
   151         41
   152         23
   153        392
   154         49
   155          9
   156         21
   157         14
   158         36
   159         12
   160         40
   161         23
   162         16
   163         32
   164          7
   165         12
   166          7
   167         12
   168          9
   169          5
   170          3
   171         43
   172          7
   173         10
   174          5
   175         14
   176          3
   177         18
   178          5
   179          7
   180          1
   181          7
   182          7
   183          5
   184          1
   185          5
   186          5
   187          9
   188          7
   189         14
   190          5
   191         14
   192          5
   193          5
   194          5
   195          7
   196          3
   197          7
   198          5
   199          7
   200          5
   201         36
   202         32
   203         83
   204         20
   205        154
   206         29
   207         32
   208          9
   209          3
   210          3
   211          5
   212          7
   213         14
   214          9
   215         23
   216         12
   217          7
   218          3
   219          5
   227          3
   228          3
   229         12
   230         29
   231         47
   232         65
   233         43
   234        127
   235         27
   236         21
   237          5
   238          3
   240          3
   245          3
   246          7
   247          9
   248         10
   249         12
   250         25
   251          7
   252          7
   256          5
   257          3
   258          7
   259          3
   260          7
   263          5
   264          5
   265          3
   266          5
   267          5
   277          3
   278          3
   279          3
   280          3
   281          3
   282          7
   283          3
   284         32
   285          7
   286          7
   287          3
   288          5
   292          3
   294          3
   304          3
   305          1
   306          9
   307         10
   308         40
   309         27
   310        100
   311         60
   312        174
   313         30
   314        196
   315         21
   316         54
   317          7
   318          5
   326          3
   327          1
   328          1
   331          3
   340          3
   360         10
   361          1
   362         10
   363          1
   364          5
   366          3
   378          3
   394          3
   396          1
   418          7
   419          7
   420         14
   421          3
   422         25
   423          7
   424          7
   453          3
   455          5
   457          5
   468          3
   480          1
   481          1
   482          5
   483          3
   484          5
   485          1
   486          1
   494         10
   495         12
   496         36
   497         30
   498         87
   499         61
   500        156
   501         45
   502        176
   503         38
   504         54
   505         12
   506          7