##TITLE=Library Entry 73543
##JCAMP-DX=Revision 4.10 
##DATA TYPE=MASS SPECTRUM
##SAMPLE DESCRIPTION=NIST Mass Spectrometry Data Center, 1994
##NAMES=HP
##CAS NAME=2,4,6-Trifluorophenol
##MOLFORM=C6H3F3O
##CAS REGISTRY NO=2268-17-9
##MP= -300
##BP= -300
##MW= 148
##$RETENTION INDEX=0
##$CONDENSED SPECTRUM=NO
##NPOINTS= 83
##XYDATA=(XY..XY) 1 
    12          8
    13          1
    17          9
    18          1
    19          2
    20          6
    24          5
    25         15
    26          5
    29         28
    31        318
    32          4
    33          3
    36         15
    37         56
    38         31
    39         13
    40          7
    44         32
    47          5
    48         10
    49         35
    50        332
    51        103
    52          5
    53         52
    54          4
    55         32
    56         81
    57         50
    58          2
    60         16
    61         66
    62         25
    63          7
    64         35
    66          1
    67          5
    68         57
    69        138
    70         26
    71         19
    72          3
    73          9
    74         69
    75        140
    76          8
    77         13
    78          1
    79         34
    80         52
    81        135
    82          8
    83          2
    84          2
    86          7
    87          9
    88         21
    89          1
    91          4
    92          7
    93         32
    94          7
    95          2
    96          1
    97          8
    98          1
    99        392
   100        999
   101         91
   102          4
   104          1
   110          1
   117          9
   119        145
   120         15
   128         51
   129          9
   130          1
   131          3
   148        707
   149         46
   150          2