##TITLE=Library Entry 40571
##JCAMP-DX=Revision 4.10 
##DATA TYPE=MASS SPECTRUM
##SAMPLE DESCRIPTION=J.W.GILJE DEPT. CHEM., UNIV. HAWAII, HONOLULU, HAWAII
##NAMES=HP
##CAS NAME=Phosphorochloridous dihydrazide, hexamethyl-
##MOLFORM=C6H18ClN4P
##CAS REGISTRY NO=22692-22-4
##MP= -300
##BP= -300
##MW= 212
##$RETENTION INDEX=0
##$CONDENSED SPECTRUM=NO
##NPOINTS= 29
##XYDATA=(XY..XY) 1 
    27         21
    28        100
    29         21
    30        140
    31         10
    32         50
    41         21
    42        198
    43        180
    44        198
    45         21
    46         79
    57         29
    58         21
    59         79
    60        119
    71         21
    72         10
    73        999
    74        140
    96         21
   110         29
   112         10
   134         10
   139         39
   141         13
   177         29
   212         29
   214         10