##TITLE=Library Entry 31016
##JCAMP-DX=Revision 4.10 
##DATA TYPE=MASS SPECTRUM
##SAMPLE DESCRIPTION=A.Pleshkova, Nesmeyanov Inst.Org.Elem.Cpds, Moscow
##NAMES=HP
##CAS NAME=N-Dichlorophosphinodimethylhydroxylamine
##MOLFORM=C2H6Cl2NOP
##CAS REGISTRY NO=22692-23-5
##MP= -300
##BP= -300
##MW= 161
##$RETENTION INDEX=0
##$CONDENSED SPECTRUM=NO
##NPOINTS= 57
##XYDATA=(XY..XY) 1 
    27         22
    28        224
    29         79
    30         62
    31         72
    32         43
    34          8
    35         22
    36         41
    37          9
    38         13
    42         31
    43          9
    44         31
    45         62
    46         22
    47        141
    48          9
    49          9
    57          9
    58         31
    59         62
    60        999
    61         27
    62          2
    63         22
    66        101
    67         62
    68         31
    69         22
    94         41
    95          9
    96         31
    97        374
    98          4
    99        112
   100          1
   101        259
   103        169
   105         27
   126        172
   127          5
   128         57
   129          2
   130         22
   131          9
   132         14
   146         31
   147          1
   148         22
   160         32
   161        259
   162          7
   163        168
   164          5
   165         27
   166          2