##TITLE=Library Entry 11654
##JCAMP-DX=Revision 4.10 
##DATA TYPE=MASS SPECTRUM
##SAMPLE DESCRIPTION=Chemical Concepts
##NAMES=HP
##CAS NAME=2-Norbornanol, 1,2-dimethyl-
##MOLFORM=C9H16O
##CAS REGISTRY NO=22690-38-6
##MP= -300
##BP= -300
##MW= 140
##$RETENTION INDEX=0
##$CONDENSED SPECTRUM=NO
##NPOINTS= 80
##XYDATA=(XY..XY) 1 
    26          6
    27        144
    28          8
    29        121
    30          4
    31         25
    38          9
    39        215
    40         30
    41        247
    42         29
    43        999
    44         19
    45         69
    46         13
    50         10
    51         34
    52         18
    53        137
    54         36
    55        238
    56         37
    57         58
    58        245
    59        230
    60         12
    61          2
    62          2
    63         10
    64          2
    65         39
    66         43
    67        245
    68         54
    69         93
    70         19
    71        166
    72         21
    73          3
    75          2
    76          3
    77         95
    78         15
    79        227
    80        284
    81        281
    82        250
    83        101
    84         45
    85        171
    86         16
    87         10
    91         55
    92         15
    93        229
    94         51
    95         40
    96        105
    97        207
    98         23
    99          8
   101          3
   103          3
   105         12
   106          3
   107        338
   108         68
   109         17
   110          3
   111        133
   112         10
   119          2
   121         27
   122        716
   123        137
   124         27
   125        103
   139          5
   140         27
   141          3