##TITLE=Library Entry 40686
##JCAMP-DX=Revision 4.10 
##DATA TYPE=MASS SPECTRUM
##SAMPLE DESCRIPTION=J.W.GILJE DEPT. CHEM., UNIV. HAWAII, HONOLULU, HAWAII
##NAMES=HP
##CAS NAME=Phosphorofluoridous dihydrazide, hexamethyl-
##MOLFORM=C6H18FN4P
##CAS REGISTRY NO=22692-25-7
##MP= -300
##BP= -300
##MW= 196
##$RETENTION INDEX=0
##$CONDENSED SPECTRUM=NO
##NPOINTS= 30
##XYDATA=(XY..XY) 1 
    27         20
    28        130
    29         20
    30        130
    31         20
    32         50
    40          8
    41         20
    42        239
    43        210
    44        260
    45         20
    46         71
    50          8
    51          8
    57         29
    58         20
    59        150
    60         41
    71         29
    72         20
    73        999
    74        139
    78         20
    80         29
    94         50
   123         79
   148          8
   196        109
   197          8