##TITLE=Library Entry 40585
##JCAMP-DX=Revision 4.10 
##DATA TYPE=MASS SPECTRUM
##SAMPLE DESCRIPTION=J.W.GILJE DEPT. CHEM., UNIV. HAWAII, HONOLULU, HAWAII
##NAMES=HP
##CAS NAME=Phosphorodifluoridous hydrazide, trimethyl-
##MOLFORM=C3H9F2N2P
##CAS REGISTRY NO=22692-24-6
##MP= -300
##BP= -300
##MW= 142
##$RETENTION INDEX=0
##$CONDENSED SPECTRUM=NO
##NPOINTS= 32
##XYDATA=(XY..XY) 1 
    27         38
    28         18
    29         21
    30        188
    31         21
    36          8
    40         21
    41         30
    42        489
    43        669
    44        351
    45         30
    46        150
    50         30
    51         21
    57         60
    58         90
    59         81
    60         21
    69        248
    71         38
    72         30
    73        999
    74         90
    78         21
    80         21
    94         30
    96         21
    98          8
   112         38
   123         51
   142         68