##TITLE=Library Entry 14558
##JCAMP-DX=Revision 4.10 
##DATA TYPE=MASS SPECTRUM
##SAMPLE DESCRIPTION=OGDEN BioServices Corp., NCI, Rockville, MD 20852
##NAMES=HP
##CAS NAME=Diacetoxyscirpenol
##MOLFORM=C19H26O7
##CAS REGISTRY NO=2270-40-8
##MP= -300
##BP= -300
##MW= 366
##$RETENTION INDEX=2421
##$CONDENSED SPECTRUM=NO
##NPOINTS= 226
##XYDATA=(XY..XY) 1 
    41        104
    42         33
    43        999
    44          6
    45         10
    47         60
    48         33
    52          7
    53         53
    54         13
    55        103
    56         18
    57         24
    58          2
    59          4
    60         12
    61         20
    63          3
    64          3
    65         37
    66         13
    67         64
    68         12
    69         49
    70          8
    71         26
    72          3
    73         13
    74          1
    77         97
    78         24
    79        122
    80         53
    81         88
    82         35
    83         56
    87          5
    88         22
    89          4
    91        290
    92         42
    93        104
    94         60
    95        189
    96         70
    97         46
    98          9
    99         11
   100          4
   101          3
   102          3
   103         23
   104         28
   105        480
   106        234
   107        155
   108         80
   109         85
   110         25
   111         57
   112         21
   113         17
   114          3
   115         31
   116         14
   117         40
   118         18
   119         68
   120         23
   121        118
   122        286
   123        268
   124        392
   125        141
   126         45
   127         17
   128         22
   129         37
   130         19
   131         50
   132         14
   133         42
   134         25
   135         38
   136         13
   137         28
   138         51
   139         54
   140         13
   141         49
   142        100
   143         52
   144         25
   145         77
   146         22
   147         68
   148         17
   149         25
   150         17
   151         28
   152         18
   153         13
   154          7
   155         14
   156         17
   157         66
   158         27
   159         89
   160         48
   161         56
   162         19
   163         43
   164        137
   165         31
   166         20
   167         16
   168         11
   169         26
   170         12
   171         40
   172         85
   173         74
   174         24
   175         94
   176         40
   177         29
   178          6
   179          6
   180          4
   181         26
   182         11
   183         23
   184          8
   185         57
   186         25
   187         68
   188         56
   189         50
   190         14
   191         29
   192          7
   193          5
   194          1
   195          8
   196          3
   197         14
   198         14
   199         28
   200         63
   201         39
   202          7
   203         65
   204         19
   205         42
   206          9
   207          3
   209          3
   210          6
   211          6
   212          1
   213         15
   214          3
   215         30
   216         15
   217         23
   218         81
   219         53
   220          8
   221          5
   222          1
   223          2
   225          2
   227          5
   228          9
   229         18
   230          4
   231         10
   232          2
   233         56
   234         18
   235         13
   236          4
   237          1
   238          1
   239          1
   243          2
   245         11
   246         13
   247         26
   248          6
   249          3
   250          1
   251          1
   252          1
   257          1
   258          1
   259          1
   261          9
   262          1
   263         69
   264         14
   265          3
   266          0
   273          1
   275          7
   276          2
   277         12
   278        201
   279         33
   280          5
   288          1
   289          3
   290          1
   291          7
   292          1
   293          3
   305          5
   306        508
   307        104
   308         16
   309          2
   320          1
   323          1
   348          1
   349          1
   367          1