##TITLE=Library Entry 51934
##JCAMP-DX=Revision 4.10 
##DATA TYPE=MASS SPECTRUM
##SAMPLE DESCRIPTION=Humboldt-Universitat zu Berlin, Department of Chemistry
, Analytical Group
##NAMES=HP
##CAS NAME=6,6,4',4'-Tetramethyl-2,4,2'-trioxo-2,3,4,5,6,7-hexahydro-spiro[c
yclopenta(b)pyran-3,1'cyclopentane]
##MOLFORM=C16H20O4
##CAS REGISTRY NO=22704-09-2
##MP= -300
##BP= -300
##MW= 276
##$RETENTION INDEX=0
##$CONDENSED SPECTRUM=NO
##NPOINTS= 209
##XYDATA=(XY..XY) 1 
    12          2
    13          0
    14          6
    15         55
    16          3
    17          2
    18          6
    19          3
    24          0
    26         34
    27        159
    28         60
    29        194
    30          4
    31          4
    32          0
    33          0
    36          0
    37          2
    39        214
    40         64
    41        363
    42         91
    43        140
    44          5
    45          8
    46          1
    47          1
    48          0
    50         13
    51         43
    52         54
    53        133
    54        138
    55        277
    56        123
    57         14
    58          1
    59          6
    60          2
    61          1
    62          3
    63         12
    64          9
    65         52
    66         42
    67         92
    68         20
    69         76
    70          9
    71          5
    72          1
    73          2
    74          2
    75          3
    77         69
    78         16
    79         50
    80         12
    81         37
    83        999
    84         58
    85          5
    86          1
    87          1
    88          1
    89          3
    91         41
    92          8
    93         28
    94         14
    95         81
    96         19
    97         13
    98          1
    99          3
   100          1
   101          1
   102          2
   103          8
   104          3
   105         19
   106          3
   107         16
   108          9
   109         20
   110         15
   111         11
   112          5
   113          1
   114          1
   115          6
   116          2
   117          4
   118          2
   119          6
   120          3
   121         22
   123        165
   124         13
   125          2
   126          1
   127          3
   128          6
   129          3
   130          1
   131          4
   132          1
   133          3
   134          1
   135          8
   136          5
   137         26
   138         32
   139        175
   140         17
   141          2
   142          1
   143          1
   144          0
   145          3
   146          1
   147          3
   148          2
   149         16
   150          5
   151         12
   152          1
   153          0
   154          0
   155          0
   156          0
   157          1
   158          0
   159          1
   160          1
   161          2
   162          0
   163          7
   164         11
   165          8
   166          7
   167          3
   168          0
   169          0
   170          0
   171          0
   172          0
   173          1
   174          0
   175          2
   177          8
   178          7
   179          2
   180          0
   181          0
   182          0
   183          0
   185          0
   186          0
   187          1
   188          0
   189          1
   190          0
   191          3
   193        119
   194         51
   195          6
   196          0
   197          0
   199          0
   201          0
   202          0
   203          0
   204          0
   205          4
   206          0
   207          0
   208          0
   209          0
   214          0
   215          0
   217          6
   218          1
   219          5
   220          4
   221          0
   222          0
   229          0
   230          1
   231          2
   232          2
   233          9
   234          3
   235          1
   236          0
   248         69
   249         11
   250          3
   251          0
   258          0
   260          0
   261          2
   262          0
   264          0
   266          0
   276         41
   277          9
   278          1