##TITLE=Library Entry 60864
##JCAMP-DX=Revision 4.10 
##DATA TYPE=MASS SPECTRUM
##SAMPLE DESCRIPTION=NIST Mass Spectrometry Data Center, 1994
##NAMES=HP
##CAS NAME=5-Phenylvaleric acid
##MOLFORM=C11H14O2
##CAS REGISTRY NO=2270-20-4
##MP= -300
##BP= -300
##MW= 178
##$RETENTION INDEX=0
##$CONDENSED SPECTRUM=NO
##NPOINTS= 70
##XYDATA=(XY..XY) 1 
    15          4
    26          7
    27         50
    30          0
    31          3
    37          2
    39         82
    40          6
    41         15
    42         15
    43         28
    44          0
    45         91
    46          2
    47          1
    50         25
    51         66
    52         18
    53          6
    57          1
    58          2
    60         27
    62          8
    63         40
    65        145
    66         14
    73         15
    74          9
    75          6
    76          6
    77         77
    78         75
    79         34
    80          0
    87         44
    89         10
    91        999
    92        192
    93         10
   100          3
   102          5
   103         47
   104        275
   105        102
   106         13
   107          0
   115         36
   116         17
   117        103
   118         73
   119         23
   120          1
   125          2
   126          1
   127          5
   128          9
   129         18
   130          1
   131         16
   132         87
   133         15
   142         32
   143          4
   145          7
   160        201
   161         30
   162          3
   178        193
   179         21
   180          2