##TITLE=Library Entry 3703
##JCAMP-DX=Revision 4.10 
##DATA TYPE=MASS SPECTRUM
##SAMPLE DESCRIPTION=Chuck Anderson, Aldrich Chemical Co.
##NAMES=HP
##CAS NAME=5-Bromo-2-methyl-2-pentene
##MOLFORM=C6H11Br
##CAS REGISTRY NO=2270-59-9
##MP= -300
##BP= -300
##MW= 162
##$RETENTION INDEX=0
##$CONDENSED SPECTRUM=NO
##NPOINTS= 97
##XYDATA=(XY..XY) 1 
    13          0
    14          0
    15          5
    24          0
    25          0
    26         20
    27        204
    28         41
    29        134
    30          3
    31          1
    32          1
    33          0
    34          0
    35          0
    36          2
    37         16
    38         48
    39        402
    40         71
    41        999
    42         48
    43         85
    44          3
    45          0
    48          0
    49          3
    50         30
    51         48
    52         21
    53        119
    54         23
    55        740
    56         56
    57          2
    58          0
    60          0
    61          3
    62          8
    63         13
    64          2
    65         37
    66         12
    67        121
    68         25
    69        524
    70         26
    71          0
    72          0
    73          0
    74          2
    75          0
    76          0
    77          9
    78          1
    79         28
    80          5
    81         24
    82         16
    83        914
    84         54
    85          1
    91          1
    92          0
    93         14
    94          1
    95         13
    96          0
   104          0
   105          1
   106          1
   107          5
   108          1
   109          4
   110          0
   116          0
   117          1
   118          0
   119          7
   120          0
   121          7
   122          0
   123          1
   131          0
   133          1
   134          0
   135          1
   136          0
   145          0
   147          0
   148          0
   149          0
   162        163
   163          9
   164        155
   165          8
   166          0