##TITLE=Library Entry 55424
##JCAMP-DX=Revision 4.10 
##DATA TYPE=MASS SPECTRUM
##SAMPLE DESCRIPTION=V.G. Zaikin, TIPS RAS, Moscow, Russia
##NAMES=HP
##CAS NAME=1-Dimethyl(ethenyl)silyloxy-2-phenylethane
##MOLFORM=C12H18OSi
##CAS REGISTRY NO=227025-52-7
##MP= -300
##BP= -300
##MW= 206
##$RETENTION INDEX=0
##$CONDENSED SPECTRUM=NO
##NPOINTS= 82
##XYDATA=(XY..XY) 1 
    26         18
    27         72
    28          6
    29         38
    30          6
    31         29
    37          6
    38         12
    39         88
    40          9
    41         31
    42         18
    43        117
    44         45
    45        128
    46          6
    47         45
    48          4
    49          4
    50         37
    51         95
    52         35
    53         35
    54          6
    55         52
    56          6
    57         15
    58         68
    59        269
    60         35
    61        135
    62         21
    63         46
    64         11
    65         77
    66          9
    67         11
    69         15
    70         45
    71         35
    73         13
    74         25
    75        144
    76         19
    77        131
    78         51
    79         75
    81          6
    84         11
    85        999
    86        108
    87        149
    88         22
    89         29
    90          9
    91        217
    92         49
    93          6
    95         23
    99         23
   100          6
   102          8
   103         47
   104         49
   105        178
   106         18
   114         12
   115        705
   116         75
   117         39
   118         12
   122          9
   161          9
   163         18
   178         32
   179         38
   180          6
   191        221
   192         41
   193          9
   206          7
   207          1