##TITLE=Library Entry 51947
##JCAMP-DX=Revision 4.10 
##DATA TYPE=MASS SPECTRUM
##SAMPLE DESCRIPTION=G.A.M.S., PARIS, FRANCE.
##NAMES=HP
##CAS NAME=2H-Pyran, 3,4-dihydro-4-methyl-
##MOLFORM=C6H10O
##CAS REGISTRY NO=2270-61-3
##MP= -300
##BP= -300
##MW= 98
##$RETENTION INDEX=0
##$CONDENSED SPECTRUM=NO
##NPOINTS= 73
##XYDATA=(XY..XY) 1 
    25          1
    26         27
    27        214
    28        116
    29        234
    30         72
    31         24
    32          3
    33          2
    34          0
    36          1
    37         17
    38         41
    39        337
    40        145
    41        600
    42        142
    43        155
    44         21
    45          4
    46          0
    47          1
    48          5
    49          6
    50         37
    51         55
    52         28
    53        288
    54         32
    55        347
    56         47
    57         16
    58          5
    59          0
    60          1
    61          6
    62         10
    63         15
    64          3
    65         52
    66         33
    67        370
    68        191
    69        264
    70         45
    71         14
    72          1
    73          0
    74          0
    75          0
    76          0
    77         18
    78          2
    79         28
    80          6
    81         21
    82         16
    83        999
    84         66
    85          4
    86          0
    87          0
    91          0
    92          0
    93          0
    94          6
    95         14
    96         19
    97         84
    98        495
    99         35
   100          2
   101          0