##TITLE=Library Entry 62823
##JCAMP-DX=Revision 4.10 
##DATA TYPE=MASS SPECTRUM
##SAMPLE DESCRIPTION=Chemical Concepts
##NAMES=HP
##CAS NAME=Valine, N-benzyl-
##MOLFORM=C12H17NO2
##CAS REGISTRY NO=22711-77-9
##MP= -300
##BP= -300
##MW= 207
##$RETENTION INDEX=0
##$CONDENSED SPECTRUM=NO
##NPOINTS= 108
##XYDATA=(XY..XY) 1 
    26          1
    27         18
    28         13
    29         13
    30          9
    31          2
    36          0
    37          0
    38          1
    39         34
    41         29
    42          7
    43         12
    44          1
    45          7
    46          1
    50          3
    51         13
    52          3
    53          2
    54          2
    55         15
    56          8
    57          2
    58          0
    59          3
    60          0
    62          1
    63         11
    64          4
    65         86
    66          4
    67          0
    68          1
    69          1
    70          3
    71          0
    72         28
    73          1
    74          7
    75          1
    76          1
    77         10
    78          5
    79          8
    80          0
    81          3
    82          0
    83          0
    84          4
    85          0
    86          0
    87          2
    88          0
    89         14
    90         12
    91        999
    92         78
    93          2
    96          0
    98          0
   100          0
   101          0
   102          0
   103          1
   104          4
   105          1
   106         63
   107          5
   108          0
   109          0
   111          0
   114          1
   115          0
   116          3
   117          6
   118          8
   119          1
   120          1
   127          0
   128          0
   129          0
   130          1
   131          0
   132          1
   133          0
   140          0
   142          0
   143          0
   144          1
   145          0
   146          3
   147          0
   148          0
   154          0
   160          4
   161          1
   162        334
   163         36
   164        126
   165         12
   166          0
   176          0
   189          0
   192          0
   206          1
   207          5
   208          1