##TITLE=Library Entry 61526
##JCAMP-DX=Revision 4.10 
##DATA TYPE=MASS SPECTRUM
##SAMPLE DESCRIPTION=CARL DJERASSI DEPT OF CHEM STANFORD UNIV STANFORD CALIF
 94305
##NAMES=HP
##CAS NAME=1-Pentanamine, N-(phenylmethylene)-
##MOLFORM=C12H17N
##CAS REGISTRY NO=22710-00-5
##MP= -300
##BP= -300
##MW= 175
##$RETENTION INDEX=1429
##$CONDENSED SPECTRUM=NO
##NPOINTS= 67
##XYDATA=(XY..XY) 1 
    41        227
    42         49
    43        138
    44         29
    50         39
    51        108
    52         29
    53         19
    54         19
    55         39
    56          9
    57          9
    58         19
    59          9
    62         19
    63         59
    64         29
    65         99
    66          9
    67          9
    68          9
    69         49
    70         29
    71         29
    74         19
    75          9
    76         29
    77        178
    78         69
    79         39
    80          9
    82          9
    84         19
    89        108
    90        108
    91        999
    92         99
    96         19
    97        108
    98        207
    99         29
   103         49
   104        504
   105        257
   106        108
   107         29
   115         29
   116         29
   117        158
   118        999
   119        316
   120        188
   121         39
   130         49
   131         59
   132        673
   133        207
   134         49
   144         29
   145         29
   146        148
   147         59
   160        722
   161        128
   174        178
   175        128
   176         49