##TITLE=Library Entry 13616
##JCAMP-DX=Revision 4.10 
##DATA TYPE=MASS SPECTRUM
##SAMPLE DESCRIPTION=A.A.Kutin, Moscow, Russia
##NAMES=HP
##CAS NAME=4H-Pyran-3-carboxylic acid, 6-amino-5-cyano-2-methyl-4-(4-pyridyl
)-, ethyl ester
##MOLFORM=C15H15N3O3
##CAS REGISTRY NO=227177-00-6
##MP= -300
##BP= -300
##MW= 285
##$RETENTION INDEX=0
##$CONDENSED SPECTRUM=NO
##NPOINTS= 165
##XYDATA=(XY..XY) 1 
    33         35
    34          7
    37         21
    38         57
    39        184
    40        128
    41         53
    43        999
    44        258
    45         38
    46          2
    50        155
    51        386
    52        140
    53         67
    54         28
    55         32
    56         10
    57         20
    61         19
    62         48
    63        130
    64         85
    65         69
    66         75
    67        176
    68         29
    69         25
    70         10
    71         15
    73          4
    74         22
    75         50
    76         71
    77         82
    78        146
    79        189
    80         39
    81          7
    82          2
    83          6
    84         15
    85         30
    86          9
    87         23
    88         39
    89         38
    90         59
    91         28
    92         17
    93         16
    94         13
    95          8
    96          1
    97          3
    98          5
    99         10
   100         10
   101         19
   102         34
   103         38
   104         64
   105         79
   106         44
   107         11
   108         10
   109          2
   111          5
   113         32
   114         35
   115         28
   116         23
   117         18
   118         24
   119         38
   120         15
   122          3
   126          1
   127          8
   128         29
   129         32
   130         26
   131         13
   132         55
   133         95
   134         65
   135          9
   136          4
   137          4
   138          1
   139          8
   140         36
   141         34
   142         31
   143         12
   144          9
   145          5
   146          3
   147          2
   148          1
   149          3
   150          4
   153          4
   154          6
   155         34
   156         26
   157         11
   158          3
   159          1
   161        242
   162        106
   163         14
   164          2
   165          4
   166          9
   167         30
   168         25
   169         23
   170         13
   171          8
   172          4
   174         34
   175          3
   176          0
   177          1
   179        368
   180         31
   181          7
   182         11
   183         14
   184          8
   185          6
   190          2
   193          4
   194          5
   195         20
   196         36
   197          7
   198          4
   199          2
   205          6
   207        987
   208        115
   209         12
   210         11
   211         22
   212         59
   213         15
   214          2
   220          3
   221          3
   224          6
   238          9
   239         28
   240         44
   241          9
   242          1
   256        110
   257         13
   258          1
   270          5
   283          2
   285        145
   286         20
   287          1