##TITLE=Library Entry 46566
##JCAMP-DX=Revision 4.10 
##DATA TYPE=MASS SPECTRUM
##SAMPLE DESCRIPTION=James Little,Eastman Chem.Co.,Kingsport,TN
##NAMES=HP
##CAS NAME=Diazobenzene, 4-nitro-
##MOLFORM=C6H5N3O2
##CAS REGISTRY NO=22719-27-3
##MP= -300
##BP= -300
##MW= 151
##$RETENTION INDEX=0
##$CONDENSED SPECTRUM=NO
##NPOINTS= 34
##XYDATA=(XY..XY) 1 
    29         83
    30        175
    37         95
    38        109
    39        158
    46         37
    49         61
    50        468
    51        692
    52         58
    63         86
    65        198
    66        104
    74        167
    75        263
    76        253
    77        999
    91         20
    92        126
    93        286
    94         24
   105         17
   106         10
   107         15
   108         15
   122        215
   123        362
   124         27
   131          3
   134          5
   136          3
   150        169
   151        180
   152         16