##TITLE=Library Entry 25706
##JCAMP-DX=Revision 4.10 
##DATA TYPE=MASS SPECTRUM
##SAMPLE DESCRIPTION=NIST Mass Spectrometry Data Center
##NAMES=HP
##CAS NAME=Octacosanal
##MOLFORM=C28H56O
##CAS REGISTRY NO=22725-64-0
##MP= -300
##BP= -300
##MW= 408
##$RETENTION INDEX=3036
##$CONDENSED SPECTRUM=NO
##NPOINTS= 100
##XYDATA=(XY..XY) 1 
    27         18
    29         96
    39         36
    41        417
    42        110
    43        808
    44        169
    45         53
    46          7
    53         19
    54         82
    55        579
    56        217
    57        999
    58         49
    59         14
    63          9
    65         14
    66         91
    67        293
    68        391
    69        426
    70        139
    71        482
    72         56
    79         58
    80         50
    81        349
    82        814
    83        496
    84         88
    85        246
    86         33
    90          8
    93         28
    94         35
    95        268
    96        389
    97        377
    98         72
    99         62
   100         12
   103          9
   107         14
   108         17
   109        188
   110        173
   111        164
   112         33
   113         32
   118         11
   122         23
   123         91
   124        104
   125         70
   126         17
   127         17
   134         11
   135         21
   137         70
   138         58
   139         22
   141         15
   146          8
   151         17
   152         39
   160          9
   164         12
   166         22
   167         10
   168         12
   171         10
   177         12
   178          6
   180         25
   182          8
   190          8
   220          7
   221         17
   235          7
   236         10
   250         13
   278          7
   292         10
   293          4
   306         13
   319          5
   320         13
   333          6
   334         14
   335          7
   347          6
   348         12
   362         24
   363          9
   390         93
   391         13
   392          8
   408          7
   409          1