##TITLE=Library Entry 32320
##JCAMP-DX=Revision 4.10 
##DATA TYPE=MASS SPECTRUM
##SAMPLE DESCRIPTION=NIST Mass Spectrometry Data Center
##NAMES=HP
##CAS NAME=1-Cyclopentylacetonitrile
##MOLFORM=C7H9N
##CAS REGISTRY NO=22734-04-9
##MP= -300
##BP= -300
##MW= 107
##$RETENTION INDEX=0
##$CONDENSED SPECTRUM=NO
##NPOINTS= 46
##XYDATA=(XY..XY) 1 
    12          1
    13          1
    14          3
    15          9
    25          2
    26         33
    27        112
    28         29
    30          1
    37         26
    38         54
    39        239
    40         55
    41        185
    42         12
    49         11
    50         62
    51         89
    52         68
    53         44
    54         13
    55          2
    60          2
    61          7
    62         16
    63         28
    64         20
    65         93
    66        114
    67        999
    68         57
    69          1
    75         14
    76         18
    77         88
    78         27
    79        135
    80         36
    81          4
    91          1
    92          4
   102          1
   104          8
   105          4
   107        179
   108         15