##TITLE=Library Entry 48444
##JCAMP-DX=Revision 4.10 
##DATA TYPE=MASS SPECTRUM
##SAMPLE DESCRIPTION=NIST Mass Spectrometry Data Center
##NAMES=HP
##CAS NAME=Methanesulfonylacetonitrile
##MOLFORM=C3H5NO2S
##CAS REGISTRY NO=2274-42-2
##MP= -300
##BP= -300
##MW= 119
##$RETENTION INDEX=0
##$CONDENSED SPECTRUM=NO
##NPOINTS= 56
##XYDATA=(XY..XY) 1 
    12          2
    13          7
    14         15
    15        329
    16          5
    19          1
    25          2
    26         17
    27         25
    28         54
    29         43
    30          3
    31         22
    32         16
    33         14
    34         10
    35          2
    38         30
    39         48
    40        253
    41        155
    42          5
    44         11
    45         79
    46         29
    47         11
    48        118
    49         19
    50          8
    51          7
    52         12
    53          5
    54        213
    55        269
    56         11
    57          2
    58          2
    59          1
    60          4
    61          1
    62          6
    63         49
    64         51
    65         24
    66          2
    70          7
    71          2
    72          1
    79        999
    80         20
    81         47
    87          1
    88          3
   104         27
   105          1
   106          1