##TITLE=Library Entry 68031
##JCAMP-DX=Revision 4.10 
##DATA TYPE=MASS SPECTRUM
##SAMPLE DESCRIPTION=Chuck Anderson, Aldrich Chemical Co.
##NAMES=HP
##CAS NAME=4,4-Dimethyl-2-cyclopenten-1-one
##MOLFORM=C7H10O
##CAS REGISTRY NO=22748-16-9
##MP= -300
##BP= -300
##MW= 110
##$RETENTION INDEX=1493
##$CONDENSED SPECTRUM=NO
##NPOINTS= 58
##XYDATA=(XY..XY) 1 
    14          5
    15         16
    18          0
    25          2
    26         41
    27        119
    28         26
    29         30
    31          3
    32          6
    33          3
    37         10
    38         29
    39        220
    40         62
    41        308
    42         37
    43         16
    48          2
    49          4
    50         31
    51         47
    52         22
    53         60
    54         34
    55         38
    56         44
    57          2
    61          4
    62          9
    63         16
    64          3
    65        113
    66         30
    67        637
    68        119
    69         66
    70          3
    74          2
    77         18
    78          2
    79         29
    80          5
    81         34
    82         29
    83          4
    91          6
    92          1
    93          1
    94          0
    95        999
    96         66
    97          4
   107          0
   109         30
   110        428
   111         35
   112          2