##TITLE=Library Entry 80534
##JCAMP-DX=Revision 4.10 
##DATA TYPE=MASS SPECTRUM
##SAMPLE DESCRIPTION=C. VERKOYEN, INST. HYG. ARBEITMED., KLINIK ESSEN, ESSEN
,W.GER.
##NAMES=HP
##CAS NAME=3,3-Dimethyl-1-phenylazetidine
##MOLFORM=C11H15N
##CAS REGISTRY NO=22745-26-2
##MP= -300
##BP= -300
##MW= 161
##$RETENTION INDEX=0
##$CONDENSED SPECTRUM=NO
##NPOINTS= 28
##XYDATA=(XY..XY) 1 
    38         10
    39        100
    40         20
    41         60
    42         10
    50         40
    51        160
    52         40
    53         20
    55         30
    56         10
    63         10
    65         20
    76         10
    77        320
    78         60
    79         10
    91         30
   104        470
   105        999
   106        170
   107         10
   117         10
   131         10
   144         10
   161        120
   162         20
   163         10