##TITLE=Library Entry 6777
##JCAMP-DX=Revision 4.10 
##DATA TYPE=MASS SPECTRUM
##SAMPLE DESCRIPTION=G.RUCKER INST. PHARM. CHEM., UNIV., MUNSTER, GERMANY, F
.R.G.
##NAMES=HP
##CAS NAME=Butanamide, N-(aminocarbonyl)-2-ethyl-
##MOLFORM=C7H14N2O2
##CAS REGISTRY NO=2274-01-3
##MP= -300
##BP= -300
##MW= 158
##$RETENTION INDEX=0
##$CONDENSED SPECTRUM=NO
##NPOINTS= 16
##XYDATA=(XY..XY) 1 
    39        160
    41        300
    42        120
    43        999
    44        970
    55        250
    60        120
    61        270
    69        100
    70        110
    71        470
    72        170
    87        110
    99         70
   115        200
   130        620