##TITLE=Library Entry 82399
##JCAMP-DX=Revision 4.10 
##DATA TYPE=MASS SPECTRUM
##SAMPLE DESCRIPTION=NIST Mass Spectrometry Data Center, 1994
##NAMES=HP
##CAS NAME=Anilinoacetaldehyde diethyl acetal
##MOLFORM=C12H19NO2
##CAS REGISTRY NO=22758-34-5
##MP= -300
##BP= -300
##MW= 209
##$RETENTION INDEX=0
##$CONDENSED SPECTRUM=NO
##NPOINTS= 64
##XYDATA=(XY..XY) 1 
    13         22
    15         28
    16         17
    17         30
    18         16
    19         49
    25          3
    26         70
    27        249
    28        136
    29        456
    30        138
    31        118
    32         25
    37          7
    38         56
    40         11
    41         15
    43         93
    44         17
    45         82
    46          7
    47        894
    48         11
    49          7
    50         99
    51        197
    54          9
    55         16
    59          0
    60          6
    61          2
    63         23
    65         91
    67          6
    72         32
    73          6
    75        923
    76         38
    77        564
    78         51
    79         13
    80         43
    90          4
    91         62
    92         62
    93         23
    94          9
   103        645
   104        137
   106        999
   107         62
   117         15
   118        360
   119         53
   121          7
   132         25
   134         34
   135         13
   136          2
   164        104
   165         27
   209         26
   210         23