##TITLE=Library Entry 28944
##JCAMP-DX=Revision 4.10 
##DATA TYPE=MASS SPECTRUM
##SAMPLE DESCRIPTION=Chemical Concepts
##NAMES=HP
##CAS NAME=1,1-Cyclobutanedicarboxamide, N,N'-dimethyl-
##MOLFORM=C8H14N2O2
##CAS REGISTRY NO=22759-63-3
##MP= -300
##BP= -300
##MW= 170
##$RETENTION INDEX=0
##$CONDENSED SPECTRUM=NO
##NPOINTS= 83
##XYDATA=(XY..XY) 1 
    26         46
    27        152
    29         51
    30        134
    31         33
    37          2
    38          8
    39         98
    40         18
    41         62
    42         58
    43         24
    44         82
    45          2
    46          0
    49          0
    50         17
    51         31
    52         27
    53        162
    54        148
    55        316
    56         77
    57         24
    58        999
    59         36
    60          3
    65          4
    66         13
    68         19
    69         14
    70         13
    71          8
    72          1
    73         17
    74          2
    77          2
    78          0
    79          3
    80          6
    81         41
    82        145
    83        452
    84        572
    85        273
    86         20
    89          2
    93          1
    95          6
    96          9
    97          5
    98        634
    99         39
   100          2
   105          1
   107          7
   108         17
   109         22
   110         24
   111         51
   112        717
   113        888
   114         62
   115          3
   117          1
   121          3
   122          4
   123          3
   124         26
   125          4
   137          1
   138          2
   139        141
   140         95
   141         71
   142         19
   143         11
   145          0
   152          4
   155          3
   170        383
   171         37
   172          1