##TITLE=Library Entry 93338
##JCAMP-DX=Revision 4.10 
##DATA TYPE=MASS SPECTRUM
##SAMPLE DESCRIPTION=CATALOGUE OF MASS SPECTRA OF PESTICIDES, APRIL, 1975; J
. FREUDENTHAL & L. G. GRAMBERG, NAT'L INST. OF PUBLIC HEALTH, THE NETHERLAND
S
##NAMES=HP
##CAS NAME=Prothoate
##MOLFORM=C9H20NO3PS2
##CAS REGISTRY NO=2275-18-5
##MP= -300
##BP= -300
##MW= 285
##$RETENTION INDEX=1870
##$CONDENSED SPECTRUM=NO
##NPOINTS= 151
##XYDATA=(XY..XY) 1 
    26         12
    27        113
    28        152
    29        168
    30         72
    31         12
    32         57
    39         23
    40         10
    41        140
    42        118
    43        368
    44        270
    45         45
    46         62
    47         97
    48         29
    49         10
    54         11
    55         22
    56         25
    57         81
    58        137
    59         24
    60         21
    61         35
    62         25
    63         28
    64         23
    65        367
    69         65
    70         17
    71         89
    72         47
    73        380
    74         77
    75         63
    76         19
    77         10
    79         41
    80         47
    81         55
    82         73
    83         30
    84         44
    85         14
    86        245
    87         29
    88         20
    89         12
    90         65
    91         20
    92         24
    93        272
    94         16
    95         26
    96         32
    97        699
    98         16
    99        109
   100        236
   101        245
   102         36
   104         12
   106         21
   107         11
   108         10
   109         39
   110         16
   111         25
   112         37
   113         26
   114         23
   115        999
   116        126
   117         69
   118         22
   119         23
   120         27
   121        363
   122         20
   123         87
   124         16
   125        323
   126         31
   127         38
   128         59
   129        217
   130         16
   131         27
   132         47
   133        110
   134         26
   135         15
   136         11
   137         11
   138         27
   139         43
   140         29
   141         17
   142         48
   143        156
   144         86
   145         15
   146         17
   149         14
   152         14
   153        186
   154         56
   155         31
   156        155
   157         79
   158         27
   159         13
   166         21
   169         35
   170         66
   171        158
   172         78
   173         17
   174         16
   180         15
   181         14
   182         17
   183         11
   184         35
   185         35
   186         40
   187         15
   195         30
   196         12
   198         45
   199         60
   200         34
   201         10
   202         19
   208        123
   209         17
   211         27
   212         18
   214         20
   224         23
   226         31
   227         85
   228         13
   229         13
   240         21
   252         48
   285        210
   286         37
   287         16