##TITLE=Library Entry 23620
##JCAMP-DX=Revision 4.10 
##DATA TYPE=MASS SPECTRUM
##SAMPLE DESCRIPTION=RADIAN CORP
##NAMES=HP
##CAS NAME=2,4-Hexanedione, 1,1,1-trifluoro-5,5-dimethyl-
##MOLFORM=C8H11F3O2
##CAS REGISTRY NO=22767-90-4
##MP= -300
##BP= -300
##MW= 196
##$RETENTION INDEX=0
##$CONDENSED SPECTRUM=NO
##NPOINTS= 89
##XYDATA=(XY..XY) 1 
    14          2
    15         49
    19          2
    26         12
    27        106
    29        307
    30          6
    31          6
    33          5
    37          7
    38         20
    39        231
    40         32
    41        602
    42        100
    43        170
    44          6
    45          9
    47          3
    50         21
    51         21
    52          8
    53         41
    54          9
    55         74
    56         51
    57        999
    58         50
    59         16
    60          1
    61          4
    62          3
    63         17
    64          7
    65         11
    66          9
    67         13
    68          3
    69        490
    70         26
    71         20
    72          1
    75          8
    77          6
    78          4
    79         12
    80          2
    81         20
    82          4
    83         79
    85         18
    87          2
    89         12
    90          2
    91         46
    92          2
    93          5
    94          2
    95          9
    97         35
    98          2
    99          8
   109         12
   111         21
   112         12
   113         21
   114          2
   115          8
   117          1
   119         46
   125          5
   127         92
   128          7
   133          2
   135          2
   139        152
   140          4
   141         14
   143          1
   153         54
   154          4
   163          5
   168         86
   169          6
   176          1
   179          3
   181          6
   196         34
   197          7