##TITLE=Library Entry 32821
##JCAMP-DX=Revision 4.10 
##DATA TYPE=MASS SPECTRUM
##SAMPLE DESCRIPTION=Exported from NIST MS Search
##NAMES=HP
##CAS NAME=9,12-Octadecadienoic acid (Z,Z)-, 2,3-dihydroxypropyl ester
##MOLFORM=C21H38O4
##CAS REGISTRY NO=2277-28-3
##MP= -300
##BP= -300
##MW= 354
##$RETENTION INDEX=0
##$CONDENSED SPECTRUM=NO
##NPOINTS= 207
##XYDATA=(XY..XY) 1 
    26         20
    27        120
    28         50
    29        230
    30         10
    31         80
    32         10
    36         10
    37         10
    38         10
    39        140
    40         30
    41        580
    42         90
    43        290
    44         80
    45         90
    47         10
    50         10
    51         20
    52         20
    53        120
    54        380
    55        730
    56        100
    57        210
    58         20
    59         20
    60         40
    61         80
    63         10
    65         60
    66         80
    67        999
    68        390
    69        400
    70         50
    71         80
    72         10
    73         50
    74         40
    75         60
    76         10
    77        130
    78         60
    79        420
    80        330
    81        820
    82        400
    83        250
    84         70
    85         60
    86         10
    87         20
    90         10
    91        140
    92         40
    93        260
    94        170
    95        560
    96        340
    97        160
    98        100
    99         60
   100         10
   101         20
   102         10
   103         10
   104         10
   105         50
   106         30
   107        140
   108        110
   109        270
   110        240
   111         80
   112         30
   113         20
   114         10
   115         20
   116         20
   117         30
   118         10
   119         40
   120         10
   121        150
   122         90
   123        150
   124        140
   125         50
   126         20
   127         20
   128         10
   129         40
   130         10
   131         30
   132         10
   133         40
   134         40
   135        160
   136        110
   137        100
   138         70
   139         30
   140         20
   141         10
   143         10
   145         20
   146         10
   147         30
   148         20
   149        120
   150        110
   151         90
   152         40
   153         40
   154         10
   155         20
   156         10
   157         10
   159         20
   160         10
   161         20
   162         10
   163         80
   164        110
   165         50
   166         30
   167         20
   168         20
   169         10
   171         20
   173         20
   174         10
   175         10
   176         10
   177         60
   178         60
   179         40
   180         20
   181         20
   182         20
   183         10
   185         10
   187         10
   189         10
   191         40
   192         20
   193         20
   194         10
   195         20
   196         10
   197         10
   199         10
   201         10
   203         10
   205         30
   206         20
   207         20
   208         10
   209         10
   210         10
   213         10
   218         10
   219         20
   220         30
   221         10
   222         10
   223         10
   224         10
   225         10
   227         10
   229         10
   233         10
   234        100
   235         20
   236         10
   237         10
   239         10
   241         10
   244         10
   245         20
   246         10
   247         10
   251         10
   253         10
   255         10
   260         10
   261         10
   262        550
   263        290
   264         60
   265         10
   277         10
   278         10
   279         20
   280         90
   281         20
   297         10
   305         10
   321         10
   323         10
   336         20
   337         10
   352         10
   354         30
   355         10