##TITLE=Library Entry 2729
##JCAMP-DX=Revision 4.10 
##DATA TYPE=MASS SPECTRUM
##SAMPLE DESCRIPTION=TNO Volatile Compounds in Food - Chemical Concepts
##NAMES=HP
##CAS NAME=6-Nonenal, (Z)-
##MOLFORM=C9H16O
##CAS REGISTRY NO=2277-19-2
##MP= -300
##BP= -300
##MW= 140
##$RETENTION INDEX=1101
##$CONDENSED SPECTRUM=NO
##NPOINTS= 68
##XYDATA=(XY..XY) 1 
    26         20
    27        343
    28         82
    29        314
    30         11
    31         17
    34          5
    37          5
    38         16
    39        322
    40         40
    41        999
    42        173
    43        193
    44         79
    45          6
    46          6
    50         14
    51         21
    52         15
    53        117
    54        344
    55        727
    56        179
    57        213
    58         41
    59          9
    60          4
    63          8
    65         15
    66         33
    67        296
    68        156
    69        186
    70        185
    71         59
    72         41
    73          1
    75          4
    77         23
    78          8
    79        116
    80         46
    81        249
    82         45
    83        122
    84         70
    85         23
    86          6
    87          3
    91         13
    93        124
    94         57
    95         35
    96        111
    97         70
    98        136
    99          9
   101          7
   106          3
   107         38
   109         11
   111         34
   112         25
   113          3
   114          4
   122         84
   123          6