##TITLE=Library Entry 18472
##JCAMP-DX=Revision 4.10 
##DATA TYPE=MASS SPECTRUM
##SAMPLE DESCRIPTION=Institute of Chemistry, SAS, Bratislava, Slovakia
##NAMES=HP
##CAS NAME=3H-N-Triazolo(4,5-d)pyrimidine-5,7(4H,6H)-dione, 3,6-dimethyl-
##MOLFORM=C6H7N5O2
##CAS REGISTRY NO=2278-14-0
##MP= -300
##BP= -300
##MW= 181
##$RETENTION INDEX=0
##$CONDENSED SPECTRUM=NO
##NPOINTS= 32
##XYDATA=(XY..XY) 1 
    39        109
    40        239
    41        279
    42        209
    43        289
    51         49
    52        119
    53        999
    54        249
    55        199
    56        279
    57         29
    58         59
    65          9
    66         59
    67        849
    68        509
    69         69
    70         29
    77          9
    80         59
    81         89
    82        139
    83         79
    94         29
    95         19
    96          9
    98         19
   123          9
   124         19
   180         19
   181        249