##TITLE=Library Entry 69664
##JCAMP-DX=Revision 4.10 
##DATA TYPE=MASS SPECTRUM
##SAMPLE DESCRIPTION=Chemical Concepts
##NAMES=HP
##CAS NAME=Diborane(6), tetrapropyl-
##MOLFORM=C12H30B2
##CAS REGISTRY NO=22784-01-6
##MP= -300
##BP= -300
##MW= 196
##$RETENTION INDEX=0
##$CONDENSED SPECTRUM=NO
##NPOINTS= 82
##XYDATA=(XY..XY) 1 
    25          7
    26         98
    27        330
    28          2
    29         33
    30          1
    36          6
    37         20
    38         10
    39         62
    40        177
    41        682
    42         44
    43         59
    44          1
    45          1
    47          0
    48          1
    49          4
    50         13
    51         20
    52         36
    53        152
    54        147
    55        137
    56          5
    57          0
    59          0
    61          0
    62          0
    63          3
    64          2
    65          5
    66          4
    67         12
    68         23
    69         12
    70         29
    71        108
    72          4
    73          2
    74          1
    75          0
    76          0
    77          0
    78          0
    79          1
    80          2
    81          5
    82          2
    83          5
    84          1
    85          0
    87          0
    93          0
    94          0
    95          3
    96        250
    97        999
    98         77
    99          2
   106          0
   107          0
   108          1
   109          2
   110         26
   111         53
   112          8
   113         35
   114          3
   141          0
   150          0
   151         20
   152        157
   153        313
   154         32
   155          1
   156          1
   194          1
   195          3
   196          6
   197          0