##TITLE=Library Entry 45181
##JCAMP-DX=Revision 4.10 
##DATA TYPE=MASS SPECTRUM
##SAMPLE DESCRIPTION=Chemical Concepts
##NAMES=HP
##CAS NAME=Norvaline, 3-hydroxy-
##MOLFORM=C5H11NO3
##CAS REGISTRY NO=2280-42-4
##MP= -300
##BP= -300
##MW= 133
##$RETENTION INDEX=0
##$CONDENSED SPECTRUM=NO
##NPOINTS= 88
##XYDATA=(XY..XY) 1 
    26         38
    27        147
    28        301
    29        374
    30        219
    31        220
    33          0
    34          0
    35          0
    37          4
    38          9
    39         50
    41        154
    42         68
    43         64
    44         21
    45         42
    46         42
    47          5
    48          0
    49          0
    50          3
    51          4
    52          3
    53         26
    54         14
    55         12
    56         83
    57        945
    58        152
    59        120
    60         71
    61          3
    62          0
    63          1
    64          0
    65          0
    66          1
    67          1
    68          8
    69          8
    70         53
    71         92
    72         15
    73          0
    74         54
    75        999
    76         26
    77          5
    78          0
    79          0
    80          0
    81          0
    82          2
    83          0
    84          0
    85          2
    86          5
    87          6
    88        151
    89          7
    90          0
    92          0
    93          0
    94          0
    96          0
    97          1
    98          1
    99          1
   100          2
   101          0
   103          0
   104         71
   105          2
   106          0
   107          1
   109          0
   111          0
   113          0
   114          1
   115          4
   116          2
   117          0
   120          0
   129          0
   133          0
   134         11
   135          1