##TITLE=Library Entry 35030
##JCAMP-DX=Revision 4.10 
##DATA TYPE=MASS SPECTRUM
##SAMPLE DESCRIPTION=Japan AIST/NIMC Database- Spectrum MS-NW-9668
##NAMES=HP
##CAS NAME=Hexanoyl chloride, 6-bromo-
##MOLFORM=C6H10BrClO
##CAS REGISTRY NO=22809-37-6
##MP= -300
##BP= -300
##MW= 212
##$RETENTION INDEX=0
##$CONDENSED SPECTRUM=NO
##NPOINTS= 118
##XYDATA=(XY..XY) 1 
    14          1
    15          4
    18          1
    26         14
    27        148
    28         33
    29         48
    30          1
    31          1
    32          3
    33          1
    34          4
    35          8
    36         66
    37          6
    38         26
    39        143
    40         30
    41        426
    42        103
    43         60
    44          3
    45          2
    47          2
    48         28
    49         18
    50          7
    51         10
    52          4
    53         40
    54         42
    55        754
    56         37
    57          7
    60         26
    61          4
    62          3
    63         35
    64          2
    65         16
    66          4
    67         58
    68         83
    69        999
    70         83
    71          4
    72          1
    73         16
    74          1
    75          6
    76          5
    77         10
    78        187
    79         42
    80         75
    81         10
    82         25
    83          3
    84          4
    85          1
    86          1
    87          3
    88          5
    89          4
    90          5
    91         63
    92          4
    93         27
    94          1
    95         12
    96         24
    97        455
    98         34
    99          3
   103          1
   104          9
   105         10
   106          6
   107         50
   108          6
   109         46
   110          1
   114          2
   115         14
   116          2
   117          5
   119          3
   120          1
   121          5
   122          2
   123          2
   131          1
   132         36
   133         21
   134         38
   135         53
   136          5
   137         45
   138          2
   148         21
   149         31
   150         22
   151         30
   152          2
   155          1
   170          1
   172          1
   176         17
   177        305
   178         37
   179        300
   180         19
   181          1
   184          1
   186          1
   197          1
   199          2
   201          1