##TITLE=Library Entry 52007
##JCAMP-DX=Revision 4.10 
##DATA TYPE=MASS SPECTRUM
##SAMPLE DESCRIPTION=P.E. BUTLER ESSO R. & E. CO., LINDEN, NEW JERSEY, USA
##NAMES=HP
##CAS NAME=1-Pentyne, 3-methoxy-3-methyl-
##MOLFORM=C7H12O
##CAS REGISTRY NO=22802-35-3
##MP= -300
##BP= -300
##MW= 112
##$RETENTION INDEX=0
##$CONDENSED SPECTRUM=NO
##NPOINTS= 21
##XYDATA=(XY..XY) 1 
    39        157
    41        104
    43        223
    51         96
    52         48
    53        164
    55         29
    57          8
    59         40
    63         23
    65         47
    67         21
    69         21
    70         33
    79         74
    81         91
    83        999
    95          2
    97        152
   111          2
   112          0