##TITLE=Library Entry 9305
##JCAMP-DX=Revision 4.10 
##DATA TYPE=MASS SPECTRUM
##SAMPLE DESCRIPTION=Exported from NIST MS Search
##NAMES=HP
##CAS NAME=Acetic acid, [(1-methylethyl)thio]-
##MOLFORM=C5H10O2S
##CAS REGISTRY NO=22818-59-3
##MP= -300
##BP= -300
##MW= 134
##$RETENTION INDEX=0
##$CONDENSED SPECTRUM=NO
##NPOINTS= 32
##XYDATA=(XY..XY) 1 
    38         30
    39        270
    40         50
    41        660
    42        210
    43        999
    44         60
    45        350
    46        270
    47        520
    48         50
    49         20
    55        100
    58         50
    59        150
    60         70
    61         30
    73        190
    74        400
    75        800
    76         60
    77         40
    89        110
    91         20
    92        320
    93         90
    94         20
   101         60
   119         30
   134        350
   135         30
   136         10