##TITLE=Library Entry 6603
##JCAMP-DX=Revision 4.10 
##DATA TYPE=MASS SPECTRUM
##SAMPLE DESCRIPTION=A.A.Kutin, Moscow, Russia
##NAMES=HP
##CAS NAME=1H-1,2,4-Triazol-3-amine, 5,5'-methylenebis-
##MOLFORM=C5H8N8
##CAS REGISTRY NO=22819-11-0
##MP= -300
##BP= -300
##MW= 180
##$RETENTION INDEX=0
##$CONDENSED SPECTRUM=NO
##NPOINTS= 59
##XYDATA=(XY..XY) 1 
    33         53
    34         22
    36         25
    37         17
    38         74
    39        229
    40         51
    41        523
    42        677
    43        999
    44        442
    45         63
    47          4
    48         14
    50         18
    51         54
    52        132
    53        132
    54        112
    55        178
    56        235
    57        328
    58        114
    59         18
    64         29
    65         28
    66         64
    67        153
    68        130
    69        145
    70         52
    71         21
    72          6
    73          5
    77          7
    80          9
    81         43
    82         22
    83         56
    84         64
    85         23
    95          4
    97        559
    98        553
    99         23
   109         14
   110         36
   112         15
   122         11
   123        104
   124        353
   125         20
   135          6
   151         14
   170         11
   178          6
   179        120
   180        387
   181         26