##TITLE=Library Entry 61446
##JCAMP-DX=Revision 4.10 
##DATA TYPE=MASS SPECTRUM
##SAMPLE DESCRIPTION=Exported from NIST MS Search
##NAMES=HP
##CAS NAME=Benzene, (3-nitropropyl)-
##MOLFORM=C9H11NO2
##CAS REGISTRY NO=22818-69-5
##MP= -300
##BP= -300
##MW= 165
##$RETENTION INDEX=0
##$CONDENSED SPECTRUM=NO
##NPOINTS= 59
##XYDATA=(XY..XY) 1 
    27         30
    28         20
    29         40
    30         20
    38         10
    39        100
    40         10
    41         90
    42         10
    43        120
    50         30
    51         80
    52         20
    55         20
    57        100
    58         20
    62         10
    63         40
    64         10
    65        160
    66         10
    74         10
    75         10
    76         10
    77         70
    78         50
    79         80
    89         30
    90         20
    91        999
    92         90
    93         20
   102         30
   103         40
   104        280
   105         80
   106         10
   107        150
   108         10
   109         30
   115         70
   116         20
   117        310
   118         80
   119         20
   128          3
   129          7
   130          8
   131         25
   132          8
   133          7
   134          5
   135         37
   136          5
   146          5
   147         20
   148          3
   149          2
   165          3