##TITLE=Library Entry 79101
##JCAMP-DX=Revision 4.10 
##DATA TYPE=MASS SPECTRUM
##SAMPLE DESCRIPTION=ASES Database, Dalian Institute, P.R. China
##NAMES=HP
##CAS NAME=4-Methylsulfonyl-4-benzoyl-butyronitrile
##MOLFORM=C12H13NO3S
##CAS REGISTRY NO=22818-11-7
##MP= -300
##BP= -300
##MW= 251
##$RETENTION INDEX=0
##$CONDENSED SPECTRUM=NO
##NPOINTS= 19
##XYDATA=(XY..XY) 1 
    50         10
    51         28
    52         10
    54          9
    63         10
    66          9
    74          9
    75         10
    76         19
    77        343
    78         38
    79          9
    82         18
   104         18
   105        999
   106        115
   115         19
   131          9
   251         38