##TITLE=Library Entry 60455
##JCAMP-DX=Revision 4.10 
##DATA TYPE=MASS SPECTRUM
##SAMPLE DESCRIPTION=B. R. ANDERSON
##NAMES=HP
##CAS NAME=Bicyclo[3.2.1]oct-2-ene, 4-methylene-
##MOLFORM=C9H12
##CAS REGISTRY NO=22819-81-4
##MP= -300
##BP= -300
##MW= 120
##$RETENTION INDEX=0
##$CONDENSED SPECTRUM=NO
##NPOINTS= 74
##XYDATA=(XY..XY) 1 
    13          2
    14          6
    15         42
    17          2
    18          6
    25          2
    26         42
    27        224
    28         39
    29         17
    37         16
    38         47
    39        323
    40         45
    41        117
    42          6
    43          3
    44          1
    46          3
    49          5
    50         63
    51        142
    52         59
    53         71
    54          7
    55         10
    56          1
    57         10
    58         20
    59         13
    61          9
    62         24
    63         66
    64         16
    65        130
    66         71
    67         22
    68          2
    73          2
    74          9
    75         10
    76          7
    77        139
    78        116
    79        256
    80         22
    81          3
    85          1
    86          3
    87          3
    88          2
    90         39
    91        999
    92        901
    93         77
    94          4
   100          4
   101          2
   102          7
   103         26
   104         13
   105        162
   106         18
   107          2
   113          1
   114          5
   115         17
   116          6
   117         15
   118          3
   119         41
   120        311
   121         31
   122          2