##TITLE=Library Entry 76101
##JCAMP-DX=Revision 4.10 
##DATA TYPE=MASS SPECTRUM
##SAMPLE DESCRIPTION=A.A.Kutin, Moscow, Russia
##NAMES=HP
##CAS NAME=Benzonitrile, 4-(methylsulfonyl)-
##MOLFORM=C8H7NO2S
##CAS REGISTRY NO=22821-76-7
##MP= -300
##BP= -300
##MW= 181
##$RETENTION INDEX=0
##$CONDENSED SPECTRUM=NO
##NPOINTS= 147
##XYDATA=(XY..XY) 1 
    33          2
    34          3
    35          7
    36          4
    37         24
    38         31
    39         52
    40          9
    41          9
    42          3
    43          9
    44          6
    45         31
    46         10
    47         24
    48         19
    49         22
    50        150
    51        203
    52         46
    53          5
    54          2
    55          7
    56          3
    57          9
    58          4
    59          2
    60          3
    61         10
    62         27
    63        199
    64         42
    65         23
    66          2
    67          3
    68          3
    69         17
    70          5
    71          5
    72          3
    73         19
    74         66
    75        252
    76        149
    77         34
    78         12
    79         26
    80          3
    81          6
    82          9
    83         56
    85         41
    86          4
    87          9
    88          6
    89         17
    90         62
    91         30
    92          5
    93          2
    94          4
    95          8
    96          2
    97          3
    98          3
    99         17
   100         13
   102        999
   103         84
   104          6
   105         16
   106          5
   107         24
   108          2
   109          1
   110          1
   111          2
   112          1
   113          0
   114          1
   115          1
   116         14
   117          7
   119        779
   120         59
   121          5
   122         20
   123          4
   124          2
   125          1
   126          1
   127          1
   128          1
   129          1
   130          0
   131          1
   132          1
   133          7
   134          5
   135          1
   136          0
   137          1
   138          0
   139          0
   140          0
   141          0
   142          0
   143          0
   144          0
   145          0
   146          1
   147          2
   148          2
   150         22
   151          2
   152          1
   153          1
   154          4
   155         12
   156          2
   157          0
   158          0
   159          0
   160          0
   161          0
   162          0
   163          0
   164          2
   166        192
   167         18
   168          9
   169          1
   170          0
   171          0
   172          0
   173          0
   174          0
   175          0
   177          0
   178          0
   179          1
   181        152
   182         21
   183         10
   184          1
   185          1
   186          0