##TITLE=Library Entry 48893
##JCAMP-DX=Revision 4.10 
##DATA TYPE=MASS SPECTRUM
##SAMPLE DESCRIPTION=T.KAJIWARA YAMAGUCHI UNIV., YAMAGUCHI, JAPAN
##NAMES=HP
##CAS NAME=Cyclopropane, 1-ethenyl-2-hexenyl-, [1.alpha.,2.beta.(E)]-(.+/-.)
-
##MOLFORM=C11H18
##CAS REGISTRY NO=22822-99-7
##MP= -300
##BP= -300
##MW= 150
##$RETENTION INDEX=0
##$CONDENSED SPECTRUM=NO
##NPOINTS= 18
##XYDATA=(XY..XY) 1 
    39        173
    41        315
    55        110
    67        180
    77        265
    78        143
    79        999
    80        410
    91        290
    93        370
    94        130
   105         34
   107         75
   108         47
   109         21
   121         31
   135          1
   150         58