##TITLE=Library Entry 77746
##JCAMP-DX=Revision 4.10 
##DATA TYPE=MASS SPECTRUM
##SAMPLE DESCRIPTION=Japan AIST/NIMC Database- Spectrum MS-NW-9548
##NAMES=HP
##CAS NAME=Phosphorous triamide, hexaethyl-
##MOLFORM=C12H30N3P
##CAS REGISTRY NO=2283-11-6
##MP= -300
##BP= -300
##MW= 247
##$RETENTION INDEX=0
##$CONDENSED SPECTRUM=NO
##NPOINTS= 76
##XYDATA=(XY..XY) 1 
    15          7
    26          5
    27         28
    28         57
    29         49
    30        159
    31          2
    32          2
    39          1
    40          4
    41         10
    42         47
    43          9
    44         92
    45          2
    46         43
    47          4
    48          9
    49          4
    52          1
    54          2
    55          1
    56         52
    57          6
    58        239
    59          9
    60         12
    61          2
    62          8
    64          1
    68          1
    70         15
    71         33
    72        117
    73         66
    74        108
    75          8
    76         42
    77          1
    86          2
    88          2
    89          2
    90          6
    91          2
   100          1
   102         10
   103         25
   104        999
   105         48
   106          2
   117          1
   118          2
   119         11
   120          5
   122          4
   123          5
   124          4
   133          1
   137          1
   138          8
   140          2
   145          4
   147          3
   161          1
   163          1
   174          2
   175        571
   176         57
   177          6
   190          1
   191          9
   192          2
   218          5
   246          3
   247         89
   248         12