##TITLE=Library Entry 64245
##JCAMP-DX=Revision 4.10 
##DATA TYPE=MASS SPECTRUM
##SAMPLE DESCRIPTION=Japan AIST/NIMC Database- Spectrum MS-NW-7876
##NAMES=HP
##CAS NAME=Aspartame
##MOLFORM=C14H18N2O5
##CAS REGISTRY NO=22839-47-0
##MP= -300
##BP= -300
##MW= 294
##$RETENTION INDEX=0
##$CONDENSED SPECTRUM=NO
##NPOINTS= 158
##XYDATA=(XY..XY) 1 
    14          1
    15          9
    17          4
    18         15
    26          2
    27         17
    28         16
    29          9
    30          9
    31          1
    32          2
    33          2
    38          1
    39         23
    40          5
    41         15
    42         29
    43         48
    44         17
    45          9
    46          9
    50          4
    51         19
    52          7
    53          3
    54          5
    55         29
    56          3
    57         11
    58          1
    59          1
    60         15
    61          1
    62          2
    63         11
    64          4
    65         70
    66          6
    68          5
    69          5
    70         66
    71          5
    72          6
    73          2
    74          2
    75          2
    76          3
    77         31
    78         14
    79          3
    80          1
    81          1
    82          2
    83         15
    84          2
    85          1
    86          2
    87          5
    88         55
    89         19
    90         12
    91        999
    92        135
    93          9
    94          1
    96          3
    97         94
    98          8
    99          4
   100          3
   101          3
   102          7
   103         34
   104         22
   105          6
   106          1
   107          3
   108          1
   111          1
   112          3
   113          1
   114          2
   115          3
   116          4
   117         12
   118         17
   119         12
   120         56
   121          6
   122          1
   124          1
   125         48
   126          5
   127          2
   128         12
   129          4
   130          6
   131         36
   132          9
   133          1
   136          1
   137          1
   142          1
   143        109
   144         11
   145          4
   146          9
   147          5
   148          3
   149          1
   152          2
   153          7
   154          1
   156          1
   157          2
   158          1
   159          3
   160          4
   161          2
   162          9
   163          3
   167          1
   170          3
   171        120
   172         11
   173          4
   174          3
   175          6
   176          1
   184          1
   185          4
   186          1
   187          1
   189          1
   190          1
   191          3
   198          1
   199          1
   200          4
   201          3
   202          8
   203          7
   204          1
   207          2
   214          1
   216          7
   217          3
   218          7
   219          6
   220          1
   244          5
   245          6
   246          1
   260          1
   262        276
   263         46
   264          5
   276          1