##TITLE=Library Entry 85747
##JCAMP-DX=Revision 4.10 
##DATA TYPE=MASS SPECTRUM
##SAMPLE DESCRIPTION=D.HENNEBERG, MAX-PLANCK INSTITUTE, MULHEIM, WEST GERMAN
Y
##NAMES=HP
##CAS NAME=3-Oxabicyclo[4.1.0]heptan-2-one, 4,4,7,7-tetramethyl-
##MOLFORM=C10H16O2
##CAS REGISTRY NO=22841-82-3
##MP= -300
##BP= -300
##MW= 168
##$RETENTION INDEX=0
##$CONDENSED SPECTRUM=NO
##NPOINTS= 107
##XYDATA=(XY..XY) 1 
    26         39
    27        107
    28         72
    29        132
    30          3
    31         23
    38          3
    39        140
    40         63
    41        559
    42         57
    43        796
    44         26
    45         12
    46          3
    47          2
    50          4
    51         10
    52          8
    53        136
    54         46
    55        229
    56        130
    57        121
    58          7
    59         34
    60          3
    63          3
    65         48
    66         36
    67        863
    68        225
    69        351
    70         24
    71         15
    72          4
    73          7
    74          2
    75          8
    77         38
    78          6
    79         84
    80         19
    81        306
    82        177
    83         77
    84         14
    85         15
    86          6
    87          2
    91         43
    92          9
    93         51
    94         28
    95        782
    96         72
    97         27
    98         15
    99          8
   100         64
   101          6
   103          2
   105         19
   106          4
   107         77
   108         20
   109        999
   110        551
   111         93
   112         32
   113         64
   114          4
   115          2
   117          2
   118          2
   119          5
   121          6
   122         17
   123        105
   124        340
   125        202
   126         24
   127          3
   129          3
   131          3
   132          1
   133         15
   134          6
   135         12
   137          2
   139         11
   140          3
   141          6
   142          1
   145          2
   147          3
   149          4
   150          7
   153        171
   154         19
   155          1
   157          2
   159          2
   161          2
   165          1
   168         68
   169          6