##TITLE=Library Entry 4003
##JCAMP-DX=Revision 4.10 
##DATA TYPE=MASS SPECTRUM
##SAMPLE DESCRIPTION=CARL DJERASSI DEPT OF CHEM STANFORD UNIV STANFORD CALIF
 94305
##NAMES=HP
##CAS NAME=2(1H)-Naphthalenone, 4a,5,6,7,8,8a-hexahydro-4a-methyl-, trans-
##MOLFORM=C11H16O
##CAS REGISTRY NO=22844-34-4
##MP= -300
##BP= -300
##MW= 164
##$RETENTION INDEX=0
##$CONDENSED SPECTRUM=NO
##NPOINTS= 59
##XYDATA=(XY..XY) 1 
    40        150
    41        999
    42        100
    43        160
    44         20
    50         60
    51        180
    52        120
    53        350
    54         80
    55        360
    56         30
    57         40
    58         10
    62         10
    63         50
    64         10
    65        120
    66         60
    67        420
    68        140
    69        750
    70         40
    71         10
    77        210
    78         90
    79        410
    80        150
    81        200
    82        120
    83         20
    84         10
    91        180
    92         40
    93        300
    94        220
    95        450
    96         80
    97         10
   103         10
   105         60
   106         20
   107        220
   108         90
   109        100
   110         20
   119         10
   120         20
   121        250
   122        770
   123         80
   131         20
   135         60
   136        100
   137         10
   149         60
   163         10
   164        190
   165         40