##TITLE=Library Entry 74623
##JCAMP-DX=Revision 4.10 
##DATA TYPE=MASS SPECTRUM
##SAMPLE DESCRIPTION=Institute of Chemistry, SAS, Bratislava, Slovakia
##NAMES=HP
##CAS NAME=Methyl-3,4-di-O-methyl-2-O-(methyl-2,3,4-tri-O-methyl.alpha.d-glu
copyranosyluronate).alpha.d-xylopyranoside
##MOLFORM=C18H32O11
##CAS REGISTRY NO=22855-13-6
##MP= -300
##BP= -300
##MW= 424
##$RETENTION INDEX=0
##$CONDENSED SPECTRUM=NO
##NPOINTS= 37
##XYDATA=(XY..XY) 1 
    45        489
    55         90
    57         76
    58        119
    59        139
    71        159
    73        139
    74         60
    75        369
    83         48
    85        219
    88        509
    89         97
   101        999
   102         31
   111         83
   113         34
   115         90
   117         41
   129         55
   131         41
   141        129
   143         68
   145         23
   157         52
   159         22
   169         59
   173         46
   175         99
   201        459
   233         52
   235        101
   287         13
   319         36
   361          3
   394          3
   405          3