##TITLE=Library Entry 48929
##JCAMP-DX=Revision 4.10 
##DATA TYPE=MASS SPECTRUM
##SAMPLE DESCRIPTION=Chemical Concepts
##NAMES=HP
##CAS NAME=3-Cyclohexene-1-propanal
##MOLFORM=C9H14O
##CAS REGISTRY NO=22858-74-8
##MP= -300
##BP= -300
##MW= 138
##$RETENTION INDEX=0
##$CONDENSED SPECTRUM=NO
##NPOINTS= 94
##XYDATA=(XY..XY) 1 
    26         13
    27        279
    29        121
    30          7
    31         21
    36          4
    37          7
    38         12
    39        276
    40         42
    41        374
    42        101
    43         60
    44         14
    45          3
    46          4
    48          8
    50         32
    51        104
    52         72
    53        294
    54        415
    55        336
    56         52
    57        102
    58         19
    59          4
    60         13
    61          6
    62         15
    63         30
    64         13
    65        116
    66        135
    67        416
    68         70
    69         72
    70         35
    71         32
    72          8
    73          5
    74          4
    75         14
    76         12
    77        270
    78        396
    79        999
    80        267
    81        536
    82        111
    83        136
    84         29
    85          7
    86          4
    88          4
    89          8
    90          7
    91        516
    92        388
    93        171
    94        302
    95         96
    96         63
    97         40
    98          9
    99          7
   100          8
   101          5
   103          7
   104         14
   105        160
   106         23
   107         29
   108          9
   109         91
   110         30
   111          8
   112          9
   113          9
   114          7
   115         13
   116         10
   117         13
   118          8
   119         47
   120        478
   121         71
   122         12
   123         14
   136         12
   137         33
   138         59
   139          5
   140          1