##TITLE=Library Entry 74630
##JCAMP-DX=Revision 4.10 
##DATA TYPE=MASS SPECTRUM
##SAMPLE DESCRIPTION=Institute of Chemistry, SAS, Bratislava, Slovakia
##NAMES=HP
##CAS NAME=Methyl-2,3,4-tri-O-methyl-6-O-(methylester-2,3,4-tri-O-methyl.bet
a.d-glucopyranuronic acid).alpha.d-glucopyranoside
##MOLFORM=C20H36O12
##CAS REGISTRY NO=22854-45-1
##MP= -300
##BP= -300
##MW= 468
##$RETENTION INDEX=0
##$CONDENSED SPECTRUM=NO
##NPOINTS= 33
##XYDATA=(XY..XY) 1 
    45        259
    55         26
    57         31
    58         31
    59         63
    71        159
    73        109
    75        689
    85         79
    88        959
    89         97
   101        999
   102         57
   111         36
   113         22
   115         41
   117         28
   127         57
   129         49
   131         46
   141         53
   145         73
   157         30
   159         31
   161          1
   169         20
   173         24
   187         18
   201        149
   219         99
   233         19
   279         30
   367         47