##TITLE=Library Entry 84252
##JCAMP-DX=Revision 4.10 
##DATA TYPE=MASS SPECTRUM
##SAMPLE DESCRIPTION=V.A.KOPTYUG, ATLAS OF MASS SPECTRA OF ORGANIC COMPOUNDS
##NAMES=HP
##CAS NAME=4-Nitro-4'-methydlphenylsulfoxide
##MOLFORM=C13H11NO3S
##CAS REGISTRY NO=22865-49-2
##MP= -300
##BP= -300
##MW= 261
##$RETENTION INDEX=0
##$CONDENSED SPECTRUM=NO
##NPOINTS= 118
##XYDATA=(XY..XY) 1 
    28         98
    29         51
    30        122
    38         27
    39        253
    40         24
    41        109
    42         19
    43         62
    44         62
    45        253
    46         19
    47         16
    50        163
    51        141
    52         47
    53         73
    54         11
    55         41
    56         16
    57         30
    58         22
    59         11
    60         24
    61         11
    62         38
    63        201
    64         81
    65        505
    66         47
    67         98
    68         16
    69         81
    70         49
    71         44
    73         22
    74         41
    75        114
    76        122
    77        440
    78        130
    79        470
    80         49
    81         16
    82         35
    83         22
    84         22
    85         19
    86         11
    87         16
    89        157
    90         73
    91        410
    92         79
    93         19
    95         49
    96         38
    97         44
    98         16
    99         11
   105         11
   107        999
   108        146
   109         30
   110         16
   111         98
   112         16
   113         11
   115         41
   121         51
   122         47
   123        510
   124         84
   125         73
   126         16
   127         19
   128         22
   129         16
   138         22
   139        554
   140         76
   141         41
   147         11
   149         32
   150         11
   151         19
   152        114
   153         35
   154         16
   155         65
   156         11
   163         11
   164         11
   165         79
   166         35
   167         47
   168         11
   170         11
   171         24
   172         16
   182         16
   183        114
   184        114
   185         24
   186         11
   197         47
   198         35
   199         19
   200         11
   213        220
   214         41
   215         38
   218         16
   245         71
   246         11
   261        174
   262         30
   263         10