##TITLE=Library Entry 25550
##JCAMP-DX=Revision 4.10 
##DATA TYPE=MASS SPECTRUM
##SAMPLE DESCRIPTION=Japan AIST/NIMC Database- Spectrum MS-NW-5327
##NAMES=HP
##CAS NAME=Bis(2-ethylhexyl) methylenesuccinate
##MOLFORM=C21H38O4
##CAS REGISTRY NO=2287-83-4
##MP= -300
##BP= -300
##MW= 354
##$RETENTION INDEX=0
##$CONDENSED SPECTRUM=NO
##NPOINTS= 132
##XYDATA=(XY..XY) 1 
    14          1
    15          2
    17          1
    18          4
    26          3
    27         58
    28         36
    29        167
    30          4
    31          9
    32          3
    37          2
    38          4
    39         58
    40         65
    41        311
    42         63
    43        455
    44         15
    45          3
    50          1
    51          2
    52          1
    53         17
    54         19
    55        245
    56        138
    57        999
    58         43
    59          5
    61          1
    63          1
    65          2
    66          2
    67         17
    68         58
    69        119
    70        502
    71        735
    72         45
    73          3
    74          1
    77          2
    79          3
    80          1
    81          7
    82         28
    83        165
    84         92
    85         77
    86         80
    87          8
    91          1
    93          1
    95          4
    96          3
    97         18
    98          9
    99         11
   100          2
   101          1
   104          1
   107          1
   109          1
   110          5
   111         18
   112        327
   113        529
   114         60
   115          9
   116          1
   118          3
   119          1
   123          1
   124          3
   125          5
   126         45
   127          9
   128          2
   129          6
   130         26
   131        305
   132         23
   133          5
   137          1
   138          1
   139          1
   140          1
   141          1
   142          1
   143          1
   144         28
   145          4
   146          1
   149          1
   151          1
   153          1
   154          2
   155          2
   156          1
   157          2
   164          1
   165          1
   167          3
   168          3
   169          1
   173          1
   178          1
   179          1
   181          1
   182          1
   183          1
   185          2
   186          1
   195          5
   196          4
   197          1
   198          1
   206          4
   207          1
   213          3
   223          2
   224          5
   225         16
   226          3
   238          1
   242          6
   243         18
   244          4
   256          1
   297          2
   325          1