##TITLE=Library Entry 23120
##JCAMP-DX=Revision 4.10 
##DATA TYPE=MASS SPECTRUM
##SAMPLE DESCRIPTION=Chemical Concepts
##NAMES=HP
##CAS NAME=2-Buten-1-ol, propanoate
##MOLFORM=C7H12O2
##CAS REGISTRY NO=22874-75-5
##MP= -300
##BP= -300
##MW= 128
##$RETENTION INDEX=1158
##$CONDENSED SPECTRUM=NO
##NPOINTS= 54
##XYDATA=(XY..XY) 1 
    25          2
    26         57
    27        319
    28        104
    29        613
    30         17
    31         14
    36          0
    37          5
    38         18
    39        267
    40         22
    41         64
    42         24
    43         43
    44          5
    45          8
    46          0
    49          1
    50         12
    51         17
    52          9
    53         67
    54        123
    55        434
    56         46
    57        999
    58         39
    59          3
    60          0
    67          1
    68          1
    69          9
    70          7
    71        144
    72         21
    73          4
    74          5
    75         43
    76          1
    81          0
    82          0
    83          0
    84          0
    85          4
    86         24
    87          2
    95          0
    99         25
   100         10
   101          0
   113          0
   128         32
   129          2