##TITLE=Library Entry 12439
##JCAMP-DX=Revision 4.10 
##DATA TYPE=MASS SPECTRUM
##SAMPLE DESCRIPTION=Exported from NIST MS Search
##NAMES=HP
##CAS NAME=Benzene, 2-butyl-1,3,4-trifluoro-
##MOLFORM=C10H11F3
##CAS REGISTRY NO=22872-43-1
##MP= -300
##BP= -300
##MW= 188
##$RETENTION INDEX=0
##$CONDENSED SPECTRUM=NO
##NPOINTS= 28
##XYDATA=(XY..XY) 1 
    29         30
    39         50
    41        190
    43        999
    44         30
    56         20
    57         20
    63         20
    75         40
    81         40
    87         20
    95         20
    99         20
   101         10
   119         60
   125         50
   127         40
   132         50
   133         20
   137         20
   139         20
   145        950
   146        520
   147         30
   158         40
   159         50
   188        550
   189         50