##TITLE=Library Entry 50681
##JCAMP-DX=Revision 4.10 
##DATA TYPE=MASS SPECTRUM
##SAMPLE DESCRIPTION=A.ZAMOJSKI POLISH ACADEMY OF SCIENCES, WARSAW, POLAND
##NAMES=HP
##CAS NAME=2H-Pyran-2-carboxylic acid, 3,6-dihydro-6-methoxy-, methyl ester
##MOLFORM=C8H12O4
##CAS REGISTRY NO=22870-43-5
##MP= -300
##BP= -300
##MW= 172
##$RETENTION INDEX=0
##$CONDENSED SPECTRUM=NO
##NPOINTS= 32
##XYDATA=(XY..XY) 1 
    41        350
    42         50
    43         80
    44         60
    45        210
    51         70
    52         50
    53        430
    54         90
    55        440
    58         60
    59        170
    69        220
    71        340
    81        999
    82        100
    83         30
    84        120
    85        150
    97         20
    98         20
    99         20
   108        180
   109        110
   111         50
   112        110
   113        810
   114         60
   140        100
   141        180
   171          5
   172          5