##TITLE=Library Entry 73728
##JCAMP-DX=Revision 4.10 
##DATA TYPE=MASS SPECTRUM
##SAMPLE DESCRIPTION=Exported from NIST MS Search
##NAMES=HP
##CAS NAME=2,4(3H,5H)-Furandione, 3-isopentyl-
##MOLFORM=C9H14O3
##CAS REGISTRY NO=22884-77-1
##MP= -300
##BP= -300
##MW= 170
##$RETENTION INDEX=0
##$CONDENSED SPECTRUM=NO
##NPOINTS= 61
##XYDATA=(XY..XY) 1 
    26        100
    27        620
    28        110
    29        270
    30         30
    31        420
    32         30
    38         20
    39        550
    40        150
    41        720
    42        150
    43        610
    44         10
    45        110
    46         40
    51         30
    53        120
    54         40
    55        650
    56        320
    57        100
    58         10
    65         20
    66         10
    67         60
    68        100
    69        180
    70        170
    71        190
    72         20
    73         70
    79         30
    81         30
    82         20
    83         30
    84         10
    85         40
    86         10
    93         10
    94         20
    95         10
    96        170
    97         60
    99         20
   100        370
   101        999
   102         80
   109         20
   110         30
   111         20
   113        240
   114        650
   115         50
   127         40
   128         10
   152         10
   153         10
   155         10
   169         10
   170         40