##TITLE=Library Entry 32526
##JCAMP-DX=Revision 4.10 
##DATA TYPE=MASS SPECTRUM
##SAMPLE DESCRIPTION=NIST Mass Spectrometry Data Center, 1994
##NAMES=HP
##CAS NAME=Isopropyl linoleate
##MOLFORM=C21H38O2
##CAS REGISTRY NO=22882-95-7
##MP= -300
##BP= -300
##MW= 322
##$RETENTION INDEX=0
##$CONDENSED SPECTRUM=NO
##NPOINTS= 150
##XYDATA=(XY..XY) 1 
    14          6
    15         12
    18          5
    27        215
    28         82
    29        290
    31         11
    39        175
    41        924
    42        227
    43        944
    44         47
    45         38
    51         11
    52         13
    53        124
    54        339
    55        746
    56        102
    57        118
    58          8
    59         61
    60         59
    61          8
    65         69
    67        999
    68        334
    69        389
    70         67
    71         58
    72          4
    73         44
    76         14
    77        126
    78         48
    79        411
    80        213
    81        827
    82        377
    83        227
    84         55
    85         37
    86          6
    87         20
    90         13
    91        107
    92         23
    93        148
    94        102
    95        586
    96        286
    97        156
    98         55
    99         28
   100          7
   101         21
   102          7
   105         26
   106         14
   107         82
   108         66
   109        284
   110        165
   111         73
   112         20
   113         19
   114         13
   115         12
   117          8
   119         29
   121         78
   122         58
   123        183
   124         87
   125         39
   126         20
   127         25
   129          7
   131         15
   132          7
   133         30
   134         10
   135         75
   136         49
   137        103
   138         45
   139         25
   140         20
   141         10
   145          8
   146          4
   147         23
   148          8
   149         54
   150         45
   151         56
   152         28
   153         26
   154         20
   155          6
   157          5
   159         14
   161         13
   162          5
   163         36
   164         28
   165         28
   166         14
   167         23
   168         20
   169          6
   173         18
   175          9
   177         23
   178         18
   179         19
   180         10
   181         30
   182         23
   183          6
   187         10
   191         10
   192          6
   193          6
   194          5
   195         29
   196         18
   207          7
   209         25
   210         11
   219          5
   220          9
   221          5
   222          7
   223         13
   224          8
   237          6
   243          6
   245          6
   261         11
   262         32
   263        115
   264         41
   265         23
   266          5
   279        233
   280         89
   281         13
   322         35
   323          8