##TITLE=Library Entry 88776
##JCAMP-DX=Revision 4.10 
##DATA TYPE=MASS SPECTRUM
##SAMPLE DESCRIPTION=A.A.Kutin, Moscow, Russia
##NAMES=HP
##CAS NAME=Ethanone, 2-(2-benzimidazolylthio)-1-(2-thienyl)-
##MOLFORM=C13H10N2OS2
##CAS REGISTRY NO=22889-08-3
##MP= -300
##BP= -300
##MW= 274
##$RETENTION INDEX=0
##$CONDENSED SPECTRUM=NO
##NPOINTS= 205
##XYDATA=(XY..XY) 1 
    33          0
    34          1
    36          2
    37          6
    38         17
    39        122
    40         13
    41          5
    42          5
    43          5
    44          6
    45         69
    46          6
    47          5
    48          0
    49          1
    50         11
    51         23
    52         17
    53         30
    54          2
    55          2
    56          1
    57         18
    58         12
    59          3
    60          2
    61          3
    62         10
    63         45
    64         33
    65         30
    66          3
    67          1
    68          0
    69         17
    70         13
    71         10
    72          4
    73          1
    74          2
    75         11
    76          9
    77         34
    78         23
    79          7
    80         13
    81         12
    82         25
    83         56
    84         16
    85          5
    86          1
    87          1
    88          3
    89          4
    90         46
    91         36
    92         27
    93          4
    94          2
    95         13
    96         28
    97        111
    98          8
    99          5
   100          0
   101          0
   102          8
   103          5
   104          6
   105         25
   106          9
   107          2
   108          4
   109         13
   111        999
   112         64
   113         51
   114          3
   115          2
   116          2
   117          4
   118         31
   119         72
   120          8
   121          5
   122        110
   123         14
   124         36
   125         12
   126         19
   127          5
   128          2
   129          9
   130          2
   131         16
   132          3
   133          1
   134          9
   135          4
   136          1
   137          4
   138          1
   139          6
   140         53
   141         10
   142          5
   143          1
   144          0
   145          0
   146          0
   147          3
   148          2
   149         74
   150        102
   151         13
   152          5
   153          1
   154          0
   155          1
   156          1
   157          0
   158          0
   159          0
   161          7
   162         17
   163        496
   164         54
   165         25
   166          2
   167          0
   168          1
   169          0
   170          0
   171          1
   172          0
   173          0
   174          0
   175          0
   176          0
   177          0
   178          0
   179          0
   180          0
   181          0
   183          0
   185          0
   186          0
   187          1
   188          0
   189          1
   190          1
   191          2
   192          0
   198          0
   199          2
   200          3
   201          1
   202          0
   203          0
   204          0
   206          0
   207          0
   208          1
   209          0
   211          0
   212          1
   213         16
   214          3
   215          0
   226          0
   227          1
   228          0
   229          0
   230          0
   231          3
   232         48
   233          7
   234          4
   235          0
   236          1
   241          8
   242          1
   243          1
   244          0
   245          2
   246         23
   247          3
   248          1
   249          0
   250          0
   256          1
   257          1
   258          0
   260          0
   268          1
   269          0
   271          0
   272          1
   274        148
   275         22
   276         13
   277          2
   278          0