##TITLE=Library Entry 14565
##JCAMP-DX=Revision 4.10 
##DATA TYPE=MASS SPECTRUM
##SAMPLE DESCRIPTION=Exported from NIST MS Search
##NAMES=HP
##CAS NAME=Salicylic acid, 5-iodo-3-nitro-, acetate (ester)
##MOLFORM=C9H6INO6
##CAS REGISTRY NO=22884-73-7
##MP= -300
##BP= -300
##MW= 351
##$RETENTION INDEX=0
##$CONDENSED SPECTRUM=NO
##NPOINTS= 53
##XYDATA=(XY..XY) 1 
    43        999
    44         40
    45         40
    50         30
    51         40
    52         20
    53         50
    54         20
    60         20
    61         60
    62        140
    63         80
    64         20
    65         10
    74         20
    75         10
    76         10
    77         20
    78         20
    79         40
    90         30
    91         60
    92         30
   105         30
   106         20
   118         20
   119         10
   123         20
   128         50
   129         30
   149         40
   164         10
   165         10
   189         60
   205        100
   207         10
   217         30
   218         10
   233         80
   245         50
   246         20
   261         20
   275         70
   291        540
   292        100
   293         20
   309        980
   310         80
   311         10
   323         10
   351        130
   352         14
   353          2