##TITLE=Library Entry 60865
##JCAMP-DX=Revision 4.10 
##DATA TYPE=MASS SPECTRUM
##SAMPLE DESCRIPTION=Exported from NIST MS Search
##NAMES=HP
##CAS NAME=2,4(3H,5H)-Furandione, 3-(phenylmethyl)-
##MOLFORM=C11H10O3
##CAS REGISTRY NO=22884-81-7
##MP= -300
##BP= -300
##MW= 190
##$RETENTION INDEX=0
##$CONDENSED SPECTRUM=NO
##NPOINTS= 73
##XYDATA=(XY..XY) 1 
    26         50
    27        100
    28         10
    29         60
    30         10
    31         10
    38         20
    39        160
    40         10
    41         50
    42         30
    43         40
    44         30
    45         10
    50        100
    51        270
    52         90
    53         20
    54         20
    55         90
    58         20
    62         30
    63         90
    64         60
    65        180
    66         50
    69         90
    73         20
    74         50
    75         40
    76         50
    77        230
    78        180
    79         30
    83         20
    85         20
    89         40
    90         20
    91        999
    92        100
    93         10
   101        310
   102        180
   103        200
   104        770
   105         90
   114         90
   115        150
   116        110
   117         90
   118         10
   120         10
   127         30
   128         10
   129         20
   130         80
   131        350
   132         60
   134         10
   143         20
   144         50
   145         60
   146         30
   147        200
   148        460
   149         50
   162         20
   163         20
   171        170
   172        530
   173         70
   190        500
   191         60