##TITLE=Library Entry 11499
##JCAMP-DX=Revision 4.10 
##DATA TYPE=MASS SPECTRUM
##SAMPLE DESCRIPTION=Exported from NIST MS Search
##NAMES=HP
##CAS NAME=2,4(3H,5H)-Furandione, 5,5-dimethyl-3-phenyl-
##MOLFORM=C12H12O3
##CAS REGISTRY NO=22884-82-8
##MP= -300
##BP= -300
##MW= 204
##$RETENTION INDEX=0
##$CONDENSED SPECTRUM=NO
##NPOINTS= 75
##XYDATA=(XY..XY) 1 
    38         10
    39        150
    40         20
    41         60
    42         20
    43        999
    44         50
    45         50
    50         20
    51         80
    52         10
    53         10
    55        340
    56         10
    57         30
    58         20
    59        170
    60         30
    62         30
    63        160
    64         50
    65         50
    69         50
    70         10
    71         10
    73         20
    75         10
    76         10
    77        100
    78         30
    79         30
    81         10
    82         10
    83         10
    87         10
    88         10
    89        460
    90        540
    91        180
    92         20
    98         10
   102         10
   103         20
   105         90
   106         10
   115        110
   116         20
   117        120
   118        950
   119         90
   120         10
   122         10
   127         20
   128         30
   129         30
   130         20
   131         30
   132        160
   133        360
   134         40
   141         10
   145         60
   146         50
   158         20
   159         10
   160         70
   161        760
   162         90
   171         20
   186         60
   189        110
   190         10
   204        860
   205        110
   206         10