##TITLE=Library Entry 71018
##JCAMP-DX=Revision 4.10 
##DATA TYPE=MASS SPECTRUM
##SAMPLE DESCRIPTION=Exported from NIST MS Search
##NAMES=HP
##CAS NAME=1-Oxaspiro[4.5]decane-2,4-dione
##MOLFORM=C9H12O3
##CAS REGISTRY NO=22884-78-2
##MP= -300
##BP= -300
##MW= 168
##$RETENTION INDEX=0
##$CONDENSED SPECTRUM=NO
##NPOINTS= 35
##XYDATA=(XY..XY) 1 
    28         80
    29         70
    38         10
    39        210
    40         60
    41        220
    42        260
    43        120
    44         10
    50         20
    51         40
    52         20
    53         60
    54         80
    55        340
    56         70
    57         10
    65         20
    67         50
    69        210
    70        160
    71         20
    77         20
    79         20
    80        110
    81         40
    83         70
    84         10
    97         30
    98        999
    99         90
   105         20
   140        280
   141         20
   168         40