##TITLE=Library Entry 13521
##JCAMP-DX=Revision 4.10 
##DATA TYPE=MASS SPECTRUM
##SAMPLE DESCRIPTION=Exported from NIST MS Search
##NAMES=HP
##CAS NAME=Ethanethioic acid, S-(pentafluorophenyl) ester
##MOLFORM=C8H3F5OS
##CAS REGISTRY NO=22891-72-1
##MP= -300
##BP= -300
##MW= 242
##$RETENTION INDEX=0
##$CONDENSED SPECTRUM=NO
##NPOINTS= 12
##XYDATA=(XY..XY) 1 
    40         27
    42         26
    43        999
    44         24
   155        200
   156         23
   180         11
   181         17
   199        260
   200        181
   201         27
   242         24