##TITLE=Library Entry 48828
##JCAMP-DX=Revision 4.10 
##DATA TYPE=MASS SPECTRUM
##SAMPLE DESCRIPTION=Chemical Concepts
##NAMES=HP
##CAS NAME=Bicyclo[2.2.2]oct-7-ene-2,5-dicarboxylic acid, dimethyl ester
##MOLFORM=C12H16O4
##CAS REGISTRY NO=22906-37-2
##MP= -300
##BP= -300
##MW= 224
##$RETENTION INDEX=0
##$CONDENSED SPECTRUM=NO
##NPOINTS= 117
##XYDATA=(XY..XY) 1 
    33          3
    38          2
    39         59
    40          8
    41         34
    42          2
    43          6
    44          7
    45         18
    50          7
    51         42
    52         27
    53         33
    54          6
    55        137
    56         10
    57          4
    58          0
    59         84
    60         10
    61          3
    62          0
    63          7
    64          2
    65         24
    66         10
    67          8
    68          4
    69          2
    71          3
    74          1
    75         11
    76          5
    77        217
    78        452
    79        999
    80         67
    81          6
    82          1
    83          3
    84          1
    85          4
    86          0
    87        110
    88         11
    89          5
    90          1
    91         73
    92         10
    93         23
    94          3
    95          3
    96          1
    97          2
    98          2
    99          0
   100          1
   101          1
   102          2
   103         24
   104         43
   105        143
   106         51
   107         84
   108          7
   109          4
   110          5
   111          4
   112          0
   114          0
   115          2
   116          0
   117          0
   118          1
   119          2
   120          0
   121          5
   122          1
   123          3
   124          1
   125          3
   130          1
   131         14
   132         23
   133         42
   134          4
   135          2
   136          7
   137        100
   138        357
   139         32
   140          4
   141          2
   142          0
   147          1
   149          3
   150          3
   151          0
   159          0
   160          7
   161          1
   162          0
   163          6
   164         48
   165         56
   166          6
   167          0
   174          1
   190          0
   191          1
   192        102
   193         65
   194          7
   195          0
   224         79
   225         10
   226          0