##TITLE=Library Entry 34377
##JCAMP-DX=Revision 4.10 
##DATA TYPE=MASS SPECTRUM
##SAMPLE DESCRIPTION=NIST Mass Spectrometry Data Center, 1994
##NAMES=HP
##CAS NAME=1,4-Diisopropyl cyclohexane
##MOLFORM=C12H24
##CAS REGISTRY NO=22907-72-8
##MP= -300
##BP= -300
##MW= 168
##$RETENTION INDEX=0
##$CONDENSED SPECTRUM=NO
##NPOINTS= 62
##XYDATA=(XY..XY) 1 
    14          0
    15         16
    27        225
    29        139
    30          4
    39        166
    41        564
    42         76
    43        329
    44          8
    50          4
    51         16
    53         83
    54        103
    55        394
    56         56
    57        265
    58         11
    59          0
    62          0
    63          2
    65         26
    66         51
    67        183
    68          0
    69        999
    70         66
    71         17
    72          1
    75          0
    77         25
    79         45
    80         48
    81        150
    82        183
    83        429
    84         30
    85          2
    89          0
    91         10
    92          1
    93          4
    95         22
    96         15
    97         31
    98          3
   103          0
   105          1
   106          0
   107          1
   109         42
   110          4
   111         12
   112          1
   124        275
   125        278
   126         74
   127          5
   153          1
   168        120
   169         16
   170          1