##TITLE=Library Entry 96683
##JCAMP-DX=Revision 4.10 
##DATA TYPE=MASS SPECTRUM
##SAMPLE DESCRIPTION=NIST Mass Spectrometry Data Center
##NAMES=HP
##CAS NAME=Trimethylsilyl isothiocyanate
##MOLFORM=C4H9NSSi
##CAS REGISTRY NO=2290-65-5
##MP= -300
##BP= -300
##MW= 131
##$RETENTION INDEX=0
##$CONDENSED SPECTRUM=NO
##NPOINTS= 56
##XYDATA=(XY..XY) 1 
    15          6
    26          1
    27          6
    29         19
    30          1
    31          3
    32          4
    41          4
    42         18
    43         82
    44         13
    45         30
    46          2
    47          1
    53         12
    54         27
    55         13
    56         20
    57         10
    58         15
    59          4
    60          3
    61          5
    66          1
    67          2
    68          4
    69          2
    70          4
    71          1
    72          5
    73         47
    74          4
    75         25
    76          2
    77          3
    84         21
    85          2
    86        123
    87         10
    88         85
    89          8
    90          6
   100          1
   101         10
   102         28
   103          3
   104          2
   116        999
   117         95
   118         81
   119          5
   120          1
   131        381
   132         39
   133         30
   134          2