##TITLE=Library Entry 66750
##JCAMP-DX=Revision 4.10 
##DATA TYPE=MASS SPECTRUM
##SAMPLE DESCRIPTION=A.A.Kutin, Moscow, Russia
##NAMES=HP
##CAS NAME=1H-Imidazolo[4,5-b]pyridin-2(3H)-one, 1,3-dimethyl-5-nitro-
##MOLFORM=C8H8N4O3
##CAS REGISTRY NO=22902-70-1
##MP= -300
##BP= -300
##MW= 208
##$RETENTION INDEX=0
##$CONDENSED SPECTRUM=NO
##NPOINTS= 67
##XYDATA=(XY..XY) 1 
    33         45
    37         15
    38         25
    39         52
    40         90
    41         48
    42        119
    43         13
    44         11
    46         17
    50         14
    51         49
    52         80
    53         32
    54         15
    55         10
    56         39
    57          5
    58          2
    63         17
    64        203
    66        178
    67        192
    68         10
    69          4
    70          6
    75          7
    76         26
    77         46
    78         56
    79         14
    80         34
    81          9
    82          6
    83          2
    90         10
    93        999
    94         65
    95          5
   103          3
   104         16
   105        140
   106         16
   107         16
   109        100
   110          5
   113          1
   118         15
   119         25
   121         45
   132         17
   134         70
   135          9
   137         37
   147         14
   150         92
   151          4
   160         25
   162        796
   163         52
   178        184
   179          9
   192          4
   206         15
   208        969
   209         58
   210          9