##TITLE=Library Entry 94451
##JCAMP-DX=Revision 4.10 
##DATA TYPE=MASS SPECTRUM
##SAMPLE DESCRIPTION=V.G. Zaikin, TIPS RAS, Moscow, Russia
##NAMES=HP
##CAS NAME=Allyloxy(triethyl) silane
##MOLFORM=C9H20OSi
##CAS REGISTRY NO=2290-45-1
##MP= -300
##BP= -300
##MW= 172
##$RETENTION INDEX=0
##$CONDENSED SPECTRUM=NO
##NPOINTS= 97
##XYDATA=(XY..XY) 1 
    25         12
    26        104
    27        306
    28         96
    29        215
    30         18
    31         85
    33          5
    35          5
    36         16
    37         28
    38         44
    39        268
    40         35
    41        398
    42         19
    43        108
    44         44
    45        463
    46         28
    47        291
    48         16
    49         29
    50         88
    51        109
    52        128
    53         49
    54         21
    55         77
    56         37
    57        161
    58         84
    59        469
    60         49
    61         71
    62         19
    63         46
    64          9
    65         35
    66         34
    67         13
    68          7
    69         18
    70          7
    71         23
    72          9
    73         43
    74         27
    75        168
    76         25
    77         34
    78         25
    79        121
    80          9
    81          8
    82         11
    83         24
    84         15
    85        306
    86         55
    87        608
    88         59
    89         39
    90          7
    91        263
    92         45
    93         51
    94         67
    95         17
    96          6
    97          9
    98          5
    99         17
   100          5
   101          9
   102          5
   103         38
   104          5
   105         22
   106         16
   111          8
   112        145
   113         39
   114         18
   115        999
   116        117
   117         52
   118          5
   141          5
   142         22
   143        966
   144        118
   145         59
   171          4
   172         18
   173          6
   174          1