##TITLE=Library Entry 114882
##JCAMP-DX=Revision 4.10 
##DATA TYPE=MASS SPECTRUM
##SAMPLE DESCRIPTION=Zaikin V.G., TIPS RAS, Moscow, Russia
##NAMES=HP
##CAS NAME=4-Cyanobenzoic acid, 2-methylphenyl ester
##MOLFORM=C15H11NO2
##CAS REGISTRY NO=229164-37-8
##MP= -300
##BP= -300
##MW= 237
##$RETENTION INDEX=1918
##$CONDENSED SPECTRUM=NO
##NPOINTS= 43
##XYDATA=(XY..XY) 1 
    27          9
    28          1
    36         10
    38          7
    39         15
    40          3
    41          2
    44         13
    50         25
    51         38
    52         14
    53          8
    62          3
    63          8
    64          3
    65          8
    74         10
    75         47
    76         35
    77         42
    78         15
    79         10
    89          2
    91          6
    99          3
   101          7
   102        283
   103         28
   107         14
   108          6
   119          6
   129          3
   130        999
   131         93
   132          5
   135          6
   147         75
   148          6
   151          5
   152          3
   161          4
   237        113
   238         21