##TITLE=Library Entry 80252
##JCAMP-DX=Revision 4.10 
##DATA TYPE=MASS SPECTRUM
##SAMPLE DESCRIPTION=F. TURECEK,HEYROVSKY INST PHYS CHEM & ELECTROCHEM,PRAGU
E,CZECH
##NAMES=HP
##CAS NAME=1,6-Hexanediol dibenzoate
##MOLFORM=C20H22O4
##CAS REGISTRY NO=22915-73-7
##MP= -300
##BP= -300
##MW= 326
##$RETENTION INDEX=0
##$CONDENSED SPECTRUM=NO
##NPOINTS= 44
##XYDATA=(XY..XY) 1 
    27         20
    29         20
    39         26
    41         69
    42         14
    43         14
    44          8
    50         22
    51         89
    52          8
    53          8
    54        205
    55         57
    57          8
    67        158
    68         12
    69         10
    71         12
    76         20
    77        352
    78         34
    79         25
    81         24
    82        432
    83         42
    84         12
    85         38
    99         22
   105        999
   106         85
   120         22
   121          6
   122         32
   123         93
   124          7
   149          5
   174         47
   175          6
   204         79
   205         12
   221          2
   227          3
   326          8
   327          2