##TITLE=Library Entry 52809
##JCAMP-DX=Revision 4.10 
##DATA TYPE=MASS SPECTRUM
##SAMPLE DESCRIPTION=J.H.SUPPLE STATE UNIV. COLLEGE, FREDONIA, NEW YORK, USA
##NAMES=HP
##CAS NAME=8-Azabicyclo[3.2.1]octan-3-ol, 8-methyl-3-phenyl-, endo-
##MOLFORM=C14H19NO
##CAS REGISTRY NO=22932-25-8
##MP= -300
##BP= -300
##MW= 217
##$RETENTION INDEX=0
##$CONDENSED SPECTRUM=NO
##NPOINTS= 73
##XYDATA=(XY..XY) 1 
    39         40
    40          6
    41         73
    42        286
    43         43
    44         26
    50          6
    51         46
    52          6
    53         23
    54         26
    55        100
    56         76
    57        106
    58         20
    65         26
    66         10
    67         26
    68         60
    69         20
    70        180
    71         13
    77        140
    78         46
    79         10
    80         20
    81         60
    82        650
    83        999
    91         86
    92         13
    93          6
    94         73
    95         20
    96        420
    97        233
    98         26
   102         13
   103         20
   104         13
   105        100
   115         33
   116         10
   117         16
   118         20
   125          6
   126         13
   127         33
   129         16
   130          6
   131         16
   132          6
   140         20
   141         16
   142         13
   143         20
   144         13
   149        113
   159        223
   160         36
   170        160
   171         40
   172         33
   187         60
   189         53
   190         10
   198         13
   199         33
   200        133
   201         20
   203         13
   217        246
   218         33