##TITLE=Library Entry 4671
##JCAMP-DX=Revision 4.10 
##DATA TYPE=MASS SPECTRUM
##SAMPLE DESCRIPTION=Albert Lebedev, Moscow State University, Russia
##NAMES=HP
##CAS NAME=4,6-Dimethyl-3-nitro-2(1H)-pyridinone
##MOLFORM=C7H8N2O3
##CAS REGISTRY NO=22934-13-0
##MP= -300
##BP= -300
##MW= 168
##$RETENTION INDEX=0
##$CONDENSED SPECTRUM=NO
##NPOINTS= 68
##XYDATA=(XY..XY) 1 
    37         54
    38        120
    39        445
    40        159
    41        347
    42        999
    44        113
    45         17
    46         52
    50        160
    51        276
    52        286
    53        590
    54         94
    55         63
    56         10
    57          2
    61          7
    62         22
    63         57
    64         52
    65        235
    66        212
    67        522
    68         66
    69         21
    70         17
    71          1
    74          6
    75         13
    76         23
    77        194
    78         91
    79         47
    80         82
    81         31
    82         70
    83         18
    84          8
    91         39
    92         66
    93         92
    94        206
    95         77
    96        109
    97          8
   105         23
   106         20
   107          9
   108         29
   109         32
   110        379
   111         33
   112          1
   120          1
   121         20
   122         14
   123         62
   124         46
   133         14
   135          2
   138         35
   139          5
   151        255
   152         22
   167          1
   168        479
   169         47