##TITLE=Library Entry 85372
##JCAMP-DX=Revision 4.10 
##DATA TYPE=MASS SPECTRUM
##SAMPLE DESCRIPTION=Japan AIST/NIMC Database- Spectrum MS-NW-7434
##NAMES=HP
##CAS NAME=Thiourea, (4-methoxyphenyl)-
##MOLFORM=C8H10N2OS
##CAS REGISTRY NO=2293-07-4
##MP= -300
##BP= -300
##MW= 182
##$RETENTION INDEX=0
##$CONDENSED SPECTRUM=NO
##NPOINTS= 133
##XYDATA=(XY..XY) 1 
    14          2
    15         20
    16          2
    25          1
    26         17
    27         28
    28         55
    29          9
    30          4
    31          3
    32         20
    33          9
    34         13
    36          2
    37         17
    38         37
    39         74
    40          9
    41         52
    42          8
    43         43
    44          6
    45         16
    46          2
    47          3
    48          2
    49          5
    50         49
    51         66
    52        123
    53        119
    54         26
    55          9
    56          1
    57          2
    58          5
    59         26
    60        181
    61         18
    62         33
    63         97
    64         81
    65         66
    66         12
    67         11
    68          4
    69         10
    70         12
    71          3
    72          4
    73          4
    74         18
    75         15
    76         18
    77         94
    78         45
    79         40
    80        212
    81         27
    82          4
    83          5
    84          3
    85          2
    86          1
    87          2
    88          3
    89          2
    90         25
    91         19
    92         66
    93         10
    94          8
    95         62
    96         26
    97         14
    98          2
    99          1
   102          2
   103          3
   104          2
   105         35
   106         13
   107         39
   108        999
   109         79
   110          9
   111          6
   112          2
   113          1
   114          1
   117          2
   118          4
   119          4
   120          4
   121          3
   122        129
   123        336
   124         32
   125         44
   126          5
   127          6
   129          1
   133         82
   134         40
   135          6
   136          2
   137          2
   138         11
   139         13
   140        434
   141         39
   142         25
   143          2
   144          2
   147          4
   148         64
   149        244
   150        140
   151         15
   152          7
   153          2
   154          2
   165        163
   166         44
   167         19
   168          3
   179          1
   180          1
   181         12
   182        624
   183         77
   184         34
   185          3