##TITLE=Library Entry 61677
##JCAMP-DX=Revision 4.10 
##DATA TYPE=MASS SPECTRUM
##SAMPLE DESCRIPTION=NIST Mass Spectrometry Data Center
##NAMES=HP
##CAS NAME=Benzeneacetic acid, .alpha.-ethyl-, methyl ester
##MOLFORM=C11H14O2
##CAS REGISTRY NO=2294-71-5
##MP= -300
##BP= -300
##MW= 178
##$RETENTION INDEX=1287
##$CONDENSED SPECTRUM=NO
##NPOINTS= 89
##XYDATA=(XY..XY) 1 
    15         16
    26          2
    27         15
    28          3
    29         14
    30          3
    31          3
    37          1
    38          6
    39         60
    40          6
    41         82
    42          3
    43          2
    44          1
    45          3
    49          1
    50         26
    51         73
    52         18
    53          9
    54          1
    55          3
    57          7
    59         35
    60          1
    61          3
    62         16
    63         52
    64         14
    65         64
    66          5
    67          1
    69          2
    73          1
    74          9
    75         10
    76         12
    77        118
    78         64
    79         32
    80          2
    85          1
    86          3
    87          5
    88          2
    89         63
    90         54
    91        999
    92        106
    93          6
    94          1
    98          1
   101          3
   102         17
   103         65
   104         66
   105         28
   106          4
   107          5
   108          2
   113          1
   115         79
   116         18
   117         68
   118        174
   119        664
   120         71
   121         79
   122          7
   123          1
   131          9
   132          1
   133          2
   134          1
   135          3
   145          1
   146          4
   147          6
   148          1
   149         10
   150         58
   151          6
   152          1
   163          6
   164          1
   178        197
   179         24
   180          2