##TITLE=Library Entry 66356
##JCAMP-DX=Revision 4.10 
##DATA TYPE=MASS SPECTRUM
##SAMPLE DESCRIPTION=Exported from NIST MS Search
##NAMES=HP
##CAS NAME=Pyridine, 2-pentyl-
##MOLFORM=C10H15N
##CAS REGISTRY NO=2294-76-0
##MP= -300
##BP= -300
##MW= 149
##$RETENTION INDEX=1202
##$CONDENSED SPECTRUM=NO
##NPOINTS= 42
##XYDATA=(XY..XY) 1 
    26         29
    27        162
    28         25
    29        107
    38         18
    39        137
    40         19
    41         19
    42          8
    43          8
    50         20
    51         71
    52         51
    53         29
    54          9
    55          5
    63         14
    64         10
    65         88
    66         39
    67         10
    77         19
    78         70
    79         49
    80         15
    91         11
    92         59
    93        999
    94         71
   104         10
   105          8
   106        230
   107         63
   117         19
   118         27
   119         10
   120        215
   121         26
   134         14
   135          2
   148         16
   149         15