##TITLE=Library Entry 32578
##JCAMP-DX=Revision 4.10 
##DATA TYPE=MASS SPECTRUM
##SAMPLE DESCRIPTION=D.HENNEBERG, MAX-PLANCK INSTITUTE, MULHEIM, WEST GERMAN
Y
##NAMES=HP
##CAS NAME=5-Undecyne
##MOLFORM=C11H20
##CAS REGISTRY NO=2294-72-6
##MP= -300
##BP= -300
##MW= 152
##$RETENTION INDEX=1107
##$CONDENSED SPECTRUM=NO
##NPOINTS= 91
##XYDATA=(XY..XY) 1 
    27        113
    28         22
    29        206
    30          5
    31          3
    37          0
    38          1
    39         86
    40         21
    41        464
    42         54
    43        183
    44          9
    45          1
    48          1
    50          3
    51         15
    52         29
    53        166
    54        959
    55        569
    56         82
    57         62
    58          7
    59          1
    60          1
    61          1
    64          1
    65         46
    66         43
    67        999
    68        277
    69        116
    70         15
    71         12
    72          1
    73          0
    74          1
    75          1
    77         57
    78         12
    79        134
    80         49
    81        856
    82        289
    83         37
    84          5
    85          7
    86          1
    87          0
    91         30
    92          3
    93         45
    94         22
    95        593
    96        178
    97         33
    98          3
    99          2
   100          0
   103          1
   105          4
   106          1
   107         10
   108          5
   109        217
   110         87
   111         18
   112          2
   113          2
   114          0
   117          0
   118          0
   119          1
   121          2
   122          1
   123        156
   124         39
   125          8
   126          0
   127          0
   131          0
   133          1
   135          1
   137         19
   138          6
   139          0
   150          0
   151          5
   152         27
   153          3