##TITLE=Library Entry 57708
##JCAMP-DX=Revision 4.10 
##DATA TYPE=MASS SPECTRUM
##SAMPLE DESCRIPTION=ASES Database, Dalian Institute, P.R. China
##NAMES=HP
##CAS NAME=4,6-Dimethyl-3-methylthio-5-oxo-4,5-dihydro-triazine
##MOLFORM=C6H9N3OS
##CAS REGISTRY NO=22943-32-4
##MP= -300
##BP= -300
##MW= 171
##$RETENTION INDEX=0
##$CONDENSED SPECTRUM=NO
##NPOINTS= 15
##XYDATA=(XY..XY) 1 
    41        257
    42        682
    45        511
    46        477
    47        467
    55        438
    56        805
    71        188
    72        408
    73        217
    83        148
    88        999
    96        150
   126        628
   171        518