##TITLE=Library Entry 35927
##JCAMP-DX=Revision 4.10 
##DATA TYPE=MASS SPECTRUM
##SAMPLE DESCRIPTION=Div. of Experiment Therapeutics WRAIR, WRAMC, Washingto
n DC 20307
##NAMES=HP
##CAS NAME=6-Phenyl-4-ethyl-3-thioxo-5-oxo-2,3,4,5-tetrahydro-1,2,4-triazine
##MOLFORM=C11H11N3OS
##CAS REGISTRY NO=22943-18-6
##MP= -300
##BP= -300
##MW= 233
##$RETENTION INDEX=0
##$CONDENSED SPECTRUM=NO
##NPOINTS= 84
##XYDATA=(XY..XY) 1 
    42        164
    43        226
    44        108
    45         10
    46         11
    47         10
    50         74
    51        110
    52         26
    53         11
    55         37
    56         11
    59         26
    60        295
    61        175
    62         42
    63        124
    64         21
    65          7
    66          3
    67          2
    69        999
    70         36
    71          4
    72          9
    73          1
    74         16
    75         21
    76         84
    77        156
    78         12
    79          1
    81          0
    82          0
    84          1
    86         33
    87         12
    89        148
    90          8
    91         50
    92          2
    97          0
    99          2
   102         91
   103         16
   104        626
   105         44
   106          1
   109          1
   115          1
   117         12
   118         42
   119          7
   121         11
   122          1
   130          4
   131          1
   134          1
   136          0
   141          1
   144          0
   145          5
   146          3
   147          1
   149          0
   161          5
   163          0
   172          1
   173          0
   174          1
   175          1
   177          8
   178         10
   179          0
   190          2
   200          3
   204         15
   205          6
   206          1
   232         11
   233        403
   234         55
   235         15
   236          1