##TITLE=Library Entry 109216
##JCAMP-DX=Revision 4.10 
##DATA TYPE=MASS SPECTRUM
##SAMPLE DESCRIPTION=NIST Mass Spectrometry Data Center, 1990.
##NAMES=HP
##CAS NAME=3-Aminobenzenethiol
##MOLFORM=C6H7NS
##CAS REGISTRY NO=22948-02-3
##MP= -300
##BP= -300
##MW= 125
##$RETENTION INDEX=0
##$CONDENSED SPECTRUM=NO
##NPOINTS= 76
##XYDATA=(XY..XY) 1 
    15          5
    17          1
    18          6
    26         13
    27         42
    29          8
    30          6
    33         15
    36          7
    37         58
    38         97
    39        199
    40         36
    41         72
    42         30
    44         15
    45        124
    46          8
    47         18
    48          8
    49          7
    50         45
    51         58
    52        100
    53        175
    54         53
    57         47
    58         38
    59         10
    60         34
    61         51
    62         83
    63        119
    64         69
    65        198
    66         74
    67         28
    68         25
    69         99
    70         40
    71         21
    72          8
    73         10
    74         12
    75          7
    76          8
    77          5
    78         14
    79          5
    80        569
    81        549
    82         56
    83         14
    84         39
    85          9
    86          5
    89          5
    90         20
    91         52
    92         69
    93        249
    94         23
    95         23
    96         42
    97        172
    98         95
    99         34
   100          7
   108         28
   109          7
   110         10
   122          8
   124        212
   125        999
   126         82
   127         51