##TITLE=Library Entry 81925
##JCAMP-DX=Revision 4.10 
##DATA TYPE=MASS SPECTRUM
##SAMPLE DESCRIPTION=Japan AIST/NIMC Database- Spectrum MS-IW-1092
##NAMES=HP
##CAS NAME=Bis(p-methylbenzyl) trisulfide
##MOLFORM=C16H18S3
##CAS REGISTRY NO=22948-20-5
##MP= -300
##BP= -300
##MW= 306
##$RETENTION INDEX=0
##$CONDENSED SPECTRUM=NO
##NPOINTS= 75
##XYDATA=(XY..XY) 1 
    27          7
    32          1
    34          2
    39          7
    41          2
    44          2
    45         49
    46          1
    47          2
    50          2
    51          9
    52          2
    53          5
    55          1
    57          1
    59          1
    63          4
    64          9
    65         12
    66          1
    67          2
    68          2
    69          1
    71          1
    76          2
    77         60
    78         13
    79         60
    80          4
    89          4
    90          2
    91         41
    92          7
    93          9
    96          1
    97          2
   102          3
   103         40
   104         20
   105        999
   106        121
   107          6
   119          2
   120          1
   121          4
   122          1
   128          3
   134          4
   135         34
   136         53
   137         81
   138         28
   139          5
   140          1
   149          1
   150          4
   160          2
   178          1
   192         10
   193          1
   194          3
   195          1
   208          1
   209         12
   210          4
   241          7
   242        137
   243         25
   244          8
   245          1
   256          1
   274         52
   275          9
   276          5
   306          1