##TITLE=Library Entry 39952
##JCAMP-DX=Revision 4.10 
##DATA TYPE=MASS SPECTRUM
##SAMPLE DESCRIPTION=GUSELNIKOV, TOPCHIEV INST. PETROCHEM. SYNTH., MOSCOW,US
SR
##NAMES=HP
##CAS NAME=1,1-Dimethyl-1-silacyclobutane
##MOLFORM=C5H12Si
##CAS REGISTRY NO=2295-12-7
##MP= -300
##BP= -300
##MW= 100
##$RETENTION INDEX=0
##$CONDENSED SPECTRUM=NO
##NPOINTS= 12
##XYDATA=(XY..XY) 1 
    53         30
    55         60
    57         60
    59        250
    70         60
    71         70
    72        999
    73        350
    74         70
    85         80
   100        240
   101         60