##TITLE=Library Entry 42112
##JCAMP-DX=Revision 4.10 
##DATA TYPE=MASS SPECTRUM
##SAMPLE DESCRIPTION=R.A.Khmel'nitsky
##NAMES=HP
##CAS NAME=2-Methyl-1,3-di(trimethylsilyl)propane
##MOLFORM=C10H26Si2
##CAS REGISTRY NO=2295-04-7
##MP= -300
##BP= -300
##MW= 202
##$RETENTION INDEX=0
##$CONDENSED SPECTRUM=NO
##NPOINTS= 26
##XYDATA=(XY..XY) 1 
    28         15
    29         11
    31         11
    43         34
    44         28
    45         84
    58         10
    59         60
    71         10
    72        101
    73        999
    74         88
    75         39
    85         12
    86         25
    99         52
   113        133
   114         30
   115        269
   116         34
   117         11
   129         10
   145         19
   187         82
   188         16
   202          2