##TITLE=Library Entry 17936
##JCAMP-DX=Revision 4.10 
##DATA TYPE=MASS SPECTRUM
##SAMPLE DESCRIPTION=NIST Mass Spectrometry Data Center, 1998.
##NAMES=HP
##CAS NAME=2,4-Thiazolidinedione
##MOLFORM=C3H3NO2S
##CAS REGISTRY NO=2295-31-0
##MP= -300
##BP= -300
##MW= 117
##$RETENTION INDEX=0
##$CONDENSED SPECTRUM=NO
##NPOINTS= 55
##XYDATA=(XY..XY) 1 
    12          1
    13          2
    14          7
    15          2
    16          1
    24          1
    25          1
    26          3
    27         10
    28         36
    29         22
    30          6
    31          1
    32         31
    33          8
    34          3
    35          1
    36          1
    37          1
    38          6
    39          6
    40         12
    41         22
    42        113
    43         82
    44         54
    45        251
    46        999
    47         44
    48         54
    49          1
    50          1
    51          1
    54          3
    56          3
    57          2
    58          5
    59          9
    60         27
    61          6
    62          1
    70         28
    71          2
    72          7
    73          1
    74        374
    75         11
    76         18
    89         24
    90          1
    91          1
   117        600
   118         29
   119         30
   120          1