##TITLE=Library Entry 107605
##JCAMP-DX=Revision 4.10 
##DATA TYPE=MASS SPECTRUM
##SAMPLE DESCRIPTION=ORMSBG,9(8)747(1974); TAMAS
##NAMES=HP
##CAS NAME=Morphinan-3-ol, 6-azido-4,5-epoxy-17-methyl-, (5.alpha.,6.beta.)-
##MOLFORM=C17H20N4O2
##CAS REGISTRY NO=22952-87-0
##MP= -300
##BP= -300
##MW= 312
##$RETENTION INDEX=0
##$CONDENSED SPECTRUM=NO
##NPOINTS= 13
##XYDATA=(XY..XY) 1 
    58        150
    59        220
    70         97
   115         73
   123        999
   171         62
   184         59
   255         49
   269         50
   270         59
   283         34
   284         53
   312        670