##TITLE=Library Entry 68333
##JCAMP-DX=Revision 4.10 
##DATA TYPE=MASS SPECTRUM
##SAMPLE DESCRIPTION=Exported from NIST MS Search
##NAMES=HP
##CAS NAME=2(1H)-Pyridinone, 1-(2-deoxy-.beta.-D-erythro-pentofuranosyl)-
##MOLFORM=C10H13NO4
##CAS REGISTRY NO=22969-05-7
##MP= -300
##BP= -300
##MW= 211
##$RETENTION INDEX=0
##$CONDENSED SPECTRUM=NO
##NPOINTS= 70
##XYDATA=(XY..XY) 1 
    17         28
    18         97
    19         97
    26         40
    27        154
    28        151
    29        138
    30         12
    31        145
    38         28
    39        168
    40         65
    41        168
    42         45
    43        255
    44         61
    45        440
    46         10
    47         14
    50         25
    51         74
    52         81
    53         55
    54         28
    55         80
    56         31
    57         74
    60         20
    61         12
    65         17
    66         44
    67        350
    68         61
    69        132
    70         28
    71        130
    72         10
    73        342
    74         25
    75         18
    77          8
    78        220
    79         40
    80         28
    81         41
    83         10
    85         22
    92         10
    93         32
    94         25
    95        999
    96        824
    97        121
    98         51
    99        138
   100          8
   108          7
   109         28
   117        241
   118         14
   120         48
   121         14
   122        161
   123         20
   137         18
   138         10
   150         31
   151         10
   211         85
   212         10