##TITLE=Library Entry 36062
##JCAMP-DX=Revision 4.10 
##DATA TYPE=MASS SPECTRUM
##SAMPLE DESCRIPTION=A.A.Kutin, Moscow, Russia
##NAMES=HP
##CAS NAME=Piperidine, 1-trichloroacetyl-,
##MOLFORM=C7H10Cl3NO
##CAS REGISTRY NO=2296-53-9
##MP= -300
##BP= -300
##MW= 229
##$RETENTION INDEX=0
##$CONDENSED SPECTRUM=NO
##NPOINTS= 123
##XYDATA=(XY..XY) 1 
    33         14
    34         20
    35         13
    36         58
    37         13
    38         28
    39        136
    40        252
    41        702
    42        240
    43        100
    44        111
    45          7
    47         32
    48         11
    49         26
    50         11
    51         25
    53         60
    54         58
    55        180
    56        189
    57         28
    58          6
    61          7
    62          6
    63         14
    64         10
    65         15
    67         63
    69        999
    70        109
    71         14
    72          6
    73          5
    75         10
    76         11
    77         12
    78         13
    79         12
    80         11
    82         78
    83         70
    84         96
    85         22
    86          6
    87          7
    88          3
    89          3
    90          4
    91          9
    92          7
    93          8
    94          7
    95         12
    96          6
    97          8
    98         10
    99          3
   100          5
   101          3
   102          4
   103          5
   104          5
   105          3
   107          3
   109          8
   110         41
   112        991
   113         58
   114         10
   117         46
   118          4
   119         49
   121         21
   122          3
   123          5
   124          6
   126          8
   127          3
   128          1
   129          1
   130          5
   131          2
   132          3
   135          4
   136          6
   138          4
   139          2
   140          3
   146          2
   148          3
   149          7
   150          3
   152          2
   160          8
   162          3
   164          9
   165          5
   166         25
   167          2
   168         25
   169          5
   170          3
   171          6
   174          1
   178          4
   181          1
   192          2
   193         10
   194         58
   195         13
   196         39
   197         13
   199          6
   202          1
   208          2
   209          1
   229         28
   230          8
   231         25
   232          4
   233         11