##TITLE=Library Entry 74632
##JCAMP-DX=Revision 4.10 
##DATA TYPE=MASS SPECTRUM
##SAMPLE DESCRIPTION=Institute of Chemistry, SAS, Bratislava, Slovakia
##NAMES=HP
##CAS NAME=Methyl-2,3,4-tri-O-methyl.beta.l-arabinopyranoside
##MOLFORM=C9H18O5
##CAS REGISTRY NO=2296-43-7
##MP= -300
##BP= -300
##MW= 206
##$RETENTION INDEX=0
##$CONDENSED SPECTRUM=NO
##NPOINTS= 23
##XYDATA=(XY..XY) 1 
    45        102
    53         18
    55         34
    57         18
    58        122
    59         26
    68         11
    69         16
    71         38
    73        286
    75        511
    83         30
    85         20
    87         18
    88        714
    99         34
   101        999
   105          3
   115         53
   131         10
   143         16
   175         20
   176         53