##TITLE=Library Entry 99741
##JCAMP-DX=Revision 4.10 
##DATA TYPE=MASS SPECTRUM
##SAMPLE DESCRIPTION=Exported from NIST MS Search
##NAMES=HP
##CAS NAME=Benzamide, N-(4-hydroxyphenyl)-2-methyl-
##MOLFORM=C14H13NO2
##CAS REGISTRY NO=22978-52-5
##MP= -300
##BP= -300
##MW= 227
##$RETENTION INDEX=0
##$CONDENSED SPECTRUM=NO
##NPOINTS= 19
##XYDATA=(XY..XY) 1 
    50         18
    51         40
    52         40
    53         40
    63         59
    64         26
    65        203
    80         15
    81         47
    89         40
    90         47
    91        857
    92         67
   108         31
   109         43
   119        999
   120        202
   227        819
   228        169