##TITLE=Library Entry 45436
##JCAMP-DX=Revision 4.10 
##DATA TYPE=MASS SPECTRUM
##SAMPLE DESCRIPTION=ORMSBG, 14(6)293(1979); C. KASCHERES AND R. VAN FOSSEN
 BRAVO
##NAMES=HP
##CAS NAME=Benzenesulfonic acid, 4-bromo-, hydrazide
##MOLFORM=C6H7BrN2O2S
##CAS REGISTRY NO=2297-64-5
##MP= -300
##BP= -300
##MW= 250
##$RETENTION INDEX=0
##$CONDENSED SPECTRUM=NO
##NPOINTS= 26
##XYDATA=(XY..XY) 1 
    31        150
    74        280
    75        999
    76        759
    77        659
   141        220
   155        639
   156        460
   157        659
   158        460
   159         60
   171         60
   172        120
   173         60
   174         80
   186          6
   188         12
   203        200
   205        220
   219         40
   220        160
   221        440
   222        200
   223        420
   250        200
   252        200