##TITLE=Library Entry 81074
##JCAMP-DX=Revision 4.10 
##DATA TYPE=MASS SPECTRUM
##SAMPLE DESCRIPTION=Exported from NIST MS Search
##NAMES=HP
##CAS NAME=Benzene, 1-(1-ethylpropyl)-4-methyl-
##MOLFORM=C12H18
##CAS REGISTRY NO=22975-58-2
##MP= -300
##BP= -300
##MW= 162
##$RETENTION INDEX=1226
##$CONDENSED SPECTRUM=NO
##NPOINTS= 100
##XYDATA=(XY..XY) 1 
     2          4
    12          1
    13          1
    14          3
    15         34
    16          1
    26         18
    27        181
    28         65
    29        137
    30          3
    37          5
    38         13
    39        147
    40         14
    41        279
    42        165
    43         40
    44          6
    49          2
    50         26
    51         75
    52         26
    53         35
    54          4
    55         21
    56         34
    57         40
    58          5
    60          1
    61          2
    62         10
    63         38
    64         14
    65         62
    66          6
    67          4
    68          2
    69          9
    70          3
    71          4
    72          1
    73          1
    74          6
    75          9
    76          8
    77         90
    78         73
    79         37
    80          3
    83          2
    84          6
    86          4
    87          2
    88          2
    89         16
    90          4
    91        158
    92         19
    93         38
    94          3
    95          1
    99          1
   102         11
   103         28
   104         10
   105        999
   106         87
   107          4
   110          1
   111          1
   112          1
   113          1
   114          2
   115         71
   116         30
   117         83
   118         34
   119         16
   120          2
   126          1
   127          6
   128         13
   129         10
   130          3
   131         15
   132         12
   133        969
   134        103
   135          6
   141          1
   143          1
   145          1
   146          1
   147          1
   148          2
   160          1
   161          1
   162        236
   163         27