##TITLE=Library Entry 87797
##JCAMP-DX=Revision 4.10 
##DATA TYPE=MASS SPECTRUM
##SAMPLE DESCRIPTION=NIST Mass Spectrometry Data Center
##NAMES=HP
##CAS NAME=5-(2-Thienoyl)butyric acid
##MOLFORM=C9H10O3S
##CAS REGISTRY NO=22971-62-6
##MP= -300
##BP= -300
##MW= 198
##$RETENTION INDEX=0
##$CONDENSED SPECTRUM=NO
##NPOINTS= 87
##XYDATA=(XY..XY) 1 
    12          1
    14          2
    15          5
    17          2
    18          4
    25          1
    26          7
    27         48
    28         10
    29         12
    30          1
    31         10
    32          1
    36          1
    37          6
    38         20
    39        229
    40         13
    41         36
    42         32
    43         25
    45        128
    46          4
    47          2
    49          1
    50          5
    51          5
    52          2
    53         17
    55         37
    57         33
    58         17
    59          4
    60          3
    65          2
    66          2
    67          3
    68          3
    69         11
    70          6
    71          3
    76          1
    77          1
    80          1
    81         12
    82         15
    83         74
    84         17
    85          8
    86          2
    87          6
    95          2
    97         14
    98          2
    99          1
   108          1
   109          4
   111        999
   112         61
   113         49
   114          3
   115          1
   119          1
   120          1
   121          1
   123          3
   124          1
   126        173
   127         11
   128         10
   135          1
   137          1
   139         19
   140          2
   141          1
   149          1
   151          2
   152         11
   153          7
   154          1
   165          2
   167          1
   180          5
   181          3
   198         75
   199          7
   200          4