##TITLE=Library Entry 63034
##JCAMP-DX=Revision 4.10 
##DATA TYPE=MASS SPECTRUM
##SAMPLE DESCRIPTION=Darrick Lee, Cayman Chemical, Ann Arbor, MI
##NAMES=HP
##CAS NAME=1,4-Dibenzylpiperazine dihydrochloride
##MOLFORM=C18H22N2
##CAS REGISTRY NO=2298-55-7
##MP= -300
##BP= -300
##MW= 266
##$RETENTION INDEX=0
##$CONDENSED SPECTRUM=NO
##NPOINTS= 115
##XYDATA=(XY..XY) 1 
    40          3
    41         20
    42         53
    43          4
    44          6
    49          1
    50          5
    51         16
    52          5
    53          1
    54         11
    55         18
    56         27
    57          3
    58          3
    59          1
    61          1
    62          3
    63         17
    65        118
    66          7
    67          1
    68          2
    69          2
    70         10
    72         28
    73          1
    74          1
    75          2
    76          2
    77         12
    78          6
    79          3
    80          1
    81          2
    83          9
    84          3
    85          1
    86          1
    87          1
    89         23
    91        999
    92         87
    93          3
    94          1
    95          1
    97          2
    98          2
   102          1
   103          5
   104         32
   105         19
   106         16
   107         18
   108          1
   115          3
   116          2
   117         13
   118         47
   119         62
   120        216
   121         19
   122          1
   128          1
   129          1
   130          5
   132         98
   133         43
   134         71
   135         14
   136          5
   137          1
   143          1
   144          6
   146         79
   147         17
   148         38
   149          4
   150          1
   156          1
   158          1
   159          1
   160         14
   161          9
   162          1
   165          1
   166          1
   167          1
   171          1
   173          6
   175        271
   176         34
   177          2
   178          1
   180          1
   181          1
   187          1
   189          6
   190          1
   196          1
   208          1
   209          1
   222          1
   223          4
   224          2
   236          2
   237          4
   238          6
   239          1
   251          1
   263          1
   264          2
   266        117
   267         24
   268          2