##TITLE=Library Entry 48275
##JCAMP-DX=Revision 4.10 
##DATA TYPE=MASS SPECTRUM
##SAMPLE DESCRIPTION=Japan AIST/NIMC Database- Spectrum MS-NW-7883
##NAMES=HP
##CAS NAME=4-Chloro-2-nitrobenzyl alcohol
##MOLFORM=C7H6ClNO3
##CAS REGISTRY NO=22996-18-5
##MP= -300
##BP= -300
##MW= 187
##$RETENTION INDEX=0
##$CONDENSED SPECTRUM=NO
##NPOINTS= 147
##XYDATA=(XY..XY) 1 
    14          2
    15          2
    16          2
    18          2
    25          3
    26         14
    27         65
    28         76
    29        131
    30        129
    31        106
    32          4
    35          2
    36         11
    37         41
    38         75
    39        146
    40         12
    41          9
    42          4
    43         13
    44          7
    45         16
    46          9
    47         56
    48          5
    49         29
    50        256
    51        595
    52        113
    53         39
    54          5
    55         22
    56          6
    57          2
    60         12
    61         58
    62        103
    63        237
    64         45
    65        157
    66         22
    67          7
    68          3
    69          3
    70          2
    71          2
    72         12
    73        117
    74        195
    75        746
    76        164
    77        836
    78        999
    79         78
    80          6
    81          3
    83          1
    84         39
    85         72
    86         58
    87         67
    88         28
    89        130
    90        324
    91         46
    92         11
    93         79
    94        100
    95         10
    96          3
    97         17
    98        169
    99        149
   100         68
   101         55
   102          8
   103          8
   104          9
   105         26
   106         26
   107          7
   108          6
   109         11
   110         92
   111        784
   112        255
   113        976
   114        144
   115        244
   116         27
   117          8
   118          2
   119          1
   120          1
   121          4
   122          1
   123         16
   124         45
   125        282
   126        127
   127        128
   128         55
   129         16
   130          8
   131          2
   133          1
   134          7
   135          2
   136          1
   137          1
   138         91
   139        551
   140        108
   141        219
   142         75
   143         19
   144         19
   145          2
   149          1
   151          5
   152          3
   153         30
   154         42
   155         59
   156         18
   157         21
   158         10
   159          4
   160          2
   161          1
   166          1
   168          7
   169        481
   170         50
   171        153
   172         15
   173          3
   174          2
   182          1
   184          4
   185          1
   186          7
   187          6
   188          3
   189          2
   190          1