##TITLE=Library Entry 16354
##JCAMP-DX=Revision 4.10 
##DATA TYPE=MASS SPECTRUM
##SAMPLE DESCRIPTION=Exported from NIST MS Search
##NAMES=HP
##CAS NAME=Thiazolo[3,2-a]pyridinium, 2-carboxy-2,3-dihydro-8-hydroxy-5-meth
yl-, hydroxide, inner salt
##MOLFORM=C9H9NO3S
##CAS REGISTRY NO=23003-38-5
##MP= -300
##BP= -300
##MW= 211
##$RETENTION INDEX=0
##$CONDENSED SPECTRUM=NO
##NPOINTS= 58
##XYDATA=(XY..XY) 1 
    39        260
    41        126
    42        273
    43        146
    44        999
    45        266
    50        150
    51        373
    52        426
    53        733
    54        153
    55         66
    58        150
    59        180
    60        150
    69         96
    70        440
    71        100
    77         80
    78        116
    79        123
    80        366
    81        226
    84         53
    85         53
    86        153
    93         60
    94        160
    95         56
    96         73
    97        170
    98         53
   104         56
   105         46
   106         83
   107         53
   108         60
   109         80
   110         46
   111         60
   112        153
   113         53
   122         70
   123        120
   124         76
   134        140
   136         90
   138        190
   139        166
   141        256
   152        110
   165         53
   166        999
   167        653
   168         90
   193         73
   210         40
   211         53