##TITLE=Library Entry 54680
##JCAMP-DX=Revision 4.10 
##DATA TYPE=MASS SPECTRUM
##SAMPLE DESCRIPTION=NIST Mass Spectrometry Data Center, 1994
##NAMES=HP
##CAS NAME=3'-Trifluoromethyl-2,2-dimethylvaleranilide
##MOLFORM=C14H18F3NO
##CAS REGISTRY NO=2300-87-0
##MP= -300
##BP= -300
##MW= 273
##$RETENTION INDEX=0
##$CONDENSED SPECTRUM=NO
##NPOINTS= 123
##XYDATA=(XY..XY) 1 
    14          0
    15         15
    17          1
    18          2
    20          2
    27        177
    28         32
    29        140
    30          3
    32          1
    37          2
    38         11
    39        139
    40         33
    41        435
    42         96
    43        956
    44         35
    46          1
    50         10
    51         12
    52          8
    53         23
    54          7
    55         71
    56         34
    57        156
    58          8
    61          1
    62          5
    63         28
    64         17
    65         15
    66          2
    67          8
    68          5
    69         82
    70         50
    71          8
    75         19
    76          4
    77          3
    79          1
    80          0
    81          3
    83         31
    85        999
    86         64
    87          3
    88          9
    89          3
    90          6
    91         16
    92          2
    93          5
    94          3
    95         23
    96          2
    97          2
    99          3
   100          2
   101          1
   102          1
   107          2
   108          1
   109          5
   110          1
   111         10
   112          1
   113         47
   114         30
   115          5
   118          1
   119          3
   120         11
   121          1
   125         12
   126          4
   127          2
   130          1
   132          7
   133         17
   134          5
   137          1
   138          0
   139          6
   140         28
   141          9
   142         15
   143          4
   144          0
   145         62
   146          5
   158          2
   160         61
   161        240
   162         25
   163          1
   168          3
   172          2
   173          1
   174          4
   186          4
   187         10
   188         22
   189          2
   198          1
   200          1
   202         32
   203          5
   216          3
   217          5
   228          1
   231        201
   232         26
   233          1
   244          4
   245          1
   254         41
   255          6
   258          1
   273         16
   274          2