##TITLE=Library Entry 34865
##JCAMP-DX=Revision 4.10 
##DATA TYPE=MASS SPECTRUM
##SAMPLE DESCRIPTION=COMPAGNIE FRANCAISE DE RAFFINAGE, FRANCE.
##NAMES=HP
##CAS NAME=1-Butene, 1-chloro-3-methyl-
##MOLFORM=C5H9Cl
##CAS REGISTRY NO=23010-00-6
##MP= -300
##BP= -300
##MW= 104
##$RETENTION INDEX=662
##$CONDENSED SPECTRUM=NO
##NPOINTS= 47
##XYDATA=(XY..XY) 1 
    26         55
    27        296
    28         31
    29         44
    30          1
    31          7
    35          4
    36         21
    37         21
    38         42
    39        220
    40         46
    41        617
    42         93
    43         74
    49         40
    50         58
    51        116
    52         26
    53        753
    54         40
    55         58
    56          3
    61         34
    62         28
    63         40
    64          8
    65         23
    66          6
    67         57
    68         21
    69        999
    70         60
    71          1
    75         39
    76         17
    77         12
    78          0
    87          7
    88         10
    89        501
    90         25
    91        158
   103          6
   104        271
   105         17
   106         88