##TITLE=Library Entry 11856
##JCAMP-DX=Revision 4.10 
##DATA TYPE=MASS SPECTRUM
##SAMPLE DESCRIPTION=A.A.Kutin, Moscow, Russia
##NAMES=HP
##CAS NAME=Oxazole-4-carboxylic acid, 2-methyl-
##MOLFORM=C5H5NO3
##CAS REGISTRY NO=23012-17-1
##MP= -300
##BP= -300
##MW= 127
##$RETENTION INDEX=0
##$CONDENSED SPECTRUM=NO
##NPOINTS= 76
##XYDATA=(XY..XY) 1 
    33          2
    34         15
    36         14
    37          4
    38         24
    39         40
    40        164
    41         61
    42        407
    43        999
    44        125
    45         82
    46          5
    47          0
    49          1
    51         61
    52         81
    53         57
    54        155
    55         44
    56         15
    57         52
    58          1
    59         39
    60         10
    63          1
    65          2
    66          8
    68         71
    69         46
    70         41
    71         12
    72         25
    73          5
    74          1
    75          2
    77          4
    78          4
    79          5
    80         18
    81         29
    82         64
    83         21
    85         93
    86         65
    87          1
    89          0
    90          2
    91          2
    94          1
    95          2
    96          6
    97         10
    98         21
    99        175
   100          9
   103          2
   105          3
   106          1
   107         15
   108          1
   110        106
   111         10
   112          6
   113          2
   114          5
   115          2
   117          0
   118          4
   119          3
   122          1
   123          7
   125          3
   127        559
   128         37
   129         10