##TITLE=Library Entry 59307
##JCAMP-DX=Revision 4.10 
##DATA TYPE=MASS SPECTRUM
##SAMPLE DESCRIPTION=COMPAGNIE FRANCAISE DE RAFFINAGE, FRANCE.
##NAMES=HP
##CAS NAME=Butane, 1,2-dichloro-2-methyl-
##MOLFORM=C5H10Cl2
##CAS REGISTRY NO=23010-04-0
##MP= -300
##BP= -300
##MW= 140
##$RETENTION INDEX=832
##$CONDENSED SPECTRUM=NO
##NPOINTS= 72
##XYDATA=(XY..XY) 1 
    25          1
    26         23
    27        196
    28         29
    29        203
    30          4
    31          3
    35          7
    36         48
    37         12
    38         35
    39        188
    40         30
    41        314
    42         49
    43        101
    44          3
    47          3
    48          3
    49         52
    50         19
    51         44
    52          8
    53         98
    54         11
    55        545
    56         44
    57        163
    58          7
    60          2
    61         14
    62         20
    63        148
    64          9
    65         52
    66          3
    67         20
    68         14
    69        272
    70         28
    71          1
    73          6
    74          1
    75        111
    76         43
    77         52
    78         14
    79          5
    83         12
    85          8
    87          3
    89         40
    90         67
    91        999
    92         67
    93        322
    94         14
    97          2
    99          1
   103          1
   104          8
   105         32
   106          4
   107         10
   109          1
   110         22
   111         48
   112         16
   114          3
   115          4
   125          2
   127          1