##TITLE=Library Entry 34105
##JCAMP-DX=Revision 4.10 
##DATA TYPE=MASS SPECTRUM
##SAMPLE DESCRIPTION=COMPAGNIE FRANCAISE DE RAFFINAGE, FRANCE.
##NAMES=HP
##CAS NAME=Butane, 1,3-dichloro-2-methyl-
##MOLFORM=C5H10Cl2
##CAS REGISTRY NO=23010-07-3
##MP= -300
##BP= -300
##MW= 140
##$RETENTION INDEX=872
##$CONDENSED SPECTRUM=NO
##NPOINTS= 69
##XYDATA=(XY..XY) 1 
    25          1
    26         24
    27        239
    28         28
    29        101
    30          2
    31          2
    35          7
    36         48
    37         10
    38         30
    39        151
    40         30
    41        511
    42        387
    43         61
    44          2
    47          2
    48          3
    49         55
    50         16
    51         41
    52          7
    53        105
    54          9
    55        231
    56         17
    57          2
    60          2
    61         14
    62         28
    63        206
    64         13
    65         69
    66          3
    67         22
    68         31
    69        999
    70         63
    71          1
    73          5
    74          0
    75         18
    76         70
    77        228
    78         29
    79         72
    80          2
    83          2
    85          1
    87          2
    88          0
    89         75
    90          5
    91        124
    92          6
    93         32
    94          1
    97          1
    99          1
   103          5
   104        101
   105         17
   106         33
   107          5
   125          0
   139          2
   140          0
   141          1