##TITLE=Library Entry 49243
##JCAMP-DX=Revision 4.10 
##DATA TYPE=MASS SPECTRUM
##SAMPLE DESCRIPTION=Exported from NIST MS Search
##NAMES=HP
##CAS NAME=Pyridinium, 1-[(ethoxycarbonyl)amino]-, hydroxide, inner salt
##MOLFORM=C8H10N2O2
##CAS REGISTRY NO=23025-55-0
##MP= -300
##BP= -300
##MW= 166
##$RETENTION INDEX=0
##$CONDENSED SPECTRUM=NO
##NPOINTS= 28
##XYDATA=(XY..XY) 1 
    41         20
    42         20
    43         40
    44         30
    45         10
    49         10
    50         50
    51         90
    52        180
    53         20
    62         10
    63         50
    64         30
    65         20
    66         50
    67         40
    68         10
    78         70
    79        999
    80         90
    81         10
    93         20
    94        170
    95         10
   121        470
   122         50
   166         90
   167         20