##TITLE=Library Entry 69396
##JCAMP-DX=Revision 4.10 
##DATA TYPE=MASS SPECTRUM
##SAMPLE DESCRIPTION=A.A.Kutin, Moscow, Russia
##NAMES=HP
##CAS NAME=1H-Imidazole, 4,5-dimethyl-
##MOLFORM=C5H8N2
##CAS REGISTRY NO=2302-39-8
##MP= -300
##BP= -300
##MW= 96
##$RETENTION INDEX=0
##$CONDENSED SPECTRUM=NO
##NPOINTS= 60
##XYDATA=(XY..XY) 1 
    33          0
    34          0
    35          0
    36          1
    37         14
    38         23
    39         65
    40         56
    41        155
    42        279
    43         34
    44         13
    45          3
    46          1
    47          3
    48          3
    49          3
    50         15
    51         41
    52        101
    53         44
    54        283
    55         53
    56          3
    57          1
    58          0
    59          1
    60          2
    61          0
    62          1
    63          2
    64          3
    65          2
    66          6
    67         13
    68         96
    69         15
    70          1
    71          0
    73          0
    74          0
    75          0
    77          1
    78          4
    79          2
    81        315
    82         15
    83          0
    84          0
    85          0
    87          0
    91          0
    93          2
    94         45
    95        945
    96        999
    97         64
    98          1
    99          0
   100          0