##TITLE=Library Entry 9992
##JCAMP-DX=Revision 4.10 
##DATA TYPE=MASS SPECTRUM
##SAMPLE DESCRIPTION=ACCUSTANDARD Chemicals / NIST MS Data Center.
##NAMES=HP
##CAS NAME=Triallate
##MOLFORM=C10H16Cl3NOS
##CAS REGISTRY NO=2303-17-5
##MP= -300
##BP= -300
##MW= 303
##$RETENTION INDEX=1814
##$CONDENSED SPECTRUM=NO
##NPOINTS= 185
##XYDATA=(XY..XY) 1 
    12          0
    13          1
    14          3
    15         33
    17          1
    18         12
    27        145
    28         39
    29         12
    30         14
    32          0
    33          0
    34          0
    35          2
    36          3
    37         12
    38         16
    39         58
    40          0
    41        261
    42        188
    43        999
    44         71
    45         54
    46         10
    47         18
    48          2
    49         13
    50          0
    51          3
    52          1
    53          1
    54          6
    55          4
    56         38
    57          9
    58         75
    59          8
    60          9
    61         12
    62          1
    63          3
    67          0
    68          7
    69         17
    70        113
    71          9
    72         19
    73         49
    74          8
    75         22
    76          1
    77          0
    78          0
    79         32
    81         14
    83         57
    84         73
    86        768
    87         39
    88          3
    90         15
    91          1
    92          0
    93          1
    94          2
    95          1
    96          2
    97          1
    98          2
    99          3
   100          3
   101          0
   102          4
   103          5
   104          2
   105         12
   106          2
   107         16
   108          3
   109          9
   110          2
   111          1
   112          0
   114          1
   115          1
   116          2
   117          3
   118         10
   119          3
   120          0
   121          0
   123          0
   124          2
   125          0
   126          4
   128        136
   129         11
   130          1
   131          2
   132          3
   133          1
   138          0
   139          8
   140          6
   141         15
   142          0
   143        138
   144          0
   145        127
   146          0
   147         39
   148          2
   149          5
   150          4
   151          0
   152          2
   153          0
   154          0
   160          3
   161          0
   162          0
   167          1
   168          0
   169          1
   173          0
   174          1
   175          3
   176          4
   177          4
   178          4
   179          1
   180          1
   182          0
   184         12
   186         35
   188         27
   189          2
   190          9
   191          0
   192          0
   200          0
   203         11
   205         12
   206          1
   207          4
   209          0
   210          2
   212          1
   217          0
   218          1
   219          0
   220          1
   221          0
   224          0
   226         18
   227          3
   228         16
   229          1
   230          6
   231          0
   232          1
   246          2
   248          2
   249          0
   250          1
   260          1
   262          1
   263          0
   264          0
   268        231
   269         40
   270        157
   271         20
   272         32
   273          3
   274          1
   288          2
   290          2
   292          1
   303          1
   304          0
   305          0
   306          0
   307          0