##TITLE=Library Entry 46524
##JCAMP-DX=Revision 4.10 
##DATA TYPE=MASS SPECTRUM
##SAMPLE DESCRIPTION=A.A.Kutin, Moscow, Russia
##NAMES=HP
##CAS NAME=Acetamide, 2-chloro-N-(2,3-dihydro-1-phenyl-pyrrolo[2,3-b]quinoli
n-4-yl)-
##MOLFORM=C19H16ClN3O
##CAS REGISTRY NO=230308-42-6
##MP= -300
##BP= -300
##MW= 337
##$RETENTION INDEX=0
##$CONDENSED SPECTRUM=NO
##NPOINTS= 212
##XYDATA=(XY..XY) 1 
    33          7
    35          1
    36          5
    37          2
    38         48
    39        233
    40         45
    41        110
    42        192
    43        207
    44        114
    45         12
    46          1
    47          6
    49        590
    50        138
    51        506
    52         78
    53         29
    54         35
    55         40
    56         16
    57         34
    58         19
    59          2
    60          4
    61          6
    62         28
    63         77
    64         53
    65         61
    66         21
    67         12
    68          6
    69         14
    70         12
    71         12
    72          2
    74         40
    75        104
    77        999
    78         79
    79        125
    80         10
    81         12
    82          6
    83          7
    84          4
    85          3
    86          4
    87         17
    88         23
    89         40
    90         29
    91         36
    92         25
    93         11
    94          3
    95          6
    96          1
    97          4
    98          4
    99         10
   100         10
   101         27
   102        171
   103        105
   104         82
   105         17
   106         12
   107          5
   108          6
   109          5
   110          2
   111          3
   112         12
   113         27
   114         35
   115         70
   116         38
   117         34
   118          9
   119          4
   121          6
   122         10
   123          3
   124          1
   125          5
   126         11
   127         37
   128         67
   129         95
   130        135
   132          5
   134          0
   135          3
   136          9
   137          1
   138          5
   139         14
   140         55
   141         24
   142         23
   143         26
   144          4
   149          6
   151         10
   152         11
   153         17
   154         15
   155         97
   156         27
   157         28
   158          6
   163          1
   164          4
   165          6
   166          7
   167         23
   168         32
   169         23
   170          2
   171          5
   175          1
   176          2
   177          3
   178          6
   179          6
   180          6
   181         10
   182         20
   183         24
   184          8
   185          2
   188          0
   189          4
   190          6
   191          4
   192          4
   193          4
   194          4
   195          3
   196          4
   197          0
   201          1
   203          9
   204         11
   205         10
   206          8
   207          2
   209          1
   210          2
   214          4
   215          6
   216         15
   217         18
   218         18
   219          6
   220          0
   223          0
   224          0
   228          0
   229         19
   230         14
   231         47
   232         28
   233         33
   234          9
   235          0
   240          1
   241          8
   242         26
   243         99
   244        315
   245        117
   246         21
   247          0
   254          1
   255          5
   256         16
   257         52
   258        152
   259         98
   260        171
   261         54
   262          6
   270          4
   271          3
   272         15
   273          4
   274          1
   282          3
   283          4
   284         11
   285          4
   286         23
   287          7
   288          6
   299          0
   300         56
   301         19
   302         32
   303          9
   333          5
   334          6
   335         15
   336         70
   337        281
   338         72
   339         79
   340         16
   341          0