##TITLE=Library Entry 13194
##JCAMP-DX=Revision 4.10 
##DATA TYPE=MASS SPECTRUM
##SAMPLE DESCRIPTION=Dr. Jiri Zamecnik, DCIEM, North York, Canada, GP Librar
y
##NAMES=HP
##CAS NAME=1-(3-Ethoxyphenyl)acetone
##MOLFORM=C11H14O2
##CAS REGISTRY NO=23037-47-0
##MP= -300
##BP= -300
##MW= 178
##$RETENTION INDEX=0
##$CONDENSED SPECTRUM=NO
##NPOINTS= 24
##XYDATA=(XY..XY) 1 
    39         68
    43        999
    51         54
    52         30
    53         31
    63         30
    65         24
    77        170
    78         49
    79         63
    89         34
    90         30
    91         82
   105         16
   107        237
   108        138
   121          8
   135        351
   136        156
   137         13
   149          1
   163          2
   178        459
   179         53