##TITLE=Library Entry 10029
##JCAMP-DX=Revision 4.10 
##DATA TYPE=MASS SPECTRUM
##SAMPLE DESCRIPTION=ACCUSTANDARD Chemicals / NIST MS Data Center.
##NAMES=HP
##CAS NAME=Carbamothioic acid, bis(1-methylethyl)-, S-(2,3-dichloro-2-propen
yl) ester
##MOLFORM=C10H17Cl2NOS
##CAS REGISTRY NO=2303-16-4
##MP= -300
##BP= -300
##MW= 269
##$RETENTION INDEX=1703
##$CONDENSED SPECTRUM=NO
##NPOINTS= 139
##XYDATA=(XY..XY) 1 
    13          2
    15         26
    17          1
    18         10
    25          1
    27        150
    28         47
    29         12
    30         14
    34          1
    35          1
    36          4
    37          7
    38         18
    39        106
    40         25
    41        258
    42        185
    43        999
    44         73
    45         58
    46         11
    47         13
    48          4
    49         21
    50          1
    51          6
    52          1
    53          1
    54          7
    55          1
    56         38
    57          9
    58         81
    59          9
    60          8
    61         14
    62          2
    63          4
    68          8
    69         17
    70        143
    71         20
    72         15
    73         33
    74          7
    75         17
    76          2
    77          1
    79         28
    80          3
    81         15
    82          1
    83         38
    84         82
    85          1
    86        863
    87         47
    88          4
    89          2
    90         26
    91          2
    92          5
    93          1
    94          1
    95          2
    96          1
    97          3
    98          2
    99          5
   100          7
   101          1
   102          4
   105         10
   106          5
   107         23
   108          1
   109        148
   110          1
   111         90
   112          3
   113         17
   114          2
   115          1
   116         20
   117          3
   118         19
   119          1
   128        166
   129         13
   130          3
   132          4
   133          6
   134          1
   135          3
   137          0
   140          1
   141          5
   142          5
   143          3
   144          5
   145          1
   148          0
   150         25
   152         52
   154         30
   155          2
   156          5
   160          8
   161          0
   166          0
   169         16
   171         12
   172          1
   173          3
   176          3
   178          1
   184          2
   186          1
   190          0
   192         32
   193          3
   194         18
   195          2
   196          3
   207          1
   212          4
   213          0
   214          3
   226          2
   228          2
   234        469
   235         66
   236        174
   237         22
   238          8
   239          1
   254          6
   256          3