##TITLE=Library Entry 1216
##JCAMP-DX=Revision 4.10 
##DATA TYPE=MASS SPECTRUM
##SAMPLE DESCRIPTION=R.E.Ardrey ET AL.Pharmaceutical Mass Spectra,L.,1985
##NAMES=HP
##CAS NAME=Terbutaline
##MOLFORM=C12H19NO3
##CAS REGISTRY NO=23031-25-6
##MP= -300
##BP= -300
##MW= 225
##$RETENTION INDEX=0
##$CONDENSED SPECTRUM=NO
##NPOINTS= 62
##XYDATA=(XY..XY) 1 
    27         40
    29        110
    30        999
    31         20
    37         10
    39         90
    40         40
    41        200
    42         60
    43         40
    44         30
    51         20
    52         10
    53         20
    54         10
    55         40
    56         30
    57        240
    58         50
    63         10
    64         10
    65         50
    66         10
    67         10
    68         10
    69         30
    70         40
    71         20
    72         20
    77         10
    79         20
    80         10
    81         20
    82         10
    86        470
    87         20
    93         20
    94         10
    99         10
   105         10
   107         10
   109         10
   110         20
   111         40
   114         10
   123         30
   124         30
   125         20
   129         10
   134         10
   137         20
   138         10
   139         10
   140         10
   149         10
   150         40
   151         30
   162         10
   175         10
   192         60
   207         10
   210         10