##TITLE=Library Entry 84824
##JCAMP-DX=Revision 4.10 
##DATA TYPE=MASS SPECTRUM
##SAMPLE DESCRIPTION=Japan AIST/NIMC Database- Spectrum MS-NW-2515
##NAMES=HP
##CAS NAME=N-Cbz-.beta.-alanine
##MOLFORM=C11H13NO4
##CAS REGISTRY NO=2304-94-1
##MP= -300
##BP= -300
##MW= 223
##$RETENTION INDEX=0
##$CONDENSED SPECTRUM=NO
##NPOINTS= 87
##XYDATA=(XY..XY) 1 
    12          1
    13          1
    14          8
    15         34
    16          1
    17          5
    18         18
    25          2
    26         19
    27         66
    28         86
    29         29
    30         49
    31         19
    36          3
    37          7
    38         15
    39         65
    40         22
    41         26
    42         89
    43         34
    44         25
    45         59
    46          4
    49          4
    50         39
    51         95
    52         29
    53         22
    54          5
    55         24
    56        255
    57          6
    58          1
    59          1
    60        407
    61         12
    62         11
    63         30
    64          9
    65         83
    66          6
    67          1
    68          3
    69         39
    70         47
    71         21
    72         12
    73          4
    74         15
    75          7
    76          8
    77        236
    78         56
    79        548
    80         56
    81          3
    82          1
    85          2
    86          2
    87         89
    88         19
    89         53
    90         80
    91        496
    92         41
    93          2
    96          6
    98         24
    99          2
   100          3
   105         20
   106          8
   107        457
   108        999
   109         76
   110          4
   114          2
   115          2
   116          3
   118          1
   120          1
   132          5
   205          1
   223         19
   224          2