##TITLE=Library Entry 61232
##JCAMP-DX=Revision 4.10 
##DATA TYPE=MASS SPECTRUM
##SAMPLE DESCRIPTION=Japan AIST/NIMC Database- Spectrum MS-NW-4286
##NAMES=HP
##CAS NAME=L-Asparagine, N2-[(phenylmethoxy)carbonyl]-
##MOLFORM=C12H14N2O5
##CAS REGISTRY NO=2304-96-3
##MP= -300
##BP= -300
##MW= 266
##$RETENTION INDEX=0
##$CONDENSED SPECTRUM=NO
##NPOINTS= 123
##XYDATA=(XY..XY) 1 
    12          1
    14          5
    15         31
    16         44
    17         69
    18         63
    25          1
    26         12
    27         37
    28         52
    29         15
    30          2
    31          9
    32          2
    37          6
    38         10
    39         66
    40         14
    41         40
    42         47
    43         62
    44         63
    45          9
    46          2
    49          3
    50         24
    51         66
    52         24
    53         13
    54          6
    55         16
    56          1
    57          1
    58          1
    59         46
    60         17
    61          4
    62          8
    63         29
    64          9
    65        114
    66          7
    67          2
    68          5
    69         21
    70         44
    71          9
    72         11
    73          4
    74          9
    75          5
    76          4
    77        142
    78         30
    79        289
    80         28
    81          2
    82          1
    83          1
    84          2
    85          3
    86         33
    87         45
    88         12
    89         42
    90         83
    91        999
    92        109
    93          5
    96          9
    97          3
    98          5
    99         14
   100         16
   101          3
   102          2
   103          1
   104          2
   105         18
   106          7
   107        516
   108        495
   109         38
   110          2
   112         17
   113         18
   114         30
   115          5
   116          3
   117          7
   118          3
   121          2
   127          1
   129          1
   130          1
   131         10
   132         10
   133          4
   140          5
   141          4
   142          1
   144          5
   145          2
   146          1
   158          2
   159         26
   160          4
   161          2
   162          2
   173          3
   177         10
   178         23
   179          3
   221         11
   222         24
   223          3
   224          1
   248         14
   249        111
   250         17
   251          2
   266         16
   267          3