##TITLE=Library Entry 51975
##JCAMP-DX=Revision 4.10 
##DATA TYPE=MASS SPECTRUM
##SAMPLE DESCRIPTION=Chuck Anderson, Aldrich Chemical Co.
##NAMES=HP
##CAS NAME=4,4-Dimethyl-2-imidazoline
##MOLFORM=C5H10N2
##CAS REGISTRY NO=2305-59-1
##MP= -300
##BP= -300
##MW= 98
##$RETENTION INDEX=0
##$CONDENSED SPECTRUM=NO
##NPOINTS= 31
##XYDATA=(XY..XY) 1 
    15         33
    18         25
    26         30
    27         97
    28        363
    29         68
    30        232
    38         19
    39        142
    40         63
    41        369
    42        473
    43         45
    52         14
    53          8
    54         31
    55         15
    56        212
    57         31
    58        363
    59          9
    68          7
    69        392
    70         46
    81         29
    82          7
    83        999
    84         47
    97         78
    98        412
    99         26