##TITLE=Library Entry 46898
##JCAMP-DX=Revision 4.10 
##DATA TYPE=MASS SPECTRUM
##SAMPLE DESCRIPTION=NIST Mass Spectrometry Data Center, 1990.
##NAMES=HP
##CAS NAME=1-Hexen-3-yne, 2-methyl-
##MOLFORM=C7H10
##CAS REGISTRY NO=23056-94-2
##MP= -300
##BP= -300
##MW= 94
##$RETENTION INDEX=0
##$CONDENSED SPECTRUM=NO
##NPOINTS= 49
##XYDATA=(XY..XY) 1 
    14          7
    15         33
    16          3
    18          5
    26         21
    27        144
    28         26
    29         14
    32          4
    37         27
    38         60
    39        312
    40         61
    41         65
    42          8
    43          9
    44          5
    45          7
    46          3
    49         16
    50        147
    51        228
    52        103
    53        177
    54         49
    55         18
    61         35
    62         66
    63        126
    64         30
    65        114
    66         64
    67         29
    73         12
    74         50
    75         20
    76         12
    77        999
    78        136
    79        563
    80         32
    85          5
    86          9
    89          7
    91        219
    92         25
    93         99
    94        591
    95         40