##TITLE=Library Entry 49259
##JCAMP-DX=Revision 4.10 
##DATA TYPE=MASS SPECTRUM
##SAMPLE DESCRIPTION=Japan AIST/NIMC Database- Spectrum MS-NW-4600
##NAMES=HP
##CAS NAME=4-Cyclohexene-1,2-dicarboxylic acid, cis-
##MOLFORM=C8H10O4
##CAS REGISTRY NO=2305-26-2
##MP= -300
##BP= -300
##MW= 170
##$RETENTION INDEX=0
##$CONDENSED SPECTRUM=NO
##NPOINTS= 77
##XYDATA=(XY..XY) 1 
    15          4
    16          3
    17          7
    18         24
    25          1
    26         20
    27         82
    28         22
    29          8
    31          2
    32          1
    36          1
    37         10
    38         22
    39        113
    40         20
    41         40
    42          4
    43          9
    44         21
    45         18
    46          1
    47          4
    49          5
    50         39
    51         68
    52         45
    53         47
    54         26
    55         13
    56          1
    57          4
    58          1
    60          1
    61          3
    62          4
    63         11
    64          3
    65         26
    66         11
    67          9
    68          4
    69          5
    70          2
    71          1
    73          4
    74          6
    75          3
    76          3
    77        124
    78         87
    79        999
    80        347
    81         35
    82          6
    83          2
    84          2
    94          1
    95          6
    96         10
    97         10
    98          1
    99          2
   104          1
   105          8
   106          9
   107         12
   108          2
   110          2
   111          1
   122          4
   123         59
   124        375
   125         30
   126          3
   152         33
   153          4