##TITLE=Library Entry 53310
##JCAMP-DX=Revision 4.10 
##DATA TYPE=MASS SPECTRUM
##SAMPLE DESCRIPTION=Drug Lab
##NAMES=HP
##CAS NAME=N-Phenyl-4-piperidinamine
##MOLFORM=C11H16N2
##CAS REGISTRY NO=23056-29-3
##MP= -300
##BP= -300
##MW= 176
##$RETENTION INDEX=0
##$CONDENSED SPECTRUM=NO
##NPOINTS= 91
##XYDATA=(XY..XY) 1 
    37          1
    38          7
    39         51
    40          8
    41         23
    42         83
    43         25
    44         16
    45         12
    50         15
    51         67
    52         19
    53         25
    54         48
    55        101
    56        249
    57        377
    58         21
    61          1
    62          4
    63         16
    64         12
    65         78
    66         35
    67         17
    68        312
    69         19
    70         11
    71         12
    72          1
    73          1
    74          5
    75          4
    76          8
    77        162
    78         30
    79         13
    80         19
    82        448
    83        999
    84        100
    85          5
    88         26
    89          8
    90          9
    91         96
    92         64
    93        346
    94         37
    95          2
    99          1
   102          2
   103         12
   104         52
   105         24
   106         62
   107          6
   115          8
   116          5
   117         55
   118        305
   119        132
   120        277
   121         24
   122          1
   127          1
   128          3
   129          3
   130        144
   131         69
   132         89
   133         17
   134          8
   135          1
   142          1
   143          3
   144         11
   145          7
   146         65
   147         36
   148          4
   158         17
   159         10
   160          3
   161          2
   173          1
   174          1
   175         11
   176        533
   177         66
   178          4