##TITLE=Library Entry 54551
##JCAMP-DX=Revision 4.10 
##DATA TYPE=MASS SPECTRUM
##SAMPLE DESCRIPTION=TNO Volatile Compounds in Food - Chemical Concepts
##NAMES=HP
##CAS NAME=.gamma.-Dodecalactone
##MOLFORM=C12H22O2
##CAS REGISTRY NO=2305-05-7
##MP= -300
##BP= -300
##MW= 198
##$RETENTION INDEX=1678
##$CONDENSED SPECTRUM=NO
##NPOINTS= 92
##XYDATA=(XY..XY) 1 
    25          7
    26         27
    27        189
    29        436
    30          7
    34          3
    37          8
    38         14
    39         78
    41        349
    42         79
    43        158
    46          5
    52          6
    53         35
    54         29
    55        252
    56        168
    57        131
    58         20
    59         13
    60         24
    65          7
    66          5
    67         62
    68         40
    69         96
    70         73
    71         37
    72         36
    73         12
    75          3
    78          7
    79         18
    80          4
    81         44
    82         23
    83         61
    84         43
    85        999
    86         51
    87         21
    88          2
    93          4
    94         14
    95         33
    96         52
    97         42
    98         42
   100         93
   101         24
   102          5
   103          3
   104          3
   106          2
   107          4
   108          7
   109         18
   110         26
   111         18
   112         11
   113         16
   114         20
   119          2
   120          5
   123         16
   124          6
   125          4
   126          5
   127         11
   128         48
   129          4
   130          2
   135          2
   136         23
   137         12
   138         18
   139          8
   140          2
   141         17
   142          6
   144          3
   147          9
   148          7
   151          6
   152          4
   157          2
   159          2
   162         10
   175          2
   179          4
   180          4