##TITLE=Library Entry 67390
##JCAMP-DX=Revision 4.10 
##DATA TYPE=MASS SPECTRUM
##SAMPLE DESCRIPTION=Chemical Concepts
##NAMES=HP
##CAS NAME=1H-Indazole, 4,5,6,7-tetrahydro-
##MOLFORM=C7H10N2
##CAS REGISTRY NO=2305-79-5
##MP= -300
##BP= -300
##MW= 122
##$RETENTION INDEX=0
##$CONDENSED SPECTRUM=NO
##NPOINTS= 84
##XYDATA=(XY..XY) 1 
    25          0
    26          9
    27         41
    28         73
    29          7
    30          3
    31          0
    36          0
    37          7
    38         20
    39        108
    40         34
    41         71
    42         27
    43          6
    44          2
    45          0
    46          0
    47          0
    48          4
    49          1
    50         14
    51         27
    52         52
    53         38
    54         38
    55         12
    56          2
    57          1
    58          0
    59          7
    60         23
    61          3
    62          8
    63         18
    64         11
    65         40
    66         24
    67         73
    68         19
    69         10
    70          1
    71          0
    72          1
    73          1
    74          2
    75          1
    76          3
    77         25
    78         13
    79          9
    80         27
    81         46
    82          6
    83          0
    85          0
    86          1
    87          0
    88          0
    89          2
    90          2
    91         14
    92         18
    93         65
    94        999
    95        164
    96          9
    97          0
    98          0
   102          1
   103          0
   104          5
   105          5
   106          6
   107         13
   108          1
   115          0
   117          0
   118          2
   120          5
   121        170
   122        515
   123         45
   124          1