##TITLE=Library Entry 19061
##JCAMP-DX=Revision 4.10 
##DATA TYPE=MASS SPECTRUM
##SAMPLE DESCRIPTION=S.A. Rang et al., IR & MS of Unsatd. Hydrocarbons, 1977
##NAMES=HP
##CAS NAME=5-Tridecene, (E)-
##MOLFORM=C13H26
##CAS REGISTRY NO=23051-84-5
##MP= -300
##BP= -300
##MW= 182
##$RETENTION INDEX=1280
##$CONDENSED SPECTRUM=NO
##NPOINTS= 85
##XYDATA=(XY..XY) 1 
    15          8
    16          2
    24          1
    25          4
    26         26
    27        233
    28         30
    29        334
    30          7
    31          2
    37          2
    38          4
    39        162
    40         31
    41        750
    42        177
    43        544
    44         15
    45          1
    49          0
    50          3
    51          9
    52          9
    53         81
    54        207
    55        999
    56        470
    57        309
    58         12
    59          1
    63          1
    64          0
    65         18
    66         14
    67        152
    68         70
    69        500
    70        355
    71        101
    72          5
    74          0
    77         14
    78          3
    79         24
    80          6
    81         66
    82         61
    83        309
    84        167
    85         48
    86          3
    91          5
    92          0
    93          3
    94          1
    95         20
    96         26
    97        167
    98         73
   105          0
   107          0
   108          0
   109          4
   110         13
   111         60
   112         30
   113          3
   123          3
   124          4
   125         18
   126         11
   127          1
   137          1
   138          2
   139          5
   140          4
   141          0
   151          0
   152          0
   153          3
   154          5
   155          1
   182         70
   183          8
   184          0