##TITLE=Library Entry 38964
##JCAMP-DX=Revision 4.10 
##DATA TYPE=MASS SPECTRUM
##SAMPLE DESCRIPTION=Chemical Concepts
##NAMES=HP
##CAS NAME=Pentanoic acid, 5,5-dimethoxy-, methyl ester
##MOLFORM=C8H16O4
##CAS REGISTRY NO=23068-91-9
##MP= -300
##BP= -300
##MW= 176
##$RETENTION INDEX=0
##$CONDENSED SPECTRUM=NO
##NPOINTS= 102
##XYDATA=(XY..XY) 1 
    25          1
    26         12
    27         88
    29         96
    30         14
    31        148
    33          9
    34          1
    35          2
    36          2
    37          3
    38          8
    39         79
    40         15
    41        256
    42         45
    43         80
    44         18
    45         74
    46          2
    47         88
    48          2
    49          5
    50          6
    51         10
    52          6
    53         66
    54         15
    55        121
    56         26
    57         46
    58        141
    59         82
    60          4
    61          5
    62          3
    63         10
    65          6
    66          4
    67         14
    68          9
    69         76
    70         12
    71        999
    72         66
    73          9
    74         22
    75        773
    76         34
    77          6
    78          9
    79          3
    80          1
    81         22
    82         10
    83          8
    84        147
    85         86
    86          8
    87         21
    88         10
    89          3
    91          1
    95          3
    96         18
    97         94
    98         11
    99          8
   100         12
   101        149
   102         22
   103          3
   105          5
   107          2
   111          8
   112          4
   113        220
   114         26
   115          7
   116          2
   117          2
   127          7
   128         27
   129         29
   130          4
   131          3
   132          1
   133          8
   134          1
   135          4
   141          4
   142          2
   143          2
   144        104
   145        193
   146         19
   147          2
   159          1
   160          5
   161          1
   175          6
   176          1