##TITLE=Library Entry 19933
##JCAMP-DX=Revision 4.10 
##DATA TYPE=MASS SPECTRUM
##SAMPLE DESCRIPTION=V.G.Zaikin, Petrochem. Synth. Inst., Moscow
##NAMES=HP
##CAS NAME=Octanoic acid, octyl ester
##MOLFORM=C16H32O2
##CAS REGISTRY NO=2306-88-9
##MP= -300
##BP= -300
##MW= 256
##$RETENTION INDEX=1779
##$CONDENSED SPECTRUM=NO
##NPOINTS= 87
##XYDATA=(XY..XY) 1 
    26         21
    27        199
    28         32
    29        251
    30         11
    31         12
    38         25
    39        209
    40         49
    41        671
    42        322
    43        789
    44         41
    45         76
    49          4
    50          9
    51         21
    52          9
    53         59
    54         65
    55        999
    56        435
    57        849
    58         79
    59         29
    60        518
    61        278
    62         11
    65         11
    66          7
    67        107
    68        108
    69        344
    70        479
    71        325
    72         25
    73        419
    74         48
    75         11
    77          7
    79         17
    80          8
    81         37
    82        169
    83        405
    84        491
    85        167
    86         39
    87         99
    88         17
    89         29
    91         12
    92          7
    93          9
    95         18
    96         21
    97        115
    98        185
    99         29
   101        147
   102         16
   103         10
   108         11
   109         24
   110         19
   111         35
   112        471
   113         49
   115         59
   116         28
   125         19
   126         32
   127        402
   128         34
   129         18
   142          6
   143          7
   144         88
   145        736
   146         61
   147          5
   157         15
   158          2
   172          3
   185          8
   256          7
   257          3