##TITLE=Library Entry 34360
##JCAMP-DX=Revision 4.10 
##DATA TYPE=MASS SPECTRUM
##SAMPLE DESCRIPTION=Chemical Concepts
##NAMES=HP
##CAS NAME=1,5,9-Decatriene, 2,3,5,8-tetramethyl-
##MOLFORM=C14H24
##CAS REGISTRY NO=230646-72-7
##MP= -300
##BP= -300
##MW= 192
##$RETENTION INDEX=1485
##$CONDENSED SPECTRUM=NO
##NPOINTS= 82
##XYDATA=(XY..XY) 1 
    26          6
    27        175
    29        242
    30          4
    31          1
    37          2
    38          4
    39        207
    40         45
    41        871
    42         43
    43         98
    47          0
    48          2
    50          6
    51         28
    52         12
    53        173
    54         28
    55        632
    56         31
    57        113
    58          3
    63          7
    65         36
    66         19
    67        229
    68        101
    69        999
    70         64
    71         25
    72          2
    73          0
    75          2
    76          1
    77         54
    78         16
    79         78
    80         35
    81        771
    82         94
    83         76
    84          4
    85          1
    91         51
    92         12
    93         94
    94         31
    95        566
    96        100
    97         13
   103          4
   105         16
   106          4
   107        118
   108         32
   109        125
   110         26
   111          5
   112          0
   118          0
   119          3
   120          2
   121         88
   122         66
   123        125
   124         39
   125          1
   135         58
   136        121
   137        205
   138         39
   139          2
   149         13
   150         22
   151          2
   163         16
   164          1
   165          1
   177         72
   178          8
   192          5