##TITLE=Library Entry 76648
##JCAMP-DX=Revision 4.10 
##DATA TYPE=MASS SPECTRUM
##SAMPLE DESCRIPTION=W.E. COLEMAN, US ENVIRON. PROT. AGENCY, CINCINNATI, OHI
O, USA
##NAMES=HP
##CAS NAME=2(5H)-Furanone, 3,4-dichloro-5-methoxy-
##MOLFORM=C5H4Cl2O3
##CAS REGISTRY NO=23066-93-5
##MP= -300
##BP= -300
##MW= 182
##$RETENTION INDEX=0
##$CONDENSED SPECTRUM=NO
##NPOINTS= 100
##XYDATA=(XY..XY) 1 
    14         34
    15        272
    16          8
    18          8
    24         32
    25         63
    26         15
    27         17
    28         49
    29        596
    30         46
    31         91
    32         30
    35         41
    36         61
    37        147
    38         71
    39        235
    40         19
    41          9
    43         12
    44         34
    45         24
    47         97
    48         36
    49        185
    50         23
    51         62
    52         89
    53        101
    54          6
    59        320
    60        381
    61         85
    62        124
    63         33
    64         13
    65         10
    67          6
    69         30
    71         25
    72        122
    73        142
    74         61
    75        408
    76         50
    77        128
    78         59
    79         99
    81         35
    83         20
    85         10
    87        685
    88         38
    89        239
    90         12
    91          8
    94        278
    95        680
    96        190
    97        442
    98         38
    99         70
   103        999
   104         48
   105        315
   106         14
   107         13
   108          5
   109         11
   111         13
   119        123
   120          6
   121         44
   122        274
   123         89
   124        178
   125         54
   126         35
   127         10
   138         57
   139         20
   140         36
   141         12
   147        715
   148         41
   149        229
   151        772
   152         34
   153        688
   154         60
   155        211
   156         28
   157         22
   181         44
   182         68
   183         32
   184         44
   185          6
   186          7