##TITLE=Library Entry 37232
##JCAMP-DX=Revision 4.10 
##DATA TYPE=MASS SPECTRUM
##SAMPLE DESCRIPTION=Japan AIST/NIMC Database- Spectrum MS-NW-5227
##NAMES=HP
##CAS NAME=Pentadecanoic acid, 3-methylbutyl ester
##MOLFORM=C15H30O2
##CAS REGISTRY NO=2306-91-4
##MP= -300
##BP= -300
##MW= 242
##$RETENTION INDEX=1646
##$CONDENSED SPECTRUM=NO
##NPOINTS= 94
##XYDATA=(XY..XY) 1 
    15          2
    18          2
    26          2
    27         56
    28         15
    29        104
    30          2
    31          4
    32          1
    39         33
    40          7
    41        172
    42         69
    43        431
    44         14
    45          9
    51          1
    53          9
    54         11
    55        187
    56         34
    57        107
    58          5
    59          4
    60         42
    61         18
    65          1
    67         13
    68         11
    69         60
    70        999
    71        428
    72         24
    73         47
    74          7
    75          1
    77          1
    79          2
    80          1
    81         17
    82          5
    83         17
    84         20
    85         46
    86          4
    87         19
    88          3
    89          6
    93          1
    95         16
    96          2
    97         11
    98         17
    99          4
   100          2
   101          9
   102          2
   103          5
   107          1
   109          1
   110          5
   111          6
   112          7
   113          2
   115         22
   116          2
   117          1
   125          2
   126          1
   127          2
   129         32
   130         11
   131          5
   135          2
   136          1
   137          4
   139          1
   143         14
   144          2
   153          4
   155        180
   156         20
   157          4
   171          2
   172         30
   173         69
   174          8
   185          1
   199         14
   200          2
   212          1
   213          1
   227          4
   242          3