##TITLE=Library Entry 76741
##JCAMP-DX=Revision 4.10 
##DATA TYPE=MASS SPECTRUM
##SAMPLE DESCRIPTION=Chemical Concepts
##NAMES=HP
##CAS NAME=Formamide, N-(2-phenylethyl)-
##MOLFORM=C9H11NO
##CAS REGISTRY NO=23069-99-0
##MP= -300
##BP= -300
##MW= 149
##$RETENTION INDEX=1487
##$CONDENSED SPECTRUM=NO
##NPOINTS= 87
##XYDATA=(XY..XY) 1 
    20          5
    26          3
    27         24
    28        130
    29         26
    30        454
    31         12
    32         21
    36          1
    37          1
    38          8
    39         91
    40          8
    41         31
    42         15
    43         15
    44          6
    45          5
    46          1
    49          4
    50         26
    51         88
    52         25
    53         10
    54          1
    55          7
    56          2
    57          7
    58        317
    59         11
    60          2
    61          2
    62          8
    63         44
    64         10
    65        177
    66         11
    67          2
    69          3
    70          1
    71          3
    73          5
    74          6
    75          7
    76          9
    77         82
    78         91
    79         19
    80          2
    81          2
    82          2
    83          1
    84          2
    85          1
    86          3
    87          1
    88          0
    89         31
    90         13
    91        400
    92         66
    93          6
    94          0
    95          1
    97          0
   101          1
   102         10
   103         60
   104        999
   105         94
   106          4
   107          0
   115          0
   116          1
   117          4
   118          9
   119          5
   120          3
   121          0
   127          0
   128          0
   133          1
   145          0
   147          2
   149         66
   150          6
   151          0