##TITLE=Library Entry 8566
##JCAMP-DX=Revision 4.10 
##DATA TYPE=MASS SPECTRUM
##SAMPLE DESCRIPTION=H. Fales, LC, NHLBI, NIH, Bethesda, MD 20892
##NAMES=HP
##CAS NAME=Nerolidyl acetate
##MOLFORM=C17H28O2
##CAS REGISTRY NO=2306-78-7
##MP= -300
##BP= -300
##MW= 264
##$RETENTION INDEX=1687
##$CONDENSED SPECTRUM=NO
##NPOINTS= 203
##XYDATA=(XY..XY) 1 
    41        664
    42         57
    43        999
    44         43
    45         19
    46          1
    47          1
    49          0
    50          4
    51         18
    52         11
    53        137
    54         21
    55        376
    56         37
    57         60
    58         15
    59         19
    60          7
    61          5
    62          1
    63          4
    64          2
    65         37
    66         18
    67        240
    68        240
    69        953
    70         79
    71        227
    72         18
    73         12
    74          3
    75          3
    76          2
    77         88
    78         19
    79        214
    80        319
    81        284
    82         83
    83         58
    84         32
    85         43
    86          7
    87          7
    88          2
    89          2
    90          2
    91        132
    92         72
    93        771
    94        130
    95        120
    96         26
    97         42
    98         12
    99         15
   100          4
   101         10
   102          2
   103          8
   104          4
   105        126
   106         48
   107        397
   108         72
   109        100
   110         20
   111         26
   112         11
   113         28
   114          5
   115         11
   116          4
   117         12
   118          6
   119        162
   120         50
   121        155
   122         46
   123        109
   124         40
   125         16
   126          7
   127          9
   128          5
   129         10
   130          4
   131          9
   132          5
   133        118
   134         69
   135        116
   136        169
   137         40
   138          7
   139          7
   140          6
   141          6
   142          5
   143          5
   144          2
   145          9
   146          3
   147         51
   148         41
   149         34
   150          7
   151          8
   152          3
   153         13
   154          3
   155          2
   156          1
   157          2
   158          3
   159          4
   160          3
   161         95
   162         18
   163          6
   164          2
   165          5
   166          2
   167          3
   168          2
   169          2
   170          1
   171          1
   172          0
   173          1
   174          1
   175          9
   176          4
   177          4
   178          1
   179          6
   180          2
   181          2
   182          2
   183          2
   184          0
   185          1
   186          0
   187          1
   188          0
   189         62
   190         10
   191          2
   192          2
   193          2
   194          2
   195         39
   196          6
   197          1
   198          0
   199          1
   200          0
   201          1
   202          0
   203          2
   204         38
   205          8
   206          1
   207          3
   208          2
   209          1
   210          0
   211          1
   212          1
   213          0
   214          0
   215          0
   216          0
   217          0
   218          0
   219          2
   220          1
   221          1
   222          3
   223          1
   224          0
   225          1
   226          0
   227          0
   229          0
   233          0
   234          0
   235          0
   236          1
   237          0
   239          0
   241          0
   246          0
   247          0
   250          0
   261          0
   262          1
   263          0
   264          2
   265          0
   267          0