##TITLE=Library Entry 48380
##JCAMP-DX=Revision 4.10 
##DATA TYPE=MASS SPECTRUM
##SAMPLE DESCRIPTION=Exported from NIST MS Search
##NAMES=HP
##CAS NAME=Spiro[cyclopentane-1,3'-[3H]indole], 2'-methyl-
##MOLFORM=C13H15N
##CAS REGISTRY NO=23077-27-2
##MP= -300
##BP= -300
##MW= 185
##$RETENTION INDEX=0
##$CONDENSED SPECTRUM=NO
##NPOINTS= 15
##XYDATA=(XY..XY) 1 
    77        350
    78        999
    79        150
    91        190
   102         90
   115        250
   128        140
   129        150
   130         90
   143        170
   144        130
   156        130
   157        170
   170        340
   185        400