##TITLE=Library Entry 86292
##JCAMP-DX=Revision 4.10 
##DATA TYPE=MASS SPECTRUM
##SAMPLE DESCRIPTION=NIST Mass Spectrometry Data Center, 1994
##NAMES=HP
##CAS NAME=5-Ethyl-2-furaldehyde
##MOLFORM=C7H8O2
##CAS REGISTRY NO=23074-10-4
##MP= -300
##BP= -300
##MW= 124
##$RETENTION INDEX=1029
##$CONDENSED SPECTRUM=NO
##NPOINTS= 64
##XYDATA=(XY..XY) 1 
     4          1
    12          6
    13         10
    14         32
    15        107
    16          2
    17          2
    18          5
    25         17
    26        121
    27        421
    28         70
    29        457
    30          9
    31          5
    32          6
    36         11
    37        125
    38        252
    39        754
    40        115
    41        559
    42         47
    43         11
    46          2
    47          2
    48          3
    49         32
    50        173
    51        258
    52        167
    53        620
    54         38
    55         51
    56          4
    57          9
    60          4
    61         30
    62         59
    63         93
    64         23
    65        241
    66         89
    67        569
    68         39
    69          9
    77         14
    79         34
    80         31
    81        513
    82         32
    93          6
    95        395
    96         29
    97          3
   105          2
   109        999
   110         69
   111          7
   121         19
   123        193
   124        921
   125         81
   126          7