##TITLE=Library Entry 11483
##JCAMP-DX=Revision 4.10 
##DATA TYPE=MASS SPECTRUM
##SAMPLE DESCRIPTION=W. UTILIZATION R & D DIV., U.S. DEPT. OF AGRIC., ALBANY
, CAL.
##NAMES=HP
##CAS NAME=Ethanethioic acid, S-propyl ester
##MOLFORM=C5H10OS
##CAS REGISTRY NO=2307-10-0
##MP= -300
##BP= -300
##MW= 118
##$RETENTION INDEX=851
##$CONDENSED SPECTRUM=NO
##NPOINTS= 30
##XYDATA=(XY..XY) 1 
    27         50
    29         13
    35          2
    39         61
    40          7
    41        124
    42         95
    43        999
    44         28
    45         49
    46         31
    47         65
    48          7
    49          5
    57          2
    58         16
    59         22
    60          9
    61         16
    71          5
    74        104
    75         33
    76         49
    77         22
    85         11
    89          4
   103          2
   118        171
   119          7
   120          7