##TITLE=Library Entry 2867
##JCAMP-DX=Revision 4.10 
##DATA TYPE=MASS SPECTRUM
##SAMPLE DESCRIPTION=Chemical Concepts
##NAMES=HP
##CAS NAME=Cyclododecene, 1-methyl-
##MOLFORM=C13H24
##CAS REGISTRY NO=23070-53-3
##MP= -300
##BP= -300
##MW= 180
##$RETENTION INDEX=1387
##$CONDENSED SPECTRUM=NO
##NPOINTS= 113
##XYDATA=(XY..XY) 1 
    25          4
    26         27
    27        245
    28         17
    29        342
    30          7
    31          1
    37          1
    38          4
    39        278
    40         68
    41        999
    42        119
    43        172
    44          6
    45          1
    49          1
    50          5
    51         22
    52         18
    53        189
    54        268
    55        947
    56        525
    57        319
    58         23
    59          6
    60          1
    63          4
    64          2
    65         44
    66         56
    67        704
    68        661
    69        448
    70        117
    71         46
    72          4
    73          1
    74          1
    75          0
    76          1
    77         50
    78         10
    79        117
    80         60
    81        790
    82        724
    83        255
    84         45
    85         11
    86          1
    89          0
    91         30
    92          5
    93         46
    94         45
    95        676
    96        757
    97        179
    98         33
    99          3
   100          1
   103          1
   105          5
   106          1
   107         18
   108         22
   109        370
   110        242
   111         61
   112         12
   113          2
   114          1
   115          1
   117          0
   119          1
   120          0
   121         10
   122         10
   123        142
   124        131
   125         21
   126          4
   127          1
   128          1
   129          0
   133          0
   134          1
   135          8
   136          6
   137         77
   138         43
   139          8
   140          1
   149          3
   150          1
   151         22
   152         39
   153          6
   154          1
   155          0
   157          0
   163          1
   164          1
   165         40
   166          7
   167          1
   178          6
   179          2
   180        435
   181         66
   182          7