##TITLE=Library Entry 48800
##JCAMP-DX=Revision 4.10 
##DATA TYPE=MASS SPECTRUM
##SAMPLE DESCRIPTION=D.REDMORE PETROLITE CORP., ST. LOUIS, USA
##NAMES=HP
##CAS NAME=Phosphonic acid, 2-pyridinyl-, diethyl ester
##MOLFORM=C9H14NO3P
##CAS REGISTRY NO=23081-78-9
##MP= -300
##BP= -300
##MW= 215
##$RETENTION INDEX=0
##$CONDENSED SPECTRUM=NO
##NPOINTS= 46
##XYDATA=(XY..XY) 1 
    18        300
    26         70
    27        290
    28        220
    29        380
    30         30
    31        230
    39         50
    41         40
    42         30
    43        110
    44         30
    45        170
    46         40
    47         80
    50         40
    51        210
    52        120
    57         30
    58         60
    59         20
    65        160
    66         40
    78        480
    79        999
    80        200
    81         90
    82         30
    83        150
    93         50
    95         30
    99         30
   106        140
   107        120
   109         40
   111        110
   127         70
   142        360
   143         50
   160         40
   171        280
   172         40
   186         70
   187         80
   188         20
   215         60