##TITLE=Library Entry 15817
##JCAMP-DX=Revision 4.10 
##DATA TYPE=MASS SPECTRUM
##SAMPLE DESCRIPTION=Exported from NIST MS Search
##NAMES=HP
##CAS NAME=3-Isoxazolecarboxamide, 5-phenyl-
##MOLFORM=C10H8N2O2
##CAS REGISTRY NO=23088-52-0
##MP= -300
##BP= -300
##MW= 188
##$RETENTION INDEX=0
##$CONDENSED SPECTRUM=NO
##NPOINTS= 14
##XYDATA=(XY..XY) 1 
    44        999
    45         40
    51        500
    52         30
    63        150
    64         20
    77        700
    78         70
   105        670
   106         70
   145        200
   146         20
   188        190
   189         20