##TITLE=Library Entry 77021
##JCAMP-DX=Revision 4.10 
##DATA TYPE=MASS SPECTRUM
##SAMPLE DESCRIPTION=NIST Mass Spectrometry Data Center, 1990.
##NAMES=HP
##CAS NAME=Benzene, 4-hexenyl-
##MOLFORM=C12H16
##CAS REGISTRY NO=23086-43-3
##MP= -300
##BP= -300
##MW= 160
##$RETENTION INDEX=0
##$CONDENSED SPECTRUM=NO
##NPOINTS= 51
##XYDATA=(XY..XY) 1 
    26         10
    27        103
    28         51
    29         67
    32         10
    39        181
    40         29
    41        219
    42         11
    50         34
    51        107
    52         30
    53         50
    54         13
    55         80
    62         12
    63         50
    65        202
    66         17
    67         80
    68         33
    69         84
    74         10
    75         10
    76         16
    77        155
    78         86
    79        103
    80          8
    82         10
    89         33
    91        722
    92        406
    93         29
   102         17
   103        113
   104        999
   105        282
   106         21
   115         51
   116         18
   117        157
   118         36
   127          6
   128         18
   129         15
   130          6
   131         83
   132         14
   160        149
   161         20