##TITLE=Library Entry 66414
##JCAMP-DX=Revision 4.10 
##DATA TYPE=MASS SPECTRUM
##SAMPLE DESCRIPTION=P.A.HEDIN U.S. DEPT. AGRI., STATE COLL., MISS., USA
##NAMES=HP
##CAS NAME=Levomenol
##MOLFORM=C15H26O
##CAS REGISTRY NO=23089-26-1
##MP= -300
##BP= -300
##MW= 222
##$RETENTION INDEX=2021
##$CONDENSED SPECTRUM=NO
##NPOINTS= 49
##XYDATA=(XY..XY) 1 
    39        190
    40         40
    41        660
    43        570
    44        120
    53        180
    55        280
    56         60
    59         60
    65         70
    67        250
    69        220
    70         70
    71        180
    77        170
    79        260
    80        200
    81        200
    82        160
    83         60
    91        210
    92        200
    93        999
    94        320
    95        350
   105        110
   106         60
   107        270
   108         90
   109        690
   110         90
   119        270
   120        110
   121        430
   122        140
   127         60
   133        100
   134        170
   135        160
   136        100
   139         70
   141        110
   147         70
   148         60
   161        150
   189         60
   204        560
   205        110
   222         10