##TITLE=Library Entry 10409
##JCAMP-DX=Revision 4.10 
##DATA TYPE=MASS SPECTRUM
##SAMPLE DESCRIPTION=LAC, NIDDK, NIH, Bethesda, MD 20892
##NAMES=HP
##CAS NAME=Pseudodiosgenin diacetate
##MOLFORM=C31H46O5
##CAS REGISTRY NO=2309-38-8
##MP= -300
##BP= -300
##MW= 498
##$RETENTION INDEX=0
##$CONDENSED SPECTRUM=NO
##NPOINTS= 232
##XYDATA=(XY..XY) 1 
    41        143
    43        999
    44         19
    45         13
    49          4
    51          4
    53         37
    55        222
    56         12
    57         44
    59         10
    61         15
    65         24
    67        192
    69        120
    71         26
    73         22
    77         53
    79        135
    81        196
    83         55
    84         17
    85         43
    87          8
    91        147
    93        157
    95        372
    97         89
    99         21
   100          2
   101         15
   103         11
   105        185
   107        149
   108        257
   109        163
   111         32
   113         15
   115         86
   117         77
   119        104
   121        233
   122         67
   123         32
   124         10
   125         14
   126          6
   127          5
   128         31
   129         24
   131         92
   133         96
   135         72
   137         25
   139         43
   140          8
   141         29
   142          4
   143         74
   145        164
   147        113
   149         56
   150         11
   151         31
   152          7
   153          6
   154          5
   155         26
   157         80
   158         35
   159         64
   161         89
   163        236
   164         18
   165         37
   166          5
   167          4
   168         32
   169         16
   171         33
   172          2
   173         31
   174          7
   175         18
   177         12
   178         16
   179          8
   181         16
   183         25
   184          7
   185         15
   186          8
   187         14
   188          3
   189         18
   191          3
   193          2
   195         10
   197         38
   199         55
   200          8
   201          9
   203          3
   205          7
   207          4
   209          9
   210         12
   211         26
   213        152
   214        133
   215         54
   216          6
   217          4
   219          3
   221          7
   223         38
   224         24
   225         40
   226         17
   227         14
   228         18
   229         14
   233          2
   235          6
   237         24
   238         18
   239         34
   240        349
   241         59
   242          5
   249          6
   250          4
   251         51
   252         99
   253         89
   254         30
   255         13
   256          3
   257          3
   263          3
   265          5
   267          7
   268          7
   269         13
   270          8
   271          4
   272          2
   273          2
   277          3
   279          7
   280          3
   281         35
   282         15
   283         17
   284          4
   286          2
   295          5
   296         17
   297         24
   298         24
   299          7
   307          3
   309         15
   310          5
   311          3
   312         14
   313         16
   314          6
   315          5
   323          8
   324          9
   325          7
   326          8
   327          5
   328          5
   329          4
   330          4
   331          3
   335          2
   336          2
   337          7
   338          3
   340          7
   341          2
   342          8
   343          9
   344          2
   351          4
   356          3
   357          3
   358          5
   363         11
   364          3
   373          8
   375          8
   376          5
   377          4
   378          7
   379          4
   383          6
   384          2
   392          4
   394          7
   395          6
   396          9
   397         11
   398          3
   405          3
   410          3
   413          4
   420          8
   421          3
   423          9
   424          4
   436         16
   437          6
   438         87
   439         32
   440          7
   450          6
   452         10
   453          4
   454          4
   455          2
   456          2
   468          4
   470          2
   496          3
   497          3
   498        101
   499         30
   500          9