##TITLE=Library Entry 31696
##JCAMP-DX=Revision 4.10 
##DATA TYPE=MASS SPECTRUM
##SAMPLE DESCRIPTION=NIST Mass Spectrometry Data Center, 1994
##NAMES=HP
##CAS NAME=5-Bromo-2-methoxybenzenesulfonyl chloride
##MOLFORM=C7H6BrClO3S
##CAS REGISTRY NO=23095-05-8
##MP= -300
##BP= -300
##MW= 284
##$RETENTION INDEX=0
##$CONDENSED SPECTRUM=NO
##NPOINTS= 164
##XYDATA=(XY..XY) 1 
    12          7
    13          6
    14         26
    15        100
    16         18
    18         10
    24          7
    25          6
    26         16
    27          2
    28         14
    29         67
    30         31
    31          2
    32         40
    33          4
    34          2
    35         39
    36         38
    37        120
    38        125
    39         91
    41          0
    42          4
    44          8
    45         35
    46          5
    47          0
    48        219
    49         51
    50        310
    51        178
    52         25
    53         99
    55          5
    57         12
    58          6
    60         14
    61        138
    62        324
    63        999
    64        228
    65         45
    66         29
    68          9
    69         63
    70          8
    71          6
    72          7
    73         56
    74        208
    75        323
    76        217
    77        227
    78        213
    79        137
    80         17
    81         31
    82         25
    83         41
    84          6
    85         14
    90          8
    91         19
    92         25
    93         41
    94         65
    95         70
    96         33
    97         12
    98         10
    99          9
   104         13
   105         26
   106         90
   107         24
   108         14
   109         12
   110         11
   111         28
   112         13
   113         14
   115          7
   116         15
   117         27
   118         18
   119         19
   123          8
   124         19
   126         21
   128         11
   129         23
   130          9
   131         12
   137          5
   139          5
   141         21
   142         99
   143         74
   144        105
   145         55
   152          8
   155        294
   156         51
   157        355
   158         44
   159         97
   160         14
   162         14
   164         10
   170        347
   171         67
   172        358
   173         67
   174         12
   175         28
   176          9
   177         68
   178          5
   179         62
   181         12
   183         17
   184         12
   185         51
   186         72
   187         45
   188         69
   189         14
   190          5
   191         19
   193         13
   201         51
   203         62
   204          8
   205         55
   206          7
   207         49
   209         12
   215          9
   217          8
   218         35
   219         89
   220         61
   221         96
   222         31
   223          9
   224          5
   233          6
   235          6
   236          6
   249        533
   250         46
   251        550
   252         48
   253         29
   264          5
   266         10
   284        346
   285         29
   286        468
   287         40
   288        132
   289         11
   290          7