##TITLE=Library Entry 34120
##JCAMP-DX=Revision 4.10 
##DATA TYPE=MASS SPECTRUM
##SAMPLE DESCRIPTION=Chemical Concepts
##NAMES=HP
##CAS NAME=Butane, 1-bromo-3-methyl-3-nitro-
##MOLFORM=C5H10BrNO2
##CAS REGISTRY NO=23101-98-6
##MP= -300
##BP= -300
##MW= 195
##$RETENTION INDEX=0
##$CONDENSED SPECTRUM=NO
##NPOINTS= 58
##XYDATA=(XY..XY) 1 
    26         15
    27        170
    28         40
    29         99
    30         48
    31         10
    38         10
    39        137
    40         23
    41        873
    42         51
    43        333
    44         11
    50         10
    51         19
    52          7
    53         66
    54         10
    55         77
    56         26
    57         30
    59          7
    60         14
    67         27
    68          7
    69        999
    70         62
    71          6
    72          4
    74          9
    75          9
    85         20
    86         33
    89         89
    91          7
    93         10
    95         10
   107         60
   109         57
   116          9
   121          8
   123          6
   133          5
   135          6
   147          4
   148          4
   149        237
   150         17
   151        216
   152         13
   165         73
   166          4
   167         73
   168          4
   195         40
   196          2
   197         39
   198          2