##TITLE=Library Entry 56850
##JCAMP-DX=Revision 4.10 
##DATA TYPE=MASS SPECTRUM
##SAMPLE DESCRIPTION=A.A.Kutin, Moscow, Russia
##NAMES=HP
##CAS NAME=Phthalazine, 1-(4-morpholyl)-4-phenyl-
##MOLFORM=C18H17N3O
##CAS REGISTRY NO=23100-00-7
##MP= -300
##BP= -300
##MW= 291
##$RETENTION INDEX=0
##$CONDENSED SPECTRUM=NO
##NPOINTS= 202
##XYDATA=(XY..XY) 1 
    33          8
    34          1
    36          1
    37          4
    39         97
    40         24
    41         44
    42         56
    43         54
    44         19
    45         51
    50         98
    51        232
    52         32
    54         38
    55         70
    56        160
    57         29
    58         71
    60          4
    61          6
    62         36
    63         77
    64         18
    65         20
    66          3
    67          2
    68         14
    69         17
    70         13
    71          3
    72          2
    74         60
    75        106
    76        249
    77        436
    78         73
    79         16
    81         33
    83         37
    86        999
    88        346
    89        184
    91         18
    92          3
    93          3
    94         17
    96         29
    98         19
    99         18
   100         17
   102        292
   103        338
   104        248
   106         43
   108         28
   110         65
   111         13
   112          8
   113         27
   114         18
   115         44
   116         38
   117         25
   118          5
   119          1
   120          0
   121          1
   122          8
   124         29
   125         11
   126         24
   127         17
   128         26
   129        109
   130         33
   131         28
   132          4
   133          1
   134          1
   135          2
   137         26
   138         17
   139         47
   140         22
   141          4
   142          3
   143          7
   144          3
   146         10
   147          0
   148          1
   149          7
   150         37
   151         64
   152         33
   153          9
   154          3
   155          3
   156          4
   157         11
   158          8
   159          1
   161          8
   162         22
   163        110
   164        134
   165        362
   166         49
   167          6
   168          3
   169          1
   170          6
   171          3
   173          1
   174         10
   176        137
   177         82
   178         59
   179         26
   180         18
   181          2
   182          1
   184          5
   185          0
   186          1
   188         29
   189         48
   190        122
   191         38
   192         17
   193         11
   194          3
   195          0
   199          0
   200          2
   201          9
   202         20
   203         69
   205        582
   206        150
   207        137
   208         24
   209          2
   213          0
   214          4
   215          2
   216          4
   217         11
   218         14
   219         28
   220         61
   221         45
   222         22
   223          4
   224          0
   227          0
   228          0
   229          2
   230          7
   233        572
   234        507
   235        103
   236         17
   237          2
   238          0
   239          0
   241          0
   242          0
   243          2
   244          6
   245         23
   246         93
   247         31
   248         39
   249         11
   250          1
   251          0
   255          0
   256          0
   257          1
   258          3
   260        117
   261         30
   262         37
   263         11
   264          3
   265          0
   270          0
   272          1
   273          0
   274          0
   276          1
   277          0
   284          0
   286          2
   287          2
   290        303
   291        244
   292         50
   293          5
   294          0