##TITLE=Library Entry 5222
##JCAMP-DX=Revision 4.10 
##DATA TYPE=MASS SPECTRUM
##SAMPLE DESCRIPTION=Japan AIST/NIMC Database- Spectrum MS-IW-7314
##NAMES=HP
##CAS NAME=1-Benzyl-3-chloro-trans-4-(p-nitrobenzamido)pyrrolidine
##MOLFORM=C18H18ClN3O3
##CAS REGISTRY NO=23112-06-3
##MP= -300
##BP= -300
##MW= 359
##$RETENTION INDEX=0
##$CONDENSED SPECTRUM=NO
##NPOINTS= 164
##XYDATA=(XY..XY) 1 
    15          5
    26          6
    27         31
    28         71
    29          6
    30          9
    32          2
    35         11
    36        123
    37          5
    38         40
    39         30
    40          7
    41         31
    42        999
    43         46
    44          5
    49          1
    50         18
    51         24
    52          9
    53          7
    54          7
    55          9
    56          5
    57          6
    59          1
    61          1
    62          6
    63         19
    64         11
    65         98
    66          8
    67         14
    68          7
    69          4
    70          3
    71          3
    74          5
    75         16
    76         46
    77         30
    78         11
    79          4
    80         10
    81          4
    82          4
    83          3
    84          6
    85          3
    87          1
    88          2
    89         24
    90         18
    91        845
    92         86
    93          5
    94          1
    95          2
    96          1
    97          3
    98          1
    99          1
   100          1
   101          1
   102         19
   103         45
   104         68
   105         28
   106         13
   107          2
   108          1
   109          1
   111          2
   115          4
   116          7
   117         10
   118         66
   119         25
   120         25
   121          2
   122          1
   123          1
   125          1
   126          1
   127          4
   128          8
   129         21
   130          9
   131         12
   132        280
   133        900
   134         93
   135          5
   136          3
   137          3
   138          1
   141          1
   143          1
   144          4
   145          6
   146          5
   147          2
   148          7
   149         10
   150         44
   151          4
   152          1
   153          1
   154          7
   155          6
   156         17
   157        117
   158         67
   159          9
   160          4
   161          4
   162          1
   165          1
   166          5
   167          1
   169          1
   171          3
   172          2
   173         21
   174         67
   175         29
   176          3
   177          1
   186          2
   190          4
   191          3
   192          1
   193          1
   200          3
   201          1
   203          2
   204          1
   205          9
   206          4
   218          1
   232          8
   233          1
   246         10
   247          2
   252          2
   253          9
   254          1
   276          3
   277          1
   278          1
   280         18
   281          3
   291          1
   292          1
   293          9
   294          3
   295         27
   296          5
   321          5
   322          9
   323        156
   324         35
   325          4