##TITLE=Library Entry 10867
##JCAMP-DX=Revision 4.10 
##DATA TYPE=MASS SPECTRUM
##SAMPLE DESCRIPTION=Div. of Experiment Therapeutics WRAIR, WRAMC, Washingto
n DC 20307
##NAMES=HP
##CAS NAME=Dimethyl-trans,trans-.alpha.,.alpha.-dimethylmuconate
##MOLFORM=C10H14O4
##CAS REGISTRY NO=23119-30-4
##MP= -300
##BP= -300
##MW= 198
##$RETENTION INDEX=0
##$CONDENSED SPECTRUM=NO
##NPOINTS= 103
##XYDATA=(XY..XY) 1 
    41        142
    43        999
    44         38
    45         89
    47          9
    49          0
    50          4
    51         11
    52          5
    53         50
    55         63
    56          9
    57         26
    59         92
    61         29
    62          0
    63          2
    65          5
    67         36
    69        130
    70         27
    71         66
    72         19
    73         18
    74         18
    75         21
    76          1
    77         10
    78          2
    79         10
    81         18
    82          1
    83         37
    84          3
    85         72
    86          7
    87        102
    89         46
    90         93
    91          3
    92          2
    93          3
    95         26
    97        232
    98        103
    99         45
   101         49
   103         10
   104        258
   105          5
   106          3
   107          4
   108          1
   109         18
   111         37
   112         47
   113         69
   114          5
   115         50
   116         17
   117         18
   119          3
   120          0
   121          7
   122          3
   123         22
   124         15
   125         45
   127         63
   129         69
   130         36
   131          7
   132          3
   133          9
   134          0
   135          3
   136          0
   137          6
   138          3
   139         60
   141        148
   142          4
   143         58
   144          3
   145          9
   146          5
   147         12
   148          1
   149          5
   150          3
   151         13
   152          0
   153         11
   154          3
   155          8
   156         14
   157          5
   182         11
   183         20
   184          2
   197          4
   198          9
   199          1