##TITLE=Library Entry 8251
##JCAMP-DX=Revision 4.10 
##DATA TYPE=MASS SPECTRUM
##SAMPLE DESCRIPTION=Japan AIST/NIMC Database- Spectrum MS-NW-5263
##NAMES=HP
##CAS NAME=n-Capric acid isopropyl ester
##MOLFORM=C13H26O2
##CAS REGISTRY NO=2311-59-3
##MP= -300
##BP= -300
##MW= 214
##$RETENTION INDEX=1417
##$CONDENSED SPECTRUM=NO
##NPOINTS= 127
##XYDATA=(XY..XY) 1 
    15         10
    17          1
    18          3
    26          7
    27        160
    28         10
    29        185
    30          5
    31         10
    32          1
    36          1
    37          2
    38          4
    39         87
    40         19
    41        411
    42        151
    43        999
    44         35
    45         33
    46          1
    47          1
    48          1
    50          1
    51          4
    52          2
    53         20
    54         23
    55        205
    56         75
    57        336
    58         17
    59        224
    60        705
    61        143
    62          7
    63          1
    65          3
    66          2
    67         36
    68         29
    69        155
    70         56
    71        301
    72         18
    73        277
    74         46
    75          5
    76          1
    77          3
    78          2
    79          7
    80          3
    81         44
    82         21
    83         83
    84         63
    85         97
    86          7
    87         97
    88          9
    89         21
    90          1
    91          2
    93          6
    94          3
    95         39
    96          9
    97         48
    98         56
    99          7
   100          3
   101         37
   102        409
   103         51
   104          4
   105          1
   107          4
   108          3
   109          7
   110         31
   111         29
   112         66
   113         25
   114          3
   115         57
   116          6
   117          5
   118          1
   119          1
   121          2
   123          2
   124          2
   125          8
   126          4
   127          5
   128          1
   129        187
   130         17
   131          3
   134          1
   135         13
   136          8
   137          9
   138          2
   139          4
   141          1
   143         32
   144          7
   145          3
   152          5
   153         20
   154          4
   155        358
   156         42
   157          4
   158          1
   170          1
   171          7
   172        234
   173        302
   174         35
   175          4
   184          1
   199          3
   214          3
   215          1