##TITLE=Library Entry 10608
##JCAMP-DX=Revision 4.10 
##DATA TYPE=MASS SPECTRUM
##SAMPLE DESCRIPTION=Japan AIST/NIMC Database- Spectrum MS-NW-4060
##NAMES=HP
##CAS NAME=Hexanoic acid, 1-methylethyl ester
##MOLFORM=C9H18O2
##CAS REGISTRY NO=2311-46-8
##MP= -300
##BP= -300
##MW= 158
##$RETENTION INDEX=1034
##$CONDENSED SPECTRUM=NO
##NPOINTS= 71
##XYDATA=(XY..XY) 1 
    15         20
    18          1
    26         10
    27        164
    28         11
    29         96
    30          3
    31          9
    32          1
    37          3
    38          6
    39         88
    40         19
    41        250
    42        129
    43        999
    44         36
    45         30
    46          1
    47          1
    50          1
    51          3
    52          1
    53          8
    54          4
    55         71
    56         55
    57         36
    58          5
    59        162
    60        399
    61         65
    62          4
    63          1
    65          1
    67          3
    68          5
    69         38
    70         32
    71        194
    72         10
    73        139
    74         21
    75         10
    80          2
    81          5
    82          1
    83          9
    84          1
    85          1
    87         66
    88          5
    89         22
    90          1
    96          1
    97         12
    98          6
    99        457
   100         35
   101          6
   102        106
   103          7
   104          1
   114          1
   115          4
   116         74
   117        217
   118         14
   119          2
   143         10
   144          1