##TITLE=Library Entry 8173
##JCAMP-DX=Revision 4.10 
##DATA TYPE=MASS SPECTRUM
##SAMPLE DESCRIPTION=SHELL RESEARCH LIMITED THORNTON RESEARCH CENTRE
##NAMES=HP
##CAS NAME=Oxetane, 2,2,4-trimethyl-
##MOLFORM=C6H12O
##CAS REGISTRY NO=23120-44-7
##MP= -300
##BP= -300
##MW= 100
##$RETENTION INDEX=0
##$CONDENSED SPECTRUM=NO
##NPOINTS= 24
##XYDATA=(XY..XY) 1 
    26         27
    27         84
    28         69
    29        102
    30         19
    31         46
    38         20
    39        139
    40         75
    41        500
    42        392
    43        999
    44         58
    45         84
    50         27
    53         27
    55         69
    56        683
    57        173
    58         42
    59        791
    60         40
    85         81
   100         34