##TITLE=Library Entry 10943
##JCAMP-DX=Revision 4.10 
##DATA TYPE=MASS SPECTRUM
##SAMPLE DESCRIPTION=P.A. Leclercq, Lab. Instrum. Anal., Tech. Univ. Eindhov
en, Netherlands
##NAMES=HP
##CAS NAME=Diazene, bis[4-(decyloxy)phenyl]-, 1-oxide
##MOLFORM=C32H50N2O3
##CAS REGISTRY NO=2312-12-1
##MP= -300
##BP= -300
##MW= 510
##$RETENTION INDEX=0
##$CONDENSED SPECTRUM=NO
##NPOINTS= 83
##XYDATA=(XY..XY) 1 
    18          0
    27         79
    29        223
    30         12
    39         72
    41        587
    43        999
    44         63
    50          9
    51         13
    52         32
    53         35
    55        709
    57        587
    58         31
    63         13
    64         21
    65         83
    66          9
    67         32
    69        317
    70         30
    71        174
    72         13
    73         21
    76         27
    77         36
    78         17
    79         88
    80         36
    81         57
    83        192
    84         21
    85        115
    91         33
    93        288
    94         72
    95         73
    96         21
    97         82
    98         10
    99         11
   103         17
   105         25
   107        989
   108        284
   109        155
   110         24
   115         13
   119         25
   120         18
   121        135
   122         59
   123        490
   124        181
   125         14
   128         13
   131         14
   133         63
   134         19
   135         23
   136         21
   137         18
   149         14
   157         13
   161         17
   173         15
   185         25
   186         21
   191         14
   201         83
   202         53
   213         97
   214         21
   229         45
   230         49
   370         24
   371          5
   494         84
   495         28
   510        349
   511        112
   512         21