##TITLE=Library Entry 23739
##JCAMP-DX=Revision 4.10 
##DATA TYPE=MASS SPECTRUM
##SAMPLE DESCRIPTION=V.G. Zaikin, TIPS RAS, Moscow, Russia
##NAMES=HP
##CAS NAME=Propanoic acid, 2,2-dimethyl-, pentyl ester
##MOLFORM=C10H20O2
##CAS REGISTRY NO=2313-68-0
##MP= -300
##BP= -300
##MW= 172
##$RETENTION INDEX=1063
##$CONDENSED SPECTRUM=NO
##NPOINTS= 31
##XYDATA=(XY..XY) 1 
    26          8
    27         97
    28         15
    29        174
    30          6
    31          3
    39        128
    40         33
    41        288
    42         91
    43        152
    44         27
    45          6
    50          8
    51         16
    52         21
    53         16
    55         67
    56         88
    57        999
    58         39
    59         31
    69         18
    70        117
    71         68
    85        226
    86         13
    87         21
   103        239
   104         13
   129         11