##TITLE=Library Entry 34473
##JCAMP-DX=Revision 4.10 
##DATA TYPE=MASS SPECTRUM
##SAMPLE DESCRIPTION=Chemical Concepts
##NAMES=HP
##CAS NAME=Butenamide, N,N-dimethyl-
##MOLFORM=C6H11NO
##CAS REGISTRY NO=23135-18-4
##MP= -300
##BP= -300
##MW= 113
##$RETENTION INDEX=0
##$CONDENSED SPECTRUM=NO
##NPOINTS= 26
##XYDATA=(XY..XY) 1 
    38         20
    39        227
    40         60
    41        563
    42        164
    43         27
    44        256
    45        116
    46          7
    49         17
    53          9
    55         13
    56         11
    58         17
    68         61
    69        999
    70         85
    71          3
    72        149
    73         11
    86         53
    98        493
    99         34
   112         12
   113        214
   114         14