##TITLE=Library Entry 89266
##JCAMP-DX=Revision 4.10 
##DATA TYPE=MASS SPECTRUM
##SAMPLE DESCRIPTION=Chuck Anderson, Aldrich Chemical Co.
##NAMES=HP
##CAS NAME=1-Propyl-4-piperidone
##MOLFORM=C8H15NO
##CAS REGISTRY NO=23133-37-1
##MP= -300
##BP= -300
##MW= 141
##$RETENTION INDEX=0
##$CONDENSED SPECTRUM=NO
##NPOINTS= 59
##XYDATA=(XY..XY) 1 
    14          1
    15         16
    18          1
    25          0
    26         12
    27         97
    28        101
    29         25
    30         21
    31          0
    37          0
    38          1
    39         22
    40          6
    41         65
    42        436
    43         52
    44          3
    50          0
    51          1
    52          2
    53          4
    54         20
    55         43
    56         50
    57         14
    58          1
    59          0
    65          0
    66          0
    67          2
    68          7
    69          3
    70         49
    71          5
    72          1
    80          1
    81          0
    82          8
    83          3
    84        104
    85          5
    86          0
    94          0
    96          2
    97          0
    98         27
    99          2
   110          2
   111          3
   112        999
   113         69
   114          4
   126          0
   139          0
   140          9
   141         95
   142          9
   143          0