##TITLE=Library Entry 71168
##JCAMP-DX=Revision 4.10 
##DATA TYPE=MASS SPECTRUM
##SAMPLE DESCRIPTION=Y. Murata, LBC, NIDDK, NIH, Bethesda, MD 20892
##NAMES=HP
##CAS NAME=Nonadecanedioic acid, dimethyl ester
##MOLFORM=C21H40O4
##CAS REGISTRY NO=23130-41-8
##MP= -300
##BP= -300
##MW= 356
##$RETENTION INDEX=0
##$CONDENSED SPECTRUM=NO
##NPOINTS= 126
##XYDATA=(XY..XY) 1 
    52         27
    53         15
    54         45
    55        551
    56         96
    57        182
    58         33
    59        263
    65         19
    67        110
    68         82
    69        355
    70         11
    71        122
    74        771
    75         27
    79         15
    80         39
    81        103
    82         60
    83        237
    84        407
    85         52
    87        356
    88         47
    93         51
    94         63
    95         92
    96         87
    97        245
    98        999
    99        118
   101         60
   102         15
   107         44
   108         32
   109         77
   110         47
   111        115
   112        348
   113         56
   115         68
   116         17
   120         14
   121         56
   122         26
   123         77
   124         45
   125        103
   126         93
   127         48
   128         32
   129         73
   130         38
   134         13
   135         53
   136         27
   137         37
   138         17
   139         73
   140         65
   141         16
   143         57
   144         69
   147         25
   149         24
   150         16
   152         45
   153         41
   154        126
   155         17
   157         39
   158         60
   159         24
   163         65
   165         39
   166         27
   167         32
   168         83
   169         29
   171         25
   172         75
   175         12
   177         16
   179         14
   182         36
   185         12
   186         15
   187         26
   191         53
   192         12
   193         13
   195         17
   196         63
   197         12
   199         16
   200         17
   204         13
   209         32
   210         97
   211         13
   219         15
   224         28
   227         16
   232         16
   233         51
   234         15
   241         47
   249         14
   250        101
   251        106
   252         15
   262          8
   264         32
   267         12
   268         41
   270         49
   282         54
   283        197
   284         56
   292         55
   296         15
   302         13
   324         57
   325        277
   326         76