##TITLE=Library Entry 39664
##JCAMP-DX=Revision 4.10 
##DATA TYPE=MASS SPECTRUM
##SAMPLE DESCRIPTION=ACCUSTANDARD Chemicals / NIST MS Data Center.
##NAMES=HP
##CAS NAME=Oxamyl
##MOLFORM=C7H13N3O3S
##CAS REGISTRY NO=23135-22-0
##MP= -300
##BP= -300
##MW= 219
##$RETENTION INDEX=0
##$CONDENSED SPECTRUM=NO
##NPOINTS= 68
##XYDATA=(XY..XY) 1 
    12         16
    13         36
    15        210
    17          7
    18         14
    26         28
    28         19
    29         32
    30         36
    33         24
    38         24
    39         27
    40         79
    41        138
    42        505
    43        198
    44        326
    45        242
    46        112
    47        200
    48        107
    49         19
    54        160
    55        176
    56        109
    57         23
    58        195
    59         17
    60          9
    61         33
    62         10
    63         25
    64         40
    67         11
    69        352
    70         85
    72        999
    73         76
    74         45
    75         16
    79         42
    81          8
    83         83
    85          8
    86         10
    88         13
    89         21
    90         21
    94         77
    97        151
    98        321
    99        105
   100          8
   110         13
   113          9
   114         49
   115        134
   116         12
   117         12
   126         12
   128         13
   131         25
   132         28
   145        157
   146         14
   147         15
   162        158
   163          9