##TITLE=Library Entry 58868
##JCAMP-DX=Revision 4.10 
##DATA TYPE=MASS SPECTRUM
##SAMPLE DESCRIPTION=NIST Mass Spectrometry Data Center, 1994
##NAMES=HP
##CAS NAME=3-Bromophenyl isocyanate
##MOLFORM=C7H4BrNO
##CAS REGISTRY NO=23138-55-8
##MP= -300
##BP= -300
##MW= 197
##$RETENTION INDEX=0
##$CONDENSED SPECTRUM=NO
##NPOINTS= 61
##XYDATA=(XY..XY) 1 
     4          2
    18          6
    25         12
    26         37
    27         24
    29          1
    36         20
    37        202
    38        209
    39        270
    40         33
    42          5
    45        111
    48          6
    49         46
    50        184
    51         77
    52         41
    54          9
    59          6
    60         21
    61        120
    62        190
    63        510
    64        201
    65         13
    72          5
    73         22
    74         62
    75         59
    76         23
    79         24
    80          6
    81         23
    84         25
    86         26
    87         27
    88         53
    89          5
    90        999
    91         73
    92          4
    93          6
    99         58
   104          5
   106          5
   116          5
   117         16
   118        255
   119         29
   142          5
   143          6
   168          9
   169        112
   170         16
   171         99
   172          8
   197        904
   198         84
   199        885
   200         65