##TITLE=Library Entry 16797
##JCAMP-DX=Revision 4.10 
##DATA TYPE=MASS SPECTRUM
##SAMPLE DESCRIPTION=M.C. HAMMING CONTINENTAL OIL CO., PONCA CITY, OKLA, USA
##NAMES=HP
##CAS NAME=2-Hexanol, 3-methyl-
##MOLFORM=C7H16O
##CAS REGISTRY NO=2313-65-7
##MP= -300
##BP= -300
##MW= 116
##$RETENTION INDEX=909
##$CONDENSED SPECTRUM=NO
##NPOINTS= 78
##XYDATA=(XY..XY) 1 
    12          0
    13          1
    14          5
    15         36
    16          1
    17          1
    18          3
    19          4
    25          0
    26         20
    27        196
    28         30
    29        142
    30          4
    31         24
    32          0
    33          0
    36          0
    37          2
    38          7
    39         86
    40         14
    41        142
    42         63
    43        300
    44         93
    45        999
    46         24
    47          6
    48          0
    49          0
    50          4
    51          6
    52          2
    53         15
    54          4
    55        120
    56         28
    57         45
    58          5
    59         28
    60          1
    61          0
    62          0
    63          1
    64          0
    65          1
    66          0
    67          4
    68          1
    69         33
    70        178
    71         39
    72         13
    73          4
    74          1
    77          0
    78          0
    79          0
    81          1
    83         29
    84          4
    85          4
    86          0
    87          2
    88          0
    95          0
    97          1
    98         11
    99          2
   100          0
   101         20
   102          1
   112          0
   113          0
   114          0
   115          2
   116          0