##TITLE=Library Entry 47478
##JCAMP-DX=Revision 4.10 
##DATA TYPE=MASS SPECTRUM
##SAMPLE DESCRIPTION=CARL DJERASSI DEPT OF CHEM STANFORD UNIV STANFORD CALIF
 94305
##NAMES=HP
##CAS NAME=Carbonotrithioic acid, diphenyl ester
##MOLFORM=C13H10S3
##CAS REGISTRY NO=2314-54-7
##MP= -300
##BP= -300
##MW= 262
##$RETENTION INDEX=0
##$CONDENSED SPECTRUM=NO
##NPOINTS= 51
##XYDATA=(XY..XY) 1 
    16         10
    17         50
    18        170
    26         10
    27         20
    38         10
    39         90
    41         10
    43         10
    44         90
    45         40
    50         50
    51        230
    52         20
    55         10
    57         10
    58         10
    62         10
    63         20
    65         80
    66         60
    67         10
    69         60
    74         20
    75         20
    76        100
    77        999
    78        110
    79         10
    81         10
    82         20
    83         10
    84         30
   108         30
   109        130
   110        160
   111         30
   121         20
   131         10
   152         10
   153        999
   154        100
   155        100
   156         10
   184         30
   185         40
   186         60
   187         10
   262        200
   263         30
   264         40