##TITLE=Library Entry 63457
##JCAMP-DX=Revision 4.10 
##DATA TYPE=MASS SPECTRUM
##SAMPLE DESCRIPTION=V.A. KOPTYUG, VOL.4, ATLAS OF MASS SPECTRA OF ORGANIC C
OMPOUNDS
##NAMES=HP
##CAS NAME=4H-Pyrazole, 4-phenylmethyl-3,4,5-trimethyl-
##MOLFORM=C13H16N2
##CAS REGISTRY NO=23147-80-0
##MP= -300
##BP= -300
##MW= 200
##$RETENTION INDEX=0
##$CONDENSED SPECTRUM=NO
##NPOINTS= 80
##XYDATA=(XY..XY) 1 
    26         24
    27        114
    28         90
    29         32
    30         15
    38         21
    39        227
    40         50
    41        158
    42        189
    43         23
    50         37
    51        110
    52         34
    53         87
    54         40
    55         41
    56         31
    62         15
    63         77
    64         28
    65        330
    66         52
    67         32
    68         53
    69         28
    76         14
    77         96
    78         33
    79         45
    80         21
    81         26
    82         28
    89         75
    90         35
    91        999
    92        107
    93         10
    95         13
    96         12
    99         13
   100         25
   103         19
   104         39
   105         12
   108         20
   109        639
   110         86
   115         45
   116         25
   117         33
   118         16
   122         14
   123        261
   124         24
   128         17
   129         15
   130         16
   141         13
   142         22
   143         25
   144         51
   145         13
   156         14
   157         28
   158         40
   168         12
   170         14
   171         10
   182         37
   183         19
   184         17
   185        516
   186         77
   197         10
   198         15
   199        660
   200        619
   201         96
   202          8