##TITLE=Library Entry 62482
##JCAMP-DX=Revision 4.10 
##DATA TYPE=MASS SPECTRUM
##SAMPLE DESCRIPTION=Exported from NIST MS Search
##NAMES=HP
##CAS NAME=L-Threonine, N-[(phenylmethoxy)carbonyl]-O-[3,4,6-tri-O-acetyl-2-
(acetylamino)-2-deoxy-.beta.-D-glucopyranosyl]-, methyl ester
##MOLFORM=C27H36N2O13
##CAS REGISTRY NO=23141-51-7
##MP= -300
##BP= -300
##MW= 596
##$RETENTION INDEX=0
##$CONDENSED SPECTRUM=NO
##NPOINTS= 62
##XYDATA=(XY..XY) 1 
    91        999
    92        100
    96         99
    97         59
    98         48
   101        173
   102         27
   107         48
   108        129
   109         79
   114        119
   115         40
   124          7
   125         13
   126        101
   127         23
   128          7
   138         66
   139         86
   140         45
   143         60
   144         38
   150        391
   151         45
   156         58
   157         44
   158         66
   168        189
   169         67
   181         19
   190         18
   198         18
   199         28
   206         28
   207          6
   210        200
   211         26
   228          8
   234         86
   241         16
   242          8
   249         10
   250        109
   251         20
   270         35
   271          6
   278        149
   279         12
   296         15
   297          6
   330        333
   331         65
   429          4
   430          0
   477          2
   478          0
   537          3
   538          0
   565          1
   566          0
   596          3
   597          0