##TITLE=Library Entry 19261
##JCAMP-DX=Revision 4.10 
##DATA TYPE=MASS SPECTRUM
##SAMPLE DESCRIPTION=NIST Mass Spectrometry Data Center
##NAMES=HP
##CAS NAME=8-Chloro-1-octanol
##MOLFORM=C8H17ClO
##CAS REGISTRY NO=23144-52-7
##MP= -300
##BP= -300
##MW= 164
##$RETENTION INDEX=1352
##$CONDENSED SPECTRUM=NO
##NPOINTS= 93
##XYDATA=(XY..XY) 1 
    15          3
    19          2
    26          8
    27        117
    28         35
    29        131
    30          7
    31        172
    32          2
    33          1
    35          1
    36          2
    37          2
    38          7
    39        173
    40         36
    41        596
    42        224
    43        225
    44         30
    45         23
    46          1
    47          1
    48          1
    49         39
    50          7
    51         29
    52          7
    53         84
    54        128
    55        999
    56        357
    57        107
    58          6
    59          3
    60          1
    61          5
    62         11
    63         49
    64          4
    65         28
    66         16
    67        332
    68        390
    69        511
    70        102
    71         11
    72          1
    73         18
    74          1
    75         17
    76         25
    77         25
    78         11
    79         22
    80          6
    81        130
    82        347
    83        184
    84         46
    85          4
    87          1
    88          1
    89          9
    90         53
    91        190
    92         26
    93         62
    94          3
    95         31
    96          3
    97         30
    98          3
   102          1
   103          8
   104        334
   105         31
   106        109
   107          9
   108          1
   109         12
   110          8
   111          6
   112          1
   116          1
   117         24
   118        240
   119         24
   120         77
   121          5
   131          1
   146          2
   148          1