##TITLE=Library Entry 38073
##JCAMP-DX=Revision 4.10 
##DATA TYPE=MASS SPECTRUM
##SAMPLE DESCRIPTION=Exported from NIST MS Search
##NAMES=HP
##CAS NAME=Virginiamycin factor S
##MOLFORM=C43H49N7O10
##CAS REGISTRY NO=23152-29-6
##MP= -300
##BP= -300
##MW= 823
##$RETENTION INDEX=0
##$CONDENSED SPECTRUM=NO
##NPOINTS= 151
##XYDATA=(XY..XY) 1 
    39        114
    40         23
    41        114
    42        138
    43         40
    44        166
    51         28
    54         28
    55         64
    56        147
    57         66
    58        166
    65         23
    66         42
    67         47
    68         71
    69         66
    70        999
    71         57
    77         54
    78         38
    79         28
    84         35
    91        119
    92         28
    94        161
    98         95
   103         40
   104         64
   105         47
   106        109
   111         28
   118        109
   122        159
   123         64
   129         95
   131         71
   132         59
   133         42
   134        178
   135         28
   138         23
   139        100
   140         23
   150         28
   151         23
   160         23
   161         16
   162         28
   163         42
   167         47
   177        161
   178         95
   179         38
   181         54
   195         52
   205        238
   206         35
   209         42
   215         42
   216         23
   229         23
   231         40
   241         28
   256         28
   257         76
   258         76
   290        171
   291         42
   312          7
   313          4
   314          9
   315          4
   328          7
   329          4
   340          9
   341          7
   342          9
   346          7
   354          7
   356          4
   370         16
   371          2
   382         14
   383          4
   386          4
   387         14
   410          7
   425         23
   426          9
   441          2
   451          2
   452          7
   467          4
   469          2
   479          4
   480          4
   481          4
   496          7
   498         16
   522         38
   523         11
   535          2
   536          4
   537          9
   548          9
   549          2
   550          4
   553          9
   564          9
   565         11
   566         14
   567          7
   569          4
   592          9
   593         14
   594          7
   611          4
   612          7
   635         11
   636          4
   655          7
   662         16
   663          9
   671          7
   672          4
   674          7
   683         69
   684         30
   685          7
   690         11
   696         16
   697         14
   698          7
   725          2
   726          7
   727          4
   732          9
   733          2
   754          4
   755          2
   766          2
   767          2
   768          2
   779          2
   780          2
   795          7
   796          4
   823         90
   824         42
   825         11