##TITLE=Library Entry 12276
##JCAMP-DX=Revision 4.10 
##DATA TYPE=MASS SPECTRUM
##SAMPLE DESCRIPTION=Div. of Experiment Therapeutics WRAIR, WRAMC, Washingto
n DC 20307
##NAMES=HP
##CAS NAME=Di-n-propyl thionophosphoraziridine
##MOLFORM=C8H18NO2PS
##CAS REGISTRY NO=23158-40-9
##MP= -300
##BP= -300
##MW= 223
##$RETENTION INDEX=0
##$CONDENSED SPECTRUM=NO
##NPOINTS= 130
##XYDATA=(XY..XY) 1 
    41        230
    43        999
    44        292
    46         36
    47         29
    49         18
    51          7
    53          1
    54          3
    55         10
    56         47
    57         13
    58         16
    59         22
    61         27
    63         27
    65        126
    67          1
    68          6
    69         15
    70         13
    71         17
    73         97
    74         41
    75         34
    76         17
    77         11
    79         12
    80         14
    81          8
    82          3
    83         18
    84         19
    85         26
    86          7
    87         45
    88         21
    89          4
    90         87
    92          8
    93          4
    94          6
    95          5
    96          4
    97         82
    98         24
    99         32
   101          6
   102         19
   104         34
   105          5
   106         65
   107         76
   108         12
   110         39
   112         13
   113          4
   114         33
   115         50
   116          9
   117         10
   119         10
   122        128
   123         23
   124         28
   126         58
   127          2
   128         11
   129          3
   130          3
   131          4
   132         18
   133          7
   135         28
   136          7
   138         21
   139        102
   140        309
   141         46
   143          7
   145          4
   147          5
   148         15
   149         32
   151         18
   152         27
   154         27
   156         22
   157         11
   158          5
   160         10
   161          3
   162          1
   163          5
   164         14
   165         22
   166         23
   168         34
   170         11
   172         42
   174          8
   176          5
   177         10
   178          5
   179          2
   180         11
   181         62
   182        111
   183         16
   184          9
   186          9
   188          5
   189          1
   190          6
   191          3
   192          5
   193          2
   194         34
   195          7
   196          5
   197         10
   206          3
   207         17
   208         47
   209          2
   221         12
   222          5
   223        125
   224         17
   225          4