##TITLE=Library Entry 79279
##JCAMP-DX=Revision 4.10 
##DATA TYPE=MASS SPECTRUM
##SAMPLE DESCRIPTION=NIST Mass Spectrometry Data Center
##NAMES=HP
##CAS NAME=n-Propyl benzoate
##MOLFORM=C10H12O2
##CAS REGISTRY NO=2315-68-6
##MP= -300
##BP= -300
##MW= 164
##$RETENTION INDEX=1286
##$CONDENSED SPECTRUM=NO
##NPOINTS= 69
##XYDATA=(XY..XY) 1 
    12          1
    13          1
    14          2
    15         16
    16          0
    18          1
    26         20
    27        145
    28         26
    29         43
    30          6
    37          5
    38         16
    39         71
    40          9
    41         70
    42         23
    43         28
    44          1
    50        107
    51        287
    52         18
    53          4
    54          0
    55          1
    56          0
    57          2
    59          3
    60          0
    61          1
    62          3
    63          3
    64          1
    65          7
    66          2
    67          0
    73          2
    74         18
    75         19
    77        520
    78         46
    79         46
    80          3
    91          4
    92          1
    93          1
    94          4
   101          1
   102          1
   103          3
   105        999
   106         83
   107          7
   108          0
   118          0
   119          1
   120          2
   122        242
   123        387
   124         29
   125          2
   131          1
   135         12
   136          1
   145          0
   147          1
   149          0
   164         17
   165          2