##TITLE=Library Entry 6676
##JCAMP-DX=Revision 4.10 
##DATA TYPE=MASS SPECTRUM
##SAMPLE DESCRIPTION=Div. of Experiment Therapeutics WRAIR, WRAMC, Washingto
n DC 20307
##NAMES=HP
##CAS NAME=Di-n-propyl-N-[2-chloroethyl]thionophosphoramide
##MOLFORM=C8H19ClNO2PS
##CAS REGISTRY NO=23158-41-0
##MP= -300
##BP= -300
##MW= 259
##$RETENTION INDEX=0
##$CONDENSED SPECTRUM=NO
##NPOINTS= 145
##XYDATA=(XY..XY) 1 
    41        330
    43        999
    44        579
    45        104
    47        191
    48         20
    49         23
    50          4
    51          3
    52          1
    53          0
    54          2
    55          7
    56         17
    57         10
    58         13
    59         77
    60         44
    61         69
    63         52
    65         88
    67          4
    68          2
    69          8
    70         15
    72         31
    74         61
    76        101
    77         28
    78         29
    80         84
    82         82
    83         48
    85         12
    86          9
    88         21
    90         36
    92         17
    93         56
    94         38
    96         20
    97         62
    98         48
    99         14
   101          7
   102          8
   103         11
   104         31
   106         73
   107         23
   108         16
   110        144
   112         32
   114         51
   115         79
   117         10
   118          4
   120         13
   122        127
   123         44
   124         37
   126        116
   128         76
   129        107
   131          6
   133          4
   134          4
   135         17
   136         10
   138         33
   139         61
   140        252
   142         43
   144         28
   146          2
   148          3
   149         12
   151         33
   152         63
   154         32
   155         25
   156         25
   157         15
   158         24
   160         41
   162          3
   164         19
   165         19
   166         18
   168         84
   169         15
   170         18
   171         53
   172         14
   173          4
   174          5
   176         93
   178         52
   179         12
   181         48
   182         68
   183         14
   184         15
   186         20
   187          2
   188          1
   190          5
   191         15
   192          4
   194         52
   195          5
   197         29
   198         15
   199         23
   200         17
   202         93
   203          5
   204          5
   205          1
   207         17
   208          8
   210         12
   211         10
   213          8
   214          4
   215          3
   216          3
   218         17
   220         51
   221          2
   223         49
   224         80
   225         23
   226          9
   228          4
   229          1
   231          7
   232          2
   243          4
   244         55
   245          4
   258          5
   259         13
   260          2
   261          2