##TITLE=Library Entry 88334
##JCAMP-DX=Revision 4.10 
##DATA TYPE=MASS SPECTRUM
##SAMPLE DESCRIPTION=V.G.Zaikin, TIPS, Russian Acad. Sci.
##NAMES=HP
##CAS NAME=4-(2,4-Dimethylcyclohex-3-enyl)but-3-en-2-one
##MOLFORM=C12H18O
##CAS REGISTRY NO=2316-82-7
##MP= -300
##BP= -300
##MW= 178
##$RETENTION INDEX=0
##$CONDENSED SPECTRUM=NO
##NPOINTS= 62
##XYDATA=(XY..XY) 1 
    41        130
    42         20
    43        180
    44         20
    53         85
    55        170
    57         20
    65         30
    66         20
    67        360
    68        900
    69         90
    71         30
    72         60
    77        100
    78         35
    79        130
    80         30
    81         90
    82         60
    83         40
    91        160
    92         50
    93        360
    94         70
    95        930
    96         90
    97         40
    98         20
   103         40
   104         40
   105        180
   106        100
   107        235
   108        160
   109        190
   110        100
   111        999
   112        125
   117         20
   118         20
   119         60
   120         20
   121        120
   122        140
   123         40
   124         10
   125         10
   131         20
   133         20
   134         30
   135         50
   136         25
   145         80
   146         15
   149         25
   160         40
   163        120
   164         20
   178        220
   179         29
   180          2