##TITLE=Library Entry 7411
##JCAMP-DX=Revision 4.10 
##DATA TYPE=MASS SPECTRUM
##SAMPLE DESCRIPTION=Chemical Concepts
##NAMES=HP
##CAS NAME=1,4-Dimethyl-5-oxabicyclo[2.1.0]pentane
##MOLFORM=C6H10O
##CAS REGISTRY NO=2316-03-2
##MP= -300
##BP= -300
##MW= 98
##$RETENTION INDEX=0
##$CONDENSED SPECTRUM=NO
##NPOINTS= 57
##XYDATA=(XY..XY) 1 
    26         11
    27         82
    28         18
    29         94
    30          1
    31          4
    36          1
    37          4
    38         11
    39        116
    40         12
    41         91
    42         18
    43        999
    44         21
    45         21
    49          1
    50         12
    51         16
    52          6
    53         33
    54          8
    55        161
    56         18
    57         13
    58        120
    59         63
    60          4
    61          1
    62          1
    63          3
    64          0
    65          8
    66          1
    67          5
    68          0
    69          8
    70          3
    71          2
    74          1
    76          1
    77          6
    78          1
    79          9
    80          1
    81          3
    82          3
    83         18
    84          1
    89          1
    90          2
    91          3
    95          1
    96          1
    97        131
    98         63
    99          3