##TITLE=Library Entry 67974
##JCAMP-DX=Revision 4.10 
##DATA TYPE=MASS SPECTRUM
##SAMPLE DESCRIPTION=Chemical Concepts
##NAMES=HP
##CAS NAME=2-Heptyne, 7-bromo-
##MOLFORM=C7H11Br
##CAS REGISTRY NO=231620-79-4
##MP= -300
##BP= -300
##MW= 174
##$RETENTION INDEX=0
##$CONDENSED SPECTRUM=NO
##NPOINTS= 93
##XYDATA=(XY..XY) 1 
    26         63
    27        554
    29         86
    30          2
    31          0
    36          3
    37         26
    38         67
    39        601
    40        122
    41        810
    42         67
    43         19
    44          0
    45         12
    46         16
    47          1
    48          2
    49         12
    50        115
    51        222
    52        152
    53        935
    54        260
    55        446
    56         19
    60          1
    61         15
    62         34
    63         70
    64         18
    65        224
    66        189
    67        954
    68        368
    69         18
    73          2
    74          7
    75          7
    76          2
    77        235
    78         44
    79        639
    80         86
    81        122
    82          7
    83          2
    84          0
    85          2
    86          3
    87          1
    88          0
    89          4
    90          1
    91         83
    92          8
    93        114
    94         24
    95        999
    96         79
    97          2
   102          5
   104          2
   105          2
   106          4
   107         17
   108          4
   109         14
   117          0
   119          7
   120          1
   121          8
   122          1
   123          2
   124          1
   130          1
   131          2
   132          5
   133         28
   134          5
   135         25
   136          0
   145          1
   146        452
   147         24
   148        435
   149         23
   159          2
   161          2
   174         89
   175          7
   176         88
   177          6