##TITLE=Library Entry 18255
##JCAMP-DX=Revision 4.10 
##DATA TYPE=MASS SPECTRUM
##SAMPLE DESCRIPTION=V.A.Korolev, Moscow, Russia
##NAMES=HP
##CAS NAME=4-[5-(4-Nitrophenyl)-2H-1,2,4-triazol-3-yl]pyridine
##MOLFORM=C13H9N5O2
##CAS REGISTRY NO=23164-56-9
##MP= -300
##BP= -300
##MW= 267
##$RETENTION INDEX=0
##$CONDENSED SPECTRUM=NO
##NPOINTS= 72
##XYDATA=(XY..XY) 1 
    30        236
    37        150
    38        260
    39        383
    40         47
    41         73
    46        233
    48         26
    50        716
    51        999
    52        170
    53         55
    61         78
    62        543
    63        892
    64        202
    65         53
    74        119
    75        236
    76        331
    77        206
    78        592
    79         88
    86         40
    87        152
    88        228
    89         42
    90        551
    91        108
    92         44
   102         60
   103         39
   104        178
   105        413
   106         83
   116         50
   117         61
   118        159
   119        418
   120         33
   121         50
   133         57
   134        141
   135          4
   138         32
   139         50
   140         42
   141         46
   154         56
   155         17
   156          4
   166        102
   167         18
   181         50
   182          5
   192        141
   193        135
   194         14
   195          3
   202         21
   209         78
   210          8
   221        114
   222         19
   236         46
   237        226
   238         38
   239          3
   266         29
   267        913
   268        144
   269         10