##TITLE=Library Entry 11540
##JCAMP-DX=Revision 4.10 
##DATA TYPE=MASS SPECTRUM
##SAMPLE DESCRIPTION=V.G.Zaikin, TIPS, Russian Acad. Sci.
##NAMES=HP
##CAS NAME=4-Hydroxy-4-(2,6-dimethylcyclohex-3-enyl)butan-2-one
##MOLFORM=C12H20O2
##CAS REGISTRY NO=2316-78-1
##MP= -300
##BP= -300
##MW= 196
##$RETENTION INDEX=0
##$CONDENSED SPECTRUM=NO
##NPOINTS= 54
##XYDATA=(XY..XY) 1 
    18          1
    41        220
    42         55
    43        999
    44         45
    53        105
    54        215
    56         50
    57         60
    58        130
    59        160
    65         60
    67        450
    68        285
    69        150
    70         50
    71         80
    72        120
    77        135
    78         60
    79        210
    80         60
    81         90
    82         80
    83         80
    84         50
    87        340
    91        100
    92         60
    93        430
    94        100
    95        370
    96         80
    97         50
    98         50
   105        450
   106        110
   107        120
   108        220
   109        390
   110        170
   111        170
   119         70
   120        540
   121        130
   123         80
   135        110
   136         50
   138        100
   145        200
   160         60
   163         30
   178        120
   179         16