##TITLE=Library Entry 7099
##JCAMP-DX=Revision 4.10 
##DATA TYPE=MASS SPECTRUM
##SAMPLE DESCRIPTION=R. A. FONG
##NAMES=HP
##CAS NAME=2-Butanone, 4-cyclohexyl-
##MOLFORM=C10H18O
##CAS REGISTRY NO=2316-85-0
##MP= -300
##BP= -300
##MW= 154
##$RETENTION INDEX=0
##$CONDENSED SPECTRUM=NO
##NPOINTS= 86
##XYDATA=(XY..XY) 1 
    14         19
    15        182
    16          3
    17          4
    18         14
    19          1
    26         19
    27        248
    28         68
    29        181
    30          5
    31         13
    37          2
    38          8
    39        225
    40         37
    41        446
    42         82
    43        999
    44         41
    45         18
    50          6
    51         45
    52         25
    53        123
    54        140
    55        574
    56         47
    57        100
    58        389
    59        176
    60          6
    61          1
    62          3
    63          9
    64          2
    65         24
    66         22
    67        226
    68        123
    69        134
    70         21
    71        418
    72         86
    73          7
    74          1
    75          1
    77         26
    78          8
    79         53
    80         16
    81        283
    82         53
    83        124
    84         20
    85          7
    86          3
    91          9
    92          2
    93         25
    94         82
    95         99
    96        422
    97        315
    98         24
    99          7
   100         10
   101          9
   105          1
   106          1
   107         27
   108          8
   109          4
   110         26
   111         13
   112          2
   121        110
   122         11
   125         24
   126          7
   135          6
   136         54
   137          6
   139          8
   154         35
   155          5