##TITLE=Library Entry 29718
##JCAMP-DX=Revision 4.10 
##DATA TYPE=MASS SPECTRUM
##SAMPLE DESCRIPTION=NIST Mass Spectrometry Data Center, 1990.
##NAMES=HP
##CAS NAME=2,3,3-Trimethyl-2-pentanol
##MOLFORM=C8H18O
##CAS REGISTRY NO=23171-85-9
##MP= -300
##BP= -300
##MW= 130
##$RETENTION INDEX=0
##$CONDENSED SPECTRUM=NO
##NPOINTS= 34
##XYDATA=(XY..XY) 1 
    14          5
    15         19
    27         68
    28         48
    29         68
    30          5
    31         76
    32          8
    39         70
    40         13
    41        140
    42         23
    43        191
    44          8
    45         17
    51          6
    53         16
    55        142
    56         13
    57         38
    58          6
    59        999
    60         32
    67          9
    69         18
    70         24
    71         72
    83         88
    84         11
    85          8
    86          4
    97         19
   101         32
   115         46