##TITLE=Library Entry 17306
##JCAMP-DX=Revision 4.10 
##DATA TYPE=MASS SPECTRUM
##SAMPLE DESCRIPTION=THE M.W. KELLOGG CO., JERSEY CITY, N.J., USA
##NAMES=HP
##CAS NAME=Ethene, 1-chloro-1-fluoro-
##MOLFORM=C2H2ClF
##CAS REGISTRY NO=2317-91-1
##MP= -300
##BP= -300
##MW= 80
##$RETENTION INDEX=375
##$CONDENSED SPECTRUM=NO
##NPOINTS= 39
##XYDATA=(XY..XY) 1 
    20          1
    24         42
    25         94
    26        131
    27          3
    30          3
    31         99
    32          5
    33          6
    34          0
    35         80
    36         11
    37         25
    38          3
    43         14
    44        197
    45        999
    46         22
    47         40
    48          6
    49         24
    50          2
    51          4
    59         13
    60         13
    61         46
    62         56
    63         16
    64          0
    66          8
    67          1
    68          2
    69          0
    78          6
    79         25
    80        713
    81         24
    82        227
    83          4