##TITLE=Library Entry 2476
##JCAMP-DX=Revision 4.10 
##DATA TYPE=MASS SPECTRUM
##SAMPLE DESCRIPTION=NIST Mass Spectrometry Data Center, 1990.
##NAMES=HP
##CAS NAME=Pentane, 1-(2-propenyloxy)-
##MOLFORM=C8H16O
##CAS REGISTRY NO=23186-70-1
##MP= -300
##BP= -300
##MW= 128
##$RETENTION INDEX=0
##$CONDENSED SPECTRUM=NO
##NPOINTS= 39
##XYDATA=(XY..XY) 1 
    14          2
    15         19
    16          4
    18          3
    26         34
    27        214
    28         87
    29        293
    30         24
    31         30
    32          2
    37          6
    38         28
    39        307
    40          2
    41        999
    42        179
    43        809
    44         50
    45         10
    50          4
    51          5
    53         18
    54         11
    55        153
    56         40
    57        196
    58        614
    59         35
    67         13
    68          6
    69         60
    70        102
    71        221
    72         10
    85          4
    87          2
    99         54
   100          4