##TITLE=Library Entry 69191
##JCAMP-DX=Revision 4.10 
##DATA TYPE=MASS SPECTRUM
##SAMPLE DESCRIPTION=Chemical Concepts
##NAMES=HP
##CAS NAME=1,1'-Bicycloheptyl
##MOLFORM=C14H26
##CAS REGISTRY NO=23183-11-1
##MP= -300
##BP= -300
##MW= 194
##$RETENTION INDEX=0
##$CONDENSED SPECTRUM=NO
##NPOINTS= 40
##XYDATA=(XY..XY) 1 
    27         32
    29         62
    39         43
    40          9
    41        171
    42         13
    43         46
    44          7
    51          0
    52          2
    53         30
    54         75
    55        745
    56         41
    57         15
    65          6
    66         18
    67        187
    68        111
    69         69
    70          2
    77         14
    79         19
    80          2
    81        263
    82         50
    83         23
    84          1
    91          5
    93          8
    95         45
    96        999
    97        685
    98         56
   109          1
   110          0
   111          3
   123          7
   194         49
   195          3