##TITLE=Library Entry 30124
##JCAMP-DX=Revision 4.10 
##DATA TYPE=MASS SPECTRUM
##SAMPLE DESCRIPTION=Japan AIST/NIMC Database- Spectrum MS-IW-6479
##NAMES=HP
##CAS NAME=Decanamide-
##MOLFORM=C10H21NO
##CAS REGISTRY NO=2319-29-1
##MP= -300
##BP= -300
##MW= 171
##$RETENTION INDEX=1521
##$CONDENSED SPECTRUM=NO
##NPOINTS= 71
##XYDATA=(XY..XY) 1 
    15          1
    26          1
    27         36
    28         11
    29         57
    30          4
    31          1
    39         28
    40          5
    41        114
    42         29
    43        148
    44        118
    45          5
    46          2
    51          1
    52          1
    53          9
    54          9
    55         69
    56         16
    57         55
    58          3
    59        999
    60         76
    61          4
    65          1
    67          7
    68          3
    69         32
    70          7
    71         18
    72        361
    73         58
    74          2
    77          1
    79          2
    81          4
    82          6
    83         15
    84         10
    85          8
    86         88
    87          7
    93          1
    95          3
    96          6
    97         13
    98         13
    99          1
   100         19
   101          8
   110          6
   111          5
   112          1
   114         44
   115          9
   124          2
   125          2
   128         71
   129          7
   135          1
   142         20
   143          2
   154          2
   155          2
   156          1
   170          3
   171         70
   172         11
   173          1