##TITLE=Library Entry 7177
##JCAMP-DX=Revision 4.10 
##DATA TYPE=MASS SPECTRUM
##SAMPLE DESCRIPTION=Vladimir Zaikin, TIPS RAS, Moscow, Russia
##NAMES=HP
##CAS NAME=9-Tetradecen-1-ol, acetate, (E)-
##MOLFORM=C16H30O2
##CAS REGISTRY NO=23192-82-7
##MP= -300
##BP= -300
##MW= 254
##$RETENTION INDEX=1801
##$CONDENSED SPECTRUM=NO
##NPOINTS= 83
##XYDATA=(XY..XY) 1 
    30         30
    31         83
    32         20
    35         10
    36         20
    37         30
    38         45
    39        312
    40         75
    41        550
    42        215
    43        999
    44        101
    45         75
    50         30
    51         45
    52         30
    53        100
    54        265
    55        605
    56        165
    57        111
    58         40
    59         11
    60         40
    61        125
    62         11
    63         20
    65         31
    66         55
    67        400
    68        225
    69        225
    70        100
    71         50
    72         11
    73         35
    74         10
    77         35
    78         25
    79         91
    80         63
    81        315
    82        305
    83        165
    84         52
    85         30
    86         10
    87         10
    91         30
    92         10
    93         49
    94         33
    95        165
    96        200
    97        100
    98         50
    99         15
   100         11
   101         15
   107         20
   108         20
   109         85
   110         85
   111         35
   112         20
   121         15
   122         11
   123         45
   124         40
   125         15
   126         10
   127         10
   131         15
   137         20
   138         23
   139         10
   143         15
   151         10
   152         10
   166         10
   181         10
   194         35