##TITLE=Library Entry 36041
##JCAMP-DX=Revision 4.10 
##DATA TYPE=MASS SPECTRUM
##SAMPLE DESCRIPTION=Exported from NIST MS Search
##NAMES=HP
##CAS NAME=Cyclohexane, 1,1'-ethylidenebis-
##MOLFORM=C14H26
##CAS REGISTRY NO=2319-61-1
##MP= -300
##BP= -300
##MW= 194
##$RETENTION INDEX=0
##$CONDENSED SPECTRUM=NO
##NPOINTS= 102
##XYDATA=(XY..XY) 1 
    29        327
    30          6
    37          1
    38          1
    39        226
    40         39
    41        874
    42         86
    43        122
    44          4
    45          1
    46          1
    49          1
    50          3
    51         17
    52         12
    53        119
    54        143
    55        972
    56         71
    57         53
    58          2
    59          1
    61          1
    62          1
    63          3
    64          1
    65         20
    66         19
    67        328
    68        124
    69        999
    70         62
    71          4
    72          1
    73          1
    74          1
    75          1
    76          1
    77         25
    78          6
    79         33
    80         20
    81        319
    82        646
    83        400
    84         25
    85          1
    89          1
    90          1
    91         11
    92          2
    93          7
    94          2
    95         62
    96          9
    97         30
    98          3
    99          1
   102          1
   103          1
   104          1
   105          2
   106          1
   107          2
   108          1
   109         18
   110        709
   111        993
   112         83
   113          3
   114          1
   115          1
   116          1
   117          1
   119          1
   121          1
   122          1
   123          6
   124          2
   125          1
   126          1
   127          1
   128          1
   129          1
   135          1
   136          1
   137          1
   138          1
   150          1
   151          1
   152          1
   164          1
   165          2
   166          1
   178          1
   179          2
   180          1
   193          1
   194         53
   195          8
   196          1