##TITLE=Library Entry 9619
##JCAMP-DX=Revision 4.10 
##DATA TYPE=MASS SPECTRUM
##SAMPLE DESCRIPTION=J. Klune, Insect Chem. Ecol. Lab., USDA, Beltsville, MD
 20705
##NAMES=HP
##CAS NAME=7-Hexadecen-1-ol, acetate, (Z)-
##MOLFORM=C18H34O2
##CAS REGISTRY NO=23192-42-9
##MP= -300
##BP= -300
##MW= 282
##$RETENTION INDEX=1988
##$CONDENSED SPECTRUM=NO
##NPOINTS= 128
##XYDATA=(XY..XY) 1 
    41        517
    42         92
    43        999
    44         28
    45          5
    51          3
    52          4
    53         63
    54        298
    55        517
    56        101
    57        151
    58          9
    59          2
    61         89
    62          2
    63          0
    65         22
    66         62
    67        584
    68        316
    69        298
    70         65
    71         47
    72          4
    73         22
    74          0
    77         19
    78          6
    79         87
    80         71
    81        539
    82        762
    83        292
    84         35
    85         21
    86          2
    87          2
    89          0
    91         13
    92          1
    93         30
    94         39
    95        410
    96        633
    97        199
    98         25
    99          6
   100          1
   101          3
   105          2
   106          0
   107         10
   108         17
   109        257
   110        218
   111         71
   112         12
   113          3
   114          1
   115          1
   116          0
   121          8
   122         20
   123        140
   124        154
   125         32
   126          8
   127          3
   128          0
   129          0
   135          4
   136         13
   137         90
   138         98
   139         19
   140         13
   141          3
   142          1
   149          2
   150          2
   151         26
   152         42
   153         12
   154          5
   155          2
   156          2
   163          1
   164          1
   165         34
   166         55
   167         10
   168          2
   169          1
   170          3
   178          0
   179         16
   180         23
   181          5
   182          0
   183          1
   184          0
   193         10
   194         65
   195         10
   196          2
   197          1
   199          0
   207          3
   208          0
   209          1
   220          2
   222        481
   223         84
   224         11
   225          1
   236          0
   237          1
   239          5
   241          1
   265          1
   267          0
   279          6
   280          1
   281          5
   282         43
   283          7
   284          1