##TITLE=Library Entry 31181
##JCAMP-DX=Revision 4.10 
##DATA TYPE=MASS SPECTRUM
##SAMPLE DESCRIPTION=Japan AIST/NIMC Database- Spectrum MS-IW-5612
##NAMES=HP
##CAS NAME=1,2,3,4-Butanetetrol, [S-(R*,R*)]-
##MOLFORM=C4H10O4
##CAS REGISTRY NO=2319-57-5
##MP= -300
##BP= -300
##MW= 122
##$RETENTION INDEX=0
##$CONDENSED SPECTRUM=NO
##NPOINTS= 71
##XYDATA=(XY..XY) 1 
    13          1
    14         11
    15        102
    16          3
    17         23
    18         75
    19         69
    24          1
    25          5
    26         28
    27         91
    28        112
    29        159
    30         45
    31        254
    32         18
    33          6
    34          1
    36          1
    37          5
    38          7
    39         40
    40         12
    41         20
    42         95
    43        646
    44        877
    45        273
    46         10
    47         15
    49          3
    50          5
    51          2
    52          2
    53          6
    54          4
    55         79
    56        163
    57         39
    58         12
    59          4
    60        173
    61        999
    62         87
    63          7
    68         37
    69         11
    70          7
    71          9
    72          9
    73        155
    74        178
    75          9
    76          6
    79          4
    84          2
    85          2
    86         13
    87         17
    88          1
    89          1
    90          2
    91        262
    92          9
    93          1
   103          1
   104         17
   105         21
   106          1
   123         12
   124          1