##TITLE=Library Entry 35082
##JCAMP-DX=Revision 4.10 
##DATA TYPE=MASS SPECTRUM
##SAMPLE DESCRIPTION=Japan AIST/NIMC Database- Spectrum MS-NW-3455
##NAMES=HP
##CAS NAME=Cyclohexanone, 3,5-dimethyl-
##MOLFORM=C8H14O
##CAS REGISTRY NO=2320-30-1
##MP= -300
##BP= -300
##MW= 126
##$RETENTION INDEX=0
##$CONDENSED SPECTRUM=NO
##NPOINTS= 76
##XYDATA=(XY..XY) 1 
    14          3
    15         13
    17          1
    18          4
    26          8
    27         81
    28         12
    29         51
    30          2
    31          1
    37          5
    38         11
    39        147
    40         34
    41        298
    42        142
    43         64
    44          3
    45          1
    49          1
    50          9
    51         17
    52          7
    53         32
    54         14
    55        179
    56        345
    57         37
    58          4
    59          1
    61          2
    62          3
    63          5
    64          1
    65          8
    66          4
    67         51
    68         28
    69        999
    70         63
    71         42
    72          2
    74          2
    77         10
    78          3
    79          9
    80          2
    81          9
    82        149
    83        107
    84         70
    85          6
    91          8
    92          2
    93         52
    94          5
    95          5
    96          1
    97         16
    98          6
    99          1
   105          2
   106          2
   107          3
   108         46
   109          6
   110          2
   111        227
   112         20
   113          3
   122          1
   124          2
   125          5
   126        253
   127         25
   128          2