##TITLE=Library Entry 40075
##JCAMP-DX=Revision 4.10 
##DATA TYPE=MASS SPECTRUM
##SAMPLE DESCRIPTION=OGDEN BioServices Corp., NCI, Rockville, MD 20852
##NAMES=HP
##CAS NAME=Doxorubicin
##MOLFORM=C27H29NO11
##CAS REGISTRY NO=23214-92-8
##MP= -300
##BP= -300
##MW= 543
##$RETENTION INDEX=0
##$CONDENSED SPECTRUM=NO
##NPOINTS= 146
##XYDATA=(XY..XY) 1 
    41        411
    42        230
    43        648
    44        302
    45        203
    46         22
    47         22
    49         76
    50         55
    51         98
    52         39
    53         86
    54         78
    55        242
    56         90
    57        313
    58        137
    59         24
    60         50
    61         26
    62         41
    63        109
    64         25
    65        399
    66        282
    67        196
    68        335
    69        225
    70        220
    71        150
    72        999
    73         66
    77         54
    78         37
    79         57
    80         95
    81        160
    82         98
    83        118
    84        152
    85         53
    86         68
    87         12
    89         13
    91         22
    92         23
    93         68
    94        725
    95        353
    96        123
    97        293
    98         39
    99         17
   101         12
   102         13
   104         21
   105         21
   106         25
   107         16
   108         21
   109         24
   110         22
   111         39
   112        149
   113         73
   115         32
   117         23
   118         44
   119         21
   120         64
   121         40
   122         27
   123         17
   124         17
   125         14
   126         12
   128         15
   129         17
   130         19
   131         18
   132         20
   133         16
   134         29
   135         20
   136         15
   137         13
   138         16
   139         23
   140         23
   141         11
   144         17
   145         15
   146         13
   147         13
   148         15
   149         29
   151         14
   152         37
   153         16
   154         20
   155         25
   160         13
   161         12
   162         17
   163         14
   164         12
   165         16
   166         49
   167         15
   169         11
   173         19
   174         13
   176         14
   179         54
   180        163
   181         32
   187         17
   188         16
   189         16
   190         66
   198         12
   205        151
   206         34
   207         27
   211         12
   217         44
   223         32
   256         12
   284         39
   299         29
   309        109
   310         27
   313         14
   317         52
   318         66
   319         50
   320         15
   336        104
   337        158
   338         58
   339         51
   347         68
   348         12
   378         61
   414        169
   415         29