##TITLE=Library Entry 83999
##JCAMP-DX=Revision 4.10 
##DATA TYPE=MASS SPECTRUM
##SAMPLE DESCRIPTION=A.E.WILLIAMS ICI DYESTUFFS DIVISION. BLACKLEY
##NAMES=HP
##CAS NAME=Cyclopentanecarbonitrile, 2-imino-
##MOLFORM=C6H8N2
##CAS REGISTRY NO=2321-76-8
##MP= -300
##BP= -300
##MW= 108
##$RETENTION INDEX=0
##$CONDENSED SPECTRUM=NO
##NPOINTS= 53
##XYDATA=(XY..XY) 1 
    14          2
    15         14
    16         14
    26         24
    27         58
    29         16
    30         16
    31          2
    37         12
    38         20
    39         66
    40         32
    41        152
    42         72
    43         11
    50         20
    51         43
    52         96
    53        152
    54        141
    55         50
    56         31
    57          6
    58          2
    59          2
    62          4
    63         14
    64         23
    65         18
    66         29
    67         48
    68         70
    69          4
    75          9
    76         14
    77         49
    78         26
    79         40
    80        245
    81         74
    82         51
    83          3
    90          6
    91          5
    92          5
    93         11
    94          7
   104         24
   105         28
   106         27
   107        999
   108        438
   109         32