##TITLE=Library Entry 65028
##JCAMP-DX=Revision 4.10 
##DATA TYPE=MASS SPECTRUM
##SAMPLE DESCRIPTION=Humboldt-Universitat zu Berlin, Department of Chemistry
, Analytical Group
##NAMES=HP
##CAS NAME=4-Oxopentanohydrazide, 4-phenylhydrazone
##MOLFORM=C17H20N4O
##CAS REGISTRY NO=23228-67-3
##MP= -300
##BP= -300
##MW= 296
##$RETENTION INDEX=0
##$CONDENSED SPECTRUM=NO
##NPOINTS= 137
##XYDATA=(XY..XY) 1 
    12          2
    13          2
    14          6
    15         49
    16          2
    17          6
    18         31
    26         22
    27        121
    28        155
    29        130
    30         70
    31          8
    32          1
    37          9
    38         44
    39        317
    40         44
    41        101
    42        292
    43         61
    44         30
    45          7
    50         57
    51        235
    52         88
    53         59
    54         48
    55        169
    56         40
    57         27
    58          7
    59          2
    60          3
    61          2
    62         12
    63         65
    64         93
    65        707
    66        101
    67         14
    68         21
    69         19
    70        173
    71         26
    72          2
    73          2
    74         10
    75          9
    77        569
    78        106
    79         34
    80         50
    81         16
    82          8
    83         11
    84          2
    85          3
    87          1
    88          1
    89          3
    90         12
    91        136
    92        999
    93        280
    94         36
    95          6
    96         14
    97         13
    98        173
    99         15
   100          1
   102          1
   103          8
   104         15
   105         42
   106         79
   107        228
   108        190
   109         18
   110          1
   111          1
   113          2
   115          5
   116          4
   117         13
   118         37
   119         30
   120         60
   121          6
   122          4
   127          1
   128          3
   129          2
   130         15
   131         18
   132         46
   133        123
   134         18
   135          4
   139          1
   142          1
   143          5
   144        111
   145         26
   146         24
   147         14
   148          4
   154          2
   156          2
   157          1
   159         30
   160         17
   161        232
   162         30
   163          1
   166          0
   167          1
   168          1
   169          2
   171        128
   172         36
   173          8
   174          2
   181          1
   182          0
   183          0
   185          1
   186          1
   187          7
   189        517
   190         65
   191          5
   205          0
   296         10
   297          2
   298          0