##TITLE=Library Entry 72663
##JCAMP-DX=Revision 4.10 
##DATA TYPE=MASS SPECTRUM
##SAMPLE DESCRIPTION=Exported from NIST MS Search
##NAMES=HP
##CAS NAME=Imidazolidine, 1,3-dimethyl-2-(4-methylphenyl)-
##MOLFORM=C12H18N2
##CAS REGISTRY NO=23229-38-1
##MP= -300
##BP= -300
##MW= 190
##$RETENTION INDEX=0
##$CONDENSED SPECTRUM=NO
##NPOINTS= 15
##XYDATA=(XY..XY) 1 
    42        133
    56         33
    91         57
    99        999
   100         70
   105        101
   106         10
   132        144
   133         10
   146        470
   147         40
   175         27
   189        486
   190        138
   191         17