##TITLE=Library Entry 72611
##JCAMP-DX=Revision 4.10 
##DATA TYPE=MASS SPECTRUM
##SAMPLE DESCRIPTION=Exported from NIST MS Search
##NAMES=HP
##CAS NAME=Imidazolidine, 2-(4-methoxyphenyl)-1,3-dimethyl-
##MOLFORM=C12H18N2O
##CAS REGISTRY NO=23229-39-2
##MP= -300
##BP= -300
##MW= 206
##$RETENTION INDEX=0
##$CONDENSED SPECTRUM=NO
##NPOINTS= 15
##XYDATA=(XY..XY) 1 
    42        200
    56         50
    99        999
   100         70
   107         13
   121        143
   122         10
   148        128
   149         10
   162        724
   163         70
   191         40
   205        618
   206        180
   207         21