##TITLE=Library Entry 72516
##JCAMP-DX=Revision 4.10 
##DATA TYPE=MASS SPECTRUM
##SAMPLE DESCRIPTION=Exported from NIST MS Search
##NAMES=HP
##CAS NAME=Imidazolidine, 1,3-dimethyl-2-phenyl-
##MOLFORM=C11H16N2
##CAS REGISTRY NO=23229-37-0
##MP= -300
##BP= -300
##MW= 176
##$RETENTION INDEX=0
##$CONDENSED SPECTRUM=NO
##NPOINTS= 13
##XYDATA=(XY..XY) 1 
    42        158
    56         41
    77         67
    91        137
    99        999
   100         70
   118         73
   132        450
   133         50
   161         19
   175        333
   176         80
   177         10