##TITLE=Library Entry 95096
##JCAMP-DX=Revision 4.10 
##DATA TYPE=MASS SPECTRUM
##SAMPLE DESCRIPTION=V.G. Zaikin, TIPS RAS, Moscow, Russia
##NAMES=HP
##CAS NAME=1-Methyl-1-(3-methylbutyl)oxy-1-silacyclopentane
##MOLFORM=C10H22OSi
##CAS REGISTRY NO=232270-66-5
##MP= -300
##BP= -300
##MW= 186
##$RETENTION INDEX=0
##$CONDENSED SPECTRUM=NO
##NPOINTS= 94
##XYDATA=(XY..XY) 1 
    26         25
    27        103
    28         28
    29         80
    30         14
    31         13
    39         77
    40         21
    41        192
    42         65
    43        349
    44         36
    45        388
    46         28
    47         41
    48          9
    49         10
    50         11
    51         13
    52          8
    53         31
    54         13
    55        126
    56         29
    57         41
    58         27
    59        158
    60        121
    61        366
    62         28
    63         22
    65         12
    66          8
    67         13
    68         42
    69        336
    70        203
    71        324
    72         58
    73         97
    74         78
    75        224
    76         26
    77         31
    83         64
    84         19
    85         51
    86         25
    87        152
    88        101
    89         51
    95         26
    96         11
    97        178
    98         42
    99        537
   100         74
   101        389
   102         28
   103          9
   105         26
   106         13
   107         21
   111         19
   112         15
   113         59
   114         22
   115        999
   116        123
   117         53
   118         12
   127         19
   128         28
   129        518
   130        352
   131         21
   132          9
   142         12
   143         33
   144         11
   145          4
   157         29
   158        318
   159         49
   160         23
   169         24
   170          9
   171        609
   172         88
   173         32
   185         13
   186        123
   187         22
   188         11