##TITLE=Library Entry 24123
##JCAMP-DX=Revision 4.10 
##DATA TYPE=MASS SPECTRUM
##SAMPLE DESCRIPTION=J.VOTH UNIV. OF CALIF, DAVIS, CALIFORNIA, 95616, USA
##NAMES=HP
##CAS NAME=Propene, 3-tert-butoxy-2-(isopropoxymethyl)-
##MOLFORM=C11H22O2
##CAS REGISTRY NO=23230-88-8
##MP= -300
##BP= -300
##MW= 186
##$RETENTION INDEX=0
##$CONDENSED SPECTRUM=NO
##NPOINTS= 116
##XYDATA=(XY..XY) 1 
    12          1
    13          1
    14          8
    15         75
    16          2
    17          6
    18         15
    19          4
    24          0
    25          0
    26         12
    27        162
    28         48
    29        185
    30          5
    31         70
    32          0
    33          0
    35          1
    36          0
    37          4
    38          9
    39        174
    40         40
    41        320
    42         77
    43        410
    44         19
    45         34
    46          0
    47          6
    48          0
    49          2
    50          4
    51          8
    52          6
    53         45
    54         47
    55        328
    56         73
    57        999
    58         60
    59        121
    60          5
    61         31
    62          1
    63          0
    65          0
    66          0
    67          4
    68          3
    69         54
    70        194
    71        117
    72          9
    73         39
    74          1
    75          0
    77          0
    78         13
    79          0
    80          0
    81          1
    82          0
    83          3
    84          5
    85          7
    86          7
    87        103
    88         26
    89         13
    90          0
    91          0
    92          0
    93          0
    94          0
    95          1
    96          0
    97          3
    98          1
    99         17
   100          5
   101          0
   102          3
   103          0
   105          0
   106          0
   107          0
   108          0
   109          0
   110          0
   111          2
   112         47
   113         18
   114          1
   115         24
   116          1
   117          0
   119          0
   121          0
   122          0
   126         25
   127          5
   128          0
   129         17
   130         24
   131          3
   132          0
   145          1
   146          0
   156          0
   164          0
   171          4
   172          0
   186          2
   187          0