##TITLE=Library Entry 16119
##JCAMP-DX=Revision 4.10 
##DATA TYPE=MASS SPECTRUM
##SAMPLE DESCRIPTION=Drug Lab
##NAMES=HP
##CAS NAME=Benzenethanamine,4-methoxy-.alpha.-methyl-(.+/-.)-
##MOLFORM=C10H15NO
##CAS REGISTRY NO=23239-32-9
##MP= -300
##BP= -300
##MW= 165
##$RETENTION INDEX=1391
##$CONDENSED SPECTRUM=NO
##NPOINTS= 64
##XYDATA=(XY..XY) 1 
    41          8
    42         27
    43         12
    44        999
    45         27
    50          9
    51         25
    52         21
    53         10
    54          2
    55          3
    56          2
    57          1
    59          2
    60          2
    62          4
    63         14
    64          6
    65         17
    66          2
    67          2
    75          9
    76          3
    77         52
    78         63
    79         17
    80          5
    81          1
    89         15
    90          7
    91         36
    92          8
    93          3
    94          1
   102          1
   103          4
   104          3
   105          4
   106         12
   107         24
   108          4
   115          4
   116          1
   117          4
   118          6
   119          3
   120          2
   121        118
   122        253
   123         22
   124          1
   131          1
   132          2
   133          2
   134         11
   135          4
   147          1
   148          4
   149          2
   150          7
   163          1
   164          2
   165          8
   166          1