##TITLE=Library Entry 24695
##JCAMP-DX=Revision 4.10 
##DATA TYPE=MASS SPECTRUM
##SAMPLE DESCRIPTION=J.VOTH UNIV. OF CALIFORNIA, DAVIS, CALIFORNIA, 95616, U
SA
##NAMES=HP
##CAS NAME=Propene, 3-tert-butoxy-2-(methoxymethyl)-
##MOLFORM=C9H18O2
##CAS REGISTRY NO=23230-86-6
##MP= -300
##BP= -300
##MW= 158
##$RETENTION INDEX=0
##$CONDENSED SPECTRUM=NO
##NPOINTS= 95
##XYDATA=(XY..XY) 1 
    12          2
    13          3
    14         15
    15        189
    16          3
    17          2
    18          4
    19          0
    24          0
    25          1
    26         23
    27        169
    28         69
    29        359
    30         11
    31         51
    32          7
    33        120
    34          1
    35          0
    36          1
    37          9
    38         21
    39        264
    40         53
    41        426
    42         78
    43        135
    44          5
    45        393
    46          8
    47          1
    48          0
    49          1
    50          7
    51         10
    52          6
    53         48
    54         24
    55        689
    56        122
    57        999
    58         52
    59         35
    60          1
    61         46
    62          1
    63          0
    64          0
    65          0
    66          0
    67          1
    68          2
    69         33
    70         99
    71         84
    72         15
    73         57
    74         20
    75          1
    77          0
    79          0
    81          1
    82          1
    83          9
    84         60
    85        114
    86          6
    87         21
    88          1
    89          1
    91          0
    95          1
    97          1
    98          1
    99          1
   100          1
   101         72
   102         89
   103         13
   104          0
   108          0
   109          0
   111          2
   113          6
   114          0
   117          4
   126         18
   127          4
   128          0
   135          0
   143         22
   144          2
   158          4
   159          0