##TITLE=Library Entry 25376
##JCAMP-DX=Revision 4.10 
##DATA TYPE=MASS SPECTRUM
##SAMPLE DESCRIPTION=J.VOTH UNIV. OF CALIFORNIA, DAVIS, CALIFORNIA, 95616, U
SA
##NAMES=HP
##CAS NAME=Methacrylaldehyde, tert-butyl isopropyl acetal
##MOLFORM=C11H22O2
##CAS REGISTRY NO=23230-85-5
##MP= -300
##BP= -300
##MW= 186
##$RETENTION INDEX=0
##$CONDENSED SPECTRUM=NO
##NPOINTS= 104
##XYDATA=(XY..XY) 1 
    12          2
    13          3
    14         13
    15        115
    16          3
    17          1
    18          3
    19          8
    20          0
    24          0
    25          2
    26         18
    27        203
    28         40
    29        210
    30          5
    31         40
    32          0
    33          0
    36          1
    37         11
    38         20
    39        214
    40         36
    41        446
    42         69
    43        510
    44         21
    45        119
    46          2
    47         26
    48          0
    49          2
    50          9
    51         10
    52          4
    53         26
    54          6
    55         35
    56         81
    57        999
    58         55
    59        175
    60          6
    61          3
    62          0
    63          1
    65          0
    66          0
    67          1
    68          1
    69         38
    70         86
    71        657
    72         42
    73         19
    74          1
    75          0
    77          0
    78          1
    79          0
    81          0
    82          0
    83          4
    84          0
    85          1
    86          2
    87         89
    88         39
    89        178
    90          7
    91          1
    95          0
    96          0
    97          2
    98          0
    99          0
   101          3
   102          0
   103          0
   104          0
   105          0
   109          1
   110          0
   111          1
   112          0
   113         93
   114          7
   115          2
   116          0
   127         85
   128          8
   129         18
   130         20
   131          4
   132          0
   145         69
   146          6
   147          0
   157          0
   171          1
   172          0
   186          2
   187          0