##TITLE=Library Entry 21268
##JCAMP-DX=Revision 4.10 
##DATA TYPE=MASS SPECTRUM
##SAMPLE DESCRIPTION=Zaikin V.G., TIPS RAS, Moscow, Russia
##NAMES=HP
##CAS NAME=Pentanoic acid, 5-chloro-, ethyl ester
##MOLFORM=C7H13ClO2
##CAS REGISTRY NO=2323-81-1
##MP= -300
##BP= -300
##MW= 164
##$RETENTION INDEX=1145
##$CONDENSED SPECTRUM=NO
##NPOINTS= 79
##XYDATA=(XY..XY) 1 
    26         38
    27        277
    28          1
    29        516
    30         19
    31         17
    35          4
    36         21
    38         12
    39        121
    40         20
    41        195
    42        120
    43        136
    44         26
    45        171
    46          4
    49         46
    50          7
    51         29
    52          8
    53         59
    54         61
    55        999
    56        162
    57         49
    58         17
    59         55
    60         82
    61         39
    62         28
    63         57
    64         10
    65         16
    68          3
    69         39
    70         25
    71          7
    73        269
    74         36
    75         18
    77          5
    79          5
    81          3
    82         22
    83        173
    84         12
    85          5
    86          4
    87         60
    88        127
    89         13
    90         11
    91        430
    92         23
    93        142
    94          6
    99         10
   100         32
   101        888
   102         73
   103          5
   115         69
   116          4
   118         10
   119        794
   120         50
   121        258
   122         12
   128        106
   129        415
   130         33
   135          4
   136         12
   137         93
   138          9
   139         30
   164          9
   165          4