##TITLE=Library Entry 21410
##JCAMP-DX=Revision 4.10 
##DATA TYPE=MASS SPECTRUM
##SAMPLE DESCRIPTION=Zaikin V.G., TIPS RAS, Moscow, Russia
##NAMES=HP
##CAS NAME=5-Chlorovaleric acid, heptyl ester
##MOLFORM=C12H23ClO2
##CAS REGISTRY NO=2323-67-3
##MP= -300
##BP= -300
##MW= 234
##$RETENTION INDEX=1644
##$CONDENSED SPECTRUM=NO
##NPOINTS= 92
##XYDATA=(XY..XY) 1 
    26         16
    27        141
    28          1
    29        230
    30          6
    31          8
    35          3
    36         16
    38          9
    39        110
    40         24
    41        410
    42        213
    43        323
    44         28
    45         16
    49         16
    50          3
    51         11
    52          4
    53         52
    54         79
    55        999
    56        722
    57        534
    58         36
    59         36
    60         15
    61         13
    62         10
    63         35
    64          3
    65         14
    67         24
    68         94
    69        363
    70        638
    71         52
    72          3
    73         92
    74          8
    75          7
    77          4
    79          4
    81         17
    82         13
    83        232
    84         16
    85          8
    86          2
    87         29
    89          5
    90          4
    91        344
    92         17
    93        114
    94          4
    96          9
    97         47
    98        505
    99         51
   100         90
   101        387
   102         23
   113         16
   115          8
   116          8
   118         13
   119        743
   120         45
   121        242
   122         13
   134          6
   135          3
   136         73
   137        717
   138         63
   139        237
   140         13
   143         24
   147          4
   149          3
   157          6
   163         11
   165          3
   174          3
   177         16
   179          5
   192         10
   198          3
   199         28
   200          3