##TITLE=Library Entry 21409
##JCAMP-DX=Revision 4.10 
##DATA TYPE=MASS SPECTRUM
##SAMPLE DESCRIPTION=Zaikin V.G., TIPS RAS, Moscow, Russia
##NAMES=HP
##CAS NAME=5-Chlorovaleric acid, hexyl ester
##MOLFORM=C11H21ClO2
##CAS REGISTRY NO=2323-66-2
##MP= -300
##BP= -300
##MW= 220
##$RETENTION INDEX=1545
##$CONDENSED SPECTRUM=NO
##NPOINTS= 82
##XYDATA=(XY..XY) 1 
    26         17
    27        159
    28          1
    29        205
    30          7
    31         10
    35          3
    36         15
    38         10
    39        117
    40         24
    41        357
    42        279
    43        624
    44         31
    45         20
    49         19
    50          4
    51         14
    52          4
    53         52
    54         60
    55        999
    56        765
    57        118
    58         19
    59         43
    60         19
    61         14
    62         12
    63         39
    64          4
    65         14
    67         19
    68         10
    69        273
    70         19
    71         15
    72          3
    73        109
    74         10
    75          8
    77          3
    79          3
    81          6
    82         19
    83        212
    84        635
    85        108
    86          6
    87         30
    89          5
    90          5
    91        356
    92         16
    93        116
    94          4
    98          4
    99         27
   100         92
   101        406
   102         23
   111          3
   118         11
   119        799
   120         45
   121        257
   122         13
   129         25
   134          6
   136         67
   137        596
   138         51
   139        198
   140         10
   149          3
   163         10
   165          3
   177         12
   179          3
   184          4
   185         23