##TITLE=Library Entry 34145
##JCAMP-DX=Revision 4.10 
##DATA TYPE=MASS SPECTRUM
##SAMPLE DESCRIPTION=Exported from NIST MS Search
##NAMES=HP
##CAS NAME=1-Propanol, 3,3'-diselenobis[2,2-dimethyl-
##MOLFORM=C10H22O2Se2
##CAS REGISTRY NO=23243-51-8
##MP= -300
##BP= -300
##MW= 334
##$RETENTION INDEX=0
##$CONDENSED SPECTRUM=NO
##NPOINTS= 145
##XYDATA=(XY..XY) 1 
    26          4
    27          4
    28         24
    29        162
    30          4
    31        167
    37          1
    38          4
    39         77
    40         18
    41        379
    42         27
    43        155
    44          9
    45        338
    46          9
    50          6
    51         12
    52          1
    53         58
    54         10
    55        268
    56         74
    57        108
    58         12
    59          7
    65          6
    67         74
    68         34
    69        999
    70        111
    71         10
    72         24
    77          4
    78          3
    79          1
    80          7
    81          6
    82          6
    83          6
    85         40
    86         74
    87         38
    89          3
    90          7
    91         18
    92         12
    93         31
    94         18
    95         26
    96          4
    97          3
    98          3
   103          9
   104          6
   105         18
   106          7
   107         34
   108          9
   109         27
   110          4
   111         12
   117          4
   119          7
   120          3
   121          7
   122          4
   123          4
   129          4
   131          9
   132          6
   133         21
   134          9
   135         35
   136         10
   137         21
   138          3
   139          3
   141          6
   145         10
   146         12
   147         31
   148         18
   149         51
   150         38
   151         27
   152          9
   153          6
   154          6
   155          4
   156          9
   157          6
   158         15
   159          4
   160         21
   161          9
   162          7
   163         20
   164          9
   165         31
   166         15
   167         12
   168         18
   169          4
   171          3
   172          4
   173          4
   174          4
   197          4
   221          6
   223         12
   224          7
   225          6
   226         21
   227          9
   228         31
   229          4
   230         37
   231          4
   232         12
   243          1
   244          6
   245          4
   246          9
   247          4
   248         10
   250         12
   251          9
   252         27
   253          4
   254         51
   255          6
   256         10
   326          4
   327          4
   328         15
   329         10
   330         37
   331         23
   332         62
   333         12
   334         68
   335         10
   336         21
   337          3