##TITLE=Library Entry 57522
##JCAMP-DX=Revision 4.10 
##DATA TYPE=MASS SPECTRUM
##SAMPLE DESCRIPTION=J.H.BOWIE UNIVERSITY OF ADELAIDE, ADELAIDE, AUSTRALIA
##NAMES=HP
##CAS NAME=Propionic acid, 3-(allylthio)-, methyl ester
##MOLFORM=C7H12O2S
##CAS REGISTRY NO=23246-23-3
##MP= -300
##BP= -300
##MW= 160
##$RETENTION INDEX=0
##$CONDENSED SPECTRUM=NO
##NPOINTS= 34
##XYDATA=(XY..XY) 1 
    27        220
    28        180
    29         60
    39        400
    41        680
    43         80
    45        520
    46        120
    47        150
    55        150
    57        130
    58        110
    59        580
    60        100
    61         70
    67         60
    71        100
    72        250
    73        440
    74        120
    77        230
    85        150
    87        999
    88        160
    89         80
   100        160
   101        150
   119        610
   120         50
   128        180
   129        280
   160        999
   161        100
   162         60