##TITLE=Library Entry 1468
##JCAMP-DX=Revision 4.10 
##DATA TYPE=MASS SPECTRUM
##SAMPLE DESCRIPTION=Exported from NIST MS Search
##NAMES=HP
##CAS NAME=1-Propanol, 3,3'-diselenobis-
##MOLFORM=C6H14O2Se2
##CAS REGISTRY NO=23243-47-2
##MP= -300
##BP= -300
##MW= 278
##$RETENTION INDEX=0
##$CONDENSED SPECTRUM=NO
##NPOINTS= 152
##XYDATA=(XY..XY) 1 
    26         28
    27        164
    28         46
    29        225
    30         18
    31        999
    32         12
    33          1
    37          3
    38          6
    39         93
    40         12
    41        296
    42         21
    43         46
    44          7
    45         28
    53          3
    55         20
    56          3
    57        178
    58         21
    59        162
    60          4
    71          3
    73          1
    76          4
    77          6
    78         12
    79         12
    80         28
    81         28
    82         18
    83         23
    84          3
    87          1
    89         12
    90         15
    91         46
    92         26
    93         92
    94         40
    95         70
    96          9
    97         12
   103          9
   104          9
   105         25
   106         21
   107         46
   108         21
   109         45
   110          7
   111         18
   115          3
   117         12
   118         15
   119         32
   120         26
   121         53
   122         43
   123         28
   124          9
   125          6
   133         21
   134         20
   135         54
   136         14
   137        106
   138         28
   139         31
   140         15
   141          6
   142          3
   151          3
   152         10
   153         10
   154         46
   155         34
   156        125
   157         68
   158        225
   159         31
   160        256
   161         21
   162         81
   163          9
   164         12
   165          3
   167          6
   168          4
   169          6
   170          6
   171         12
   172         10
   173         18
   174          9
   175         23
   176          7
   177          7
   178          7
   179          4
   180          4
   181          6
   183          4
   184          4
   185          7
   186          4
   187         10
   188          3
   189          9
   191          3
   194          9
   195         12
   196         32
   197         28
   198         76
   199         54
   200        106
   201         37
   202        117
   203         23
   204         35
   205          6
   206          3
   215          6
   216          6
   217          9
   218          3
   219          9
   220          3
   255          4
   256          3
   257          9
   258          6
   259         15
   260          3
   261         18
   263          7
   269         12
   271         15
   272         50
   273         39
   274        125
   275         75
   276        225
   277         31
   278        253
   279         20
   280         75
   281          7
   282         10