##TITLE=Library Entry 58177
##JCAMP-DX=Revision 4.10 
##DATA TYPE=MASS SPECTRUM
##SAMPLE DESCRIPTION=J.H.BOWIE UNIVERSITY OF ADELAIDE, ADELAIDE, AUSTRALIA
##NAMES=HP
##CAS NAME=Propionic acid, 3-(butylthio)-, methyl ester
##MOLFORM=C8H16O2S
##CAS REGISTRY NO=23246-22-2
##MP= -300
##BP= -300
##MW= 176
##$RETENTION INDEX=0
##$CONDENSED SPECTRUM=NO
##NPOINTS= 35
##XYDATA=(XY..XY) 1 
    27        610
    28        320
    29        640
    39        210
    41        530
    43        110
    45        760
    46        200
    47        260
    54        100
    55        600
    56        250
    57        250
    58        100
    59        580
    60        390
    61        640
    73         60
    74        100
    77        130
    87        400
    88        999
    89        740
    90         80
   101        120
   103        210
   116        300
   117        160
   119        300
   120        500
   133        220
   145        230
   176        999
   177        100
   178         50