##TITLE=Library Entry 97684
##JCAMP-DX=Revision 4.10 
##DATA TYPE=MASS SPECTRUM
##SAMPLE DESCRIPTION=ASES Database, Dalian Institute, P.R. China
##NAMES=HP
##CAS NAME=3-Phenyl-4-methyl-isoxazol-5(4H)-one
##MOLFORM=C10H9NO2
##CAS REGISTRY NO=23244-37-3
##MP= -300
##BP= -300
##MW= 175
##$RETENTION INDEX=0
##$CONDENSED SPECTRUM=NO
##NPOINTS= 47
##XYDATA=(XY..XY) 1 
    37         19
    38         39
    39        177
    40         19
    41         60
    42         49
    43         51
    44         50
    45         40
    51        279
    52         69
    53         19
    54         19
    55         49
    56         80
    57         30
    58         19
    61         19
    62         39
    63        109
    64         40
    65         61
    74         49
    75         50
    76        109
    77        247
    78         50
    89         50
    91        217
    92         20
   102         49
   103        120
   104        139
   105         39
   106         19
   115        328
   116         89
   117        999
   118        110
   119         39
   130         90
   131         30
   132         30
   133         19
   146         19
   175        370
   176         50