##TITLE=Library Entry 19778
##JCAMP-DX=Revision 4.10 
##DATA TYPE=MASS SPECTRUM
##SAMPLE DESCRIPTION=Exported from NIST MS Search
##NAMES=HP
##CAS NAME=1-Butanol, 3,3'-diselenobis-
##MOLFORM=C8H18O2Se2
##CAS REGISTRY NO=23243-49-4
##MP= -300
##BP= -300
##MW= 306
##$RETENTION INDEX=0
##$CONDENSED SPECTRUM=NO
##NPOINTS= 142
##XYDATA=(XY..XY) 1 
    26          9
    27        112
    28         15
    29        115
    30          6
    31        109
    38          3
    39         45
    40          6
    41         62
    42         12
    43        265
    44         12
    45        621
    46         12
    50          1
    51          3
    53         43
    54         10
    55        999
    56         50
    57         75
    58         10
    59          6
    69          4
    71         78
    72         21
    73         93
    74          4
    78          6
    79          4
    80         10
    81          9
    82          6
    83          4
    90          9
    91         15
    92         12
    93         28
    94         20
    95         18
    96          3
    97          3
   103          4
   104          9
   105         14
   106         12
   107         28
   108         17
   109         25
   110          3
   111         18
   113          4
   119          4
   121          6
   123          4
   129          3
   131         15
   132         14
   133         43
   134         15
   135         68
   136         25
   137         23
   138          6
   139          4
   147         17
   148         17
   149         46
   150         12
   151         90
   152         21
   153         28
   154         17
   155         10
   156         31
   157         18
   158         51
   159         10
   160         59
   161          9
   162         23
   163          4
   164          4
   171          4
   172          4
   173          6
   174          3
   175         10
   176          3
   177          3
   185          4
   187          7
   189          6
   207          4
   208          7
   209         10
   210         28
   211         23
   212         71
   213         46
   214        117
   215         26
   216        131
   217         18
   218         40
   219          6
   220          6
   222          3
   223          1
   224          9
   226         14
   227          4
   228          4
   229          9
   230          4
   231          9
   232          6
   233          7
   234          6
   235          4
   269          4
   271          4
   285          6
   286          3
   287         10
   288          3
   289          9
   291          3
   298          9
   299         10
   300         37
   301         26
   302         92
   303         56
   304        162
   305         25
   306        179
   307         18
   308         54
   309          6
   310          7