##TITLE=Library Entry 34697
##JCAMP-DX=Revision 4.10 
##DATA TYPE=MASS SPECTRUM
##SAMPLE DESCRIPTION=Exported from NIST MS Search
##NAMES=HP
##CAS NAME=1-Pentanol, 4,4'-diselenobis-, diacetate
##MOLFORM=C14H26O4Se2
##CAS REGISTRY NO=23243-53-0
##MP= -300
##BP= -300
##MW= 418
##$RETENTION INDEX=0
##$CONDENSED SPECTRUM=NO
##NPOINTS= 104
##XYDATA=(XY..XY) 1 
    27          1
    28         26
    29          6
    30         33
    32         13
    38          1
    39         40
    40          6
    41        240
    42         31
    43        583
    44         16
    45         13
    53         20
    54          6
    55         38
    56          6
    57         13
    60          5
    61         36
    65          3
    66          3
    67         55
    68         36
    69        999
    70         58
    71         10
    80          3
    81          3
    83          6
    85         20
    86          1
    87        103
    91          5
    92          3
    93         10
    94          5
    95          8
   103          3
   104          6
   105         11
   106         10
   107         16
   108         15
   109         11
   110          3
   119          3
   120          1
   121          5
   122          5
   123          3
   129        180
   130         11
   131          8
   132          3
   133         13
   135         23
   137          5
   144          3
   145         11
   146         21
   147         36
   148         33
   149         50
   150         63
   151         16
   152         13
   156          6
   157          3
   158         10
   160         10
   162          3
   223          3
   224         10
   225          8
   226         23
   227         13
   228         40
   229          8
   230         43
   231          6
   232         11
   279          5
   334          5
   335          3
   336         11
   338         20
   339          3
   340          3
   346          3
   355          6
   356          3
   357         11
   359         11
   361          3
   412          6
   413          3
   414         13
   415          8
   416         25
   417          6
   418         25
   419          3
   420          8