##TITLE=Library Entry 1145
##JCAMP-DX=Revision 4.10 
##DATA TYPE=MASS SPECTRUM
##SAMPLE DESCRIPTION=Japan AIST/NIMC Database- Spectrum MS-NW-9307
##NAMES=HP
##CAS NAME=N-Glycyl-dl-valine
##MOLFORM=C7H14N2O3
##CAS REGISTRY NO=2325-17-9
##MP= -300
##BP= -300
##MW= 174
##$RETENTION INDEX=0
##$CONDENSED SPECTRUM=NO
##NPOINTS= 95
##XYDATA=(XY..XY) 1 
    14          1
    15          6
    16          3
    17          6
    18         32
    26          4
    27         45
    28        147
    29         58
    30        999
    31        196
    32         26
    38          3
    39         32
    40          7
    41         65
    42         32
    43         65
    44         27
    45         16
    46          6
    51          2
    52          2
    53          6
    54          9
    55         87
    56         53
    57         58
    58         13
    59         28
    60          4
    66          1
    67          5
    68          8
    69         24
    70         42
    71         22
    72        248
    73         20
    74         26
    75         31
    76          1
    80          1
    81          3
    82          7
    83          9
    84         12
    85         54
    86         19
    87         15
    88          1
    89          5
    95          4
    96          1
    97          3
    98         20
    99          8
   100          8
   101          8
   102         11
   103         12
   104          1
   109          2
   110          1
   111          5
   112          2
   113         42
   114        150
   115         11
   116         10
   117          2
   118         12
   119          1
   123          1
   125          1
   126          1
   127          3
   128         48
   129         42
   130         36
   131         16
   132         15
   133          1
   139          1
   141          2
   144          1
   145          2
   146          2
   149          1
   154          1
   156         25
   157          6
   174         69
   175         14
   176          1