##TITLE=Library Entry 13209
##JCAMP-DX=Revision 4.10 
##DATA TYPE=MASS SPECTRUM
##SAMPLE DESCRIPTION=MYCOTOXINS MASS SPECTRAL DATA BANK, L.R. DUSOLD ET AL,
 FDA, USA
##NAMES=HP
##CAS NAME=Trichothec-9-en-8-one, 4-(acetyloxy)-12,13-epoxy-3,7,15-trihydrox
y-, (3.alpha.,4.beta.,7.beta.)-
##MOLFORM=C17H22O8
##CAS REGISTRY NO=23255-69-8
##MP= -300
##BP= -300
##MW= 354
##$RETENTION INDEX=2485
##$CONDENSED SPECTRUM=NO
##NPOINTS= 254
##XYDATA=(XY..XY) 1 
    23         18
    25         26
    26        122
    27        567
    28        230
    29        589
    30         70
    31        364
    32         32
    35         22
    36         22
    37         14
    38         22
    39        481
    40        100
    41        606
    42        104
    43        999
    44         39
    45         83
    47         26
    48         22
    49        169
    50         22
    51        152
    52         83
    53        532
    54         96
    55        567
    56         96
    57        204
    58         26
    59         31
    60         83
    61         70
    62        424
    63        100
    64        152
    65        355
    66        143
    67        450
    68         70
    69        567
    70        217
    71        195
    72         22
    73         61
    74         22
    75         18
    76         22
    77        571
    78        204
    79        584
    80        264
    81        433
    82        152
    83        519
    84         65
    85        217
    86         26
    87         44
    88         18
    89         35
    90         31
    91        580
    92        148
    93        450
    94        152
    95        584
    96        264
    97        463
    98        584
    99        165
   102         26
   103        143
   104         70
   105        571
   106        148
   107        558
   108        403
   109        576
   110        143
   111        481
   112        130
   113        113
   114         31
   115        191
   116        117
   117        186
   118         52
   119        217
   120        113
   121        563
   122        234
   123        567
   124        498
   125        563
   126        178
   127        117
   128        126
   129        156
   130         61
   131        295
   132        143
   133        550
   134        321
   135        334
   136        269
   137        537
   138        143
   139        204
   140        135
   141        199
   142         87
   143        143
   144         91
   145        264
   146        109
   147        303
   148        104
   149        567
   150        338
   151        584
   152        199
   153        152
   154         61
   155        169
   156         31
   157         74
   158         78
   159        550
   160        195
   161        558
   162        411
   163        342
   164        109
   165        126
   166         44
   167        152
   168         39
   169         39
   170         26
   171        143
   172        100
   173        191
   174        117
   175        519
   176        152
   177        429
   178         87
   179        723
   180        506
   181         96
   182         22
   183         39
   184         31
   185         70
   186         44
   187        532
   188        329
   189        506
   190        148
   191        321
   192        130
   193        113
   194         26
   195         26
   196         18
   197        377
   198         44
   199         91
   200         65
   201        152
   203        212
   204        161
   205        381
   206         87
   207         70
   208         26
   209         35
   210         18
   211         26
   212         22
   213         39
   214         22
   215         83
   216        182
   217        308
   218        199
   219         87
   220         31
   221        117
   222         31
   223         22
   225          9
   227         35
   228        104
   229        186
   230         61
   231         78
   232         22
   233         70
   234         39
   235         91
   236         61
   237         18
   239        247
   240         39
   241          9
   243          9
   245        104
   246        161
   247        312
   248         74
   249         39
   250          5
   251          9
   253          5
   257         44
   258         22
   259         39
   260          9
   261          9
   262          5
   263         74
   264        429
   265         87
   266         14
   267          5
   276         31
   277         61
   278         39
   279          9
   289         26
   290          5
   293          5
   294        117
   295         22
   305         31
   306        563
   307        152
   308         35
   309          1
   318          5
   322          1
   323          1
   324         65
   325          9
   336        256
   337         44
   338          1
   354        191
   355         35
   356          1