##TITLE=Library Entry 76657
##JCAMP-DX=Revision 4.10 
##DATA TYPE=MASS SPECTRUM
##SAMPLE DESCRIPTION=A.A.Kutin, Moscow, Russia
##NAMES=HP
##CAS NAME=5-Isoxazolol, 3-phenyl-
##MOLFORM=C9H7NO2
##CAS REGISTRY NO=23253-51-2
##MP= -300
##BP= -300
##MW= 161
##$RETENTION INDEX=0
##$CONDENSED SPECTRUM=NO
##NPOINTS= 83
##XYDATA=(XY..XY) 1 
    33          2
    35          0
    36          4
    37         10
    38         23
    39         60
    40         22
    41         15
    42         19
    43          8
    44         15
    45          5
    46          1
    50        106
    51        260
    52         36
    53          6
    54          0
    55          1
    56          1
    57          2
    59          1
    61         10
    62         24
    63         62
    64         59
    65         14
    66         22
    67          0
    69         14
    70          1
    71          0
    73          6
    74         28
    75         32
    76         59
    77        372
    78         28
    79          2
    80          0
    81          0
    83          0
    84          0
    85          1
    86          3
    87          6
    88          6
    89         33
    90         12
    91         53
    93        181
    94         13
    95          1
    98          3
    99          1
   100          0
   101          8
   103        999
   104         94
   105         37
   106          7
   107          0
   114          0
   115          1
   116         11
   117          5
   119         67
   120          7
   121          0
   129          2
   130          0
   132          2
   133          5
   134          1
   135          9
   136          1
   144         22
   145          3
   146          1
   161        627
   162         61
   163          9
   164          0