##TITLE=Library Entry 22562
##JCAMP-DX=Revision 4.10 
##DATA TYPE=MASS SPECTRUM
##SAMPLE DESCRIPTION=OGDEN BioServices Corp., NCI, Rockville, MD 20852
##NAMES=HP
##CAS NAME=1,2:5,6-Dianhydrogalactitol
##MOLFORM=C6H10O4
##CAS REGISTRY NO=23261-20-3
##MP= -300
##BP= -300
##MW= 146
##$RETENTION INDEX=0
##$CONDENSED SPECTRUM=NO
##NPOINTS= 80
##XYDATA=(XY..XY) 1 
    41         96
    42        280
    43        518
    44        153
    45        518
    46         47
    47         43
    48          2
    49         10
    50         11
    51         15
    52          4
    53         23
    54         25
    55        543
    56        999
    57        421
    58         36
    59         45
    60        126
    61         19
    62          1
    63          1
    64          2
    65          1
    66          2
    67          3
    68         22
    69         57
    70         17
    71         92
    72         20
    73        605
    74        657
    75         29
    76          3
    77          3
    78          2
    79          0
    81          5
    82          1
    83          8
    84         13
    85         21
    86         11
    87          3
    88          1
    89          1
    91         10
    94          0
    95          0
    96          0
    97          6
    98          1
    99          6
   103          2
   105          4
   106          1
   108          0
   109          1
   111         65
   112         13
   113          2
   114          0
   115          7
   116          2
   117          1
   118          0
   119          1
   120          1
   121          1
   122          3
   123          1
   128          1
   129          3
   130          2
   144          0
   145          2
   146          7
   147          0