##TITLE=Library Entry 52205
##JCAMP-DX=Revision 4.10 
##DATA TYPE=MASS SPECTRUM
##SAMPLE DESCRIPTION=M.GIELIN FREE UNIV. OF BRUSSELS, BRUSSELS, BELGIUM
##NAMES=HP
##CAS NAME=Stannane, bromocyclohexylisopropylmethyl-
##MOLFORM=C10H21BrSn
##CAS REGISTRY NO=23268-54-4
##MP= -300
##BP= -300
##MW= 340
##$RETENTION INDEX=0
##$CONDENSED SPECTRUM=NO
##NPOINTS= 218
##XYDATA=(XY..XY) 1 
    26          2
    27         39
    28          7
    29         32
    30          1
    36          3
    37          2
    38          3
    39         47
    40          5
    41        236
    42         19
    43        197
    44          7
    45          3
    50          2
    51          7
    52          3
    53         27
    54         18
    55        515
    56         30
    57         15
    58          2
    59          1
    63          1
    65          3
    66          3
    67         23
    68          2
    69          3
    70          1
    71          1
    72          1
    77          9
    78          3
    79         15
    80          3
    81         16
    82         12
    83        999
    84        106
    85          3
    97          2
    98          2
   105          2
   112          1
   113          2
   114          1
   115          1
   116         12
   117         23
   118         27
   119         33
   120         33
   121         37
   122          5
   123          5
   124          5
   125          7
   127          3
   129          3
   130          3
   131         42
   132         23
   133         69
   134         31
   135         93
   136          5
   137         21
   138          1
   139         17
   141          3
   143          2
   145          3
   146          1
   147          3
   148          2
   149          5
   150          2
   151          8
   152          2
   153          8
   154          3
   155         12
   156          1
   157          5
   158          1
   159          5
   160          2
   161          5
   162          3
   163          6
   165          2
   167          2
   168          1
   169          2
   170          3
   171          3
   172          2
   173         12
   174         12
   175         27
   176         16
   177         35
   178         13
   179         12
   180          2
   181          6
   182          2
   183          2
   191          2
   193          3
   195         24
   196         13
   197         63
   198         26
   199         93
   200         16
   201         60
   202          5
   203         20
   204          1
   205          9
   207          2
   209          2
   210          3
   211          6
   212          8
   213         18
   214         16
   215         25
   216         13
   217         28
   218          7
   219          5
   220          2
   221          5
   222          2
   225          2
   226          1
   227          3
   228          2
   229          5
   230          1
   231          3
   232          1
   233          2
   237          1
   238          1
   239          2
   240          2
   241          3
   242          3
   243          3
   244          2
   245          3
   246          1
   247          2
   249          6
   250          3
   251         11
   252          5
   253         21
   254          5
   255         18
   256          6
   257         23
   258          6
   259         18
   260          5
   261         15
   262          2
   263          3
   265          2
   277          1
   278          1
   279          1
   280          1
   281          2
   282          1
   283          1
   284          1
   289          3
   291          5
   292          3
   293         40
   294         25
   295        106
   296         51
   297        151
   298         35
   299         93
   300          8
   301         28
   302          3
   303         15
   304          1
   321          2
   322          1
   323          3
   324          1
   325          3
   326          1
   327          3
   329          1
   336          3
   337          3
   338          8
   339          5
   340         12
   341          5
   342          9
   343          3
   344          3
   345          3
   346          2
   347          1