##TITLE=Library Entry 10801
##JCAMP-DX=Revision 4.10 
##DATA TYPE=MASS SPECTRUM
##SAMPLE DESCRIPTION=Chemical Concepts
##NAMES=HP
##CAS NAME=Talofuranose, 2,3:5,6-di-O-isopropylidene-, .alpha.-D-
##MOLFORM=C12H20O6
##CAS REGISTRY NO=23262-78-4
##MP= -300
##BP= -300
##MW= 260
##$RETENTION INDEX=0
##$CONDENSED SPECTRUM=NO
##NPOINTS= 191
##XYDATA=(XY..XY) 1 
    26          4
    27         46
    28          5
    29         67
    31         71
    33          0
    34          0
    36          0
    37          0
    38          1
    39         66
    40         19
    41        127
    42         89
    43        999
    44         30
    45         22
    46          1
    47          6
    49          0
    50          2
    51          3
    53         23
    54         10
    55        113
    56         12
    57         73
    58         13
    59        458
    60         30
    61         48
    62          2
    63          0
    64          0
    65          0
    66          0
    67          3
    68        104
    69         82
    70         43
    71         79
    72        139
    73        145
    74          7
    75          2
    76          0
    77          0
    78          0
    79          1
    80          5
    81        100
    82          7
    83         76
    84         15
    85        163
    86         15
    87          9
    88          0
    89          2
    90          0
    91          0
    93          0
    94         10
    95          2
    96         33
    97         63
    99         98
   100         30
   101        745
   102         43
   103         16
   104          1
   105          0
   106          0
   107          3
   108          1
   109         24
   110          2
   111          6
   112          0
   113         13
   114          4
   115         54
   116          3
   117          4
   118          0
   119          0
   120          0
   121          2
   122          0
   123          3
   124          0
   125         12
   126         31
   127        111
   128          7
   129        116
   130          9
   131         12
   132          0
   133          0
   134          0
   136          0
   137          0
   138          0
   139          2
   140          0
   141         60
   142          7
   143         10
   144         10
   145         33
   146          2
   147          0
   148          0
   155          2
   156          5
   157          1
   158          0
   159          9
   160          1
   161          0
   163          0
   164          0
   166          0
   167         22
   168          1
   169          2
   170          1
   171          0
   172          0
   173          2
   174          3
   175          0
   177          0
   178          0
   180          1
   181          0
   182          0
   183          1
   184          2
   185         18
   186          2
   187        139
   188         10
   189          1
   190          2
   191          1
   193          0
   195          1
   196          1
   198          0
   199          0
   200          0
   201          0
   202         12
   203          2
   204          0
   205          0
   208          0
   209          0
   210          0
   212          0
   213          0
   215          1
   216          0
   217          0
   219          0
   220          0
   222          0
   224          0
   225          0
   227          0
   228          0
   229          2
   230          1
   231          0
   232          0
   234          0
   235          0
   237          0
   238          0
   240          0
   242          0
   243          1
   244          0
   245        550
   246         65
   247          9
   248          0
   260          1