##TITLE=Library Entry 35387
##JCAMP-DX=Revision 4.10 
##DATA TYPE=MASS SPECTRUM
##SAMPLE DESCRIPTION=NIST Mass Spectrometry Data Center
##NAMES=HP
##CAS NAME=Furan, 3-(4,8-dimethyl-3,7-nonadienyl)-, (E)-
##MOLFORM=C15H22O
##CAS REGISTRY NO=23262-34-2
##MP= -300
##BP= -300
##MW= 218
##$RETENTION INDEX=1574
##$CONDENSED SPECTRUM=NO
##NPOINTS= 86
##XYDATA=(XY..XY) 1 
    26          1
    27         44
    28          4
    29         24
    30          1
    37          1
    38          2
    39         67
    40         17
    41        356
    42         18
    50          8
    51         29
    52         18
    53        186
    54         13
    55         58
    56          3
    57         15
    62          1
    63          5
    64          2
    65         27
    66          8
    67         86
    68         42
    69        999
    70         54
    75          1
    76          1
    77         41
    78         10
    79         38
    80         18
    81        634
    82        111
    83          7
    89          1
    91         30
    92          7
    93         35
    94         36
    95         59
    96          5
   102          1
   103          6
   104          2
   105         29
   106          6
   108          6
   115          7
   116          4
   117          6
   119         14
   121         37
   122         15
   123         59
   124         25
   128          2
   129          4
   130          1
   131         22
   132         17
   133         23
   134         12
   135         37
   136         68
   137         27
   147         14
   148          6
   149         19
   150          9
   151          1
   159          1
   162          5
   174          4
   175         68
   176         10
   177          1
   185          1
   189          2
   190          1
   203         72
   204         10
   218         20
   219          3