##TITLE=Library Entry 66465
##JCAMP-DX=Revision 4.10 
##DATA TYPE=MASS SPECTRUM
##SAMPLE DESCRIPTION=Japan AIST/NIMC Database- Spectrum MS-IW-7089
##NAMES=HP
##CAS NAME=1-(5,6-Dihydro-4H-benzo(6,7)cyclohepta(1,2-d)thiazol-2-yl)-3-phen
ylurea
##MOLFORM=C19H17N3OS
##CAS REGISTRY NO=23265-22-7
##MP= -300
##BP= -300
##MW= 335
##$RETENTION INDEX=0
##$CONDENSED SPECTRUM=NO
##NPOINTS= 192
##XYDATA=(XY..XY) 1 
    15          1
    26          5
    27         18
    28         26
    29          3
    30          3
    31          9
    32          1
    33          1
    34          3
    36          1
    37         21
    38         40
    39         91
    40         28
    41         39
    42          9
    43          6
    44         19
    45         32
    46         52
    47          5
    49          4
    50         37
    51         58
    52         37
    53         11
    54         22
    55          2
    56          1
    57          2
    58          7
    59         28
    60         14
    61         15
    62         26
    63         78
    64        136
    65        156
    66        281
    67         30
    68          1
    69         11
    70          3
    71         28
    72          5
    73          8
    74         17
    75         16
    76         21
    77         53
    78         19
    79         10
    80          3
    81          1
    82          2
    83          2
    84          2
    85         10
    86         38
    87         11
    88          8
    89         23
    90         17
    91        234
    92        125
    93        999
    94         81
    95          7
    96          1
    97          1
    98          2
    99          4
   100         11
   101         13
   102         19
   103         20
   104          9
   105          2
   106          5
   107         30
   108         16
   109          1
   111          1
   113          7
   114         10
   115         83
   116         42
   117         14
   118          2
   119        681
   120         75
   121         30
   122          2
   125          1
   126          8
   127         39
   128         78
   129         83
   130         55
   131         12
   132          2
   133          3
   134          5
   135          2
   138          1
   139         18
   140         45
   141        136
   142         33
   143         11
   144          4
   145          8
   146         15
   147         17
   148          3
   149          1
   152          3
   153         10
   154         36
   155         32
   156         90
   157         44
   158         22
   159         23
   160          9
   161          4
   162          2
   165          4
   166         13
   167         16
   168         17
   169         22
   170         10
   171         25
   172         23
   173         97
   174         95
   175         15
   176          5
   179          3
   180          3
   181         32
   182         16
   183         92
   184         18
   185          6
   186         19
   187         13
   188         25
   189          5
   190          2
   194          2
   195          6
   196          5
   197          4
   198         10
   199         10
   200         20
   201         65
   202          9
   203          3
   207          1
   208         11
   209        108
   210         19
   211          3
   212         11
   213         33
   214         45
   215         73
   216        479
   217         73
   218         25
   219          3
   226          9
   227        113
   228         16
   229          7
   230          1
   239          3
   240          3
   241         88
   242        626
   243        108
   244         36
   245          5
   288         14
   289          2
   335         18
   336          4
   337          1