##TITLE=Library Entry 88538
##JCAMP-DX=Revision 4.10 
##DATA TYPE=MASS SPECTRUM
##SAMPLE DESCRIPTION=E. LOVETT - D. LIPKIN
##NAMES=HP
##CAS NAME=3,6-Epoxy-2H,8H-pyrimido[6,1-b][1,3]oxazocin-8-one, 10-amino-3,4,
5,6-tetrahydro-4,5-dihydroxy-, [3R-(3.alpha.,4.alpha.,5.alpha.,6.alpha.)]-
##MOLFORM=C9H11N3O5
##CAS REGISTRY NO=23276-37-1
##MP= -300
##BP= -300
##MW= 241
##$RETENTION INDEX=0
##$CONDENSED SPECTRUM=NO
##NPOINTS= 40
##XYDATA=(XY..XY) 1 
    69        110
    70         30
    71         10
    72         20
    73         10
    78         20
    81         20
    82         10
    83         10
    84         50
    85         80
    86         10
    97         20
    99         10
   108         10
   109         50
   110        150
   111        999
   112         50
   113         10
   114         10
   125         10
   127        639
   128        480
   129         20
   138        330
   139         10
   140         10
   151         10
   152         50
   153         50
   154         10
   155        110
   156         70
   181         10
   182         10
   196         10
   224         10
   241        130
   242         10