##TITLE=Library Entry 93609
##JCAMP-DX=Revision 4.10 
##DATA TYPE=MASS SPECTRUM
##SAMPLE DESCRIPTION=J.VOTH UNIV. OF CALIFORNIA, DAVIS, CALIFORNIA, 95616, U
SA
##NAMES=HP
##CAS NAME=Benzene, 1,2-propadienyl-
##MOLFORM=C9H8
##CAS REGISTRY NO=2327-99-3
##MP= -300
##BP= -300
##MW= 116
##$RETENTION INDEX=0
##$CONDENSED SPECTRUM=NO
##NPOINTS= 71
##XYDATA=(XY..XY) 1 
    12          4
    13          4
    14          5
    15          7
    16          0
    18          1
    24          1
    25          9
    26         24
    27         42
    28          4
    29          6
    30          1
    31          1
    36          3
    37         30
    38         50
    39        324
    40         10
    41          7
    42          2
    43         15
    44          4
    45         12
    48          1
    49         11
    50         85
    51        116
    52         14
    53          3
    55          9
    56          6
    57         36
    58         55
    59          1
    60          3
    61         27
    62         65
    63        143
    64         25
    65         41
    66          3
    69          1
    70          1
    71          4
    72          1
    73          8
    74         35
    75         28
    76         10
    77         36
    78          6
    84          3
    85         11
    86         21
    87         25
    88         18
    89        102
    90         20
    91          2
    97          0
    98          2
    99          1
   102          0
   111          1
   113         19
   114         48
   115        999
   116        702
   117         64
   118          3