##TITLE=Library Entry 72685
##JCAMP-DX=Revision 4.10 
##DATA TYPE=MASS SPECTRUM
##SAMPLE DESCRIPTION=Exported from NIST MS Search
##NAMES=HP
##CAS NAME=Imidazolidine, 2-(4-chlorophenyl)-1,3-dimethyl-
##MOLFORM=C11H15ClN2
##CAS REGISTRY NO=23281-56-3
##MP= -300
##BP= -300
##MW= 210
##$RETENTION INDEX=0
##$CONDENSED SPECTRUM=NO
##NPOINTS= 21
##XYDATA=(XY..XY) 1 
    42        220
    56         72
    99        999
   100         70
   111         26
   113         11
   125        106
   126         10
   127         37
   152        139
   153         10
   154         33
   166        149
   167         10
   168         42
   195         25
   197          8
   209        415
   210        104
   211        146
   212         33