##TITLE=Library Entry 82971
##JCAMP-DX=Revision 4.10 
##DATA TYPE=MASS SPECTRUM
##SAMPLE DESCRIPTION=NIST Mass Spectrometry Data Center, 1994
##NAMES=HP
##CAS NAME=Benzoic acid, 2-hydroxy-3-methyl-, methyl ester
##MOLFORM=C9H10O3
##CAS REGISTRY NO=23287-26-5
##MP= -300
##BP= -300
##MW= 166
##$RETENTION INDEX=0
##$CONDENSED SPECTRUM=NO
##NPOINTS= 82
##XYDATA=(XY..XY) 1 
    12          4
    13          5
    15        241
    16          6
    17          2
    18          3
    19          1
    25          2
    26         17
    27        102
    28         29
    29         85
    30         20
    31         29
    32          4
    33          2
    37         20
    38         50
    39        172
    40         17
    41         16
    42          5
    43         14
    44          3
    45         17
    50        115
    51        299
    52        133
    53        166
    54         12
    55         22
    59          7
    60          1
    61          8
    62         30
    63         69
    64         13
    65         28
    66         28
    67         20
    68          4
    69          5
    73          6
    74         28
    75         21
    76          1
    77        420
    78        315
    79         94
    80          6
    81          3
    82          1
    83          1
    85          4
    86          3
    87          3
    89         10
    90          5
    91          7
    92          4
    93          2
    94          3
    95          1
   103          2
   105        325
   106        999
   107         95
   108          6
   119          2
   121          1
   122          2
   134        914
   135        233
   136         21
   137          1
   149          1
   150          1
   151          8
   164          3
   166        401
   167         40
   168          4