##TITLE=Library Entry 27667
##JCAMP-DX=Revision 4.10 
##DATA TYPE=MASS SPECTRUM
##SAMPLE DESCRIPTION=J. SHAW, BORRISTON RESEARCH, ROCKVILLE, MD, USA
##NAMES=HP
##CAS NAME=Carbamic acid, N-methyl-, 2,3-dichlorobenzyl ester
##MOLFORM=C9H9Cl2NO2
##CAS REGISTRY NO=2328-31-6
##MP= -300
##BP= -300
##MW= 233
##$RETENTION INDEX=1790
##$CONDENSED SPECTRUM=NO
##NPOINTS= 124
##XYDATA=(XY..XY) 1 
    12          7
    15        729
    16         19
    26         55
    27        486
    29        844
    30        460
    31        101
    32         28
    35         32
    36         44
    37         61
    38         95
    39        262
    40         14
    41         13
    42         28
    47         13
    49         66
    50        198
    51        213
    52         25
    53         10
    56         68
    58        999
    62        454
    63        460
    64         25
    65          8
    66          1
    67          1
    68          1
    69          3
    73        273
    74        208
    75        387
    77        384
    78         38
    79         35
    81         14
    83         15
    84         57
    85         76
    86         76
    87        106
    89        599
    90         36
    91          6
    92          2
    94          5
    97        103
    99        103
   101         26
   103          9
   105         44
   107         33
   109        102
   111        270
   112         56
   113        128
   114         17
   115         21
   116          2
   117          3
   118          2
   119          3
   120          2
   121          4
   123        466
   124        136
   125        155
   126         40
   127          6
   128          1
   131          2
   133         62
   135         40
   137          9
   139         50
   141        764
   143        438
   145         60
   147         76
   148         10
   149         28
   150          3
   151          4
   152          2
   154          6
   155          1
   159        715
   161        620
   163        146
   164          7
   165          1
   167          1
   169          1
   170          1
   173         25
   175         58
   176         74
   177         28
   178         46
   179          6
   180          7
   181          1
   186          1
   188          9
   190         10
   191          1
   192          3
   198        542
   200        236
   201         14
   202          2
   203          1
   204          1
   216          1
   220          1
   221          1
   233         96
   235         68
   237         14
   239          1