##TITLE=Library Entry 83657
##JCAMP-DX=Revision 4.10 
##DATA TYPE=MASS SPECTRUM
##SAMPLE DESCRIPTION=R. JAHN, KULMGASSE, VIENNA, AUST
##NAMES=HP
##CAS NAME=1,4,5,6,7,8-Hexahydro-2,3-benzodithiin
##MOLFORM=C8H12S2
##CAS REGISTRY NO=23285-17-8
##MP= -300
##BP= -300
##MW= 172
##$RETENTION INDEX=0
##$CONDENSED SPECTRUM=NO
##NPOINTS= 76
##XYDATA=(XY..XY) 1 
    26        124
    27        192
    28         43
    29        122
    32         42
    33         30
    34         72
    37         12
    38         36
    39        340
    40         83
    41        260
    42         17
    43         12
    44         38
    45        160
    46         31
    47         41
    48         14
    49         16
    50         65
    51        123
    52         84
    53        156
    54         51
    55         52
    58         39
    59         40
    61         12
    62         14
    63         38
    64         32
    65        138
    66         64
    67        142
    68         22
    69         26
    70         14
    71         31
    73         13
    74         16
    75         10
    76        130
    77        333
    78         86
    79        843
    80        168
    81         34
    82         11
    84         15
    85         34
    91        530
    92         78
    93        621
    94         59
    97        140
    98         49
    99         19
   103         18
   105        125
   106         41
   107        999
   108        665
   109         70
   110         22
   111         49
   112         16
   137         10
   138         17
   139         97
   140         54
   141         11
   149         19
   172        530
   173         65
   174         59