##TITLE=Library Entry 38980
##JCAMP-DX=Revision 4.10 
##DATA TYPE=MASS SPECTRUM
##SAMPLE DESCRIPTION=Japan AIST/NIMC Database- Spectrum MS-NW-8935
##NAMES=HP
##CAS NAME=Cyclohexanol, 5-methyl-2-(1-methylethyl)-, [1S-(1.alpha.,2.beta.,
5.beta.)]-
##MOLFORM=C10H20O
##CAS REGISTRY NO=23283-97-8
##MP= -300
##BP= -300
##MW= 156
##$RETENTION INDEX=0
##$CONDENSED SPECTRUM=NO
##NPOINTS= 77
##XYDATA=(XY..XY) 1 
    15          2
    18          1
    27         63
    28         13
    29         85
    30          2
    31         21
    39         56
    40         11
    41        288
    42         50
    43        255
    44         29
    45         18
    51          5
    52          3
    53         50
    54         30
    55        349
    56        180
    57        219
    58         25
    59         15
    63          1
    65          9
    66          5
    67        220
    68        112
    69        284
    70        111
    71        999
    72         56
    73         11
    77         14
    78          3
    79         27
    80         69
    81        562
    82        300
    83        116
    84         30
    85         91
    86         42
    87          6
    91          9
    92          3
    93         26
    94         36
    95        545
    96        173
    97         36
    98          4
    99         38
   100          8
   101          1
   105          1
   107          2
   108          1
   109         91
   110         55
   111         14
   112         19
   113         15
   114          1
   121          2
   123        222
   124         21
   125          3
   135          5
   136          2
   137          6
   138        129
   139         24
   140          2
   141          6
   155          1
   156          1