##TITLE=Library Entry 73084
##JCAMP-DX=Revision 4.10 
##DATA TYPE=MASS SPECTRUM
##SAMPLE DESCRIPTION=Chemical Concepts
##NAMES=HP
##CAS NAME=Thiophene, 2-(1,1-dimethylethoxy)-
##MOLFORM=C8H12OS
##CAS REGISTRY NO=23290-55-3
##MP= -300
##BP= -300
##MW= 156
##$RETENTION INDEX=0
##$CONDENSED SPECTRUM=NO
##NPOINTS= 65
##XYDATA=(XY..XY) 1 
    26          8
    27         59
    28          3
    29        176
    30          4
    37          6
    38         17
    39        113
    40         11
    41        268
    42         14
    43          9
    44          2
    45        112
    46          3
    47          5
    50          3
    51          5
    52          1
    53         10
    54          1
    55         71
    56         11
    57        756
    58         31
    59          3
    61          2
    64          1
    66          1
    67          1
    68          2
    69         23
    70          7
    71         55
    72         53
    73          7
    74          3
    75          0
    76          1
    77          3
    79         13
    80          1
    81          3
    82          4
    83          2
    84          1
    85          3
    97          2
    98          3
    99         45
   100        999
   101         59
   102         42
   103          2
   104          0
   111          1
   113         62
   114          5
   115          3
   141         35
   142          3
   143          1
   156         77
   157          8
   158          4