##TITLE=Library Entry 77053
##JCAMP-DX=Revision 4.10 
##DATA TYPE=MASS SPECTRUM
##SAMPLE DESCRIPTION=V.Zaikin,Topchiev Inst.Petrochem.Synth.,Moscow
##NAMES=HP
##CAS NAME=Benzenepropanoic acid, pentyl ester
##MOLFORM=C14H20O2
##CAS REGISTRY NO=232949-65-4
##MP= -300
##BP= -300
##MW= 220
##$RETENTION INDEX=1614
##$CONDENSED SPECTRUM=NO
##NPOINTS= 95
##XYDATA=(XY..XY) 1 
    27         33
    28         10
    29         64
    30          5
    31          4
    35          4
    36         12
    37          7
    38         18
    39        107
    40         16
    41        149
    42         65
    43        329
    44         37
    45         13
    49          5
    50         56
    51        127
    52         38
    53         28
    54          7
    55         87
    56         11
    57         14
    58          5
    59          3
    60          4
    61          8
    62         15
    63         44
    64         10
    65         95
    66          9
    67          8
    68          2
    69         23
    70         28
    71         62
    72         29
    73          9
    74         25
    75         25
    76         19
    77        197
    78        169
    79        116
    80         12
    81          3
    82          3
    83          5
    85          4
    86          3
    87          4
    89         27
    90         20
    91        888
    92         75
    93          5
    95          3
    97          6
    98          2
   101          7
   102         34
   103        119
   104        999
   105        405
   106         38
   107        252
   108         21
   109          2
   111          2
   115          6
   116          2
   117          3
   119          3
   120          2
   121          3
   130          4
   131         20
   132         34
   133        101
   134         12
   139          4
   146          3
   147          7
   148          8
   149         33
   150        341
   151         34
   152          5
   219          3
   220        152
   221         24
   222          4