##TITLE=Library Entry 6328
##JCAMP-DX=Revision 4.10 
##DATA TYPE=MASS SPECTRUM
##SAMPLE DESCRIPTION=JACSAT, 98(26) 8413(1976); R. WEST, UNIV OF WISCONSIN,
 USA
##NAMES=HP
##CAS NAME=3-Hexyn-2-ol, 5-methyl-
##MOLFORM=C7H12O
##CAS REGISTRY NO=23293-50-7
##MP= -300
##BP= -300
##MW= 112
##$RETENTION INDEX=0
##$CONDENSED SPECTRUM=NO
##NPOINTS= 16
##XYDATA=(XY..XY) 1 
    39        210
    41        600
    43        999
    45        110
    51         87
    53        210
    55         82
    67        190
    69        160
    75         87
    79         85
    95         35
    97        400
   110          9
   111         12
   112          3