##TITLE=Library Entry 2670
##JCAMP-DX=Revision 4.10 
##DATA TYPE=MASS SPECTRUM
##SAMPLE DESCRIPTION=Chemical Concepts
##NAMES=HP
##CAS NAME=2-Hexamethyleneimino-4-(2-methyl-3-indolylmethylenehydrazino)-6-(
4-nitroanilino)-1,3,5-triazine
##MOLFORM=C25H27N9O2
##CAS REGISTRY NO=232936-06-0
##MP= -300
##BP= -300
##MW= 485
##$RETENTION INDEX=0
##$CONDENSED SPECTRUM=NO
##NPOINTS= 109
##XYDATA=(XY..XY) 1 
    33         29
    35         49
    36         46
    38         88
    39        305
    40        286
    41        999
    42        631
    43        355
    44        132
    46        228
    48         96
    50        119
    51         85
    52         74
    53         96
    55        745
    56        160
    57         72
    62         64
    63        105
    64         74
    65         92
    66        167
    67        146
    68        404
    69        181
    70        110
    75        134
    76        208
    77        251
    78         70
    79         71
    80         96
    81        115
    82         56
    83         68
    84        153
    88         45
    89         98
    90        154
    91         85
    92         57
    93         92
    94         37
    97         70
    98        256
   101        149
   102        189
   103        241
   104         82
   105         31
   108         47
   115        247
   116         98
   117        102
   118        148
   119         39
   122         41
   125         39
   128        250
   129        255
   130        530
   131        131
   132         66
   133         78
   138         25
   140         53
   141         39
   142        366
   143        435
   144        110
   145         30
   147         26
   155        612
   156        536
   157        582
   158        223
   159         57
   163         27
   164         58
   170         33
   184         31
   185         66
   189        152
   192         33
   214         57
   231        154
   232         42
   242         32
   246        105
   247         72
   258         62
   260        285
   261         73
   272        200
   273         67
   274        139
   275         79
   284         48
   286        267
   287         77
   288         35
   300         90
   314        125
   328        420
   329        286
   330        346
   331         53