##TITLE=Library Entry 89947
##JCAMP-DX=Revision 4.10 
##DATA TYPE=MASS SPECTRUM
##SAMPLE DESCRIPTION=Chemical Concepts
##NAMES=HP
##CAS NAME=N'-tert-Butyl-N,N-dimethylformamidine
##MOLFORM=C7H16N2
##CAS REGISTRY NO=23314-06-9
##MP= -300
##BP= -300
##MW= 128
##$RETENTION INDEX=0
##$CONDENSED SPECTRUM=NO
##NPOINTS= 75
##XYDATA=(XY..XY) 1 
    26          4
    27         33
    28         38
    29         72
    30         57
    31          3
    37          1
    38          3
    39         52
    40         15
    41        165
    42        311
    43        171
    44        624
    45         45
    46        147
    47          4
    48          0
    49         69
    50          3
    51          2
    52          2
    53          5
    54          7
    55         41
    56         51
    57        208
    58         21
    59          3
    60          0
    66          0
    67          3
    68         17
    69         14
    70         46
    71         63
    72        375
    73         34
    74          1
    75          2
    76          0
    77          0
    78          0
    79          1
    80          0
    81          3
    82          7
    83          5
    84         12
    85          7
    86         18
    87          1
    91          1
    92          0
    93          0
    94          0
    95          1
    96          4
    97         18
    98          2
    99          2
   100          2
   105          1
   107          0
   109          0
   110          0
   111          3
   112          2
   113        999
   114         67
   115          2
   127          1
   128        281
   129         26
   130          1