##TITLE=Library Entry 49169
##JCAMP-DX=Revision 4.10 
##DATA TYPE=MASS SPECTRUM
##SAMPLE DESCRIPTION=Chemical Concepts
##NAMES=HP
##CAS NAME=1,5-Cyclooctadiene, 3-bromo-
##MOLFORM=C8H11Br
##CAS REGISTRY NO=23346-40-9
##MP= -300
##BP= -300
##MW= 186
##$RETENTION INDEX=0
##$CONDENSED SPECTRUM=NO
##NPOINTS= 71
##XYDATA=(XY..XY) 1 
    26         13
    27        129
    30          2
    31          0
    36          3
    37         12
    38         29
    39        283
    40         34
    41        212
    42          7
    43          1
    45          2
    46          0
    49          6
    50         65
    51        160
    52         85
    53        149
    54         99
    55         16
    61          6
    62         13
    63         37
    64          5
    65        156
    66         87
    67        150
    68          9
    73          1
    74         15
    75          8
    76          7
    77        345
    78        424
    79        999
    80        138
    81         10
    82          5
    83          0
    84          0
    85          0
    86          0
    87          0
    88          1
    89          8
    90          1
    91        577
    92         96
    93         28
    97          0
    98          1
    99          0
   101          1
   102          5
   103         35
   104          9
   105        133
   106        165
   107        589
   108         68
   109          1
   119          2
   132         62
   133          2
   134         56
   135          1
   145          6
   147          6
   186          0
   188          1