##TITLE=Library Entry 54995
##JCAMP-DX=Revision 4.10 
##DATA TYPE=MASS SPECTRUM
##SAMPLE DESCRIPTION=V.Zaikin,Topchiev Inst.Petrochem.Synth.,Moscow
##NAMES=HP
##CAS NAME=Pentanoic acid 1-methylpropyl ester
##MOLFORM=C9H18O2
##CAS REGISTRY NO=23361-74-2
##MP= -300
##BP= -300
##MW= 158
##$RETENTION INDEX=1019
##$CONDENSED SPECTRUM=NO
##NPOINTS= 56
##XYDATA=(XY..XY) 1 
    22          1
    26         12
    27         59
    28         18
    29        135
    30          4
    31          4
    35          6
    36         36
    37          2
    38         13
    39         51
    40          9
    41        212
    42         20
    43         42
    44          9
    45         24
    49          2
    54          4
    55         57
    56        262
    57        596
    58         29
    59          7
    60        201
    61         23
    62          1
    67          1
    69          1
    72          9
    73        150
    74         12
    75         18
    76          2
    81          3
    82          8
    83          8
    84          5
    85        999
    86         61
    87         13
   100          1
   101          7
   102        120
   103        331
   104         20
   105          2
   114          5
   115          1
   116         27
   117          3
   118          1
   129         65
   130          5
   143         13