##TITLE=Library Entry 23693
##JCAMP-DX=Revision 4.10 
##DATA TYPE=MASS SPECTRUM
##SAMPLE DESCRIPTION=Chemical Concepts
##NAMES=HP
##CAS NAME=Pentanoic acid, 1,1-dimethylethyl ester
##MOLFORM=C9H18O2
##CAS REGISTRY NO=23361-78-6
##MP= -300
##BP= -300
##MW= 158
##$RETENTION INDEX=957
##$CONDENSED SPECTRUM=NO
##NPOINTS= 33
##XYDATA=(XY..XY) 1 
    26         20
    27         99
    28         66
    29        194
    31         14
    37          6
    38          9
    39         99
    40         23
    41        357
    42         48
    43         77
    44          5
    45         12
    50         16
    51         16
    53          6
    55         39
    56        162
    57        999
    58         56
    59         32
    60         31
    61          5
    73         12
    75          6
    85        293
    86         18
   102          9
   103         62
   104          6
   143         17
   144          1