##TITLE=Library Entry 38440
##JCAMP-DX=Revision 4.10 
##DATA TYPE=MASS SPECTRUM
##SAMPLE DESCRIPTION=V.Zaikin,Topchiev Inst.Petrochem.Synth.,Moscow
##NAMES=HP
##CAS NAME=Butanoic acid, 2,2-dimethylpropyl ester
##MOLFORM=C9H18O2
##CAS REGISTRY NO=23361-69-5
##MP= -300
##BP= -300
##MW= 158
##$RETENTION INDEX=0
##$CONDENSED SPECTRUM=NO
##NPOINTS= 60
##XYDATA=(XY..XY) 1 
    25          3
    26         24
    27         35
    28          9
    29         28
    30          1
    31          2
    35          9
    36         67
    37          8
    38         23
    39         53
    40          8
    41         88
    42         17
    43        269
    44          9
    45          4
    48          2
    49         15
    55         49
    56         52
    57        266
    58         12
    60          8
    61          1
    62          1
    63          1
    64          2
    65          1
    66          3
    67          2
    69          8
    70         82
    71        999
    72         38
    73          8
    74         17
    75         11
    76          9
    77          3
    82          1
    85          5
    87         53
    88         14
    89         13
    92          2
    93         10
   101         36
   102         43
   103        224
   104         12
   105          1
   128         10
   129          1
   130         14
   131          1
   143         13
   144          1
   158          2