##TITLE=Library Entry 54977
##JCAMP-DX=Revision 4.10 
##DATA TYPE=MASS SPECTRUM
##SAMPLE DESCRIPTION=V.Zaikin,Topchiev Inst.Petrochem.Synth.,Moscow
##NAMES=HP
##CAS NAME=Valeric acid, 2,2-dimethylpropyl ester
##MOLFORM=C10H20O2
##CAS REGISTRY NO=23361-71-9
##MP= -300
##BP= -300
##MW= 172
##$RETENTION INDEX=0
##$CONDENSED SPECTRUM=NO
##NPOINTS= 67
##XYDATA=(XY..XY) 1 
    25          3
    26         22
    27         74
    28          9
    29        177
    30          7
    31          8
    35          6
    36         46
    37          7
    38         28
    39         88
    40         23
    41        247
    42         62
    43        230
    44         18
    45          2
    48          1
    49          7
    50         27
    51         51
    52        116
    53         31
    54          9
    55        162
    56         92
    57        748
    58         29
    59          7
    60         29
    61          4
    64          1
    67          4
    68          3
    69         15
    70        163
    71        291
    72         16
    73         32
    74         39
    78         22
    79        197
    80          8
    82          5
    83          8
    84         25
    85        999
    86          7
    87         70
    88          6
    95          1
    96          2
    98          1
    99          1
   100          6
   101         10
   102         18
   103         14
   115         21
   116         25
   117        169
   118          9
   126          6
   130         24
   131          2
   157          7