##TITLE=Library Entry 59538
##JCAMP-DX=Revision 4.10 
##DATA TYPE=MASS SPECTRUM
##SAMPLE DESCRIPTION=V.KUBELKA INST. OF CHEM. TECH., PRAGUE 6, CZECHOSLOVAKI
A
##NAMES=HP
##CAS NAME=Benzenesulfonic acid, 2-methyl-, methyl ester
##MOLFORM=C8H10O3S
##CAS REGISTRY NO=23373-38-8
##MP= -300
##BP= -300
##MW= 186
##$RETENTION INDEX=0
##$CONDENSED SPECTRUM=NO
##NPOINTS= 83
##XYDATA=(XY..XY) 1 
    26         10
    27         40
    28         30
    29        110
    30         39
    31         41
    32          9
    37         20
    38         50
    39        330
    40         30
    41         60
    42          8
    43          7
    44          6
    45         29
    48         31
    49          9
    51        150
    52         40
    53         32
    54         11
    55         10
    61         28
    62         80
    63        240
    64         90
    65        450
    66         32
    67         12
    69         22
    70          8
    71          7
    73          6
    74         27
    75         26
    76         19
    77        160
    78         50
    79        115
    80          9
    81          8
    82         10
    86          7
    87         11
    88         13
    89         49
    90        280
    91        999
    92        160
    93         20
    94         19
    95          4
    96         20
    98          2
   105          1
   106         52
   107        102
   108         19
   109         29
   110          3
   111          5
   121         54
   122         41
   123          1
   126         11
   127          4
   136         19
   137        155
   138         22
   139         20
   153          5
   154         78
   155         49
   156         21
   157          3
   168          5
   169          9
   170          8
   171         19
   186        320
   187         62
   188         21