##TITLE=Library Entry 28737
##JCAMP-DX=Revision 4.10 
##DATA TYPE=MASS SPECTRUM
##SAMPLE DESCRIPTION=Drug Lab
##NAMES=HP
##CAS NAME=Levopropoxyphene
##MOLFORM=C22H29NO2
##CAS REGISTRY NO=2338-37-6
##MP= -300
##BP= -300
##MW= 339
##$RETENTION INDEX=2185
##$CONDENSED SPECTRUM=NO
##NPOINTS= 86
##XYDATA=(XY..XY) 1 
    41          3
    42         19
    43          5
    44          7
    45          2
    50          1
    51          6
    52          1
    53          1
    55          2
    56          5
    57         47
    58        999
    59         35
    63          3
    65         13
    66          1
    70          3
    71          6
    74          2
    75          1
    76          2
    77         27
    78          5
    79          1
    84          4
    85          4
    86          8
    87          1
    89          5
    90          1
    91         70
    92          5
   101          1
   102          3
   103          4
   104          1
   105         27
   106          2
   115         38
   116          7
   117         15
   118          2
   127          3
   128         10
   129         14
   130         16
   131          3
   132          1
   133          5
   134          4
   139          1
   141          1
   143          3
   144          1
   151          1
   152          4
   158          1
   165          7
   166          2
   167          1
   174          4
   176          3
   177          1
   178         16
   179         10
   180          1
   189          3
   190          2
   191          5
   192          3
   193         11
   194          1
   197          4
   202          1
   203          1
   204          1
   205          2
   206          2
   207          2
   208         12
   209          1
   250          8
   251          1
   265          1
   266          2