##TITLE=Library Entry 35080
##JCAMP-DX=Revision 4.10 
##DATA TYPE=MASS SPECTRUM
##SAMPLE DESCRIPTION=D.HENNEBERG, MAX-PLANCK INSTITUTE, MULHEIM, WEST GERMAN
Y
##NAMES=HP
##CAS NAME=2-Decene, 2-methyl-
##MOLFORM=C11H22
##CAS REGISTRY NO=23381-92-2
##MP= -300
##BP= -300
##MW= 154
##$RETENTION INDEX=0
##$CONDENSED SPECTRUM=NO
##NPOINTS= 67
##XYDATA=(XY..XY) 1 
    25          3
    26          9
    27        113
    28         52
    29        110
    30          3
    31          4
    34          2
    37          5
    38          2
    39         79
    40         13
    41        634
    42         91
    43        199
    45          0
    47          2
    50          3
    51          8
    52          2
    53         43
    54         27
    55        299
    56        687
    57        226
    58          9
    59          0
    60          1
    61          0
    62          1
    65          8
    66         10
    67         66
    68         91
    69        999
    70        192
    71         18
    75          1
    76          1
    77          4
    78          1
    79          8
    80          1
    81          9
    82         24
    83         80
    84         46
    85          8
    89          0
    94          1
    95          8
    96          8
    97         30
    98         31
    99          2
   106          0
   109          3
   111         21
   112          4
   113          0
   126         11
   139          3
   140          1
   144          0
   152          1
   154         68
   155          8