##TITLE=Library Entry 96781
##JCAMP-DX=Revision 4.10 
##DATA TYPE=MASS SPECTRUM
##SAMPLE DESCRIPTION=NIST Mass Spectrometry Data Center, 1994
##NAMES=HP
##CAS NAME=4-(Trifluoromethyl)phenylacetonitrile
##MOLFORM=C9H6F3N
##CAS REGISTRY NO=2338-75-2
##MP= -300
##BP= -300
##MW= 185
##$RETENTION INDEX=0
##$CONDENSED SPECTRUM=NO
##NPOINTS= 105
##XYDATA=(XY..XY) 1 
    14          2
    20          1
    25          1
    26         10
    27         13
    28          8
    31         15
    33          2
    37         23
    38         36
    39         63
    40         12
    41          5
    43          4
    44          3
    45          1
    49          9
    50         77
    51         52
    52         11
    56          7
    57         31
    60          2
    61         26
    62         58
    63         85
    64         24
    65         12
    66          2
    68          9
    69         68
    70          6
    73          7
    74         32
    75         77
    76         24
    77          6
    78          2
    79          2
    80          4
    81         16
    83         25
    84          4
    85          9
    86         16
    87         37
    88         49
    89        136
    90         21
    91          1
    92          3
    93          5
    94          6
    95         25
    96          3
    99         20
   100          7
   101          5
   102          2
   105          2
   106          6
   107         34
   108         22
   109         24
   110          2
   111          3
   112          7
   113         10
   114         27
   115          2
   116        999
   117         96
   118          7
   119         20
   120          4
   123          3
   124          3
   125         18
   126         11
   127          7
   132         14
   134         48
   135          9
   136          2
   137         14
   138         30
   139         11
   140          4
   143          2
   144          9
   145         24
   146          4
   152          1
   156          3
   157          8
   158         24
   159         11
   163          3
   164          7
   165         53
   166        101
   167         10
   185        283
   186         29
   187          2