##TITLE=Library Entry 96782
##JCAMP-DX=Revision 4.10 
##DATA TYPE=MASS SPECTRUM
##SAMPLE DESCRIPTION=RADIAN CORP
##NAMES=HP
##CAS NAME=Benzeneacetonitrile, 3-(trifluoromethyl)-
##MOLFORM=C9H6F3N
##CAS REGISTRY NO=2338-76-3
##MP= -300
##BP= -300
##MW= 185
##$RETENTION INDEX=0
##$CONDENSED SPECTRUM=NO
##NPOINTS= 61
##XYDATA=(XY..XY) 1 
    37         10
    38         20
    39          4
    50         61
    51         29
    52         12
    57         29
    61         27
    62         57
    63         94
    64         29
    68          7
    69         95
    70         10
    74         35
    75         94
    76         26
    81         21
    82          5
    83          8
    85         11
    86         18
    87         39
    88         52
    89        153
    90         25
    94          9
    95         33
    99         31
   100         10
   101          3
   108         26
   109         27
   112          9
   113         11
   114         34
   115         10
   116        999
   117         95
   118          9
   119         26
   126         16
   127         11
   132         16
   134         46
   135         10
   137         19
   138         44
   139         16
   144         15
   145         34
   157         14
   158         35
   159         15
   164         10
   165         80
   166        115
   167         12
   184         33
   185        316
   186         34