##TITLE=Library Entry 99217
##JCAMP-DX=Revision 4.10 
##DATA TYPE=MASS SPECTRUM
##SAMPLE DESCRIPTION=A.A.Kutin, Moscow, Russia
##NAMES=HP
##CAS NAME=2-(p-Toluoylmethylthio]benzothiazole
##MOLFORM=C16H13NOS2
##CAS REGISTRY NO=23384-64-7
##MP= -300
##BP= -300
##MW= 299
##$RETENTION INDEX=0
##$CONDENSED SPECTRUM=NO
##NPOINTS= 48
##XYDATA=(XY..XY) 1 
    38         25
    39        178
    41         33
    43         31
    45        105
    46         13
    50         19
    51         78
    52         16
    53         13
    57         12
    58         17
    62         24
    63         86
    65        194
    69         56
    70         13
    74         12
    75         15
    77         87
    78         22
    79         28
    80         11
    81         12
    82         30
    89         28
    91        405
    92         22
    96         12
   102         17
   103         18
   105         40
   108         66
   109         19
   116         11
   119        999
   120         65
   121         11
   122         21
   132         14
   134         16
   135         13
   136         25
   166         24
   167         25
   180         18
   299         63
   300         11