##TITLE=Library Entry 46446
##JCAMP-DX=Revision 4.10 
##DATA TYPE=MASS SPECTRUM
##SAMPLE DESCRIPTION=J. SHAW, BORRISTON RESEARCH, ROCKVILLE, MD, USA
##NAMES=HP
##CAS NAME=1H-Benzimidazole, 5,6-dichloro-2-(trifluoromethyl)-
##MOLFORM=C8H3Cl2F3N2
##CAS REGISTRY NO=2338-25-2
##MP= -300
##BP= -300
##MW= 254
##$RETENTION INDEX=0
##$CONDENSED SPECTRUM=NO
##NPOINTS= 171
##XYDATA=(XY..XY) 1 
    12          1
    14          1
    15          1
    16          3
    17         12
    18         43
    19          1
    20          3
    26         10
    27         37
    28         26
    29          2
    31          8
    32          1
    35          5
    36         13
    37         24
    38         65
    39        402
    40         14
    41          3
    42          1
    43          1
    44          8
    45          1
    47          8
    48          1
    49         19
    50         97
    51        391
    52         19
    53          6
    54          1
    55          1
    57          1
    60          9
    61         24
    62         31
    63         65
    64         48
    65        316
    66         21
    67          1
    69        391
    70          5
    71          3
    72         19
    74         33
    75         25
    77        999
    78         81
    79          2
    81          1
    83         32
    84         18
    85         34
    86         19
    87         63
    88        200
    89         19
    90          1
    91          3
    92          7
    93         64
    94         18
    95          7
    96         37
    97         32
    98         75
    99         18
   100         28
   101          3
   102          1
   105          1
   107         48
   108          9
   109         32
   110          7
   111          9
   112          5
   113         14
   114          7
   115          3
   116          9
   118          1
   121        259
   122         50
   123         28
   124         14
   125          9
   126          1
   127          3
   131         12
   132         10
   133          9
   134          9
   135          1
   136          1
   137          1
   138          5
   139          7
   140          3
   142          1
   143         16
   144          1
   145         52
   147          1
   149         68
   150         10
   151         34
   152          9
   153         12
   154          5
   155          1
   156          3
   158        362
   160        241
   161         16
   162         34
   163          9
   164         19
   165         12
   166          1
   172         25
   173          7
   174          3
   175          1
   183          1
   184          9
   185          1
   186          5
   187          5
   188          5
   189          1
   190          1
   191          5
   192          1
   198          1
   199         14
   200         19
   201          7
   202          5
   203          1
   208          1
   209          1
   210          1
   211          1
   212          5
   214          3
   215          1
   218         10
   219          1
   220          3
   225          3
   226         19
   227          7
   228          7
   229          3
   235        203
   236         23
   237        129
   238         14
   239         19
   240          1
   241          5
   254         63
   255         36
   256         39
   257         19
   258          7
   259          3