##TITLE=Library Entry 13483
##JCAMP-DX=Revision 4.10 
##DATA TYPE=MASS SPECTRUM
##SAMPLE DESCRIPTION=NIST Mass Spectrometry Data Center
##NAMES=HP
##CAS NAME=Phenol, 2,4,6-trichloro-, acetate
##MOLFORM=C8H5Cl3O2
##CAS REGISTRY NO=23399-90-8
##MP= -300
##BP= -300
##MW= 238
##$RETENTION INDEX=1423
##$CONDENSED SPECTRUM=NO
##NPOINTS= 106
##XYDATA=(XY..XY) 1 
    13          2
    14          8
    15         49
    17          3
    25          2
    26          3
    27          1
    28          1
    29          2
    32          1
    35          2
    36          2
    37         14
    38          3
    39          1
    41          4
    42         23
    43        999
    44         21
    45          2
    47          5
    48          7
    49          5
    50          7
    51          3
    53          9
    60          6
    61         37
    62         52
    63         11
    65          3
    66          3
    67          2
    71          6
    72         19
    73         23
    74         15
    75          5
    77          1
    80          1
    83         22
    84          6
    85         13
    86          4
    87          3
    89          1
    90          1
    91          2
    95          4
    96         13
    97         98
    98         12
    99         29
   100          2
   106          2
   107         44
   108          8
   109         27
   110          2
   111          5
   117          1
   119          2
   123          1
   125          4
   126          2
   128          2
   131          8
   132         49
   133         13
   134         31
   135          8
   136          4
   143          5
   144          3
   145          3
   146          2
   147          2
   160         24
   161          4
   162         14
   163          3
   164          2
   167         37
   168          2
   169         35
   170          2
   171         10
   173          2
   179          5
   181          4
   183          2
   195         13
   196        422
   197         38
   198        378
   199         29
   200        126
   201         11
   202         14
   203          2
   238         33
   239          3
   240         31
   241          3
   242         10
   243          1