##TITLE=Library Entry 1375
##JCAMP-DX=Revision 4.10 
##DATA TYPE=MASS SPECTRUM
##SAMPLE DESCRIPTION=Chuck Anderson, Aldrich Chemical Co.
##NAMES=HP
##CAS NAME=1,2-Dichloro-4-fluoro-5-nitrobenzene
##MOLFORM=C6H2Cl2FNO2
##CAS REGISTRY NO=2339-78-8
##MP= -300
##BP= -300
##MW= 209
##$RETENTION INDEX=0
##$CONDENSED SPECTRUM=NO
##NPOINTS= 109
##XYDATA=(XY..XY) 1 
    28         11
    30        999
    31        121
    32          2
    35         19
    36         28
    37         87
    38         22
    44          5
    46         45
    47         16
    48          9
    49         39
    50         43
    51          4
    55         10
    56         31
    57         20
    60         37
    61        168
    62        123
    63         14
    64          4
    67         55
    68        114
    69         27
    71         23
    72         61
    73        130
    74        267
    75         33
    76          7
    79         13
    80         28
    81         99
    82         16
    83         10
    84        128
    85         16
    86         51
    87         12
    90          9
    91        135
    92        336
    93        739
    94         55
    95         14
    96         29
    97        135
    98         17
    99         43
   101         26
   102         57
   103         44
   104         20
   105         14
   106         13
   107         35
   108         80
   109         42
   110         27
   111          9
   115         24
   116         17
   117         14
   118         13
   119          4
   120          2
   125          9
   126         12
   127        359
   128        915
   129        167
   130        304
   131         21
   137          4
   142         26
   143        158
   144         29
   145        107
   146         11
   147         16
   151        922
   152         43
   153        612
   154         29
   155         99
   156          1
   162         30
   163        978
   164         73
   165        633
   166         39
   167        105
   168          2
   179        385
   180         20
   181        257
   182         14
   183         41
   193         62
   195         40
   197          3
   209        929
   210         54
   211        612
   212         35
   213        100
   214          2