##TITLE=Library Entry 78667
##JCAMP-DX=Revision 4.10 
##DATA TYPE=MASS SPECTRUM
##SAMPLE DESCRIPTION=J. Little, Eastman chemical company.
##NAMES=HP
##CAS NAME=2,5-Pyrrolidinedione, 1-(benzoyloxy)-
##MOLFORM=C11H9NO4
##CAS REGISTRY NO=23405-15-4
##MP= -300
##BP= -300
##MW= 219
##$RETENTION INDEX=0
##$CONDENSED SPECTRUM=NO
##NPOINTS= 28
##XYDATA=(XY..XY) 1 
    27        175
    29         24
    30         16
    39         31
    42         51
    43         26
    44         38
    50         97
    51        250
    55         26
    56         90
    57          6
    58         13
    70         46
    74         24
    75         30
    76         37
    77        571
    78         55
    86         63
   100          7
   101         11
   104          8
   105        999
   106        144
   107         12
   122          9
   219         16