##TITLE=Library Entry 31116
##JCAMP-DX=Revision 4.10 
##DATA TYPE=MASS SPECTRUM
##SAMPLE DESCRIPTION=S. MARKEY UNIV. OF COLO. MED. CTR., DENVER, COLORADO, U
SA
##NAMES=HP
##CAS NAME=L-Methionine, N-(trifluoroacetyl)-, butyl ester
##MOLFORM=C11H18F3NO3S
##CAS REGISTRY NO=2340-90-1
##MP= -300
##BP= -300
##MW= 301
##$RETENTION INDEX=1566
##$CONDENSED SPECTRUM=NO
##NPOINTS= 92
##XYDATA=(XY..XY) 1 
    15         40
    18          6
    26         19
    27        311
    29        679
    30         26
    31         24
    35         98
    39        128
    40         19
    41        562
    42         40
    43         58
    44         31
    45        108
    46         51
    47        111
    48         27
    49         26
    50         10
    51         10
    53         14
    54         46
    55         89
    56         85
    57        420
    58         30
    59         35
    60         18
    61        999
    62        106
    63         49
    64          3
    68          5
    69        165
    70         37
    71         12
    72          3
    73         10
    74         46
    75        235
    76         11
    77         23
    78         19
    82         12
    83         18
    84         46
    85         14
    86         20
    87         22
    88         14
    96         11
    99          2
   100          8
   101          3
   102          4
   103          6
   104         23
   114          9
   117          5
   119          6
   125         10
   126          7
   128          3
   131         26
   132         10
   138         21
   139          5
   140         12
   151          7
   152         73
   153        187
   154         14
   166         44
   170          4
   171        153
   172          7
   179         28
   180          6
   181          4
   184         38
   185          2
   197          7
   198         11
   199          3
   200         32
   212          3
   227        107
   228         14
   240         11
   301         33
   302          4