##TITLE=Library Entry 23298
##JCAMP-DX=Revision 4.10 
##DATA TYPE=MASS SPECTRUM
##SAMPLE DESCRIPTION=CARL DJERASSI DEPT OF CHEM STANFORD UNIV STANFORD CALIF
 94305
##NAMES=HP
##CAS NAME=L-Threonine, N-(trifluoroacetyl)-, butyl ester
##MOLFORM=C10H16F3NO4
##CAS REGISTRY NO=23403-41-0
##MP= -300
##BP= -300
##MW= 271
##$RETENTION INDEX=1246
##$CONDENSED SPECTRUM=NO
##NPOINTS= 49
##XYDATA=(XY..XY) 1 
    15         10
    18         30
    26         10
    27        160
    29        730
    30         20
    39        100
    40         30
    41        740
    42         40
    43         90
    44         20
    45         60
    47         50
    50         10
    51         20
    53         10
    54         60
    55        120
    56        170
    57        999
    58         50
    59         20
    69        370
    78         10
    82         10
    83         10
    84        150
    85         10
    96         20
    97         20
   100         10
   113         20
   126         10
   132         20
   138         30
   141         40
   151         10
   152        300
   153        530
   154         40
   170         10
   171         20
   179         40
   180         30
   198         20
   227         10
   254         10
   266         10