##TITLE=Library Entry 42251
##JCAMP-DX=Revision 4.10 
##DATA TYPE=MASS SPECTRUM
##SAMPLE DESCRIPTION=Exported from NIST MS Search
##NAMES=HP
##CAS NAME=Cholest-4-en-26-al, 3-oxo-, cyclic 26-(ethylene acetal)
##MOLFORM=C29H46O3
##CAS REGISTRY NO=23405-51-8
##MP= -300
##BP= -300
##MW= 442
##$RETENTION INDEX=0
##$CONDENSED SPECTRUM=NO
##NPOINTS= 143
##XYDATA=(XY..XY) 1 
    53         16
    54         11
    55        190
    56         19
    57         59
    67         90
    68         19
    69        111
    70          9
    71         30
    73        999
    74         76
    75         19
    77         40
    78         11
    79         90
    80         19
    81        119
    82         19
    83         42
    84          9
    87         28
    91        119
    92         28
    93        147
    94         47
    95        180
    96         40
    97         61
    98         19
    99         59
   100         19
   102         19
   105        119
   106         38
   107        147
   108         47
   109        119
   110         19
   111         28
   113         59
   115         28
   117         30
   119         95
   120         47
   121        119
   122        100
   123        111
   124        219
   125         47
   128         19
   129         19
   131         47
   132         19
   133         90
   134         47
   135        100
   136         42
   137         47
   138         23
   141          9
   143         23
   144         11
   145         57
   146         33
   147        119
   148         59
   149         80
   150         23
   157         19
   159         47
   160         16
   161         47
   162         19
   163         19
   168          9
   169          9
   171         19
   173         28
   174         19
   175         28
   176          7
   177          7
   185         19
   187         42
   188         19
   189         19
   196        109
   197         42
   199          7
   201         19
   202          9
   203          9
   211         19
   212          9
   213         19
   215         16
   227         19
   228          9
   229        100
   230         28
   231         11
   243         23
   244         23
   245         28
   253          9
   255          9
   256          7
   257         19
   269         28
   270          9
   271         28
   272          7
   276         11
   277         19
   297         11
   299         14
   305         14
   318         11
   319         23
   338          9
   341         11
   343         47
   344         19
   358         19
   359          7
   365          9
   368          9
   369          7
   372         14
   380         11
   385         19
   386          9
   400         57
   401         28
   402         11
   412          7
   427         28
   428          7
   441         19
   442        190
   443         66
   444         19