##TITLE=Library Entry 57222
##JCAMP-DX=Revision 4.10 
##DATA TYPE=MASS SPECTRUM
##SAMPLE DESCRIPTION=Exported from NIST MS Search
##NAMES=HP
##CAS NAME=4-Octanol, 4-methyl-
##MOLFORM=C9H20O
##CAS REGISTRY NO=23418-37-3
##MP= -300
##BP= -300
##MW= 144
##$RETENTION INDEX=0
##$CONDENSED SPECTRUM=NO
##NPOINTS= 92
##XYDATA=(XY..XY) 1 
    12          1
    13          1
    14          7
    15         62
    16          3
    17          9
    18         30
    19          6
    23          1
    24          1
    25          1
    26         37
    27        417
    28         81
    29        317
    30          9
    31         66
    32          3
    33          1
    36          2
    37          5
    38         13
    39        179
    40         31
    41        417
    42         59
    43        557
    44         23
    45        744
    46         17
    47          3
    49          1
    50          6
    51         14
    52          7
    53         44
    54         13
    55        387
    56        162
    57        154
    58         77
    59        102
    60          4
    61          1
    62          1
    63          3
    64          1
    65          7
    66          4
    67         23
    68         13
    69        226
    70         31
    71         76
    72         13
    73         32
    74          2
    77          6
    78          2
    79          6
    80          1
    81          9
    82          6
    83        116
    84         51
    85         19
    86         20
    87        999
    88         54
    89          3
    91          2
    93          1
    95          2
    97         29
    98          4
    99          3
   101        695
   102         45
   103          3
   109          1
   111         18
   112          2
   113          1
   115          2
   124          1
   126         40
   127          7
   128          1
   129        163
   130         14
   131          1
   143          1