##TITLE=Library Entry 57224
##JCAMP-DX=Revision 4.10 
##DATA TYPE=MASS SPECTRUM
##SAMPLE DESCRIPTION=NIST Mass Spectrometry Data Center, 1990.
##NAMES=HP
##CAS NAME=4-Nonanol, 4-methyl-
##MOLFORM=C10H22O
##CAS REGISTRY NO=23418-38-4
##MP= -300
##BP= -300
##MW= 158
##$RETENTION INDEX=0
##$CONDENSED SPECTRUM=NO
##NPOINTS= 33
##XYDATA=(XY..XY) 1 
    15         20
    27        169
    28        102
    29        215
    31         35
    32         12
    39        110
    41        328
    42         51
    43        416
    45        632
    46         14
    53         31
    55        452
    56        115
    57         92
    58        131
    59         60
    67         26
    69        229
    70         36
    71        121
    73         41
    83         45
    84         42
    85         19
    87        999
    88         58
    97        143
    98         16
   115        503
   116         35
   143        104