##TITLE=Library Entry 11797
##JCAMP-DX=Revision 4.10 
##DATA TYPE=MASS SPECTRUM
##SAMPLE DESCRIPTION=Chemical Concepts
##NAMES=HP
##CAS NAME=2-Oxazolecarboxylic acid, 5-ethoxy-4-methyl-, ethyl ester
##MOLFORM=C9H13NO4
##CAS REGISTRY NO=23429-04-1
##MP= -300
##BP= -300
##MW= 199
##$RETENTION INDEX=0
##$CONDENSED SPECTRUM=NO
##NPOINTS= 76
##XYDATA=(XY..XY) 1 
    26         64
    27        272
    28        161
    29        416
    30         12
    31          5
    32          2
    36          1
    38          2
    39         11
    40          8
    41         24
    42        107
    43        999
    44         30
    45         24
    51         10
    52         32
    53         21
    54         35
    55         17
    56         27
    57         54
    58          3
    59          1
    61          6
    66          1
    67          3
    68         12
    69         11
    70         69
    71         17
    72         14
    73         65
    74          6
    80          4
    81          9
    82         10
    83          5
    84          2
    85          4
    86          9
    87          2
    96          1
    98         45
    99         22
   101        393
   102         14
   103          2
   108          4
   110          2
   111          1
   112          1
   115          2
   125        827
   126        205
   127         15
   128          6
   129         90
   130          5
   138          2
   143        427
   144         23
   145          3
   152          1
   154         99
   155          7
   156          1
   157          2
   171        179
   172         12
   173          1
   184          1
   197          1
   199        121
   200         12