##TITLE=Library Entry 45186
##JCAMP-DX=Revision 4.10 
##DATA TYPE=MASS SPECTRUM
##SAMPLE DESCRIPTION=A.A.Kutin, Moscow, Russia
##NAMES=HP
##CAS NAME=1,3-Octanediol
##MOLFORM=C8H18O2
##CAS REGISTRY NO=23433-05-8
##MP= -300
##BP= -300
##MW= 146
##$RETENTION INDEX=1275
##$CONDENSED SPECTRUM=NO
##NPOINTS= 71
##XYDATA=(XY..XY) 1 
    37          3
    39        215
    40         48
    41        489
    42        140
    43        509
    44        365
    45        603
    46         52
    47         41
    49          3
    50          5
    51         12
    52          5
    53         44
    55        468
    56        326
    57        716
    58         64
    59          8
    60          0
    62         22
    64          1
    65          6
    66          8
    67         78
    68         38
    69         40
    70         21
    71        116
    72        175
    73         24
    75        999
    76         36
    77          6
    79          9
    81         48
    82        116
    83        198
    84         17
    85         59
    86          7
    88          0
    90          1
    91          0
    92          0
    93          1
    95         13
    96          1
    97          2
    99        237
   100         59
   101         52
   102          3
   107          0
   109          4
   110          7
   111          4
   112          0
   113          0
   114          0
   119          0
   127          3
   128         12
   129          4
   130          0
   136          0
   145          2
   146          0
   147          0
   151          0