##TITLE=Library Entry 975
##JCAMP-DX=Revision 4.10 
##DATA TYPE=MASS SPECTRUM
##SAMPLE DESCRIPTION=J.A.DAVIES UNIVERSITY COLLEGE OF SWANSEA, SWANSEA, UK
##NAMES=HP
##CAS NAME=2H-Azonin-2-one, octahydro-6-hydroxy-
##MOLFORM=C8H15NO2
##CAS REGISTRY NO=23435-07-6
##MP= -300
##BP= -300
##MW= 157
##$RETENTION INDEX=0
##$CONDENSED SPECTRUM=NO
##NPOINTS= 17
##XYDATA=(XY..XY) 1 
    30        999
    39        100
    41        230
    42        110
    43        440
    44        110
    55        140
    56        130
    68        250
    69        140
    70        120
    72        150
    73        140
   101        140
   139        130
   140         30
   157         30