##TITLE=Library Entry 24639
##JCAMP-DX=Revision 4.10 
##DATA TYPE=MASS SPECTRUM
##SAMPLE DESCRIPTION=Exported from NIST MS Search
##NAMES=HP
##CAS NAME=2-Propanol, 1-(2-methylpropoxy)-
##MOLFORM=C7H16O2
##CAS REGISTRY NO=23436-19-3
##MP= -300
##BP= -300
##MW= 132
##$RETENTION INDEX=0
##$CONDENSED SPECTRUM=NO
##NPOINTS= 70
##XYDATA=(XY..XY) 1 
    13          1
    14          5
    15         37
    16          2
    17         11
    18         49
    19         13
    26          8
    27        103
    28         29
    29        234
    30         10
    31        193
    32          4
    33         19
    37          2
    38          5
    39         81
    40         14
    41        383
    42         81
    43        411
    44         41
    45        730
    46         24
    47         72
    48          2
    50          2
    51          2
    53          6
    54          2
    55         43
    56        192
    57        999
    58        125
    59        383
    60         40
    61         34
    62          2
    63          1
    69          5
    70          5
    71         80
    72         14
    73         71
    74         27
    75         33
    76          2
    77          3
    83          2
    85          3
    86         57
    87        235
    88        123
    89         65
    90          4
    91          1
    97          1
    99          2
   100          3
   101         32
   102         15
   103          8
   114         25
   115         11
   116          2
   117          8
   130          1
   131          8
   132          1