##TITLE=Library Entry 41609
##JCAMP-DX=Revision 4.10 
##DATA TYPE=MASS SPECTRUM
##SAMPLE DESCRIPTION=Japan AIST/NIMC Database- Spectrum MS-NW-2953
##NAMES=HP
##CAS NAME=Silane, (chloromethyl)trimethyl-
##MOLFORM=C4H11ClSi
##CAS REGISTRY NO=2344-80-1
##MP= -300
##BP= -300
##MW= 122
##$RETENTION INDEX=0
##$CONDENSED SPECTRUM=NO
##NPOINTS= 56
##XYDATA=(XY..XY) 1 
    14          1
    15          3
    26          1
    27          7
    28          7
    29         23
    30          2
    31          8
    32          3
    36          2
    39          1
    41          3
    42         14
    43         65
    44         18
    45        125
    46          8
    47          4
    49          3
    51          1
    53          9
    54          2
    55          9
    56          1
    57          7
    58          6
    59         20
    60          1
    63         32
    64          4
    65         26
    66          2
    67          6
    70          1
    71          2
    72          9
    73        999
    74         86
    75         36
    76          1
    77          4
    78         10
    79        330
    80         22
    81        115
    82          7
    83          4
    93         11
    94          1
    95          4
   107         65
   108          5
   109         22
   110          2
   122          5
   124          2