##TITLE=Library Entry 97235
##JCAMP-DX=Revision 4.10 
##DATA TYPE=MASS SPECTRUM
##SAMPLE DESCRIPTION=NIST Mass Spectrometry Data Center
##NAMES=HP
##CAS NAME=4-Phenyl-2-butanol
##MOLFORM=C10H14O
##CAS REGISTRY NO=2344-70-9
##MP= -300
##BP= -300
##MW= 150
##$RETENTION INDEX=1241
##$CONDENSED SPECTRUM=NO
##NPOINTS= 86
##XYDATA=(XY..XY) 1 
    14          5
    15         45
    16          2
    17          2
    18          3
    19         40
    26         10
    27        132
    28         14
    29         74
    31         45
    36          1
    37          4
    38         17
    39        164
    40         16
    41         44
    42         14
    43        159
    44         22
    45        413
    46          9
    47          1
    49          2
    50         63
    51        176
    52         41
    53         26
    54         29
    55         16
    56          2
    57         20
    58         12
    59         24
    61          3
    62         20
    63         67
    64         19
    65        213
    66         16
    67          3
    71          4
    72          6
    73          2
    74         16
    75         14
    76         21
    77        201
    78        286
    79        132
    80          8
    85          1
    86          3
    87          3
    89         47
    91        926
    92        437
    93         31
    94          1
    98          1
   101          2
   102         17
   103         79
   104         62
   105        118
   106         22
   107          9
   108          1
   113          1
   115         90
   117        999
   118         96
   119          4
   127          3
   128          6
   129          8
   131         87
   132        367
   133         45
   134          3
   135          7
   147          1
   148          7
   150        202
   151         23
   152          2