##TITLE=Library Entry 28246
##JCAMP-DX=Revision 4.10 
##DATA TYPE=MASS SPECTRUM
##SAMPLE DESCRIPTION=Japan AIST/NIMC Database- Spectrum MS-IW- 215
##NAMES=HP
##CAS NAME=2-Pentadecanone
##MOLFORM=C15H30O
##CAS REGISTRY NO=2345-28-0
##MP= -300
##BP= -300
##MW= 226
##$RETENTION INDEX=1698
##$CONDENSED SPECTRUM=NO
##NPOINTS= 106
##XYDATA=(XY..XY) 1 
    15          6
    18          1
    26          1
    27         31
    28          7
    29         86
    30          2
    31          2
    32          1
    39         23
    40          5
    41        182
    42         38
    43        623
    44         16
    45          9
    51          1
    53         10
    54         18
    55        140
    56         79
    57        205
    58        999
    59        630
    60         22
    61          2
    65          2
    66          4
    67         39
    68         32
    69         93
    70         50
    71        398
    72         39
    73          3
    77          2
    79          5
    80          4
    81         47
    82         97
    83         70
    84         33
    85        141
    86         15
    87          1
    91          2
    93          2
    94          2
    95         45
    96        114
    97         64
    98         20
    99         15
   100         23
   101          2
   104          1
   105          1
   107          1
   108          1
   109         23
   110         38
   111         39
   112         13
   113         22
   114         24
   115          2
   123         11
   124         21
   125         23
   126          9
   127         32
   128         11
   129          1
   137          7
   138         16
   139          9
   140         10
   141          9
   142          4
   143          1
   151          2
   152          8
   153          2
   155          4
   156          5
   165          2
   166         27
   167          4
   168         36
   169         10
   170          7
   179          2
   180          1
   182          1
   183         12
   184          4
   193          1
   197          5
   198          2
   208          9
   209          2
   211         19
   212          3
   226         44
   227         25
   228          3