##TITLE=Library Entry 35680
##JCAMP-DX=Revision 4.10 
##DATA TYPE=MASS SPECTRUM
##SAMPLE DESCRIPTION=NIST Mass Spectrometry Data Center
##NAMES=HP
##CAS NAME=Propanoic acid, 2-methyl-, 3,7-dimethyl-2,6-octadienyl ester, (Z)
-
##MOLFORM=C14H24O2
##CAS REGISTRY NO=2345-24-6
##MP= -300
##BP= -300
##MW= 224
##$RETENTION INDEX=1487
##$CONDENSED SPECTRUM=NO
##NPOINTS= 90
##XYDATA=(XY..XY) 1 
    27         18
    28          3
    29         11
    38          2
    39         54
    40         17
    41        327
    42         23
    43        290
    44         11
    45          2
    50          3
    51         10
    52          6
    53         76
    54         10
    55         41
    56          8
    57          9
    59          5
    63          3
    65         25
    66         10
    67        198
    68        481
    69        999
    70         61
    71        325
    72         15
    73          4
    77         38
    78          8
    79         61
    80        279
    81        146
    82         18
    83         13
    84         18
    85         12
    86          1
    89          7
    91         54
    92        121
    93        608
    94         97
    95         44
    96          5
    97          9
    98          4
   103          4
   104          2
   105         35
   106          7
   107         96
   108         24
   109         14
   110          4
   111          7
   112          3
   113          1
   115          3
   116          1
   117          5
   118          1
   119         25
   120          6
   121        345
   122         35
   123         33
   124          1
   125          1
   129          3
   131          4
   132         12
   133          2
   134          2
   135          8
   136        190
   137         38
   138          3
   139          7
   145          3
   153          2
   154         27
   155         11
   156          1
   159          1
   177          7
   202          5
   224          3