##TITLE=Library Entry 73590
##JCAMP-DX=Revision 4.10 
##DATA TYPE=MASS SPECTRUM
##SAMPLE DESCRIPTION=Japan AIST/NIMC Database- Spectrum MS-IW-4025
##NAMES=HP
##CAS NAME=2,4-Imidazolidinedione, 5-[2-(methylthio)ethyl]-, (.+/-.)-
##MOLFORM=C6H10N2O2S
##CAS REGISTRY NO=23459-78-1
##MP= -300
##BP= -300
##MW= 174
##$RETENTION INDEX=0
##$CONDENSED SPECTRUM=NO
##NPOINTS= 85
##XYDATA=(XY..XY) 1 
    15          4
    26          4
    27         41
    28         95
    29         25
    30          6
    32          1
    34          2
    35         25
    37          1
    38          2
    39         18
    40          3
    41         99
    42         68
    43         13
    44         34
    45         44
    46         30
    47        104
    48         32
    49         24
    50          2
    51          2
    52          3
    53          3
    54         31
    55         65
    56         71
    57         44
    58          8
    59         24
    60          9
    61        173
    62        302
    63         17
    64         12
    67          1
    68         12
    69          5
    70         23
    71          7
    72         20
    73          4
    74         13
    75        572
    76         25
    77         26
    78          1
    81          1
    82         16
    83         15
    84         10
    85         21
    86          4
    87          7
    88         11
    91          2
    95          2
    96         44
    97          3
    98          1
    99         44
   100        999
   101         46
   102          9
   108          5
   109          2
   110          2
   112          3
   113        276
   114         15
   115          1
   116          2
   125          2
   126         84
   127         14
   128          1
   135         14
   136          1
   141          1
   174        593
   175         57
   176         30
   177          2