##TITLE=Library Entry 27959
##JCAMP-DX=Revision 4.10 
##DATA TYPE=MASS SPECTRUM
##SAMPLE DESCRIPTION=Chemical Concepts
##NAMES=HP
##CAS NAME=2-Tetradecanone
##MOLFORM=C14H28O
##CAS REGISTRY NO=2345-27-9
##MP= -300
##BP= -300
##MW= 212
##$RETENTION INDEX=1597
##$CONDENSED SPECTRUM=NO
##NPOINTS= 108
##XYDATA=(XY..XY) 1 
    26          1
    27         61
    28          5
    29        131
    30          2
    31          3
    39         29
    40          6
    41        207
    42         43
    43        596
    44         11
    45         11
    51          0
    52          0
    53         10
    54         17
    55        130
    56         36
    57        139
    58        999
    59        429
    60         14
    61          1
    65          1
    66          1
    67         22
    68         18
    69         48
    70         24
    71        249
    72         19
    73          2
    75          0
    76          0
    77          1
    78          0
    79          2
    80          2
    81         22
    82         51
    83         27
    84         19
    85         65
    86          6
    87          0
    88          0
    89          0
    93          1
    94          1
    95         22
    96         48
    97         28
    98         11
    99          7
   100         13
   101          1
   102          0
   105          0
   107          0
   108          0
   109          9
   110         17
   111         15
   112          7
   113         14
   114         11
   115          0
   123          5
   124         11
   125         10
   126          8
   127         18
   128          4
   129          0
   137          2
   138          4
   139          0
   140          0
   141          1
   142          1
   151          0
   152         25
   153          3
   154         36
   155          7
   156          3
   157          0
   165          1
   166          0
   168          0
   169          9
   170          4
   171          0
   178          0
   179          0
   180          0
   183          5
   184          1
   194          9
   195          1
   196          0
   197         17
   198          2
   211          0
   212         76
   213         11
   214          0