##TITLE=Library Entry 19063
##JCAMP-DX=Revision 4.10 
##DATA TYPE=MASS SPECTRUM
##SAMPLE DESCRIPTION=R.T.HOLMAN,UNIVERSITY OF MINNESOTA
##NAMES=HP
##CAS NAME=8-Octadecenoic acid, methyl ester
##MOLFORM=C19H36O2
##CAS REGISTRY NO=2345-29-1
##MP= -300
##BP= -300
##MW= 296
##$RETENTION INDEX=2080
##$CONDENSED SPECTRUM=NO
##NPOINTS= 239
##XYDATA=(XY..XY) 1 
    26          6
    27        150
    28         61
    29        380
    30         11
    31         13
    32          6
    33          4
    36          5
    37          3
    38          4
    39        130
    40         29
    41        880
    42        150
    43        710
    44         28
    45         38
    46          2
    47          2
    48          2
    50          2
    51          7
    52          7
    53         93
    54        290
    55        999
    56        240
    57        350
    58         20
    59        220
    60          9
    61          5
    62          2
    63          3
    64          2
    65         23
    66         25
    67        420
    68        280
    69        700
    70        180
    71        140
    72         17
    73         62
    74        710
    75        100
    76          8
    77         25
    78         14
    79         90
    80         62
    81        330
    82        230
    83        500
    84        480
    85        120
    86         10
    87        480
    88         43
    89          4
    90          1
    91         28
    92         10
    93         48
    94         55
    95        240
    96        410
    97        440
    98        370
    99         52
   100         12
   101         75
   102          9
   103          2
   104          2
   105         15
   106          9
   107         37
   108         36
   109        160
   110        220
   111        210
   112         80
   113         44
   114         57
   115         90
   116         14
   117          3
   118          3
   119         27
   120         11
   121         34
   122         18
   123        160
   124        110
   125        110
   126         24
   127         40
   128         63
   129         54
   130         14
   131          3
   132          2
   133         30
   134         22
   135         31
   136         12
   137        100
   138         85
   139         66
   140         14
   141         71
   142         18
   143         42
   144          7
   145          3
   146          2
   147         19
   148         16
   149         18
   150         10
   151         58
   152         62
   153         38
   154          8
   155         18
   156          6
   157         18
   158          4
   159          2
   160          1
   161         12
   162          6
   163         10
   164         11
   165         33
   166         52
   167         23
   168          6
   169         29
   170          6
   171         14
   172          4
   173          2
   174          1
   175          9
   176          3
   177          6
   178          5
   179         20
   180        120
   181         29
   182          6
   183         16
   184          4
   185         11
   186          4
   187          2
   189          5
   190          2
   191          3
   192          3
   193         15
   194         21
   195          8
   196          3
   197          5
   198          2
   199         13
   200          7
   201          2
   202          1
   203          3
   204          2
   205          2
   206          3
   207         15
   208         12
   209          6
   210          3
   211          3
   212          2
   213         12
   214          7
   215          2
   217          3
   218          2
   219          2
   220         48
   221         36
   222        170
   223         37
   224          4
   225          3
   226          1
   227          4
   228          4
   229          2
   230          2
   231          2
   233          2
   235         23
   236         23
   237          5
   238          2
   239          3
   240          2
   241          3
   242          1
   245          2
   246         17
   247          8
   248          2
   249          4
   250          2
   251          1
   253          9
   254          3
   255          2
   256          1
   263          6
   264        340
   265        210
   266         36
   267          7
   268          2
   269          1
   278          3
   279          1
   280          1
   281          1
   282          1
   294          2
   295          2
   296         60
   297         13
   298          3
   299          1