##TITLE=Library Entry 35238
##JCAMP-DX=Revision 4.10 
##DATA TYPE=MASS SPECTRUM
##SAMPLE DESCRIPTION=Chemical Concepts
##NAMES=HP
##CAS NAME=Geranyl isobutyrate
##MOLFORM=C14H24O2
##CAS REGISTRY NO=2345-26-8
##MP= -300
##BP= -300
##MW= 224
##$RETENTION INDEX=1514
##$CONDENSED SPECTRUM=NO
##NPOINTS= 106
##XYDATA=(XY..XY) 1 
    26          0
    27         49
    29         29
    30          0
    31          0
    37          0
    38          0
    39         33
    41        393
    42         22
    43        425
    44         13
    45          0
    50          1
    51          3
    52          2
    53         42
    54          5
    55         25
    56          3
    57          2
    58          0
    59          2
    60          0
    63          0
    65          8
    66          6
    67        101
    68        531
    69        999
    70         53
    71        517
    72         23
    73          1
    77         12
    78          3
    79         29
    80        228
    81         85
    82          9
    83          6
    84         13
    85         17
    86          1
    87          0
    88          0
    89          8
    90          0
    91         14
    92         87
    93        423
    94         85
    95         27
    96          3
    97          4
    98          3
    99          0
   103          1
   104          0
   105          8
   106          2
   107         68
   108         19
   109          7
   110          2
   111          5
   113          1
   114          0
   115          0
   117          0
   119          3
   120          1
   121        213
   122         22
   123         33
   124          4
   125          0
   126          0
   129          5
   130          0
   131          0
   133          0
   134          1
   135          5
   136        352
   137         55
   138          3
   139          4
   140          0
   141          0
   142          1
   151          0
   153          3
   154         31
   155         25
   156          3
   157          0
   163          0
   166          1
   167          0
   181          1
   182          0
   206          0
   224         68
   225         11
   226          1