##TITLE=Library Entry 45806
##JCAMP-DX=Revision 4.10 
##DATA TYPE=MASS SPECTRUM
##SAMPLE DESCRIPTION=Exported from NIST MS Search
##NAMES=HP
##CAS NAME=11H-Dibenzo[c,f][1,2]diazepin-11-ol, 3,8-dichloro-, 5-oxide
##MOLFORM=C13H8Cl2N2O2
##CAS REGISTRY NO=23469-59-2
##MP= -300
##BP= -300
##MW= 294
##$RETENTION INDEX=0
##$CONDENSED SPECTRUM=NO
##NPOINTS= 60
##XYDATA=(XY..XY) 1 
    51        300
    61        120
    62        190
    63        210
    73        210
    74        420
    75        999
    76        350
    77        210
    99        190
   100         70
   101         60
   110        240
   111        330
   112        110
   113         70
   139        170
   140         70
   150        500
   151        310
   152        999
   153        150
   169        170
   185        310
   186        220
   187        150
   188        160
   213        100
   214        140
   215        480
   216        100
   217        160
   220        330
   221         60
   222        250
   223         50
   230        210
   231        100
   232         90
   233        100
   248        280
   249        230
   250        210
   251        140
   259        110
   265        360
   266         60
   267        230
   268         50
   276         80
   277         90
   278        580
   279         80
   280        360
   281         60
   294        400
   295        200
   296        300
   297        100
   298        100