##TITLE=Library Entry 96955
##JCAMP-DX=Revision 4.10 
##DATA TYPE=MASS SPECTRUM
##SAMPLE DESCRIPTION=Div. of Experiment Therapeutics WRAIR, WRAMC, Washingto
n DC 20307
##NAMES=HP
##CAS NAME=2-Thio-2,4-oxazolidinedione
##MOLFORM=C3H3NO2S
##CAS REGISTRY NO=2346-24-9
##MP= -300
##BP= -300
##MW= 117
##$RETENTION INDEX=0
##$CONDENSED SPECTRUM=NO
##NPOINTS= 35
##XYDATA=(XY..XY) 1 
    42        194
    43         30
    44         24
    45         35
    46         42
    47         14
    48          7
    49          2
    50          0
    51          0
    54          3
    56          5
    59        699
    60        297
    61         37
    62         13
    64          0
    70          4
    72          0
    74          7
    75          3
    76          0
    78          0
    84          0
    86         32
    87          1
    88          2
    89          1
    90          3
    91          1
   100          1
   117        999
   118         62
   119         17
   120          1