##TITLE=Library Entry 26081
##JCAMP-DX=Revision 4.10 
##DATA TYPE=MASS SPECTRUM
##SAMPLE DESCRIPTION=W.H. MCFADDEN INT. FLAVORS & FRAGRANCES, UNION BEACH, N
J. US
##NAMES=HP
##CAS NAME=1-Propanol, 2,2-dimethyl-, 4-methylbenzenesulfonate
##MOLFORM=C12H18O3S
##CAS REGISTRY NO=2346-07-8
##MP= -300
##BP= -300
##MW= 242
##$RETENTION INDEX=0
##$CONDENSED SPECTRUM=NO
##NPOINTS= 22
##XYDATA=(XY..XY) 1 
    55        151
    56         53
    57        999
    58         44
    69          8
    70        129
    71         26
    91        544
    92        160
    93         17
   155        303
   156         84
   157         75
   171          4
   172         13
   173         13
   185          4
   186         13
   187        357
   212          1
   227          4
   242         26