##TITLE=Library Entry 35975
##JCAMP-DX=Revision 4.10 
##DATA TYPE=MASS SPECTRUM
##SAMPLE DESCRIPTION=Div. of Experiment Therapeutics WRAIR, WRAMC, Washingto
n DC 20307
##NAMES=HP
##CAS NAME=Phenol, 2-methyl-O-[5-bromo-n-pentyl]-
##MOLFORM=C12H17BrO
##CAS REGISTRY NO=23468-23-7
##MP= -300
##BP= -300
##MW= 256
##$RETENTION INDEX=0
##$CONDENSED SPECTRUM=NO
##NPOINTS= 77
##XYDATA=(XY..XY) 1 
    41        668
    42         93
    43        111
    44          3
    47          0
    49          2
    50         34
    51        135
    52         81
    53        139
    55        120
    56          5
    57          3
    63         79
    65        137
    67         61
    69        999
    70         39
    71          0
    74          5
    75          4
    77        350
    78        111
    79        201
    80         90
    81         11
    82          2
    84          2
    86          3
    87          1
    89         70
    90         79
    91        255
    92         19
    93         19
    94          1
    95         14
   103          3
   105         26
   107        485
   108        967
   109         92
   110          4
   115          4
   117          4
   119         16
   121         94
   122          9
   123          2
   129          1
   131          5
   133         25
   134          3
   135         20
   136          0
   137          5
   144          0
   145          2
   147         11
   149        487
   151        500
   152         17
   159          4
   161          6
   167          4
   171          1
   173          3
   175          2
   176          0
   177         52
   178          5
   255         14
   256        568
   257         42
   258        582
   259         64
   260          5