##TITLE=Library Entry 47001
##JCAMP-DX=Revision 4.10 
##DATA TYPE=MASS SPECTRUM
##SAMPLE DESCRIPTION=Chemical Concepts
##NAMES=HP
##CAS NAME=2-(5-Phenyl-2-oxazolyl)benzoic acid
##MOLFORM=C16H11NO3
##CAS REGISTRY NO=23464-97-3
##MP= -300
##BP= -300
##MW= 265
##$RETENTION INDEX=0
##$CONDENSED SPECTRUM=NO
##NPOINTS= 82
##XYDATA=(XY..XY) 1 
    37         26
    39        156
    40          8
    41          5
    42          3
    43          5
    45         55
    50        318
    51        327
    52         32
    53         13
    54          2
    55          2
    57          2
    58          1
    62        183
    63        108
    64         38
    65         28
    66          8
    67          1
    69          1
    74         95
    77        999
    78         42
    79          4
    80          1
    81          1
    83          3
    86         53
    87         52
    88         90
    89        140
    90         44
    91          7
    92          3
    93          3
    96          1
    97          1
    98          2
    99          2
   100          2
   102         32
   105        517
   106         24
   107          1
   110          2
   112          2
   114         10
   116         48
   117          5
   119          3
   121          1
   126          1
   127          1
   130          5
   133         42
   134          3
   139          5
   144          1
   149          1
   151          1
   152          3
   153          2
   160         25
   161          3
   163          6
   165         58
   166         29
   167          4
   181          2
   190          3
   191          4
   192          5
   193         10
   194          3
   219          2
   221         58
   222          7
   223          1
   265         10
   266          2