##TITLE=Library Entry 53536
##JCAMP-DX=Revision 4.10 
##DATA TYPE=MASS SPECTRUM
##SAMPLE DESCRIPTION=A.A.Kutin, Moscow, Russia
##NAMES=HP
##CAS NAME=Piperidine, 1-(5-chloro-2-propoxybenzyl)-
##MOLFORM=C15H22ClNO
##CAS REGISTRY NO=23466-47-9
##MP= -300
##BP= -300
##MW= 267
##$RETENTION INDEX=0
##$CONDENSED SPECTRUM=NO
##NPOINTS= 207
##XYDATA=(XY..XY) 1 
    33          2
    35         83
    37         27
    39        190
    40         70
    41        674
    42        362
    43        396
    44         68
    45          7
    46          1
    48          0
    49          3
    50         28
    51         98
    52         28
    53         36
    54         66
    55        245
    56        133
    57         34
    58          8
    59          6
    60          2
    61          4
    62         12
    63         41
    65         29
    66          7
    67         21
    68         35
    69         46
    70         37
    71          7
    72          3
    73         14
    74          9
    75         42
    77        378
    78         67
    79         16
    80         12
    81          5
    82         44
    84        999
    85         97
    86         57
    87          9
    88          4
    89         50
    90         15
    91         30
    92          5
    93          4
    94          3
    95          4
    96         18
    97         44
    98        467
    99         44
   100          6
   101          8
   102          8
   103         13
   104         15
   105         26
   106         19
   107         66
   108          7
   109          7
   110          3
   111         19
   112         71
   113         52
   114         22
   115         23
   116          7
   117          9
   118          7
   119          7
   120          6
   121          9
   122          2
   123          5
   125         63
   126         24
   127         29
   128         11
   129          7
   130          6
   131          9
   132         12
   133         19
   134         10
   135          3
   136          2
   137          2
   138          8
   139         22
   141        489
   142         61
   143        149
   144         18
   145          6
   146          9
   147         19
   148         16
   149         83
   150         10
   151          6
   152         18
   153         64
   154         34
   155         58
   156         18
   157         13
   158          3
   159          3
   160          7
   161          5
   162          3
   163          1
   164          3
   165          7
   166         15
   167         17
   168         23
   169         11
   170          9
   171          4
   172          2
   173          1
   174          1
   175          0
   176          2
   178          4
   179          2
   180         27
   181         15
   182         31
   183        162
   184         47
   185         55
   186         14
   187          3
   188          5
   189          3
   190          4
   191         11
   192          2
   194          8
   195          2
   196         13
   197          2
   198          4
   199          1
   200          0
   201          0
   202          1
   203          2
   204          5
   205          1
   206          8
   207          6
   208         50
   209          9
   210         26
   211          7
   212          5
   213          1
   218          0
   220          1
   221          1
   222         12
   223          5
   224         92
   225         84
   226         38
   227         25
   228          3
   230          0
   231          1
   232          6
   233          2
   234          1
   235          4
   236          5
   238        468
   239         70
   240        149
   241         21
   242          1
   247          0
   250          0
   252         15
   253          2
   254          5
   255          0
   256          0
   263          1
   264          2
   265          5
   266         92
   267        121
   268         46
   269         40
   270          6