##TITLE=Library Entry 71032
##JCAMP-DX=Revision 4.10 
##DATA TYPE=MASS SPECTRUM
##SAMPLE DESCRIPTION=Div. of Experiment Therapeutics WRAIR, WRAMC, Washingto
n DC 20307
##NAMES=HP
##CAS NAME=Benzenol, 4-ethyl-2-methoxy-O-[4-[1-cycloazapropyl]-n-butyl]-
##MOLFORM=C15H23NO2
##CAS REGISTRY NO=23468-19-1
##MP= -300
##BP= -300
##MW= 249
##$RETENTION INDEX=0
##$CONDENSED SPECTRUM=NO
##NPOINTS= 93
##XYDATA=(XY..XY) 1 
    41        158
    42        219
    43         76
    44        132
    45         11
    47          5
    49         20
    51         43
    52         18
    53         39
    55        258
    56        414
    57         24
    58          4
    59          2
    63         16
    65         36
    66          6
    67          8
    69         61
    70         50
    71         14
    72          1
    73          1
    74          1
    75          1
    77         68
    78         21
    79         53
    80         11
    81          7
    82          5
    84         25
    85          2
    86          2
    87          1
    88          0
    89          6
    91         51
    92          6
    93          3
    95         30
    96         19
    98        999
    99         61
   100          1
   101          4
   103         11
   105         35
   106          8
   107         14
   108         14
   109          5
   110          1
   111          1
   112          0
   114          2
   115          1
   117          1
   119          7
   120          4
   121          5
   122          6
   123          6
   124          1
   128          1
   130          2
   131          0
   133          1
   135         13
   137         52
   138          3
   142          1
   147          1
   149          3
   150          9
   151          7
   152         14
   153          1
   159          2
   160          1
   161          0
   163          4
   164          0
   165          3
   177          0
   178          1
   195          1
   207          0
   247          0
   248          1
   249         11
   250          1