##TITLE=Library Entry 17055
##JCAMP-DX=Revision 4.10 
##DATA TYPE=MASS SPECTRUM
##SAMPLE DESCRIPTION=CATALOGUE OF MASS SPECTRA OF PESTICIDES, APRIL, 1975; J
. FREUDENTHAL & L. G. GRAMBERG, NAT'L INST. OF PUBLIC HEALTH, THE NETHERLAND
S
##NAMES=HP
##CAS NAME=1,3-Benzodioxole, 5-[1-[2-(2-butoxyethoxy)ethoxy]butyl]-
##MOLFORM=C19H30O5
##CAS REGISTRY NO=23473-61-2
##MP= -300
##BP= -300
##MW= 338
##$RETENTION INDEX=0
##$CONDENSED SPECTRUM=NO
##NPOINTS= 145
##XYDATA=(XY..XY) 1 
    14         93
    19         11
    26         29
    27        215
    29        307
    30         26
    31        206
    33         29
    39        295
    41        783
    43        298
    44        122
    45        999
    46         55
    50         55
    51        189
    52         40
    53         69
    55        381
    56        134
    57        907
    58        111
    59        150
    60         24
    62         40
    63        175
    64         73
    65        249
    66         44
    67        267
    68         25
    69        154
    70         20
    71        172
    72        102
    73        102
    75        215
    76         41
    77        444
    78        158
    79        568
    80         42
    81        198
    82         47
    84         10
    85        163
    86         18
    87        142
    88         25
    89        135
    90         52
    91        387
    92         55
    93        254
    94         72
    95        210
    96         49
    97         39
   100         61
   101         78
   102         60
   103        161
   104         39
   105        335
   106         98
   107        348
   108         77
   109        169
   110         43
   111         66
   113         40
   115        104
   116         30
   117        170
   118         65
   119        255
   120         17
   121         89
   122         43
   123         95
   124         45
   125         75
   126         28
   127         38
   128         26
   129         46
   130         18
   131         53
   132         48
   133         85
   134         40
   135        879
   136         96
   137         25
   138         36
   139         26
   141         25
   142         20
   143         59
   144         43
   145         97
   146         86
   147        132
   148         89
   149        439
   150         41
   151         75
   152         52
   153         23
   155         30
   157         40
   158         30
   159        262
   160         75
   161        101
   162         32
   163        114
   164        105
   165        176
   166         55
   167         28
   173         27
   175         67
   176        798
   177        312
   178        105
   179         53
   180         48
   183         30
   190         58
   191         19
   192         28
   193         69
   194         91
   195         47
   204         30
   205         41
   207         24
   222         37
   223         25
   224         27
   225         26
   296         24
   338         39
   339         27