##TITLE=Library Entry 7660
##JCAMP-DX=Revision 4.10 
##DATA TYPE=MASS SPECTRUM
##SAMPLE DESCRIPTION=Exported from NIST MS Search
##NAMES=HP
##CAS NAME=Hexadecanoic acid, 2-hydroxy-1-(hydroxymethyl)ethyl ester
##MOLFORM=C19H38O4
##CAS REGISTRY NO=23470-00-0
##MP= -300
##BP= -300
##MW= 330
##$RETENTION INDEX=2498
##$CONDENSED SPECTRUM=NO
##NPOINTS= 141
##XYDATA=(XY..XY) 1 
    26         10
    27        190
    28         80
    29        480
    30         20
    31        140
    32         10
    39         90
    40         20
    41        740
    42        190
    43        999
    44        130
    45        130
    46         10
    47         10
    53         40
    54         50
    55        690
    56        260
    57        850
    58         60
    59         30
    60        140
    61        130
    62         10
    65         10
    66         10
    67        120
    68         60
    69        390
    70         10
    71        370
    72         30
    73        220
    74        630
    75        190
    76         10
    77         10
    79         30
    80         20
    81        130
    82         60
    83        310
    84        480
    85        250
    86         30
    87        140
    88         20
    89         10
    91         10
    93         50
    94         20
    95        140
    96         50
    97        230
    98        710
    99        100
   100         20
   101         50
   102         10
   103         10
   105         10
   107         20
   108         10
   109         70
   110         30
   111        120
   112        220
   113         40
   114         10
   115         40
   116        150
   117         30
   121         30
   122         10
   123         40
   124         20
   125         50
   126         40
   127         20
   128         10
   129        130
   130         20
   134        300
   135         40
   136         10
   137         20
   138         10
   139         30
   140         30
   141         20
   142         10
   143         40
   144         10
   147         50
   148         10
   149         10
   151         10
   152         10
   153         10
   154         60
   155         10
   157         20
   158         10
   163         10
   165         10
   167         10
   168         30
   169         10
   171         20
   176         10
   177         10
   181         10
   182         30
   183         10
   185         30
   194         10
   195         10
   196         10
   199         10
   209         10
   213         20
   221         10
   227         20
   237         10
   238         40
   239        380
   240         60
   241         10
   256         40
   257         90
   258         20
   269         10
   270         30
   271         10
   299         40
   300         10
   311         10
   312         20
   330         10