##TITLE=Library Entry 43148
##JCAMP-DX=Revision 4.10 
##DATA TYPE=MASS SPECTRUM
##SAMPLE DESCRIPTION=O A MAMER, MCGILL UNIVERSITY
##NAMES=HP
##CAS NAME=Protocatechoic acid, 3TMS derivative
##MOLFORM=C16H30O4Si3
##CAS REGISTRY NO=2347-40-2
##MP= -300
##BP= -300
##MW= 370
##$RETENTION INDEX=1835
##$CONDENSED SPECTRUM=NO
##NPOINTS= 73
##XYDATA=(XY..XY) 1 
    15         11
    17          8
    18         32
    28         27
    29          8
    43         29
    44         32
    45        219
    46         15
    47         12
    57         10
    58         10
    59         25
    72         18
    73        999
    74         86
    75         61
    76          7
    77         10
    83         24
    89          7
    91         10
    93          6
    95          5
   103         13
   105         19
   107          8
   109         11
   117          7
   119         14
   121          7
   123          7
   131         14
   133         32
   135         16
   137         59
   138          8
   147         49
   148         10
   149         18
   151          7
   163         16
   165         66
   166         11
   179         22
   193        846
   194        131
   195         52
   196          7
   207         21
   209          7
   223         67
   224         15
   225          7
   237         14
   267         45
   268         11
   281         84
   282         25
   283         10
   295         13
   311        107
   312         34
   313         17
   341         12
   355        216
   356         71
   357         35
   358          9
   370        379
   371        128
   372         61
   373         14