##TITLE=Library Entry 46339
##JCAMP-DX=Revision 4.10 
##DATA TYPE=MASS SPECTRUM
##SAMPLE DESCRIPTION=V.G.Zaikin, TIPS, Russian Acad. Sci.
##NAMES=HP
##CAS NAME=1,4-Naphthalenedione, 2-phenyl-
##MOLFORM=C16H10O2
##CAS REGISTRY NO=2348-77-8
##MP= -300
##BP= -300
##MW= 234
##$RETENTION INDEX=0
##$CONDENSED SPECTRUM=NO
##NPOINTS= 93
##XYDATA=(XY..XY) 1 
    36         10
    37         24
    38         54
    39        105
    40         96
    41         31
    42         17
    43         45
    45         15
    46          7
    47          7
    48         11
    49         24
    50        336
    51        183
    52         58
    53         35
    54          8
    55         21
    56         13
    57         15
    59          6
    60         13
    61         10
    62         41
    63         70
    65         18
    66          4
    67         12
    68          3
    69         24
    70          3
    71          8
    72          4
    73         20
    74        139
    75        177
    76        999
    77        140
    78         11
    79          8
    80          5
    81          8
    82          6
    83          4
    84          6
    85          8
    86         22
    88         26
    89         35
    91         13
    92          8
    93          6
    94          6
    95         13
    96          6
    97          8
    98         19
    99         22
   100         15
   101         22
   102        174
   103          8
   104        707
   105         80
   106         22
   107         22
   128         10
   129         27
   130         12
   131          9
   139         14
   148          7
   149         16
   150         24
   151         65
   152         45
   153          8
   165         17
   175         12
   176        105
   177         40
   178        186
   179         24
   180         11
   205         98
   206        238
   207         35
   232          6
   233         94
   234        317
   235         54
   236          5