##TITLE=Library Entry 14351
##JCAMP-DX=Revision 4.10 
##DATA TYPE=MASS SPECTRUM
##SAMPLE DESCRIPTION=Japan AIST/NIMC Database- Spectrum MS-IW-6632
##NAMES=HP
##CAS NAME=2-Hexanone, (2,4-dinitrophenyl)hydrazone
##MOLFORM=C12H16N4O4
##CAS REGISTRY NO=2348-17-6
##MP= -300
##BP= -300
##MW= 280
##$RETENTION INDEX=2527
##$CONDENSED SPECTRUM=NO
##NPOINTS= 230
##XYDATA=(XY..XY) 1 
    15         18
    26          9
    27        129
    28        102
    29        396
    30        182
    31          3
    32          1
    37          6
    38         29
    39        175
    40         29
    41        784
    42        602
    43        999
    44         37
    45         24
    46          2
    50         33
    51        101
    52         65
    53         67
    54         45
    55        547
    56         95
    57        241
    58         24
    59         22
    60          1
    61          9
    62         57
    63        138
    64         77
    65         64
    66         26
    67         36
    68        104
    69         39
    70         32
    71         20
    72         13
    73          4
    74         24
    75        128
    76        105
    77        187
    78        159
    79        165
    80         42
    81         60
    82         48
    83        440
    84         44
    85         16
    86          3
    87          4
    88         15
    89         42
    90         78
    91         99
    92        133
    93         56
    94         21
    95         18
    96         22
    97         11
    98         34
    99         18
   100          7
   101         66
   102         22
   103        141
   104        277
   105         84
   106         53
   107         34
   108         14
   109          7
   110          2
   111          4
   112          2
   113          2
   114          3
   115         63
   116        103
   117        150
   118         49
   119         50
   120         75
   121         21
   122        189
   123         23
   124          2
   125          2
   126          1
   127          8
   128         22
   129         33
   130         45
   131         70
   132         73
   133         76
   134         27
   135         71
   136         27
   137         25
   138         19
   139          3
   140          2
   141          4
   142          6
   143         16
   144         39
   145         70
   146         38
   147         20
   148         16
   149        239
   150        148
   151         29
   152        192
   153         50
   154          6
   155          5
   156          9
   157         20
   158         39
   159         22
   160         12
   161        106
   162         56
   163         56
   164         32
   165         93
   166         41
   167         23
   168          9
   169          4
   170         11
   171         18
   172          9
   173         21
   174         11
   175         17
   176         15
   177         52
   178        860
   179         90
   180        214
   181        239
   182         32
   183         69
   184         17
   185          7
   186          7
   187          8
   188          7
   189          8
   190         42
   191        133
   192         38
   193          9
   194          3
   195          2
   196         80
   197          9
   198         17
   199         28
   200          7
   201          5
   203         33
   204         24
   205         18
   206          8
   207        105
   208         20
   209          3
   210          8
   211          1
   212          2
   215          5
   216         21
   217         21
   218         12
   219         35
   220         72
   221         36
   222          8
   223          6
   224          3
   225          1
   228          2
   229          9
   230          8
   231          9
   232          5
   233         12
   234          8
   237         20
   238        528
   239         61
   240          8
   241          1
   242          1
   243          2
   244          3
   245         59
   246         15
   247          8
   248          4
   249         11
   250         19
   251         28
   252          6
   253          1
   261          4
   262          2
   263          4
   264         29
   265         12
   266          2
   275          2
   276          2
   277          1
   278          3
   279          5
   280        966
   281        292
   282         39
   283          4