##TITLE=Library Entry 74141
##JCAMP-DX=Revision 4.10 
##DATA TYPE=MASS SPECTRUM
##SAMPLE DESCRIPTION=Insect Chem. Ecol. Lab., USDA, Beltsville, MD 20705
##NAMES=HP
##CAS NAME=Ethanol, 2-phenoxy-, propanoate
##MOLFORM=C11H14O3
##CAS REGISTRY NO=23495-12-7
##MP= -300
##BP= -300
##MW= 194
##$RETENTION INDEX=1442
##$CONDENSED SPECTRUM=NO
##NPOINTS= 74
##XYDATA=(XY..XY) 1 
    41          1
    42          4
    43          9
    44          1
    45          5
    49          1
    50          8
    51         31
    52          2
    53          2
    54          0
    55          9
    57        322
    58         10
    59          1
    61          1
    62          3
    63         10
    64          5
    65         45
    66         11
    67          0
    71          0
    73          1
    74          3
    75          3
    76          5
    77        110
    78         10
    79         10
    80          0
    81          0
    84          1
    86          1
    87         10
    88          0
    91         29
    92          7
    93         12
    94         68
    95          8
    96          0
    99          6
   101        999
   102         77
   103          9
   104          0
   105          1
   107         19
   108          3
   109          1
   115          3
   119         13
   120         44
   121         21
   122          2
   124          0
   138          2
   139          0
   143          0
   144          0
   150          2
   157          1
   159          0
   164          1
   165          0
   168          1
   180          2
   188          3
   190          1
   192          0
   194        239
   195         29
   196          1