##TITLE=Library Entry 3809
##JCAMP-DX=Revision 4.10 
##DATA TYPE=MASS SPECTRUM
##SAMPLE DESCRIPTION=Chemical Concepts
##NAMES=HP
##CAS NAME=Ppropanesulfonic acid, 3-iodo-, phenyl ester
##MOLFORM=C9H11IO3S
##CAS REGISTRY NO=235088-36-5
##MP= -300
##BP= -300
##MW= 326
##$RETENTION INDEX=0
##$CONDENSED SPECTRUM=NO
##NPOINTS= 142
##XYDATA=(XY..XY) 1 
    25          0
    26         16
    27         87
    29         12
    31          2
    33          1
    34          0
    35          1
    36          1
    37         14
    38         65
    39        564
    40         64
    41        999
    42        133
    43          3
    44          1
    45          9
    46          3
    47          2
    48         13
    49          1
    50         22
    51         48
    52          6
    53          8
    54          2
    55         13
    56          0
    57          1
    59          1
    60          0
    61          6
    62         19
    63         74
    64         46
    65        395
    66        105
    67          7
    68          4
    69          1
    70          0
    72          0
    73          1
    74          5
    75          3
    76          5
    77         87
    78         18
    79         17
    80          4
    81          1
    82          0
    83          0
    87          0
    89          3
    90          2
    91         19
    92          8
    93         90
    94        606
    95         46
    96          3
    97          0
    99          0
   100          0
   103          0
   104          0
   105          6
   106          3
   107         62
   108          4
   109          0
   111          0
   115          2
   116          1
   117          2
   118          0
   119         14
   120          2
   121          2
   123          0
   124          0
   125          0
   127         39
   128         28
   129          0
   131          0
   133         10
   134         11
   135         17
   136          2
   137          0
   139          0
   140          0
   141         39
   142          0
   143          0
   144          0
   149          0
   150          0
   153          2
   154          0
   155          4
   157          0
   158          0
   159          0
   162          0
   164          0
   165          0
   167          4
   168          1
   169        256
   170          7
   175          1
   185          1
   187          1
   191          0
   193          0
   198          7
   199        404
   200         56
   201         23
   202          2
   203          0
   211          0
   217          1
   220          2
   233        388
   234         15
   235         19
   236          0
   257          0
   262          0
   268          0
   278          0
   280          1
   282          0
   326        237
   327         19
   328         12
   329          1