##TITLE=Library Entry 107870
##JCAMP-DX=Revision 4.10 
##DATA TYPE=MASS SPECTRUM
##SAMPLE DESCRIPTION=A.A.Kutin, Moscow, Russia
##NAMES=HP
##CAS NAME=2-[(2,2,6,6-Tetramethyl-piperidin-4-ylimino)-methyl]-phenol
##MOLFORM=C16H24N2O
##CAS REGISTRY NO=23504-57-6
##MP= -300
##BP= -300
##MW= 260
##$RETENTION INDEX=0
##$CONDENSED SPECTRUM=NO
##NPOINTS= 144
##XYDATA=(XY..XY) 1 
    34          1
    36          0
    37          0
    38          4
    39         46
    40         33
    41        112
    42        174
    43         30
    44         24
    45          0
    50          4
    51         20
    52          9
    53         17
    54         12
    55         71
    56         29
    57         38
    58        261
    59          9
    62          1
    63          6
    64          6
    65         27
    66         12
    67         21
    68         10
    69          8
    70         13
    71          7
    72          2
    73          0
    74          0
    75          2
    76          4
    77         39
    78         19
    79         13
    80          5
    81         10
    82         31
    83         21
    84         13
    85          2
    89          1
    90          2
    91         26
    92          9
    93         15
    94         12
    95         15
    96         11
    97          8
    98         75
    99         26
   100          2
   101          0
   102          9
   103          6
   104          6
   105         14
   106          8
   107         36
   108         16
   109          6
   110         19
   111          2
   112          9
   113          1
   115         17
   117          3
   118         11
   119          9
   120         27
   121         18
   122         29
   124        999
   125         90
   126         10
   127          2
   128          3
   129          1
   130          3
   131          8
   132         39
   133          9
   134          2
   135          1
   136          0
   138         11
   139         10
   140         48
   141         19
   142          2
   143          1
   144          2
   145          7
   146         16
   147         15
   148         14
   149          2
   150          0
   153          0
   156          1
   157          0
   158          0
   159          0
   160          1
   161          6
   162         15
   163          3
   164          0
   170          0
   171          2
   172          2
   173          1
   174          0
   175          0
   177          1
   185          0
   186          2
   188         15
   189          2
   190          1
   202          2
   203          4
   204          1
   205          0
   218          1
   219          1
   220          1
   221          0
   229          0
   242          0
   243          3
   245        141
   246         23
   247          1
   258          0
   259          1
   260        112
   261         18
   262          1