##TITLE=Library Entry 62544
##JCAMP-DX=Revision 4.10 
##DATA TYPE=MASS SPECTRUM
##SAMPLE DESCRIPTION=Div. of Experiment Therapeutics WRAIR, WRAMC, Washingto
n DC 20307
##NAMES=HP
##CAS NAME=Benzenesulfonamide, N,N'-(dithiodi-2,1-ethanediyl)bis[4-methyl-
##MOLFORM=C18H24N2O4S4
##CAS REGISTRY NO=23516-74-7
##MP= -300
##BP= -300
##MW= 460
##$RETENTION INDEX=0
##$CONDENSED SPECTRUM=NO
##NPOINTS= 105
##XYDATA=(XY..XY) 1 
    41         62
    42         36
    43         39
    45        124
    47         71
    48          8
    49          5
    51         96
    52          4
    53         24
    55         15
    56         14
    57         16
    58          7
    59         23
    60         18
    61         17
    63        105
    65        303
    66          5
    67         16
    69         23
    70          7
    71         10
    73          2
    74         42
    75         34
    77         65
    78          6
    79         42
    80          9
    81          1
    82          7
    84          2
    85          2
    86          2
    89         93
    91        999
    92         71
    93         10
    95          6
    96          1
    97          6
    98          4
   100         13
   102          5
   103          1
   104          5
   106         55
   107         14
   108         17
   109          3
   111         10
   117          1
   118          4
   120         15
   121         13
   123         36
   124         31
   125          5
   126          1
   132          8
   133          4
   134          1
   135          5
   137         20
   138         22
   139         57
   140          6
   141          4
   150         12
   151          1
   152          3
   155        435
   156         32
   157         24
   159          1
   165          5
   167         34
   168          2
   171         21
   172          8
   182          3
   184        288
   185         28
   186         16
   188          1
   198        149
   199         13
   200          5
   230          7
   231         25
   232          6
   259         33
   260          1
   263         14
   264          1
   277          7
   289         27
   290          1
   291          1
   321          5
   353          3
   460         14
   461          4