##TITLE=Library Entry 82928
##JCAMP-DX=Revision 4.10 
##DATA TYPE=MASS SPECTRUM
##SAMPLE DESCRIPTION=Japan AIST/NIMC Database- Spectrum MS-IW-7300
##NAMES=HP
##CAS NAME=4,cis-5-Dihydroxy-trans-6-hydroxymethyl-2-phenyl-perhydro-1,2-oxa
zine
##MOLFORM=C11H15NO4
##CAS REGISTRY NO=23516-18-9
##MP= -300
##BP= -300
##MW= 225
##$RETENTION INDEX=0
##$CONDENSED SPECTRUM=NO
##NPOINTS= 166
##XYDATA=(XY..XY) 1 
    14          7
    15         14
    17         11
    18          5
    25          1
    26          9
    27         22
    28         47
    29         52
    30         28
    31         60
    32          7
    37          5
    38         10
    39         35
    40          8
    41         13
    42         39
    43         59
    44         17
    45          9
    46          4
    47          3
    49          2
    50         34
    51        133
    52         45
    53          9
    54          6
    55         90
    56         20
    57         24
    58          7
    59          3
    60         44
    61         42
    62          7
    63         17
    64         14
    65         39
    66         36
    67          5
    68          5
    69          3
    70          3
    71          8
    72         10
    73         20
    74         17
    75         10
    76         19
    77        517
    78         83
    79         52
    80          5
    81         54
    82          6
    83          1
    84          6
    85          3
    86         12
    87          2
    88          1
    89         11
    90         14
    91         38
    92         28
    93        149
    94         27
    95          5
    96          2
    97          1
    99          4
   100          3
   101          1
   102          6
   103         14
   104        453
   105        692
   106        999
   107        132
   108         13
   109         29
   110          2
   114          1
   115         13
   116          9
   117         36
   118         19
   119         10
   120          6
   121         11
   122        972
   123         82
   124          5
   125          1
   127          1
   128          3
   129          9
   130         17
   131          6
   132          4
   133         14
   134          9
   135         30
   136         10
   137          1
   140          1
   141          2
   142          6
   143         19
   144          7
   145          3
   146          7
   147          7
   148          6
   149          2
   150          3
   151          4
   152          1
   154          5
   155          2
   156          4
   157          3
   158          4
   159         22
   160          7
   161          1
   162          1
   163          4
   164          2
   165         12
   166          3
   167          2
   169          2
   170         19
   171         35
   172          7
   173          5
   174          1
   175          2
   176          8
   177          5
   178         17
   179          3
   181          1
   186          2
   187          6
   188          1
   189          3
   190          1
   191          1
   193          1
   194          3
   195          1
   196          2
   205          7
   206          1
   207          6
   208          1
   209          3
   223          1
   225        878
   226        112
   227         46
   228          6