##TITLE=Library Entry 69368
##JCAMP-DX=Revision 4.10 
##DATA TYPE=MASS SPECTRUM
##SAMPLE DESCRIPTION=CARL DJERASSI DEPT OF CHEM STANFORD UNIV STANFORD CALIF
 94305
##NAMES=HP
##CAS NAME=Cyclohexanone, 4-[[(4-methylphenyl)sulfonyl]oxy]-
##MOLFORM=C13H16O4S
##CAS REGISTRY NO=23511-04-8
##MP= -300
##BP= -300
##MW= 268
##$RETENTION INDEX=0
##$CONDENSED SPECTRUM=NO
##NPOINTS= 55
##XYDATA=(XY..XY) 1 
    41        210
    42         40
    43        190
    44        120
    45        100
    51         10
    53         30
    54        230
    55        230
    56         10
    57         60
    58         60
    59        120
    63         20
    65        140
    67         60
    68        260
    69         70
    70         10
    71         20
    74         70
    77         10
    79         10
    81         20
    83         10
    84         30
    85        140
    89         20
    90         10
    91        790
    92         70
    95         10
    96        999
    97         90
   107         10
   108         10
   112         10
   113         30
   138         10
   139         40
   155        480
   156         40
   157         60
   172         10
   173         10
   199          3
   200          3
   202          6
   204          6
   208         10
   213          3
   222         23
   250          6
   268         36
   269          6