##TITLE=Library Entry 80458
##JCAMP-DX=Revision 4.10 
##DATA TYPE=MASS SPECTRUM
##SAMPLE DESCRIPTION=Chemical Concepts
##NAMES=HP
##CAS NAME=Cyclohexanone, 4-(benzoyloxy)-
##MOLFORM=C13H14O3
##CAS REGISTRY NO=23510-95-4
##MP= -300
##BP= -300
##MW= 218
##$RETENTION INDEX=0
##$CONDENSED SPECTRUM=NO
##NPOINTS= 60
##XYDATA=(XY..XY) 1 
    26          6
    27         57
    28         26
    29         60
    30          2
    31         20
    38          5
    39         58
    40         14
    41         97
    42         19
    43         10
    45          8
    50         34
    51        112
    52         10
    53         22
    54        157
    55         55
    56          7
    57          9
    59          6
    63          2
    65          6
    66          7
    67         30
    68        236
    69         33
    70          3
    71          5
    74         10
    75         10
    76         24
    77        361
    78         37
    79         11
    80          8
    81         26
    85          4
    94          3
    95          8
    96        613
    97         59
    98          4
   104          7
   105        999
   106         97
   107          7
   112          2
   113          8
   120          6
   121          3
   122         18
   123         82
   124          7
   133          2
   200         27
   201          2
   218         46
   219          4