##TITLE=Library Entry 65007
##JCAMP-DX=Revision 4.10 
##DATA TYPE=MASS SPECTRUM
##SAMPLE DESCRIPTION=V.G.Zaikin, TIPS, Russian Acad. Sci.
##NAMES=HP
##CAS NAME=Silacyclobutane,1-chloro-1-methyl-
##MOLFORM=C4H9ClSi
##CAS REGISTRY NO=2351-34-0
##MP= -300
##BP= -300
##MW= 120
##$RETENTION INDEX=0
##$CONDENSED SPECTRUM=NO
##NPOINTS= 14
##XYDATA=(XY..XY) 1 
    63        400
    64         40
    65        150
    92        999
    93        110
    94        360
    95         45
   105         60
   107         20
   120        220
   121         21
   122         80
   123          7
   124          3