##TITLE=Library Entry 71366
##JCAMP-DX=Revision 4.10 
##DATA TYPE=MASS SPECTRUM
##SAMPLE DESCRIPTION=Div. of Experiment Therapeutics WRAIR, WRAMC, Washingto
n DC 20307
##NAMES=HP
##CAS NAME=N-[2-Methoxy-6-chloro-9-acridylamino]-N'-methylpiperazine
##MOLFORM=C19H21ClN4O
##CAS REGISTRY NO=23512-28-9
##MP= -300
##BP= -300
##MW= 356
##$RETENTION INDEX=0
##$CONDENSED SPECTRUM=NO
##NPOINTS= 167
##XYDATA=(XY..XY) 1 
    41         10
    42        500
    43        385
    44        189
    45         11
    47          4
    49         22
    50          2
    51         25
    52         16
    53          9
    54         27
    55         22
    56        735
    57        187
    58        176
    59          5
    61          2
    62          6
    63         25
    64          6
    65          6
    67          7
    68         29
    69         24
    70        276
    71         98
    72         45
    74         10
    75         14
    76          8
    77          9
    78          5
    79          7
    80          4
    81          5
    82         15
    83        119
    84         26
    85          5
    86         11
    87         15
    88          7
    89          5
    90          3
    91          1
    95          5
    97        272
    98        999
    99        835
   100         48
   101          4
   102          8
   103          1
   104          3
   106          4
   107          2
   109          1
   110          2
   111          4
   112          1
   113          7
   114          4
   117          1
   119          1
   120          1
   123          1
   124          2
   125          6
   126          7
   127          5
   128          4
   129          1
   136          7
   137         10
   138         10
   139          5
   140          4
   147          1
   149          5
   150          6
   151         11
   152         17
   153          9
   161          4
   162          6
   163          5
   164         33
   165         16
   166          6
   173          9
   174          4
   175          4
   176          4
   177          9
   178         22
   179         41
   180         13
   186          2
   187         18
   188         13
   189          9
   190          6
   191          6
   192          9
   193          5
   194          8
   198          1
   199          8
   200         40
   201          9
   202         13
   203          1
   206          5
   207         24
   208          9
   212          2
   213         17
   214         15
   215         17
   216         14
   217          5
   218          2
   221         12
   222         14
   223          4
   224          1
   225          1
   226          7
   227         10
   228         15
   229         19
   230          8
   231          5
   240          6
   241         18
   242         11
   243         36
   244         16
   245         11
   246          4
   254          3
   255          6
   256         17
   257         56
   258         76
   259        249
   260         58
   261         68
   262          8
   269          7
   270          6
   271         10
   272          4
   273          4
   284          7
   285          7
   286         41
   287          8
   288         13
   298          5
   355         16
   356        207
   357         62
   358         69
   359         21
   360          3