##TITLE=Library Entry 80408
##JCAMP-DX=Revision 4.10 
##DATA TYPE=MASS SPECTRUM
##SAMPLE DESCRIPTION=LAC, NIDDK, NIH, Bethesda, MD 20892
##NAMES=HP
##CAS NAME=Pentachlorophenyl-.beta.-phenylpropionate
##MOLFORM=C15H9Cl5O2
##CAS REGISTRY NO=23522-75-0
##MP= -300
##BP= -300
##MW= 396
##$RETENTION INDEX=0
##$CONDENSED SPECTRUM=NO
##NPOINTS= 148
##XYDATA=(XY..XY) 1 
    41         20
    42         14
    43          6
    44          1
    47         45
    48         57
    49         33
    50         43
    51         17
    52         31
    53         18
    54          3
    55         20
    56          2
    57          3
    59          0
    60          7
    61          3
    62          7
    63         38
    64          9
    65        121
    66          8
    67          2
    69          2
    70          1
    71          7
    72          0
    73          3
    74          6
    75          8
    76         16
    77        214
    78         96
    79        128
    80          8
    81          0
    82          2
    83          5
    84          4
    85          3
    86          2
    87          5
    88          4
    89         26
    90         21
    91        910
    92         75
    93          2
    94          1
    95         28
    96          4
    97         11
    98          1
    99          1
   101          3
   102         19
   103        128
   104         99
   105        999
   106        109
   107          9
   108          4
   109          1
   110          0
   111          1
   115          1
   117         12
   118          4
   119         11
   120          3
   121          4
   122          0
   123          0
   125          1
   129          0
   130         39
   131         37
   132         50
   133        758
   134         79
   135          6
   139          0
   141         20
   142          6
   143         19
   144          4
   145          6
   146          0
   147          0
   150          7
   151          0
   153          0
   158          0
   160          0
   165         52
   166          3
   167         49
   168          3
   169         17
   170          0
   171          1
   177          2
   179          2
   181          0
   196          0
   200          6
   201          3
   202          9
   203          4
   204          4
   205          1
   206          0
   212          3
   214          4
   216          1
   228          3
   230          4
   231          0
   232          2
   235         44
   236          2
   237         69
   238          3
   239         44
   240          2
   241         14
   242          0
   243          2
   247          2
   249          3
   251          2
   253          0
   258          0
   263          9
   264         11
   265         15
   266         19
   267         10
   268         11
   269          3
   270          3
   272          0
   319          0
   355          0
   396          0
   398          1
   400          0