##TITLE=Library Entry 81086
##JCAMP-DX=Revision 4.10 
##DATA TYPE=MASS SPECTRUM
##SAMPLE DESCRIPTION=Zaikin V.G., TIPS RAS, Moscow, Russia
##NAMES=HP
##CAS NAME=4-Chlorophenyl-.beta.-phenylpropionate
##MOLFORM=C15H13ClO2
##CAS REGISTRY NO=23522-73-8
##MP= -300
##BP= -300
##MW= 260
##$RETENTION INDEX=1996
##$CONDENSED SPECTRUM=NO
##NPOINTS= 42
##XYDATA=(XY..XY) 1 
    27          6
    28          3
    39          9
    51         17
    55          5
    63          9
    64          3
    65         51
    73          6
    75          8
    77         81
    78         33
    79         71
    80          3
    89          6
    90          5
    91        895
    92         69
    93          3
    99         18
   100          3
   101          6
   102          4
   103         72
   104         96
   105        999
   106         89
   111          9
   127         15
   128        589
   129         42
   130        196
   131        114
   132        156
   133        980
   134         95
   135          7
   150          3
   260        114
   261         17
   262         39
   263          4