##TITLE=Library Entry 36403
##JCAMP-DX=Revision 4.10 
##DATA TYPE=MASS SPECTRUM
##SAMPLE DESCRIPTION=NIST Mass Spectrometry Data Center
##NAMES=HP
##CAS NAME=2-Hydroxyphenol bis(trifluoroactate)
##MOLFORM=C10H4F6O4
##CAS REGISTRY NO=23529-06-8
##MP= -300
##BP= -300
##MW= 302
##$RETENTION INDEX=995
##$CONDENSED SPECTRUM=NO
##NPOINTS= 115
##XYDATA=(XY..XY) 1 
    20          1
    25          1
    26         23
    27          3
    28         12
    29          1
    31          9
    37          8
    38         27
    39         12
    40          1
    41          1
    44          2
    47          2
    49          5
    50        101
    51        102
    52        233
    53         28
    54         13
    55          3
    57         10
    60          1
    61          7
    62         20
    63        100
    64        164
    65         11
    66          2
    69        999
    70         11
    71          3
    73          2
    74          7
    75         12
    76          4
    77          3
    78         11
    79         19
    80        107
    81          8
    83        140
    84          7
    85          2
    91          3
    92        177
    93         13
    95        212
    96         14
    97         58
    98          1
    99          6
   101        102
   102          7
   107         12
   108          8
   109          2
   110          1
   111          7
   112          1
   113         11
   114          3
   119          2
   120          5
   121         32
   122          2
   123          3
   129          1
   130          3
   131          1
   132          2
   133         16
   134          1
   136         16
   137          2
   139         94
   140          7
   141          4
   149        469
   150         31
   151          2
   152          1
   157          1
   158         41
   159          3
   161          4
   167          3
   177        194
   178         15
   179          1
   180          4
   187          1
   189        223
   190         20
   191          2
   199          2
   205        130
   206         11
   207          2
   227          2
   233         42
   234          4
   235          1
   246        114
   247         10
   248          1
   251          2
   255         19
   256          2
   263          1
   274          2
   302        381
   303         41
   304          5
   305          1