##TITLE=Library Entry 80407
##JCAMP-DX=Revision 4.10 
##DATA TYPE=MASS SPECTRUM
##SAMPLE DESCRIPTION=Zaikin V.G., Borisov R.S., TIPS RAS, Moscow, Russia
##NAMES=HP
##CAS NAME=3-Chlorophenyl-.beta.-phenylpropionate
##MOLFORM=C15H13ClO2
##CAS REGISTRY NO=23522-74-9
##MP= -300
##BP= -300
##MW= 260
##$RETENTION INDEX=0
##$CONDENSED SPECTRUM=NO
##NPOINTS= 56
##XYDATA=(XY..XY) 1 
    26          2
    27          9
    36          2
    38          6
    39         18
    41          3
    42          2
    50          9
    51         29
    52          5
    53          4
    55          5
    62          5
    63         27
    64         15
    65         56
    66          5
    73         12
    74          4
    75         14
    76          6
    77         90
    78         28
    79         53
    80          3
    89         11
    90          6
    91        880
    92         66
    93          4
    99         23
   100          5
   101          8
   102         10
   103         66
   104         57
   105        999
   106         82
   107          2
   111         11
   113          3
   127          5
   128        105
   129          8
   130         35
   131         99
   132        213
   133        801
   134         74
   135          5
   141          2
   183          2
   260         52
   261          8
   262         16
   263          2