##TITLE=Library Entry 31468
##JCAMP-DX=Revision 4.10 
##DATA TYPE=MASS SPECTRUM
##SAMPLE DESCRIPTION=Chemical Concepts
##NAMES=HP
##CAS NAME=2,4-Dichloro-6-(3-nitroanilino)-1,3,5-triazine
##MOLFORM=C9H5Cl2N5O2
##CAS REGISTRY NO=2352-39-8
##MP= -300
##BP= -300
##MW= 285
##$RETENTION INDEX=0
##$CONDENSED SPECTRUM=NO
##NPOINTS= 108
##XYDATA=(XY..XY) 1 
    33        266
    35        157
    36        280
    38        565
    39        460
    40        200
    41         83
    42         23
    43         41
    44         57
    46        174
    47         30
    50        596
    51        168
    52        253
    53        142
    54         17
    55         13
    57          8
    58          7
    62        999
    63        678
    64        495
    65        200
    66         46
    67         37
    68         23
    69          6
    70          4
    72         11
    74        226
    75        243
    76        290
    77         64
    78         85
    79         28
    80          4
    81          4
    83         10
    85         14
    87        503
    89        359
    90        600
    91        115
    92         23
    93         15
    99          9
   100          4
   101          4
   102          8
   103         14
   105         71
   106         20
   107          9
   112          8
   113          6
   115         55
   116        123
   117        295
   118         21
   119          5
   122          4
   124         12
   125          4
   126          5
   130         16
   131         36
   132          3
   137          4
   142         76
   143        380
   144         34
   149          3
   150          4
   151         43
   153         19
   158          5
   159         12
   163         17
   166         12
   168          8
   169          3
   177         16
   178         69
   179         11
   180         21
   183          9
   189         33
   203          6
   204         10
   213          3
   220          4
   223          3
   227          3
   229          3
   238         37
   239         35
   240         29
   241         19
   242          5
   250         25
   252          5
   284         60
   285        182
   286         56
   287        107
   288         17
   289         17