##TITLE=Library Entry 53708
##JCAMP-DX=Revision 4.10 
##DATA TYPE=MASS SPECTRUM
##SAMPLE DESCRIPTION=ASES Database, Dalian Institute, P.R. China
##NAMES=HP
##CAS NAME=1-Methoxy-4,4-dimethyl-cyclohex-2-ene
##MOLFORM=C9H16O
##CAS REGISTRY NO=23538-27-4
##MP= -300
##BP= -300
##MW= 140
##$RETENTION INDEX=0
##$CONDENSED SPECTRUM=NO
##NPOINTS= 50
##XYDATA=(XY..XY) 1 
    41        227
    43        432
    54         86
    55         93
    58         16
    59         18
    63         10
    65         40
    66         15
    67        152
    68         19
    69         81
    70          5
    71         27
    72         43
    73          5
    77        112
    78         21
    79         75
    80         13
    81         48
    82         42
    83         13
    84        999
    85         76
    86          6
    91         86
    92         11
    93        203
    94         29
    95         27
    96          4
    97         72
    98         25
   105          7
   107         15
   108         31
   109         77
   110         12
   111         82
   112         64
   113          5
   119          4
   123          8
   124          5
   125        274
   126         23
   139         18
   140        201
   141         19