##TITLE=Library Entry 52577
##JCAMP-DX=Revision 4.10 
##DATA TYPE=MASS SPECTRUM
##SAMPLE DESCRIPTION=Japan AIST/NIMC Database- Spectrum MS-IW-7031
##NAMES=HP
##CAS NAME=1,1-Bis(4,4-dimethyl-2,6-dioxocyclohexyl)ethane
##MOLFORM=C18H26O4
##CAS REGISTRY NO=23538-21-8
##MP= -300
##BP= -300
##MW= 306
##$RETENTION INDEX=0
##$CONDENSED SPECTRUM=NO
##NPOINTS= 104
##XYDATA=(XY..XY) 1 
    14          3
    15          7
    17          2
    18          1
    26          7
    27         64
    28         40
    29         60
    30          1
    31          3
    37          3
    38          9
    39        107
    40         27
    41        205
    42        105
    43        113
    44          2
    45          1
    48          1
    50          8
    51         14
    52          6
    53         33
    54         15
    55        357
    56        543
    57         34
    58          3
    59          4
    62          1
    63          3
    64          1
    65          5
    66          3
    67          9
    68          6
    69         55
    70        145
    71          9
    73          1
    77          9
    78          2
    79          7
    80          1
    81          2
    82         13
    83        999
    84        166
    85         10
    86          1
    91          6
    92          1
    93          1
    94          2
    95          2
    96          1
    97         76
    98          7
    99          1
   101          1
   103          1
   105          3
   106          1
   107          1
   111          3
   112        135
   113         10
   114          1
   115          2
   116          2
   117          1
   119          1
   121          1
   125         34
   126          2
   128          1
   129          2
   133          7
   134          1
   140        360
   141         34
   142          3
   143          1
   145          1
   147          1
   148          1
   161         14
   162          1
   175          1
   189          1
   201          1
   204          1
   217         38
   218          6
   231          4
   245          1
   257          1
   273        250
   274         46
   275          6
   287          1
   288         10
   289          3