##TITLE=Library Entry 75906
##JCAMP-DX=Revision 4.10 
##DATA TYPE=MASS SPECTRUM
##SAMPLE DESCRIPTION=G.RUCKER, INST. PHARM. CHEM., UNIV., MUNSTER, GERMANY,
 F.R.G.
##NAMES=HP
##CAS NAME=Pentanamide, N-(aminocarbonyl)-
##MOLFORM=C6H12N2O2
##CAS REGISTRY NO=23549-55-5
##MP= -300
##BP= -300
##MW= 144
##$RETENTION INDEX=0
##$CONDENSED SPECTRUM=NO
##NPOINTS= 13
##XYDATA=(XY..XY) 1 
    39        130
    41        380
    42        100
    43        160
    44        930
    55        110
    57        440
    59        570
    61        160
    72        100
    85        170
   102        999
   115         80