##TITLE=Library Entry 2178
##JCAMP-DX=Revision 4.10 
##DATA TYPE=MASS SPECTRUM
##SAMPLE DESCRIPTION=R. L. CARNEY
##NAMES=HP
##CAS NAME=1-Pentene, 5-nitro-
##MOLFORM=C5H9NO2
##CAS REGISTRY NO=23542-51-0
##MP= -300
##BP= -300
##MW= 115
##$RETENTION INDEX=0
##$CONDENSED SPECTRUM=NO
##NPOINTS= 37
##XYDATA=(XY..XY) 1 
    26         40
    27        200
    28         50
    29        150
    30         60
    31         10
    37         20
    38         40
    39        430
    40        100
    41        999
    42         80
    44         30
    45         10
    46         20
    50         20
    51         30
    52         30
    53        160
    54        170
    55         80
    56         30
    57        160
    58         10
    62         10
    63         10
    65         30
    66         20
    67        370
    68        150
    69        160
    70         20
    79         20
    80         10
    81         30
    82         10
    83         10