##TITLE=Library Entry 53564
##JCAMP-DX=Revision 4.10 
##DATA TYPE=MASS SPECTRUM
##SAMPLE DESCRIPTION=Div. of Experiment Therapeutics WRAIR, WRAMC, Washingto
n DC 20307
##NAMES=HP
##CAS NAME=N-[4-Aminobutyl]aziridine
##MOLFORM=C6H14N2
##CAS REGISTRY NO=23545-51-9
##MP= -300
##BP= -300
##MW= 114
##$RETENTION INDEX=0
##$CONDENSED SPECTRUM=NO
##NPOINTS= 36
##XYDATA=(XY..XY) 1 
    41        299
    42        346
    43        319
    44        312
    45         60
    47         18
    53         19
    54         58
    55        234
    56        216
    57        159
    58        217
    59         93
    67         71
    68         73
    69        191
    70        319
    71        120
    72        274
    73         44
    81         45
    82         88
    83        204
    84        999
    85        115
    86        105
    87         17
    94         21
    96         66
    97         92
    98        276
    99         55
   112         19
   113         66
   114         98
   115         18