##TITLE=Library Entry 791
##JCAMP-DX=Revision 4.10 
##DATA TYPE=MASS SPECTRUM
##SAMPLE DESCRIPTION=NIST Mass Spectrometry Data Center, 1994
##NAMES=HP
##CAS NAME=Ethyl m-trifluoromethylcarbanilate
##MOLFORM=C10H10F3NO2
##CAS REGISTRY NO=2354-93-0
##MP= -300
##BP= -300
##MW= 233
##$RETENTION INDEX=0
##$CONDENSED SPECTRUM=NO
##NPOINTS= 128
##XYDATA=(XY..XY) 1 
    13          5
    15         65
    18          7
    19         13
    25          9
    26         69
    27        349
    28          5
    29        999
    30         47
    31        169
    33          4
    37         43
    38         93
    39        100
    40          4
    41         20
    42         16
    43         39
    44         28
    45        126
    46         22
    47          4
    49          7
    50         74
    51         58
    52         39
    54          6
    55          4
    56         13
    57         54
    58          4
    60          4
    61         25
    62         67
    63        209
    64        115
    65         52
    66          7
    69        110
    70         19
    71          4
    73          6
    74         24
    75        109
    76         20
    77          8
    79          8
    80          6
    81         23
    82         19
    83         67
    84         16
    86          5
    87         17
    88         66
    89         22
    90         74
    91         54
    92         12
    93         21
    94         14
    95         62
    96         11
    99         21
   100         19
   101         14
   102          7
   104          4
   105         10
   106          8
   107         10
   108         22
   109        108
   110         13
   111        100
   112         35
   113        139
   114        203
   115         20
   119         19
   120         67
   121         12
   122          6
   125         37
   126         12
   127         51
   128          7
   131          9
   132         55
   133         69
   134         43
   135          5
   137         29
   138         17
   139        110
   140        158
   141         89
   142         75
   143          9
   144          5
   145        159
   146         16
   147          7
   148          7
   154          7
   158         25
   159        172
   160        186
   161        982
   162         85
   163          3
   168        135
   169         14
   172         10
   174        672
   175         62
   184          4
   187        458
   188        133
   189         13
   204         13
   205         29
   214        121
   215         16
   233        489
   234         57
   235          5