##TITLE=Library Entry 70828
##JCAMP-DX=Revision 4.10 
##DATA TYPE=MASS SPECTRUM
##SAMPLE DESCRIPTION=A.A.Kutin, Moscow, Russia
##NAMES=HP
##CAS NAME=Propionic acid, 3-(1-piperidyl)-, methyl ester
##MOLFORM=C9H17NO2
##CAS REGISTRY NO=23573-93-5
##MP= -300
##BP= -300
##MW= 171
##$RETENTION INDEX=0
##$CONDENSED SPECTRUM=NO
##NPOINTS= 48
##XYDATA=(XY..XY) 1 
    33          8
    39         78
    40         63
    41        226
    42        295
    43         49
    44         85
    53         21
    54         51
    55        189
    56         95
    57         27
    58          6
    59         67
    60          2
    65          2
    67         12
    68         20
    69         45
    70         58
    71          5
    72          6
    73          1
    82         18
    83         15
    84         39
    85          6
    86         41
    87         10
    88          7
    89          0
    96         80
    98        999
    99         61
   100          8
   102          3
   103          0
   127          0
   128          4
   129          0
   140          4
   141          0
   156          6
   157          0
   170         21
   171         44
   172          4
   173          0