##TITLE=Library Entry 28937
##JCAMP-DX=Revision 4.10 
##DATA TYPE=MASS SPECTRUM
##SAMPLE DESCRIPTION=Chuck Anderson, Aldrich Chemical Co.
##NAMES=HP
##CAS NAME=2,5-Hexanediamine, 2,5-dimethyl-
##MOLFORM=C8H20N2
##CAS REGISTRY NO=23578-35-0
##MP= -300
##BP= -300
##MW= 144
##$RETENTION INDEX=0
##$CONDENSED SPECTRUM=NO
##NPOINTS= 54
##XYDATA=(XY..XY) 1 
    15          7
    17          0
    18         37
    26          1
    27         13
    28         22
    29         14
    30         46
    31          0
    38          0
    39         16
    40          3
    41         66
    42         95
    43         26
    44          9
    51          1
    52          1
    53          7
    54          4
    55         32
    56         16
    57          4
    58        999
    59         38
    60          0
    65          1
    67         25
    68          3
    69         16
    70         45
    71          5
    72          2
    77          2
    79          3
    80          5
    81          5
    82          6
    83          1
    84          1
    87         36
    88          4
    91          1
    93          7
    94          1
    95         82
    96         11
    97          7
   110          1
   111          2
   112        131
   113         10
   129          4
   145          0