##TITLE=Library Entry 34764
##JCAMP-DX=Revision 4.10 
##DATA TYPE=MASS SPECTRUM
##SAMPLE DESCRIPTION=CARL DJERASSI DEPT OF CHEM STANFORD UNIV STANFORD CALIF
 94305
##NAMES=HP
##CAS NAME=1-Octyn-3-ol, 3-methyl-
##MOLFORM=C9H16O
##CAS REGISTRY NO=23580-51-0
##MP= -300
##BP= -300
##MW= 140
##$RETENTION INDEX=0
##$CONDENSED SPECTRUM=NO
##NPOINTS= 11
##XYDATA=(XY..XY) 1 
    43        220
    52         20
    54         50
    57         70
    68         50
    69        999
    70         90
    71         20
    84        120
    97         40
   125         70