##TITLE=Library Entry 48117
##JCAMP-DX=Revision 4.10 
##DATA TYPE=MASS SPECTRUM
##SAMPLE DESCRIPTION=A.A.Kutin, Moscow, Russia
##NAMES=HP
##CAS NAME=1,2,3-Pyrido[3,2-d]triazole, 1-amino-
##MOLFORM=C5H5N5
##CAS REGISTRY NO=23589-47-1
##MP= -300
##BP= -300
##MW= 135
##$RETENTION INDEX=0
##$CONDENSED SPECTRUM=NO
##NPOINTS= 45
##XYDATA=(XY..XY) 1 
    34          4
    36         22
    37        226
    38        260
    39        203
    40        254
    41         38
    42         22
    43         66
    44         42
    45          1
    48         10
    49         90
    50        246
    51        434
    52        648
    53        384
    54         43
    55         22
    56          7
    57          6
    62         38
    63        104
    64        337
    65         54
    66         11
    68         10
    69          8
    74         10
    75         50
    76         72
    78        999
    79        336
    80        575
    81         27
    89          5
    91         44
    92         13
    97          1
   103          4
   106         49
   107        444
   108         29
   110          1
   111          3