##TITLE=Library Entry 99256
##JCAMP-DX=Revision 4.10 
##DATA TYPE=MASS SPECTRUM
##SAMPLE DESCRIPTION=V.Zaikin,Inst.Petrochem.Synth.,RAS,Moscow
##NAMES=HP
##CAS NAME=o-Toluic acid, 2-methylphenyl ester
##MOLFORM=C15H14O2
##CAS REGISTRY NO=23597-23-1
##MP= -300
##BP= -300
##MW= 226
##$RETENTION INDEX=0
##$CONDENSED SPECTRUM=NO
##NPOINTS= 48
##XYDATA=(XY..XY) 1 
    26          5
    27         15
    29          5
    39         60
    40          5
    41         21
    50         23
    51         47
    52         16
    53         15
    55          3
    61          6
    62         14
    63         42
    64          8
    65        103
    66          8
    69          7
    73          3
    74          9
    75          7
    76          5
    77         46
    78         23
    79         22
    83          4
    89         35
    90         30
    91        354
    92         29
    94          4
    95          4
    96          4
   103          4
   105         13
   106          3
   107         19
   108          6
   113          5
   118         30
   119        999
   120         76
   121          9
   133         13
   135         13
   136         13
   226          8
   227          2