##TITLE=Library Entry 55697
##JCAMP-DX=Revision 4.10 
##DATA TYPE=MASS SPECTRUM
##SAMPLE DESCRIPTION=Chemical Concepts
##NAMES=HP
##CAS NAME=Ethanamine, 2-(diphenylphosphino)-N,N-diethyl-
##MOLFORM=C18H24NP
##CAS REGISTRY NO=2359-97-9
##MP= -300
##BP= -300
##MW= 285
##$RETENTION INDEX=0
##$CONDENSED SPECTRUM=NO
##NPOINTS= 156
##XYDATA=(XY..XY) 1 
    27         35
    28         36
    29         75
    30        126
    31          1
    38          1
    39         16
    40         11
    41         14
    42         48
    43         13
    44         15
    45          1
    46          0
    50          7
    51         27
    52          4
    53          1
    54          4
    55          5
    56         42
    57         16
    58         80
    59          2
    62          1
    63          6
    64          1
    65         12
    66          1
    67          0
    68          1
    69          3
    70         13
    71         20
    72          8
    73          0
    74          2
    75          2
    76          3
    77         26
    78         13
    79          3
    80          3
    81          9
    82          2
    83          8
    84         12
    85        109
    86        999
    87         46
    88          1
    89          2
    90          0
    91         26
    92          3
    93          1
    94          0
    95          5
    96          0
    98          2
    99         20
   100          5
   101          0
   102          2
   103          1
   104          1
   105          1
   106          0
   107         47
   108         68
   109         21
   110          1
   113          1
   114          0
   115         12
   116          1
   117          0
   120          3
   121         47
   122          4
   123          1
   124          2
   126          1
   127          1
   128          6
   129          0
   131          1
   132          0
   133         14
   134          7
   135          2
   136          0
   137          0
   139          4
   140          0
   141          4
   142          0
   144          1
   145          0
   146          1
   148          0
   150          0
   151          2
   152         21
   153          4
   154          1
   157         11
   158          1
   159          1
   162         21
   163          3
   164          0
   165          8
   166          2
   167          1
   169          0
   170          6
   171          1
   178          0
   179          0
   180          0
   181          2
   183        124
   184         19
   185         45
   186         46
   187          4
   194          0
   195          1
   196          2
   197          3
   199         49
   200         32
   201          4
   211          1
   212          5
   213         20
   214         28
   215          3
   227          1
   228          3
   239          0
   240          0
   241          8
   242          2
   254          0
   255          2
   256          3
   257          0
   262          0
   269          1
   270         21
   271          4
   284          0
   285         20
   286          4