##TITLE=Library Entry 826
##JCAMP-DX=Revision 4.10 
##DATA TYPE=MASS SPECTRUM
##SAMPLE DESCRIPTION=Chemical Concepts
##NAMES=HP
##CAS NAME=4-Oxazoleacetic acid, 5-ethoxy-2-(ethoxycarbonyl)-, ethyl ester
##MOLFORM=C12H17NO6
##CAS REGISTRY NO=23594-30-1
##MP= -300
##BP= -300
##MW= 271
##$RETENTION INDEX=0
##$CONDENSED SPECTRUM=NO
##NPOINTS= 100
##XYDATA=(XY..XY) 1 
    26         43
    27        251
    28        114
    29        999
    30         25
    31         14
    39          9
    40         58
    41        189
    42        107
    43         71
    44         24
    45         43
    46          3
    47         17
    51          6
    52         31
    53         32
    54         38
    55         17
    56         49
    57        236
    58          9
    59          6
    60         17
    61          6
    66          2
    67         12
    68         81
    69         35
    70        157
    71         56
    72         15
    73          9
    74          7
    75          2
    80         19
    81          9
    82         48
    83          4
    84          3
    86        289
    87         29
    88         22
    89          4
    96         49
    97        249
    98        237
    99         19
   100         27
   101          2
   113         65
   114        381
   115        147
   116         15
   124         36
   125        216
   126        128
   127         10
   128          3
   131          3
   140         27
   141         84
   142        333
   143        130
   144         11
   151          3
   152         11
   153        106
   154         19
   158          5
   159         12
   168         12
   169         51
   170         85
   171         11
   186         34
   187         38
   188          3
   196          8
   197         31
   198        144
   199         19
   200          3
   214        104
   215        522
   216         52
   217          7
   224          3
   225          7
   226         52
   227          5
   242         10
   243         24
   244          3
   256          3
   269          5
   271        247
   272         35
   273          6