##TITLE=Library Entry 55857
##JCAMP-DX=Revision 4.10 
##DATA TYPE=MASS SPECTRUM
##SAMPLE DESCRIPTION=NIST Mass Spectrometry Data Center, 2010
##NAMES=HP
##CAS NAME=2-Aminooctane, N-acetyl-
##MOLFORM=C10H21NO
##CAS REGISTRY NO=23602-00-8
##MP= -300
##BP= -300
##MW= 171
##$RETENTION INDEX=1363
##$CONDENSED SPECTRUM=NO
##NPOINTS= 71
##XYDATA=(XY..XY) 1 
    15          6
    18          8
    26          2
    27         28
    28         20
    29         39
    30         28
    31          1
    39         28
    40          6
    41         95
    42         60
    43        208
    44        772
    45         22
    50          1
    51          2
    52          2
    53         10
    54          7
    55         65
    56         41
    57         31
    58         70
    60        165
    61          5
    65          2
    66          1
    67          8
    68          5
    69         27
    70         34
    71         12
    72         37
    73          4
    77          1
    79          2
    80          1
    81          2
    82          3
    83         12
    84         10
    86        999
    87        197
    88         10
    89          1
    95          1
    96          1
    97          5
    98          2
    99          1
   100         37
   101         11
   102          1
   111          1
   112          6
   114        192
   115         18
   116          1
   128         68
   129          7
   130          1
   142         55
   143          6
   154          1
   156         61
   157          6
   158          1
   171         86
   172         11
   173          1