##TITLE=Library Entry 81660
##JCAMP-DX=Revision 4.10 
##DATA TYPE=MASS SPECTRUM
##SAMPLE DESCRIPTION=NIST Mass Spectrometry Data Center, 1998.
##NAMES=HP
##CAS NAME=Benfluorex
##MOLFORM=C19H20F3NO2
##CAS REGISTRY NO=23602-78-0
##MP= -300
##BP= -300
##MW= 351
##$RETENTION INDEX=2160
##$CONDENSED SPECTRUM=NO
##NPOINTS= 166
##XYDATA=(XY..XY) 1 
    15          1
    26          1
    27          7
    28         29
    29         11
    30         39
    31          1
    38          1
    39         14
    40          2
    41         35
    42         63
    43         22
    44         26
    45          3
    49          1
    50         17
    51         67
    52          6
    53          3
    54         12
    55          7
    56         66
    57         44
    58          8
    59          1
    62          2
    63          7
    64          2
    65          4
    66          1
    67          1
    68         11
    69         18
    70        188
    71         11
    72          5
    73          1
    74          4
    75          8
    76         16
    77        288
    78         23
    79          4
    80          1
    81          1
    82          1
    83          5
    84          1
    86          2
    87          1
    88          2
    89         11
    90          6
    91         12
    92          2
    93          1
    94          1
    95          3
    96          6
    99          3
   100          1
   101          3
   102          3
   103          5
   104          1
   105        999
   106         78
   107          7
   108          2
   109         57
   110          4
   113          3
   114          4
   115         14
   116          7
   117         14
   118          2
   119         19
   120          4
   121          1
   122          8
   123          2
   125          2
   126          1
   127          8
   128          2
   129          1
   130          2
   131          1
   132          2
   133          8
   134          1
   135          1
   137          2
   138          3
   139          7
   140          7
   141          2
   143          1
   144          1
   145          6
   146          3
   147          3
   148         13
   149        433
   150         43
   151         12
   152          2
   153          4
   154          1
   157          1
   158          4
   159        222
   160         20
   161          1
   163          1
   164          4
   165          6
   166          2
   167          3
   168          1
   169          2
   171          2
   172          4
   173          1
   177          1
   178          1
   179          1
   180          1
   182          1
   183          1
   184          1
   185          2
   186          4
   187         24
   188          7
   189          1
   190          2
   191          1
   192        782
   193         98
   194          9
   195          1
   196          1
   198          3
   199          1
   200          3
   201          1
   202          1
   208          4
   209          1
   210          5
   211          1
   212          2
   213          1
   214          5
   215          1
   216         52
   217          6
   227          1
   228          2
   230          1
   332          1
   336          2
   350          1