##TITLE=Library Entry 20693
##JCAMP-DX=Revision 4.10 
##DATA TYPE=MASS SPECTRUM
##SAMPLE DESCRIPTION=Chemical Concepts
##NAMES=HP
##CAS NAME=Cyclooctane, 1,2-diethyl-
##MOLFORM=C12H24
##CAS REGISTRY NO=23609-46-3
##MP= -300
##BP= -300
##MW= 168
##$RETENTION INDEX=1227
##$CONDENSED SPECTRUM=NO
##NPOINTS= 76
##XYDATA=(XY..XY) 1 
    24          1
    25          1
    26         10
    27        172
    28         68
    29        259
    30          7
    35          1
    36          6
    38          5
    39        161
    40         23
    41        756
    42        245
    43        462
    44          8
    48          2
    50          4
    51         13
    52         10
    53         76
    54         88
    55        999
    56        468
    57        421
    58         18
    61          1
    63          4
    65         14
    66         13
    67        128
    68         62
    69        731
    70        381
    71        138
    72          6
    77         14
    78          2
    79         21
    80          4
    81         65
    82         67
    83        868
    84        204
    85         51
    86          1
    91          7
    92          1
    93          1
    95         25
    96         46
    97        353
    98        106
    99          8
   108          1
   109         11
   110         32
   111         89
   112         43
   113          4
   115          1
   123          2
   124          6
   125         40
   126         15
   127          2
   135          2
   136          3
   137          1
   138         13
   139        204
   140         43
   141          3
   166          1
   168         39
   169          4