##TITLE=Library Entry 17115
##JCAMP-DX=Revision 4.10 
##DATA TYPE=MASS SPECTRUM
##SAMPLE DESCRIPTION=NIST Mass Spectrometry Data Center, 2007
##NAMES=HP
##CAS NAME=2,5,8,11,14,17-Hexaoxanonadecan-19-ol
##MOLFORM=C13H28O7
##CAS REGISTRY NO=23601-40-3
##MP= -300
##BP= -300
##MW= 296
##$RETENTION INDEX=2063
##$CONDENSED SPECTRUM=NO
##NPOINTS= 101
##XYDATA=(XY..XY) 1 
    14          1
    15         17
    16          1
    19         10
    26          4
    27         31
    28         69
    29        125
    30         14
    31        113
    32          3
    33          4
    39          2
    40          1
    41         21
    42         28
    43        161
    44        116
    45        999
    46         23
    47          3
    55          2
    56          4
    57         30
    58        274
    59        871
    60         33
    61         10
    62          1
    63          1
    68          1
    69          4
    70         24
    71         23
    72         72
    73        100
    74          8
    75         31
    76          2
    77         12
    78          1
    80          1
    83          1
    84          1
    85          3
    86         21
    87        234
    88         88
    89        469
    90         23
    91          5
    99          3
   100          4
   101         49
   102         47
   103        314
   104         21
   105          7
   107          3
   113          2
   114          3
   115          9
   116          5
   117         23
   118          4
   119         11
   120          1
   121         20
   122          1
   129          1
   130          1
   131         54
   132          6
   133        132
   134          9
   135          2
   145          3
   146          1
   147         36
   148          3
   149          1
   151          2
   157          1
   159          3
   161          1
   162          1
   163         11
   164          1
   165          5
   175         12
   176          1
   177         13
   178          1
   189          1
   191          1
   207          4
   208          1
   209          4
   221          2
   251          1
   253          2