##TITLE=Library Entry 63485
##JCAMP-DX=Revision 4.10 
##DATA TYPE=MASS SPECTRUM
##SAMPLE DESCRIPTION=A.A.Kutin, Moscow, Russia
##NAMES=HP
##CAS NAME=Pyridin-2-amine, 6-(4-methylphenylsulfonyloxy)-
##MOLFORM=C12H12N2O3S
##CAS REGISTRY NO=23616-49-1
##MP= -300
##BP= -300
##MW= 264
##$RETENTION INDEX=0
##$CONDENSED SPECTRUM=NO
##NPOINTS= 99
##XYDATA=(XY..XY) 1 
    33          1
    34          1
    37          1
    38         11
    39        153
    40         46
    41         32
    42          8
    43         10
    44         11
    45          5
    50         11
    51         23
    52         20
    53         26
    54         78
    55         52
    58          2
    62          8
    63         37
    65        243
    66         68
    67         14
    68          1
    69         16
    71          5
    74          2
    75          2
    76          1
    77         20
    78         15
    79         12
    80          9
    81        157
    82         57
    83         45
    84          2
    89         31
    91        999
    92         81
    93         39
    94          8
    95          2
    97          1
   100          0
   104          1
   106         16
   107         33
   108         20
   110         37
   111         37
   112          1
   115         10
   116          2
   118         16
   119          1
   121          3
   123          1
   124          3
   125          1
   127          6
   128          3
   129         10
   130          9
   131          3
   137         17
   138          1
   139         20
   140          4
   141          2
   142          3
   143          2
   144         10
   145          1
   149          0
   154          5
   155        106
   156         17
   157         29
   158          8
   159          2
   160          0
   171         41
   172        461
   173         67
   174          7
   182          2
   183          3
   184          3
   185          2
   197          1
   199         94
   200        672
   201         89
   202          7
   262          0
   264        141
   265         24
   266          9