##TITLE=Library Entry 53706
##JCAMP-DX=Revision 4.10 
##DATA TYPE=MASS SPECTRUM
##SAMPLE DESCRIPTION=R RYHAGE MS-LAB KAROLINSKA INSTITUTET STOCKHOLM SWEDEN
##NAMES=HP
##CAS NAME=L-Glutamic acid, N-acetyl-, dimethyl ester
##MOLFORM=C9H15NO5
##CAS REGISTRY NO=2361-99-1
##MP= -300
##BP= -300
##MW= 217
##$RETENTION INDEX=0
##$CONDENSED SPECTRUM=NO
##NPOINTS= 84
##XYDATA=(XY..XY) 1 
    15        172
    17         13
    18         41
    26          8
    27         47
    29         75
    30         29
    31         62
    33         24
    39         36
    40         10
    41        189
    42         27
    43        652
    44         36
    45         30
    52          6
    53          8
    54         57
    55         80
    56        401
    57        131
    58         13
    59         99
    60         38
    61         14
    67          6
    68         17
    69         16
    70         25
    71         30
    72         11
    74         16
    75          7
    78          7
    81          5
    82         56
    83         27
    84        999
    85         64
    86         23
    87         15
    88        167
    89         14
    90          7
    95          8
    97          7
    98        203
    99         64
   100         37
   101         12
   102         23
   103          5
   104         11
   111         22
   112         19
   113          7
   114         44
   115         13
   116        602
   117         38
   118          5
   126        150
   127         20
   128          6
   131         13
   142         22
   143         13
   144        203
   145         26
   146          5
   149         34
   153         19
   154          7
   157          5
   158        370
   159         33
   167         11
   172          5
   174         39
   185         41
   186         17
   217          5
   218          9