##TITLE=Library Entry 88658
##JCAMP-DX=Revision 4.10 
##DATA TYPE=MASS SPECTRUM
##SAMPLE DESCRIPTION=NIST Mass Spectrometry Data Center, 1994
##NAMES=HP
##CAS NAME=2-Thiophenecarboxylic acid hydrazide
##MOLFORM=C5H6N2OS
##CAS REGISTRY NO=2361-27-5
##MP= -300
##BP= -300
##MW= 142
##$RETENTION INDEX=0
##$CONDENSED SPECTRUM=NO
##NPOINTS= 38
##XYDATA=(XY..XY) 1 
    16          4
    18          7
    26          5
    28         13
    29         23
    30         10
    31         40
    32          5
    36          3
    37         17
    38         27
    39        173
    40          5
    44          9
    45         42
    47          4
    49          9
    50         11
    51          4
    53         15
    54          7
    57         51
    58         19
    59          4
    69         11
    81         19
    82         28
    83        115
    84         11
    85          6
   109          8
   111        999
   112         61
   113         48
   127         14
   142        203
   143         16
   144         11