##TITLE=Library Entry 83536
##JCAMP-DX=Revision 4.10 
##DATA TYPE=MASS SPECTRUM
##SAMPLE DESCRIPTION=NIST Mass Spectrometry Data Center, 1994
##NAMES=HP
##CAS NAME=4-Bromo-2-methylphenol
##MOLFORM=C7H7BrO
##CAS REGISTRY NO=2362-12-1
##MP= -300
##BP= -300
##MW= 186
##$RETENTION INDEX=0
##$CONDENSED SPECTRUM=NO
##NPOINTS= 87
##XYDATA=(XY..XY) 1 
    13          3
    14          3
    15          7
    18          3
    25         11
    26         73
    27        145
    28         22
    29         67
    30          3
    31          8
    36          9
    37         80
    38        186
    39        285
    40         23
    41          9
    42         12
    43         33
    44         19
    49         55
    50        297
    51        463
    52        183
    53        215
    54          9
    55         41
    60          9
    61         57
    62         98
    63        190
    64         27
    65         13
    66         15
    67         15
    68          3
    73         32
    74        107
    75         61
    76          3
    77        875
    78        380
    79        408
    80         42
    81         43
    82         15
    83          9
    84          4
    85         13
    86         19
    87         20
    88          4
    89        155
    90         24
    91          5
    92          4
    93         31
    94         29
   104          5
   105         42
   107        999
   108         84
   109          5
   116          3
   117         18
   118          5
   119         14
   129          3
   131          7
   133          3
   141          3
   143          4
   155          3
   156          4
   157         15
   158          4
   159         16
   167          2
   168         15
   169          7
   170         14
   171          5
   186        645
   187        114
   188        615
   189         45
   190          3