##TITLE=Library Entry 13458
##JCAMP-DX=Revision 4.10 
##DATA TYPE=MASS SPECTRUM
##SAMPLE DESCRIPTION=NIST Mass Spectrometry Data Center
##NAMES=HP
##CAS NAME=2',4',5'-Trichloroacetanilide
##MOLFORM=C8H6Cl3NO
##CAS REGISTRY NO=23627-24-9
##MP= -300
##BP= -300
##MW= 237
##$RETENTION INDEX=0
##$CONDENSED SPECTRUM=NO
##NPOINTS= 130
##XYDATA=(XY..XY) 1 
    11          1
    12          4
    13         12
    14         52
    15        213
    16          7
    18          9
    19          2
    28         12
    35         16
    36         17
    37         41
    38         16
    39          8
    40         11
    41         10
    43        999
    44         24
    46          1
    47         15
    48          8
    49         25
    50         21
    51         15
    52         35
    60         27
    61         94
    62        100
    63         31
    64          9
    65          7
    66          2
    71         13
    72         45
    73         54
    74         26
    75         25
    76         10
    77          2
    79          6
    80          6
    81          3
    83         29
    84         19
    85         22
    86         22
    87         31
    88         49
    89         15
    90         11
    95          7
    96         31
    97        117
    98         32
    99         50
   100         12
   101          4
   107         42
   108         20
   109         42
   110         10
   111         10
   112          2
   113          2
   117          3
   118          2
   119          3
   120          1
   121          3
   122         10
   123         13
   124         83
   125         24
   126         30
   127          7
   131         17
   132         22
   133         57
   134         15
   135         37
   136          5
   137          8
   139          1
   141          1
   143         10
   144          6
   145          6
   146          6
   147          3
   158         29
   159         39
   160         69
   161         30
   162         34
   163          8
   164          5
   167         87
   168         15
   169         81
   170         11
   171         31
   172          5
   173          5
   174          3
   179          2
   181          2
   195        803
   197        732
   198         72
   199        254
   200         19
   201         30
   202        148
   204         95
   205          9
   206         16
   207          2
   208          4
   210          3
   221          2
   222          2
   223          2
   224          2
   237         96
   238         18
   239         92
   240         11
   241         30
   242          3
   243          2