##TITLE=Library Entry 63053
##JCAMP-DX=Revision 4.10 
##DATA TYPE=MASS SPECTRUM
##SAMPLE DESCRIPTION=Japan AIST/NIMC Database- Spectrum MS-NW-8911
##NAMES=HP
##CAS NAME=trans-2-Phenyl-1-cyclohexanol
##MOLFORM=C12H16O
##CAS REGISTRY NO=2362-61-0
##MP= -300
##BP= -300
##MW= 176
##$RETENTION INDEX=0
##$CONDENSED SPECTRUM=NO
##NPOINTS= 118
##XYDATA=(XY..XY) 1 
    15          2
    17          3
    18         10
    26          2
    27         52
    28         15
    29         55
    30          3
    31         15
    32          1
    38          2
    39         72
    40          8
    41        101
    42         11
    43         44
    44         29
    45          3
    46          1
    50         11
    51         60
    52         18
    53         24
    54          8
    55         50
    56          6
    57        212
    58         11
    59          1
    62          5
    63         27
    64         12
    65         84
    66         33
    67         97
    68          9
    69         11
    70         29
    71        103
    72          6
    74          4
    75          7
    76         11
    77        128
    78        131
    79         78
    80         39
    81          8
    82          1
    83         16
    84         30
    85        104
    86          6
    87          2
    88          1
    89         27
    90         11
    91        999
    92        446
    93         35
    94          6
    95          1
    96          1
    97          7
    98        185
    99         12
   100          1
   101          3
   102         20
   103         95
   104        439
   105        185
   106         20
   107         16
   108          2
   113          1
   114          2
   115        141
   116         43
   117        404
   118         54
   119         13
   120         34
   121          4
   126          1
   127         14
   128         47
   129        237
   130        421
   131         74
   132        129
   133         78
   134         10
   135          1
   139          1
   141          6
   142          7
   143        114
   144         14
   145         12
   146          2
   147          4
   148          9
   149          1
   152          1
   153          1
   154          1
   155          1
   156          1
   157         18
   158        127
   159         18
   160          2
   174          1
   175          6
   176        606
   177         80
   178          6