##TITLE=Library Entry 62438
##JCAMP-DX=Revision 4.10 
##DATA TYPE=MASS SPECTRUM
##SAMPLE DESCRIPTION=Exported from NIST MS Search
##NAMES=HP
##CAS NAME=[1,3]Dioxino[4',5':5,6]pyrano[3,2-d]oxazol-9-ol, 3a,4a,5,8a,9,9a-
hexahydro-2-methyl-7-phenyl-, (3aR,4aR,8aS,9R,9aR)-
##MOLFORM=C15H17NO5
##CAS REGISTRY NO=23626-71-3
##MP= -300
##BP= -300
##MW= 291
##$RETENTION INDEX=0
##$CONDENSED SPECTRUM=NO
##NPOINTS= 71
##XYDATA=(XY..XY) 1 
    67         46
    68         82
    69        129
    70        101
    71        138
    72         92
    73         64
    74         36
    75         23
    76         32
    77        258
    78        152
    79        165
    80         41
    81         50
    82         55
    83        207
    84        921
    85        147
    86        198
    87         27
    88         27
    89         69
    90         92
    91        999
    92        129
    93         27
    94         27
    95         36
    96        202
    97         64
    98         46
    99         27
   100         59
   101         59
   102         18
   103         23
   104         23
   105        677
   106        115
   107        244
   108         32
   109         36
   110         59
   111         27
   112         73
   113         27
   114         32
   115         27
   138         23
   139         36
   140         69
   141         36
   142        119
   143         23
   144         23
   145         59
   146         23
   147         23
   148         32
   149        949
   150        115
   151         32
   152         23
   154         23
   155         23
   272         18
   273         32
   290        364
   291        221
   292         32