##TITLE=Library Entry 83463
##JCAMP-DX=Revision 4.10 
##DATA TYPE=MASS SPECTRUM
##SAMPLE DESCRIPTION=ORMSBG,9(1)58(1974); LEHMANN
##NAMES=HP
##CAS NAME=Benzene, 1-(2-methylphenoxy)-2,4-dinitro-
##MOLFORM=C13H10N2O5
##CAS REGISTRY NO=2363-26-0
##MP= -300
##BP= -300
##MW= 274
##$RETENTION INDEX=0
##$CONDENSED SPECTRUM=NO
##NPOINTS= 61
##XYDATA=(XY..XY) 1 
    51         24
    52         16
    53         16
    63         24
    64          8
    65        203
    66         16
    67          8
    77        195
    78         48
    79        187
    80         16
    89         32
    90         16
    91        122
    92         24
    93         24
    94          8
   105         16
   106         24
   107        999
   108         89
   115         24
   116          8
   126          8
   127         24
   128         16
   129          8
   136         48
   140          8
   141         16
   149         16
   150          8
   151         24
   152         81
   153         40
   154         24
   155          8
   167         32
   168         16
   169         16
   180         48
   181        105
   182         32
   183         32
   184          8
   195         16
   196          8
   197         32
   211         40
   212          8
   226         24
   227         48
   228          8
   243         40
   244         16
   257         24
   258          8
   274        130
   275         16
   276          4