##TITLE=Library Entry 62808
##JCAMP-DX=Revision 4.10 
##DATA TYPE=MASS SPECTRUM
##SAMPLE DESCRIPTION=KC70-118
##NAMES=HP
##CAS NAME=L-Phenylalanine, N-(trifluoroacetyl)-, methyl ester
##MOLFORM=C12H12F3NO3
##CAS REGISTRY NO=23635-30-5
##MP= -300
##BP= -300
##MW= 275
##$RETENTION INDEX=1451
##$CONDENSED SPECTRUM=NO
##NPOINTS= 23
##XYDATA=(XY..XY) 1 
    65        590
    69        436
    77        363
    91        999
    97         57
   103        239
   119        121
   129         42
   131        309
   146         30
   150         15
   161         93
   162        957
   175         15
   177         15
   178         39
   184         24
   198         33
   200         15
   216        121
   244         18
   250         15
   275         15