##TITLE=Library Entry 33776
##JCAMP-DX=Revision 4.10 
##DATA TYPE=MASS SPECTRUM
##SAMPLE DESCRIPTION=Japan AIST/NIMC Database- Spectrum MS-NW-9631
##NAMES=HP
##CAS NAME=(S)-(-)-4-Isopropenyl-1-cyclohexene-1-carboxylic acid
##MOLFORM=C10H14O2
##CAS REGISTRY NO=23635-14-5
##MP= -300
##BP= -300
##MW= 166
##$RETENTION INDEX=0
##$CONDENSED SPECTRUM=NO
##NPOINTS= 114
##XYDATA=(XY..XY) 1 
    15          1
    26          2
    27         54
    28         11
    29         28
    31          2
    38          5
    39         90
    40         33
    41        101
    42         18
    43         48
    44          2
    45         13
    46          1
    47          1
    50         11
    51         41
    52         20
    53        122
    54         10
    55         53
    56          7
    57          5
    58          4
    59          9
    60          1
    62          3
    63          9
    64          2
    65         38
    66         28
    67        375
    68        999
    69         71
    70          4
    71          4
    72          1
    73          4
    74         12
    75         13
    76          3
    77        111
    78         30
    79        282
    80         43
    81        148
    82         19
    83          9
    84          2
    85          6
    86          4
    87          1
    89          3
    90          1
    91         86
    92         24
    93        151
    94         46
    95         16
    96          7
    97          8
    98          9
    99          7
   100          1
   101          1
   102          2
   103         14
   104          6
   105        128
   106         37
   107         53
   108          7
   109          6
   110         50
   111         31
   112          8
   115          6
   116          1
   117          9
   118          2
   119         32
   120         39
   121        514
   122        302
   123        329
   124        200
   125         30
   126          3
   130          1
   131          6
   132          1
   133         25
   134          2
   135          2
   136          5
   137         39
   138         57
   139          6
   145          2
   147          5
   148         32
   149         49
   150          6
   151         95
   152          9
   153          1
   162         10
   163          2
   164         21
   165          7
   166        485
   167         66
   168          9