##TITLE=Library Entry 84564
##JCAMP-DX=Revision 4.10 
##DATA TYPE=MASS SPECTRUM
##SAMPLE DESCRIPTION=Japan AIST/NIMC Database- Spectrum MS-IW-4800
##NAMES=HP
##CAS NAME=2,4-Dinitro-1-(p-tolyloxy)benzene
##MOLFORM=C13H10N2O5
##CAS REGISTRY NO=2363-25-9
##MP= -300
##BP= -300
##MW= 274
##$RETENTION INDEX=0
##$CONDENSED SPECTRUM=NO
##NPOINTS= 124
##XYDATA=(XY..XY) 1 
    26          1
    27          6
    28          2
    30          6
    37          1
    38          4
    39         31
    40          2
    41          9
    43          3
    46          1
    50          9
    51         27
    52          9
    53         10
    54          1
    55          2
    61          1
    62          9
    63         38
    64          9
    65         72
    66          5
    67          4
    69          1
    74         11
    75         16
    76         23
    77        103
    78         17
    79        212
    80         14
    81          1
    82          2
    83          1
    86          1
    87          3
    88          2
    89         18
    90          7
    91         43
    92          5
    93          9
    94          1
    95          3
    99          1
   100          1
   101          3
   102          5
   103          2
   104          1
   105          6
   106          3
   107        999
   108         91
   109          6
   113          4
   114          2
   115         14
   116          3
   117          1
   119          1
   120          1
   121          1
   122          1
   123          1
   125          1
   126          7
   127         15
   128          7
   129          1
   131          1
   132          1
   137          3
   138          4
   139         35
   140          5
   141          5
   142          1
   143          1
   150          4
   151         20
   152         61
   153         43
   154          8
   155          4
   156          1
   157          1
   166          2
   167         29
   168         20
   169          7
   170          2
   171          4
   178          1
   179          2
   180         10
   181         93
   182         21
   183         22
   184          3
   185          1
   194          1
   195         14
   196          2
   197          7
   198          1
   199          1
   211          9
   212          1
   226          3
   227          4
   228          1
   229          3
   241          7
   242          1
   243          1
   244          3
   257          7
   258          2
   272          1
   274        334
   275         51
   276          7