##TITLE=Library Entry 85477
##JCAMP-DX=Revision 4.10 
##DATA TYPE=MASS SPECTRUM
##SAMPLE DESCRIPTION=Japan AIST/NIMC Database- Spectrum MS-IW-8037
##NAMES=HP
##CAS NAME=o-(2,4-Dinitrophenoxy)aniline
##MOLFORM=C12H9N3O5
##CAS REGISTRY NO=2363-32-8
##MP= -300
##BP= -300
##MW= 275
##$RETENTION INDEX=0
##$CONDENSED SPECTRUM=NO
##NPOINTS= 163
##XYDATA=(XY..XY) 1 
    26          1
    27          9
    28          7
    29          1
    30         11
    37          2
    38          7
    39         33
    40          3
    41          7
    42          3
    43          3
    44          7
    50         11
    51         30
    52         33
    53         27
    54          6
    55          4
    56          1
    57          4
    61          1
    62          9
    63         38
    64         23
    65         53
    66          9
    67          2
    68          4
    69          4
    70          1
    71          3
    74         11
    75         17
    76         13
    77         34
    78         21
    79         23
    80        183
    81         14
    82          2
    83          2
    84          1
    85          2
    86          1
    87          2
    88          3
    89          7
    90          7
    91          9
    92         11
    93          7
    94          2
    95          2
    96          1
    97          2
    98          1
    99          2
   100          2
   101         11
   102         13
   103          6
   104          4
   105          3
   106          5
   107          3
   108        999
   109         76
   110          5
   111          1
   113          3
   114          5
   115          9
   116          5
   117          5
   118          2
   119          2
   120          2
   121          1
   125          4
   126         16
   127         61
   128         39
   129         12
   130          4
   131          3
   132          2
   133          1
   134          1
   135          1
   137          3
   138          6
   139         10
   140         11
   141          7
   142          6
   143          5
   144          4
   145          1
   149          2
   151          1
   152          8
   153         20
   154         95
   155         53
   156         20
   157          4
   158          1
   159          1
   164          8
   165          4
   166          9
   167         54
   168         18
   169         14
   170         12
   171          5
   172          2
   179          3
   180          3
   181         15
   182         80
   183         54
   184         15
   185          2
   186          1
   190          1
   194          3
   195         12
   196         11
   197          4
   198          5
   199          3
   200          2
   201          9
   202          1
   210          1
   211          8
   212         19
   213         16
   214          3
   215          2
   216          1
   225          4
   226          1
   227         14
   228         18
   229          8
   230          3
   240          9
   241         20
   242          9
   243          1
   245          8
   246          1
   256          1
   257         13
   258          5
   259          2
   275        464
   276         69
   277          9
   278          1