##TITLE=Library Entry 83435
##JCAMP-DX=Revision 4.10 
##DATA TYPE=MASS SPECTRUM
##SAMPLE DESCRIPTION=Chemical Concepts
##NAMES=HP
##CAS NAME=3-Chloro-N-(4-heptyloxybenzyl)propinamide
##MOLFORM=C17H26ClNO2
##CAS REGISTRY NO=2364-84-3
##MP= -300
##BP= -300
##MW= 311
##$RETENTION INDEX=0
##$CONDENSED SPECTRUM=NO
##NPOINTS= 109
##XYDATA=(XY..XY) 1 
    33          5
    34          8
    36         92
    37          7
    38         32
    39        136
    40        334
    41        363
    43        468
    44         38
    48          6
    49          8
    50         19
    51         34
    53         64
    55        348
    57        567
    58          8
    61          4
    62          9
    63        225
    64         26
    65        119
    66         25
    67         30
    68         15
    69         35
    70         19
    71         13
    72         19
    73          9
    75          4
    77        164
    78        114
    79         40
    80         10
    81          9
    83          7
    84         12
    89         95
    90         43
    91        127
    92         26
    93         68
    94         70
    95        112
    96         11
    97          5
   102          5
   103         14
   104         33
   105         63
   106        322
   107        999
   108         84
   109          7
   115          5
   119         39
   120         94
   121        161
   122        431
   123        252
   124         28
   127          8
   131          5
   132          5
   133         52
   134         36
   136         43
   137          8
   146          8
   147         19
   148         46
   149         24
   150         17
   160         20
   161         13
   164        261
   165         42
   166         10
   175          8
   176         15
   177         15
   178         89
   179         24
   196         25
   198          8
   203          6
   205         43
   206         11
   212         54
   213        467
   214         70
   215        156
   216         15
   220         69
   221         17
   246          9
   262          9
   275         11
   277         13
   278          6
   297         26
   299          5
   309          5
   311        431
   312         85
   313        135
   314         22