##TITLE=Library Entry 1938
##JCAMP-DX=Revision 4.10 
##DATA TYPE=MASS SPECTRUM
##SAMPLE DESCRIPTION=NIST Mass Spectrometry Data Center, 1994
##NAMES=HP
##CAS NAME=Nitrosothymol
##MOLFORM=C10H13NO2
##CAS REGISTRY NO=2364-54-7
##MP= -300
##BP= -300
##MW= 179
##$RETENTION INDEX=0
##$CONDENSED SPECTRUM=NO
##NPOINTS= 123
##XYDATA=(XY..XY) 1 
    12          6
    14         16
    15        178
    16         14
    17         21
    18         25
    19         11
    26         54
    27        394
    28        166
    29         97
    30         73
    37         43
    38        160
    39        999
    40        247
    41        456
    42        140
    43        178
    44         29
    45          5
    47         12
    49         11
    50        133
    51        336
    52        270
    53        416
    54         81
    55        113
    56         16
    57         12
    58          5
    59         41
    60          6
    61         21
    62         54
    63        163
    64        112
    65        315
    66        202
    67        289
    68        117
    69         55
    70         14
    73          8
    74         22
    75         49
    76         58
    77        343
    78        164
    79        200
    80        127
    81         56
    82         27
    83         11
    84          7
    85          7
    86          8
    87         11
    88         14
    89         72
    90          7
    91        517
    92        135
    93        262
    94        297
    95         66
    96         23
    97          7
    99          7
   101         11
   102         32
   103         96
   104         91
   105        149
   106        132
   107        160
   108        111
   109         68
   110         37
   115        163
   116        124
   117        180
   118        151
   119        112
   120        203
   121        151
   122        180
   123         42
   124          9
   127         31
   128         55
   129         40
   130         71
   131         35
   132         80
   133        121
   134        143
   135        141
   136        116
   137         25
   138         46
   142         23
   143         47
   144        105
   145         32
   146        162
   147        233
   148        442
   149         78
   150         84
   151        244
   152         23
   160         60
   161         32
   162        222
   163        191
   164        302
   165         58
   166          8
   179        785
   180         91
   181          5