##TITLE=Library Entry 69021
##JCAMP-DX=Revision 4.10 
##DATA TYPE=MASS SPECTRUM
##SAMPLE DESCRIPTION=Div. of Experiment Therapeutics WRAIR, WRAMC, Washingto
n DC 20307
##NAMES=HP
##CAS NAME=1-[p-Nitrophenyl]-3-[2-pyrimidyl]urea
##MOLFORM=C11H9N5O3
##CAS REGISTRY NO=23656-31-7
##MP= -300
##BP= -300
##MW= 259
##$RETENTION INDEX=0
##$CONDENSED SPECTRUM=NO
##NPOINTS= 91
##XYDATA=(XY..XY) 1 
    41         40
    42         32
    43         36
    44          6
    45          1
    46          1
    49          1
    50         14
    51         11
    52         32
    53         50
    54          6
    55          1
    61          2
    62          9
    63         43
    64         33
    65         42
    66         10
    67         36
    68        296
    69         23
    74          5
    75         13
    76         15
    77          4
    78         11
    79        142
    80         20
    81          3
    84          1
    86          1
    88          1
    89          3
    90         41
    91         15
    92         41
    93          7
    94         44
    95        999
    96         68
    97          3
   105          1
   106         20
   108         70
   109          5
   117          1
   118         13
   119          3
   120          2
   121         17
   122        221
   123         13
   124          0
   125          5
   127          3
   130          1
   133          0
   134         10
   135          0
   137          6
   138        232
   139         16
   140          1
   148         30
   149          6
   150         20
   151          4
   164          2
   165          4
   167          0
   170          3
   171          2
   183          1
   185          0
   211          2
   212         10
   213          5
   216          5
   217          3
   241          0
   242          3
   243         10
   244          2
   256          3
   257          2
   258          4
   259        963
   260        190
   261         22
   262          3