##TITLE=Library Entry 17984
##JCAMP-DX=Revision 4.10 
##DATA TYPE=MASS SPECTRUM
##SAMPLE DESCRIPTION=Japan AIST/NIMC Database- Spectrum MS-NW-5854
##NAMES=HP
##CAS NAME=Acetic acid, mercapto-, methyl ester
##MOLFORM=C3H6O2S
##CAS REGISTRY NO=2365-48-2
##MP= -300
##BP= -300
##MW= 106
##$RETENTION INDEX=791
##$CONDENSED SPECTRUM=NO
##NPOINTS= 62
##XYDATA=(XY..XY) 1 
    12          2
    13          8
    14         39
    15        278
    16          4
    17          3
    18          9
    25          1
    26          3
    27          9
    28         36
    29         67
    30         10
    31         38
    32         12
    33         46
    34         11
    35          5
    36          1
    40          1
    41         10
    42        141
    43         36
    44         35
    45        250
    46        336
    47        999
    48         40
    49         49
    51          2
    57          3
    58          5
    59        317
    60         14
    61         19
    62          1
    63          8
    64          4
    71          1
    72          3
    73          7
    74        691
    75        134
    76         36
    77         11
    78          9
    79          1
    84          2
    86          2
    87          1
    88          2
    89          1
    91         10
    92          2
    93          2
   103          1
   104          5
   105          6
   106        621
   107         30
   108         30
   109          2