##TITLE=Library Entry 98141
##JCAMP-DX=Revision 4.10 
##DATA TYPE=MASS SPECTRUM
##SAMPLE DESCRIPTION=Institute of Organic Chemistry, Novosibirsk, USSR 1988
##NAMES=HP
##CAS NAME=5-Methyl-2,6-diphenyl-5,6-dihydro-4H-1,3-oxazine
##MOLFORM=C17H17NO
##CAS REGISTRY NO=23665-17-0
##MP= -300
##BP= -300
##MW= 251
##$RETENTION INDEX=0
##$CONDENSED SPECTRUM=NO
##NPOINTS= 105
##XYDATA=(XY..XY) 1 
    12         13
    13          6
    14         55
    15         69
    16         10
    17         15
    18         74
    26          6
    27         17
    28        148
    29        161
    30         87
    31         76
    32         78
    36          5
    38          7
    39         38
    40         52
    41         74
    42         65
    43        117
    44         40
    45         35
    46         17
    50         17
    51         67
    52         13
    53         11
    54          7
    55         28
    56         29
    57         43
    58          7
    62          3
    63          9
    64          6
    65         16
    66          4
    67          1
    68          8
    69         24
    70         16
    71         21
    72          3
    73          7
    74          7
    75         11
    76         30
    77        235
    78         40
    79         13
    81         13
    82          7
    83         14
    84         10
    85          9
    89         13
    90         10
    91         85
    92         14
    93          6
    94          4
    95         11
    96          6
    97         14
    98         25
    99          7
   102         11
   103         55
   104        223
   105        471
   106         45
   107         11
   108          5
   109         10
   110          4
   111         11
   112          6
   113          8
   115         63
   116         43
   117        396
   118        999
   119         99
   120          7
   121          4
   122         17
   123          8
   130         18
   131          7
   132          9
   133          4
   134          9
   135          6
   144          6
   145         12
   146         21
   147          7
   222          4
   223          3
   236          7
   250         24
   251        312
   252         63
   253          8