##TITLE=Library Entry 79310
##JCAMP-DX=Revision 4.10 
##DATA TYPE=MASS SPECTRUM
##SAMPLE DESCRIPTION=Institute of Organic Chemistry, Novosibirsk, USSR 1988
##NAMES=HP
##CAS NAME=5,6-Dimethyl-2-phenyl-5,6-dihydro-4H-1,3-oxazine
##MOLFORM=C12H15NO
##CAS REGISTRY NO=23665-19-2
##MP= -300
##BP= -300
##MW= 189
##$RETENTION INDEX=0
##$CONDENSED SPECTRUM=NO
##NPOINTS= 94
##XYDATA=(XY..XY) 1 
    12          7
    13          4
    14         26
    15         43
    16         25
    17         11
    18         55
    24          4
    25          7
    26         32
    27         60
    28         80
    29         65
    30         28
    31         60
    32         17
    36          3
    37          8
    38         10
    39         81
    40         19
    41        191
    42         50
    43         90
    44          8
    45          5
    46          1
    49          5
    50         41
    51        121
    52         20
    53         16
    54          9
    55         45
    56        171
    57         41
    58          7
    59          3
    60          9
    61          5
    62          3
    63          9
    64          6
    65          7
    66          2
    67         11
    68          8
    69         15
    70          9
    71         15
    72          4
    73          5
    74          9
    75         14
    76         50
    77        403
    78         31
    79          6
    80          3
    81          9
    82         14
    83         12
    84         10
    85          9
    89         11
    90          8
    91         23
    92          4
    93          3
    94          3
    95          6
    96          4
    97         10
    98          4
    99          3
   103         58
   104        161
   105        999
   106         71
   107          7
   109          5
   110          6
   111          7
   117         13
   118          5
   121          8
   122          5
   134        342
   135         30
   174          4
   188         38
   189        253
   190         35
   191          4