##TITLE=Library Entry 16283
##JCAMP-DX=Revision 4.10 
##DATA TYPE=MASS SPECTRUM
##SAMPLE DESCRIPTION=Dr. Jiri Zamecnik, DCIEM, North York, Canada, GP Librar
y
##NAMES=HP
##CAS NAME=2,4-Dimethoxyamphetamine
##MOLFORM=C11H17NO2
##CAS REGISTRY NO=23690-13-3
##MP= -300
##BP= -300
##MW= 195
##$RETENTION INDEX=0
##$CONDENSED SPECTRUM=NO
##NPOINTS= 25
##XYDATA=(XY..XY) 1 
    44        999
    45         27
    65         32
    77         56
    78         39
    79         16
    90         12
    91         69
    92          9
   105         11
   106         11
   107         12
   120         12
   121        121
   122         15
   123          9
   137         32
   138          5
   151        124
   152        615
   153         59
   179          4
   180          5
   194          5
   195          3