##TITLE=Library Entry 54671
##JCAMP-DX=Revision 4.10 
##DATA TYPE=MASS SPECTRUM
##SAMPLE DESCRIPTION=Japan AIST/NIMC Database- Spectrum MS-IW-2910
##NAMES=HP
##CAS NAME=1-Pentanol, 2,2-dimethyl-
##MOLFORM=C7H16O
##CAS REGISTRY NO=2370-12-9
##MP= -300
##BP= -300
##MW= 116
##$RETENTION INDEX=859
##$CONDENSED SPECTRUM=NO
##NPOINTS= 63
##XYDATA=(XY..XY) 1 
    15          4
    18          2
    26          4
    27        101
    28         17
    29        120
    30          4
    31         75
    32          2
    33          2
    37          1
    38          5
    39         94
    40         13
    41        302
    42         30
    43        976
    44         50
    45         95
    46          2
    50          4
    51          9
    52          3
    53         23
    54          6
    55        276
    56        112
    57        265
    58         14
    59         44
    60          1
    62          1
    63          1
    65          3
    66          1
    67          9
    68          4
    69        101
    70         15
    71         17
    72         19
    73        152
    74          7
    77          2
    78          2
    79          2
    81         14
    82          2
    83         62
    84        276
    85        999
    86         71
    87          2
    91          1
    96         14
    97          3
    98          1
    99          1
   100          1
   101         10
   102          1
   114          1
   115          1