##TITLE=Library Entry 52411
##JCAMP-DX=Revision 4.10 
##DATA TYPE=MASS SPECTRUM
##SAMPLE DESCRIPTION=Chemical Concepts
##NAMES=HP
##CAS NAME=6-Undecanol
##MOLFORM=C11H24O
##CAS REGISTRY NO=23708-56-7
##MP= -300
##BP= -300
##MW= 172
##$RETENTION INDEX=1281
##$CONDENSED SPECTRUM=NO
##NPOINTS= 44
##XYDATA=(XY..XY) 1 
    27         75
    28         16
    29        146
    30          5
    31         34
    37          5
    39         46
    40          8
    41        266
    42         32
    43        148
    44         63
    45         33
    53         13
    54         10
    55        725
    56         73
    57         95
    58         17
    59         17
    67         16
    68          7
    69         32
    70         18
    71         21
    72         11
    73          4
    81          5
    82         31
    83        999
    84         61
    85          5
    97         10
    98          4
    99          4
   100         34
   101        489
   102         25
   111          4
   125          2
   141          1
   154         35
   155          4
   171          1