##TITLE=Library Entry 24010
##JCAMP-DX=Revision 4.10 
##DATA TYPE=MASS SPECTRUM
##SAMPLE DESCRIPTION=M.C. HAMMING CONTINENTAL OIL CO., PONCA CITY, OKLA, USA
##NAMES=HP
##CAS NAME=1-Hexanol, 2,2-dimethyl-
##MOLFORM=C8H18O
##CAS REGISTRY NO=2370-13-0
##MP= -300
##BP= -300
##MW= 130
##$RETENTION INDEX=0
##$CONDENSED SPECTRUM=NO
##NPOINTS= 78
##XYDATA=(XY..XY) 1 
    13          1
    14          6
    15         29
    16          2
    17          3
    18         11
    19          3
    25          0
    26         12
    27        175
    28         44
    29        199
    30          8
    31        106
    32          3
    33          3
    37          2
    38          6
    39        118
    40         21
    41        296
    42         32
    43        400
    44         16
    45         51
    46          1
    47          0
    48          0
    50          4
    51          9
    52          4
    53         27
    54          9
    55        230
    56         92
    57        999
    58         49
    59         15
    60          0
    62          0
    63          1
    64          0
    65          2
    66          1
    67          7
    68          4
    69         52
    70         42
    71         37
    72         13
    73         74
    74          3
    75          0
    77          1
    78          0
    79          1
    80          0
    81          2
    82          2
    83         22
    84          4
    85          4
    86          0
    87          1
    88          0
    89          0
    91          0
    95          0
    96          0
    97         21
    98         80
    99        225
   100         16
   101          1
   111          0
   112          1
   113          0
   130          0