##TITLE=Library Entry 39907
##JCAMP-DX=Revision 4.10 
##DATA TYPE=MASS SPECTRUM
##SAMPLE DESCRIPTION=Japan AIST/NIMC Database- Spectrum MS-IW-2356
##NAMES=HP
##CAS NAME=2-Ethoxyethyl methacrylate
##MOLFORM=C8H14O3
##CAS REGISTRY NO=2370-63-0
##MP= -300
##BP= -300
##MW= 158
##$RETENTION INDEX=0
##$CONDENSED SPECTRUM=NO
##NPOINTS= 61
##XYDATA=(XY..XY) 1 
    14          2
    15         21
    16          1
    19          9
    25          1
    26         13
    27         83
    28         46
    29        169
    30          7
    31        423
    32          4
    33          1
    37          4
    38         13
    39        189
    40         53
    41        705
    42         37
    43        185
    44        386
    45        209
    46          5
    53          6
    54          6
    55         31
    56         19
    57         16
    58         12
    59        668
    60         24
    61          6
    66          1
    67          2
    68         22
    69        991
    70         60
    71         14
    72        999
    73         65
    74          4
    81          1
    82          8
    83          2
    84         19
    85         21
    86         49
    87         26
    88          1
    89         38
    90          2
    96          9
    97          3
    99         90
   100         55
   101          4
   112          3
   113        105
   114         83
   115         52
   116          4