##TITLE=Library Entry 24304
##JCAMP-DX=Revision 4.10 
##DATA TYPE=MASS SPECTRUM
##SAMPLE DESCRIPTION=M.C. HAMMING CONTINENTAL OIL CO., PONCA CITY, OKLA, USA
##NAMES=HP
##CAS NAME=1-Decanol, 2,2-dimethyl-
##MOLFORM=C12H26O
##CAS REGISTRY NO=2370-15-2
##MP= -300
##BP= -300
##MW= 186
##$RETENTION INDEX=1911
##$CONDENSED SPECTRUM=NO
##NPOINTS= 110
##XYDATA=(XY..XY) 1 
    14          2
    15         14
    16          1
    17          1
    18          3
    19          2
    26         18
    27        274
    28         64
    29        396
    30         12
    31        130
    32          4
    33          3
    37          2
    38          4
    39        140
    40         28
    41        530
    42         80
    43        773
    44         29
    45         52
    46          1
    50          2
    51          7
    52          4
    53         43
    54         18
    55        357
    56        196
    57        999
    58         51
    59         15
    63          2
    65          5
    66          3
    67         25
    68         14
    69        211
    70         87
    71        533
    72         51
    73         89
    74          4
    77          4
    78          1
    79          4
    80          1
    81         11
    82          9
    83         96
    84         32
    85        400
    86         27
    87          5
    88         39
    89          2
    91          2
    93          1
    94          0
    95          5
    96          6
    97         57
    98         32
    99        151
   100         11
   101          5
   102          2
   103          0
   109          2
   110          3
   111         26
   112         14
   113         66
   114          6
   115          3
   116          1
   117          0
   123          1
   124          1
   125          9
   126         18
   127         25
   128          2
   129          3
   130          1
   131          0
   138          1
   139         11
   140          5
   141          9
   142          1
   143          9
   144         20
   145          2
   153          2
   154        108
   155        323
   156         37
   157          4
   158          1
   167          1
   168          3
   169          5
   170          1
   171          5
   172          2
   173          2
   185          1