##TITLE=Library Entry 10638
##JCAMP-DX=Revision 4.10 
##DATA TYPE=MASS SPECTRUM
##SAMPLE DESCRIPTION=Institute of Chemistry, SAS, Bratislava, Slovakia
##NAMES=HP
##CAS NAME=Methyl-3,5-di-O-acetyl-2-deoxy.alpha.d-erythro-pentofuranoside
##MOLFORM=C10H16O6
##CAS REGISTRY NO=23701-40-8
##MP= -300
##BP= -300
##MW= 232
##$RETENTION INDEX=0
##$CONDENSED SPECTRUM=NO
##NPOINTS= 24
##XYDATA=(XY..XY) 1 
    43        999
    45         18
    55         12
    57         15
    58         19
    59         99
    69         31
    70         37
    71        151
    73         12
    81        214
    84         19
    85         18
    87        151
    99        623
   100         18
   102          6
   103         38
   130         44
   140         24
   159        175
   172         12
   201          7
   231          1