##TITLE=Library Entry 7855
##JCAMP-DX=Revision 4.10 
##DATA TYPE=MASS SPECTRUM
##SAMPLE DESCRIPTION=M.C. HAMMING CONTINENTAL OIL CO., PONCA CITY, OKLA, USA
##NAMES=HP
##CAS NAME=1-Octanol, 2,2-dimethyl-
##MOLFORM=C10H22O
##CAS REGISTRY NO=2370-14-1
##MP= -300
##BP= -300
##MW= 158
##$RETENTION INDEX=0
##$CONDENSED SPECTRUM=NO
##NPOINTS= 109
##XYDATA=(XY..XY) 1 
    12          0
    13          0
    14          2
    15         23
    16          1
    17          5
    18         19
    19          3
    25          1
    26         25
    27        358
    28         73
    29        443
    30         15
    31        201
    32          5
    33          2
    36          0
    37          3
    38          8
    39        183
    40         36
    41        546
    42         78
    43        999
    44         37
    45         72
    46          2
    47          0
    49          0
    50          4
    51         11
    52          5
    53         47
    54         14
    55        453
    56        198
    57        826
    58         43
    59         17
    60          0
    62          0
    63          2
    64          0
    65          5
    66          2
    67         20
    68         14
    69        195
    70         78
    71        794
    72         62
    73        103
    74          5
    75          0
    77          4
    78          1
    79          4
    80          1
    81          7
    82          6
    83         73
    84         30
    85        466
    86         31
    87          3
    88         11
    89          0
    91          1
    93          0
    95          2
    96          2
    97         26
    98         23
    99         17
   100          2
   101          2
   102          0
   109          1
   110          2
   111         28
   112          7
   113          8
   114          1
   115          6
   116          0
   117          0
   123          0
   124          0
   125          4
   126        131
   127        377
   128         36
   129          2
   130          0
   138          0
   139          0
   140          3
   141          5
   142          1
   143          4
   144          5
   145          0
   153          0
   154          1
   155          4
   156          0
   157          1
   158          0