##TITLE=Library Entry 68398
##JCAMP-DX=Revision 4.10 
##DATA TYPE=MASS SPECTRUM
##SAMPLE DESCRIPTION=Japan AIST/NIMC Database- Spectrum MS-NW-3445
##NAMES=HP
##CAS NAME=2-Methylisoborneol
##MOLFORM=C11H20O
##CAS REGISTRY NO=2371-42-8
##MP= -300
##BP= -300
##MW= 168
##$RETENTION INDEX=1197
##$CONDENSED SPECTRUM=NO
##NPOINTS= 98
##XYDATA=(XY..XY) 1 
    15          9
    17          3
    18         14
    26          3
    27         50
    28          9
    29         45
    30          1
    31          6
    32          1
    38          3
    39         69
    40         12
    41        162
    42         11
    43        223
    44          6
    45         10
    50          5
    51         14
    52          7
    53         45
    54          9
    55        102
    56         10
    57         40
    58         25
    59         71
    60          3
    62          2
    63          5
    64          2
    65         17
    66          7
    67         85
    68         20
    69        114
    70         16
    71         26
    72          6
    77         35
    78          8
    79         73
    80         14
    81         43
    82         30
    83         42
    84         59
    85         92
    86         33
    87          2
    89          1
    91         55
    92          9
    93         98
    94         48
    95        999
    96         88
    97         40
    98         10
    99          3
   103          2
   104          1
   105         20
   106         27
   107        245
   108        205
   109         55
   110        146
   111         62
   112          8
   113          7
   114          1
   115          2
   117          1
   119          6
   120          4
   121         45
   122         22
   123          5
   124          2
   125         25
   126          3
   127          2
   133          1
   134          1
   135        127
   136         13
   137          1
   139          2
   149          1
   150         65
   151          9
   152          1
   153         14
   154          2
   168         20
   169          3