##TITLE=Library Entry 9116
##JCAMP-DX=Revision 4.10 
##DATA TYPE=MASS SPECTRUM
##SAMPLE DESCRIPTION=CONTINENTAL OIL CO., PONCA CITY, OKLA, USA
##NAMES=HP
##CAS NAME=2-Heptanone, 3-methyl-
##MOLFORM=C8H16O
##CAS REGISTRY NO=2371-19-9
##MP= -300
##BP= -300
##MW= 128
##$RETENTION INDEX=937
##$CONDENSED SPECTRUM=NO
##NPOINTS= 77
##XYDATA=(XY..XY) 1 
    13          2
    14         13
    15         96
    16          2
    17          2
    18          7
    25          0
    26         16
    27        169
    28         44
    29        137
    30          3
    31          2
    32          0
    37          2
    38          7
    39         92
    40         16
    41        161
    42         55
    43        999
    44         30
    45          7
    49          0
    50          4
    51          7
    52          2
    53         15
    54          6
    55         59
    56         28
    57        108
    58          9
    59          1
    60          0
    61          0
    62          0
    63          1
    64          0
    65          1
    66          0
    67          5
    68          1
    69         16
    70          2
    71         38
    72        404
    73         22
    74          1
    77          1
    78          0
    79          1
    80          0
    81          1
    82          0
    83          2
    84         10
    85         73
    86          7
    87          0
    91          0
    95          1
    96          0
    97          0
    98          0
    99         15
   100          1
   109          0
   110          0
   111          0
   112          0
   113          1
   114          0
   126          0
   127          0
   128          9
   129          0