##TITLE=Library Entry 36194
##JCAMP-DX=Revision 4.10 
##DATA TYPE=MASS SPECTRUM
##SAMPLE DESCRIPTION=Exported from NIST MS Search
##NAMES=HP
##CAS NAME=2-Buten-1-one, 1-(2,6,6-trimethyl-1,3-cyclohexadien-1-yl)-, (E)-
##MOLFORM=C13H18O
##CAS REGISTRY NO=23726-93-4
##MP= -300
##BP= -300
##MW= 190
##$RETENTION INDEX=1386
##$CONDENSED SPECTRUM=NO
##NPOINTS= 50
##XYDATA=(XY..XY) 1 
    27         12
    29         10
    39        100
    40         14
    41        206
    42         10
    43         20
    44         14
    51         27
    52         10
    53         32
    55         25
    63         14
    65         35
    66          8
    67         13
    69        999
    70         48
    77         80
    78         18
    79         67
    80         10
    81         10
    91        100
    92          9
    93         32
   103         23
   105        180
   106         16
   115         14
   117          7
   119         40
   120         90
   121        600
   122         60
   128          6
   129          6
   131         10
   133         18
   142          7
   145          8
   147         16
   149         17
   157         10
   159          4
   161          8
   175         65
   176          8
   190        160
   191         23