##TITLE=Library Entry 82513
##JCAMP-DX=Revision 4.10 
##DATA TYPE=MASS SPECTRUM
##SAMPLE DESCRIPTION=Chemical Concepts
##NAMES=HP
##CAS NAME=2-(Methoxycarbonyl)phenyl nicotinate
##MOLFORM=C14H11NO4
##CAS REGISTRY NO=23723-12-8
##MP= -300
##BP= -300
##MW= 257
##$RETENTION INDEX=0
##$CONDENSED SPECTRUM=NO
##NPOINTS= 92
##XYDATA=(XY..XY) 1 
    33          3
    34          1
    37         13
    38         38
    39         87
    41         34
    42          6
    44         13
    45          2
    46          1
    49         12
    50        102
    51        346
    52         38
    53         36
    55          4
    57          3
    59         13
    61          7
    62         16
    63        102
    64         73
    65         41
    66          7
    67          6
    68          1
    69          2
    70          1
    71          1
    72          2
    74          9
    75          9
    76         14
    78        572
    79         24
    80          5
    81          1
    83          1
    84          1
    85          1
    86          1
    87          1
    88          1
    89          1
    92        110
    93         11
    95         25
    96          2
   101          1
   102          1
   106        999
   109          1
   112          1
   113          2
   114          4
   115          3
   116          1
   118          1
   120         50
   121         40
   123          9
   124          1
   128          1
   136          1
   137          1
   140          3
   141          1
   142          1
   149          1
   151          3
   152          4
   153          1
   169          2
   170          1
   171          1
   182          1
   196          2
   198         29
   199          4
   212          2
   224          1
   226         30
   227          4
   228          1
   229          1
   240          1
   241          1
   253          1
   254          1
   257         60
   258          8
   259          1