##TITLE=Library Entry 10227
##JCAMP-DX=Revision 4.10 
##DATA TYPE=MASS SPECTRUM
##SAMPLE DESCRIPTION=Chuck Anderson, Aldrich Chemical Co.
##NAMES=HP
##CAS NAME=(S)-(+)-2,2-Dimethyl-1,3-dioxolan-4-ylmethyl p-toluenesulfonate
##MOLFORM=C13H18O5S
##CAS REGISTRY NO=23735-43-5
##MP= -300
##BP= -300
##MW= 286
##$RETENTION INDEX=0
##$CONDENSED SPECTRUM=NO
##NPOINTS= 94
##XYDATA=(XY..XY) 1 
    14          2
    15         36
    18          1
    19          0
    26          2
    27         20
    28          7
    29         35
    30          2
    31         25
    32          0
    37          0
    38          6
    39         99
    40         16
    41        124
    42         78
    43        999
    44         31
    45         11
    48          3
    50         12
    51         22
    52          7
    53          6
    55         18
    56          8
    57         50
    58          8
    59         61
    60          4
    61         24
    62          6
    63         29
    64         11
    65        119
    66          6
    67          1
    69          0
    71          9
    72         41
    73         50
    74          3
    75          1
    76          0
    77         11
    78          3
    79          4
    83         18
    84          2
    85         14
    86         34
    87          2
    89         33
    90         25
    91        479
    92         44
    93          3
    95          0
    99         10
   100          9
   101        465
   102         26
   103          3
   105          4
   107         11
   108          4
   109          1
   114          9
   115          9
   116         11
   117          1
   119          1
   121          0
   130          1
   131          0
   136          4
   139          8
   155        421
   156         35
   157         22
   158          1
   171          2
   172          7
   173         60
   174          5
   175          3
   213          1
   227          2
   256          1
   271        265
   272         35
   273         16
   274          2