##TITLE=Library Entry 16948
##JCAMP-DX=Revision 4.10 
##DATA TYPE=MASS SPECTRUM
##SAMPLE DESCRIPTION=ORMSBG,10(9)781(1975); M. E. PEACH
##NAMES=HP
##CAS NAME=1,3,5,7-Tetrathiocane
##MOLFORM=C4H8S4
##CAS REGISTRY NO=2373-00-4
##MP= -300
##BP= -300
##MW= 184
##$RETENTION INDEX=1518
##$CONDENSED SPECTRUM=NO
##NPOINTS= 45
##XYDATA=(XY..XY) 1 
    29         28
    30         14
    32        571
    33         21
    34         35
    36         17
    40         38
    41         10
    44        145
    45        999
    46        803
    47        225
    48         48
    57         21
    58         52
    59        166
    60        329
    61        118
    62         31
    64        235
    66         14
    73        166
    74         21
    76         55
    77         24
    78         80
    91         93
    92        204
    93         28
    94         17
   104         28
   105        114
   106         42
   110         35
   120         17
   123         28
   124         42
   136         17
   137         52
   138        187
   139         10
   140         17
   184        204
   185         10
   186         31