##TITLE=Library Entry 100352
##JCAMP-DX=Revision 4.10 
##DATA TYPE=MASS SPECTRUM
##SAMPLE DESCRIPTION=Japan AIST/NIMC Database- Spectrum MS-IW-4190
##NAMES=HP
##CAS NAME=5H-5-Methyl-6,7-dihydrocyclopentapyrazine
##MOLFORM=C8H10N2
##CAS REGISTRY NO=23747-48-0
##MP= -300
##BP= -300
##MW= 134
##$RETENTION INDEX=1149
##$CONDENSED SPECTRUM=NO
##NPOINTS= 63
##XYDATA=(XY..XY) 1 
    15          1
    18          1
    26         11
    27         19
    28         20
    29          5
    30          2
    37          3
    38          9
    39         46
    40         14
    41         33
    42          9
    50          7
    51         18
    52         40
    53         28
    54         26
    55          9
    56          2
    59          5
    61          1
    62          2
    63          7
    64          9
    65         49
    66         23
    67         11
    68          4
    69          1
    74          1
    75          2
    76          3
    77         21
    78        147
    79         59
    80         38
    81          7
    82          2
    90          2
    91          7
    92         89
    93         19
    94          9
    95          1
   103          1
   104          6
   105         12
   106         13
   107         22
   108          3
   116          2
   117          8
   118         48
   119        999
   120         93
   121          4
   131         22
   132         22
   133        308
   134        577
   135         56
   136          2