##TITLE=Library Entry 25857
##JCAMP-DX=Revision 4.10 
##DATA TYPE=MASS SPECTRUM
##SAMPLE DESCRIPTION=J. MADSEN,DEP. ORG. CHEM.,TECH. UNIV. DENMARK,LYNGBY,DE
NMARK
##NAMES=HP
##CAS NAME=S-Methyl 3-methylbutanethioate
##MOLFORM=C6H12OS
##CAS REGISTRY NO=23747-45-7
##MP= -300
##BP= -300
##MW= 132
##$RETENTION INDEX=938
##$CONDENSED SPECTRUM=NO
##NPOINTS= 10
##XYDATA=(XY..XY) 1 
    29        360
    39        110
    41        460
    43        250
    47         90
    57        999
    75        170
    85        780
   117         20
   132         30