##TITLE=Library Entry 48713
##JCAMP-DX=Revision 4.10 
##DATA TYPE=MASS SPECTRUM
##SAMPLE DESCRIPTION=Exported from NIST MS Search
##NAMES=HP
##CAS NAME=1,5-Pentanediol, dimethanesulfonate
##MOLFORM=C7H16O6S2
##CAS REGISTRY NO=2374-22-3
##MP= -300
##BP= -300
##MW= 260
##$RETENTION INDEX=0
##$CONDENSED SPECTRUM=NO
##NPOINTS= 74
##XYDATA=(XY..XY) 1 
    14         21
    15        380
    16         21
    17         30
    18        107
    26         30
    27        228
    28        222
    29        250
    30         20
    31         50
    32         21
    33         11
    37         11
    38         10
    39        210
    40         64
    42        129
    43         99
    44         50
    45         84
    46         20
    47         11
    48         60
    49         11
    50         11
    51         10
    53         97
    54         37
    55        419
    56        266
    57        104
    59         11
    63         42
    64         33
    65         74
    66         11
    67        299
    68        749
    69        821
    70         48
    71         11
    73         11
    77         11
    78         11
    79        999
    80         67
    81         67
    82         11
    83         11
    85        180
    86         13
    93         13
    95         13
    97        207
   106         11
   107         30
   108         11
   109        168
   110         10
   111         87
   120         13
   121          8
   122         21
   123         11
   135         20
   137         10
   148         16
   149          8
   150         11
   151          8
   175         70
   176          5
   177         11