##TITLE=Library Entry 47843
##JCAMP-DX=Revision 4.10 
##DATA TYPE=MASS SPECTRUM
##SAMPLE DESCRIPTION=J.M. MILLER,BROCK UNIVERSITY,ONTARIO,CANADA
##NAMES=HP
##CAS NAME=Silanamine, N,N,1,1-tetramethyl-1-(pentafluorophenyl)-
##MOLFORM=C10H12F5NSi
##CAS REGISTRY NO=23761-75-3
##MP= -300
##BP= -300
##MW= 269
##$RETENTION INDEX=0
##$CONDENSED SPECTRUM=NO
##NPOINTS= 102
##XYDATA=(XY..XY) 1 
    27         63
    28         94
    30         50
    31        106
    39         58
    41         58
    42        867
    43        133
    44        789
    45         89
    47        433
    49        289
    51         80
    56         39
    57        133
    58        258
    59        217
    61         61
    62         48
    63        378
    69         40
    72         30
    73         47
    74         52
    75        278
    76         59
    77        999
    78         83
    79        119
    80         59
    81        500
    82         36
    83         22
    85        111
    86         40
    87         40
    90         63
    91         51
    92         59
    93         90
    94         28
    95         56
    98         42
    99        156
   101        293
   102        162
   105         46
   106        867
   107        489
   108         81
   110         50
   111        141
   113         60
   117         49
   119         78
   120         43
   123         41
   124        138
   125        456
   126         76
   127         72
   128         20
   129        102
   132         24
   134         77
   137         40
   139         59
   143         63
   145        800
   146         83
   147         26
   148         34
   159        116
   160         14
   161         48
   163         38
   168         89
   170         30
   185         70
   186         11
   191         42
   192         12
   193         10
   209         34
   211         28
   225         56
   226         13
   227         12
   229         28
   238         57
   239         52
   240         21
   244         33
   252         43
   253         17
   254        700
   255        130
   256         42
   268         40
   269        999
   270        207
   271         56