##TITLE=Library Entry 1023
##JCAMP-DX=Revision 4.10 
##DATA TYPE=MASS SPECTRUM
##SAMPLE DESCRIPTION=Chuck Anderson, Aldrich Chemical Co.
##NAMES=HP
##CAS NAME=N-(n-Propyl)-1,3-propanediamine
##MOLFORM=C6H16N2
##CAS REGISTRY NO=23764-31-0
##MP= -300
##BP= -300
##MW= 116
##$RETENTION INDEX=0
##$CONDENSED SPECTRUM=NO
##NPOINTS= 46
##XYDATA=(XY..XY) 1 
    15         12
    17          3
    18         45
    26         11
    27        120
    28        205
    29         65
    30        999
    31         27
    32          1
    38          2
    39         46
    40          9
    41        184
    42        130
    43        196
    44        987
    45         53
    52          1
    54         12
    55          5
    56        156
    57        100
    58        112
    59         22
    60         81
    61          2
    67          3
    68         11
    69          2
    70        307
    71         31
    72        551
    73         35
    74          4
    82          0
    84         76
    85         10
    86         34
    87        139
    88          7
    98         10
    99        339
   100         23
   116         11
   117          2