##TITLE=Library Entry 61584
##JCAMP-DX=Revision 4.10 
##DATA TYPE=MASS SPECTRUM
##SAMPLE DESCRIPTION=Humboldt-Universitat zu Berlin, Department of Chemistry
, Analytical Group
##NAMES=HP
##CAS NAME=2-Azido-5-(4-methoxyphenyl)-[1,3,4]oxadiazole
##MOLFORM=C9H7N5O2
##CAS REGISTRY NO=23766-22-5
##MP= -300
##BP= -300
##MW= 217
##$RETENTION INDEX=0
##$CONDENSED SPECTRUM=NO
##NPOINTS= 108
##XYDATA=(XY..XY) 1 
    12         19
    13          4
    14         27
    15         74
    16          3
    17          9
    18         35
    24          0
    26         67
    27         98
    28         82
    29         17
    30          8
    31          3
    32          1
    36          2
    37         32
    38         78
    39        242
    40         28
    41         54
    42         40
    43         25
    45        103
    47          1
    48          1
    49         14
    50        128
    51        146
    52         43
    53         25
    54         57
    55          3
    56          2
    57          2
    59         36
    61         32
    62         89
    63        225
    64         89
    65        388
    66         28
    67          4
    69          1
    70         11
    71          1
    73          9
    74         46
    75         44
    76         53
    77        105
    78         18
    79          5
    80          1
    84          1
    85          8
    86         14
    87         15
    88         11
    89        125
    90         93
    91        999
    92        125
    93          6
    94          1
    97          1
    98          2
    99          2
   101          3
   102         16
   103         16
   104          9
   105          3
   106          1
   107         24
   108          2
   114          1
   115          2
   116         36
   117         31
   119        807
   120         77
   121          5
   130          2
   131          5
   132          8
   133          5
   135        107
   136         11
   137          1
   138          3
   140          1
   144          2
   145         26
   146          2
   159          1
   160          2
   161          5
   175          3
   176          2
   194          1
   196          0
   199          0
   201         56
   202          7
   203          0
   217          5
   218          0