##TITLE=Library Entry 80511
##JCAMP-DX=Revision 4.10 
##DATA TYPE=MASS SPECTRUM
##SAMPLE DESCRIPTION=Exported from NIST MS Search
##NAMES=HP
##CAS NAME=Spiro[1,4,2-dioxazole-5,5'(4'H)-naphth[2,1-d]isoxazol]-4'-one, 3,
3'-diphenyl-
##MOLFORM=C24H14N2O4
##CAS REGISTRY NO=23767-17-1
##MP= -300
##BP= -300
##MW= 394
##$RETENTION INDEX=0
##$CONDENSED SPECTRUM=NO
##NPOINTS= 67
##XYDATA=(XY..XY) 1 
    28         52
    39         20
    50         74
    51        154
    62         34
    63         52
    64         72
    65         14
    74         22
    75         32
    76        460
    77        446
    78         36
    89         80
    90         28
    91        100
    92         12
   102         24
   103        134
   104        551
   105        999
   106         80
   119        212
   120         24
   121         32
   143         12
   144         20
   164         36
   165         12
   172        124
   173         20
   174         12
   175         14
   190         94
   191         46
   192         12
   203         96
   204         36
   205         12
   219        272
   220         52
   221         12
   222         10
   246         24
   247        200
   248         52
   249         10
   263         26
   274         18
   275         54
   276         10
   277         10
   291        420
   292         92
   293         30
   321         36
   322         20
   336         32
   337         22
   338         36
   350         16
   351         40
   364        120
   365         66
   366         50
   394         94
   395         32