##TITLE=Library Entry 114862
##JCAMP-DX=Revision 4.10 
##DATA TYPE=MASS SPECTRUM
##SAMPLE DESCRIPTION=Exported from NIST MS Search
##NAMES=HP
##CAS NAME=Spiro[1,4,2-dioxazole-5,1'(2'H)-naphthalen]-2'-one, 3-phenyl-
##MOLFORM=C17H11NO3
##CAS REGISTRY NO=23767-21-7
##MP= -300
##BP= -300
##MW= 277
##$RETENTION INDEX=0
##$CONDENSED SPECTRUM=NO
##NPOINTS= 47
##XYDATA=(XY..XY) 1 
    39         32
    50         86
    51        136
    52         38
    62         28
    63         68
    64         46
    65         12
    74         48
    75         76
    76        248
    77        352
    78         36
    79         18
    87         16
    88         16
    89         20
    90         12
    91         68
   101         56
   102        843
   103        336
   104         96
   105        641
   106         48
   118         28
   119        140
   120         14
   121         40
   122         10
   129         52
   130        999
   131        100
   132         14
   133        102
   134         14
   144         24
   146        130
   147         12
   158         10
   172         12
   173         30
   174        308
   175         34
   189         16
   277         36
   278         12