##TITLE=Library Entry 43719
##JCAMP-DX=Revision 4.10 
##DATA TYPE=MASS SPECTRUM
##SAMPLE DESCRIPTION=Institute of Organic Chemistry, Novosibirsk, USSR 1988
##NAMES=HP
##CAS NAME=Methyl 14-methoxyhexadecanoate
##MOLFORM=C18H36O3
##CAS REGISTRY NO=237742-54-0
##MP= -300
##BP= -300
##MW= 300
##$RETENTION INDEX=0
##$CONDENSED SPECTRUM=NO
##NPOINTS= 128
##XYDATA=(XY..XY) 1 
    39          9
    41        116
    42         13
    43         39
    45        115
    46          4
    53          9
    54         10
    55        143
    56         23
    57         31
    58         20
    59         15
    61          5
    65          5
    67         41
    68         10
    69         89
    70         11
    71         86
    72         52
    73        999
    74         75
    75         15
    79          7
    80          2
    81         49
    82         10
    83         54
    84         10
    85         17
    86          7
    87         16
    88          6
    91          3
    93          7
    94          1
    95         52
    96         10
    97         46
    98         13
    99          3
   101          6
   105          5
   107         16
   108          4
   109         35
   110         13
   111         22
   112          2
   113          0
   114          4
   115          4
   117          3
   119          5
   120          2
   121         11
   123         27
   124          6
   125         16
   126          3
   127          4
   128          3
   129          7
   131          1
   133          5
   134          5
   135         10
   136          6
   137          5
   139          8
   141          5
   142          4
   143         12
   145          4
   147          8
   148          5
   151         10
   152          3
   153          6
   155          4
   157          2
   161          7
   163          6
   165          8
   166          2
   167          4
   168          4
   169          5
   171          5
   177          4
   179          4
   180          4
   181          4
   183          5
   185          5
   189         31
   190          6
   191          4
   193          3
   194          5
   195          4
   197          4
   206          4
   207         15
   208          2
   209          0
   215          3
   219          7
   228          3
   236         10
   237         12
   238          4
   239         76
   240         13
   241          4
   243          5
   251          3
   253          3
   255          3
   266          3
   268          4
   269         12
   270          6
   271        242
   272         38
   273          6
   285          3