##TITLE=Library Entry 17114
##JCAMP-DX=Revision 4.10 
##DATA TYPE=MASS SPECTRUM
##SAMPLE DESCRIPTION=NIST Mass Spectrometry Data Center, 2007
##NAMES=HP
##CAS NAME=2,5,8,11,14-Pentaoxahexadecan-16-ol
##MOLFORM=C11H24O6
##CAS REGISTRY NO=23778-52-1
##MP= -300
##BP= -300
##MW= 252
##$RETENTION INDEX=1786
##$CONDENSED SPECTRUM=NO
##NPOINTS= 83
##XYDATA=(XY..XY) 1 
    14          1
    15         23
    16          1
    17          1
    19         12
    26          5
    27         39
    28         77
    29        147
    30         15
    31        133
    32          3
    33          5
    39          2
    40          1
    41         19
    42         25
    43        156
    44        112
    45        999
    46         24
    47          3
    55          1
    56          3
    57         26
    58        287
    59        846
    60         33
    61         10
    62          1
    69          2
    70         19
    71         16
    72         48
    73         71
    74          7
    75         31
    76          3
    77         14
    83          1
    85          2
    86         15
    87        198
    88         80
    89        405
    90         21
    91          5
    99          2
   100          4
   101         41
   102         46
   103        244
   104         16
   105          4
   107          3
   113          1
   114          2
   115          6
   116          3
   117         12
   118          2
   119         14
   120          1
   121         18
   122          1
   131         30
   132          4
   133         85
   134          6
   135          1
   145          1
   146          1
   147         14
   148          2
   149          1
   151          1
   163         10
   164          1
   165          5
   175          3
   177          6
   207          2
   209          2