##TITLE=Library Entry 46371
##JCAMP-DX=Revision 4.10 
##DATA TYPE=MASS SPECTRUM
##SAMPLE DESCRIPTION=S.SKUJINS UNIV. OF SURREY, GUILDFORD, UK
##NAMES=HP
##CAS NAME=1H-Cyclopenta[b]quinoxalin-1-one, 2,3-dihydroxy-
##MOLFORM=C11H6N2O3
##CAS REGISTRY NO=23774-23-4
##MP= -300
##BP= -300
##MW= 214
##$RETENTION INDEX=0
##$CONDENSED SPECTRUM=NO
##NPOINTS= 21
##XYDATA=(XY..XY) 1 
    74        180
    75        620
    76        999
    77        170
    78         90
    88         70
    90         60
   100         60
   101        160
   102        830
   104        150
   114         50
   128        100
   129        370
   130        990
   131        230
   158        530
   159         60
   186         60
   214        780
   215        120