##TITLE=Library Entry 38952
##JCAMP-DX=Revision 4.10 
##DATA TYPE=MASS SPECTRUM
##SAMPLE DESCRIPTION=CCC 0009
##NAMES=HP
##CAS NAME=Hexaborane
##MOLFORM=B6H10
##CAS REGISTRY NO=23777-80-2
##MP= -300
##BP= -300
##MW= 76
##$RETENTION INDEX=0
##$CONDENSED SPECTRUM=NO
##NPOINTS= 63
##XYDATA=(XY..XY) 1 
    10         47
    11        174
    12         49
    13        127
    14          4
    20          1
    21          2
    22          5
    23         11
    24         17
    25         10
    26          8
    27         17
    28         34
    29          5
    30          1
    31          1
    32          5
    33          5
    34         42
    35         51
    36         31
    37         14
    38          5
    39         16
    40          4
    41         28
    42         12
    43         39
    44         61
    45         89
    46        110
    47        101
    48         54
    49         19
    50          2
    51          4
    52         16
    53         66
    54        161
    55        240
    56        264
    57        294
    58        311
    59        282
    60        149
    61         33
    62         25
    63         23
    64         81
    65        215
    66        357
    67        406
    68        423
    69        560
    70        785
    71        999
    72        845
    73        487
    74        482
    75        352
    76        231
    77          1