##TITLE=Library Entry 95384
##JCAMP-DX=Revision 4.10 
##DATA TYPE=MASS SPECTRUM
##SAMPLE DESCRIPTION=EP-1329
##NAMES=HP
##CAS NAME=Benzene, 1-bromo-4-(1-propynyl)-
##MOLFORM=C9H7Br
##CAS REGISTRY NO=23773-30-0
##MP= -300
##BP= -300
##MW= 194
##$RETENTION INDEX=0
##$CONDENSED SPECTRUM=NO
##NPOINTS= 37
##XYDATA=(XY..XY) 1 
    50         32
    51         24
    55         12
    56         10
    57         28
    58          8
    61         16
    62         43
    63         90
    64         16
    65         25
    73          8
    74         33
    75         30
    76         14
    77          5
    85         15
    86         30
    87         46
    88         41
    89         62
    90          5
    97          7
    98         10
    99          5
   109          6
   110         10
   111          6
   113         60
   114         90
   115        999
   116        100
   193         90
   194        680
   195        160
   196        670
   197         70