##TITLE=Library Entry 17109
##JCAMP-DX=Revision 4.10 
##DATA TYPE=MASS SPECTRUM
##SAMPLE DESCRIPTION=NIST Mass Spectrometry Data Center, 2007
##NAMES=HP
##CAS NAME=Tetraethyleneglycol monomethylether
##MOLFORM=C9H20O5
##CAS REGISTRY NO=23783-42-8
##MP= -300
##BP= -300
##MW= 208
##$RETENTION INDEX=1415
##$CONDENSED SPECTRUM=NO
##NPOINTS= 72
##XYDATA=(XY..XY) 1 
    14          1
    15         28
    16          1
    19         14
    26          6
    27         46
    28         78
    29        171
    30         15
    31        157
    32          3
    33          6
    39          2
    40          1
    41         16
    42         21
    43        144
    44        109
    45        999
    46         24
    47          4
    51          1
    55          1
    56          1
    57         22
    58        303
    59        784
    60         31
    61          8
    62          1
    69          1
    70         11
    71          9
    72         21
    73         42
    74          4
    75         30
    76          4
    77         16
    78          1
    85          1
    86          8
    87        155
    88         72
    89        320
    90         20
    91          3
    99          1
   100          3
   101         29
   102         45
   103        155
   104         10
   105          2
   114          1
   115          4
   116          1
   117          4
   118          1
   119         21
   120          1
   121          3
   131          7
   132          1
   133         48
   134          4
   135          1
   147          2
   163          7
   164          1
   165          2
   177          1