##TITLE=Library Entry 10228
##JCAMP-DX=Revision 4.10 
##DATA TYPE=MASS SPECTRUM
##SAMPLE DESCRIPTION=Chuck Anderson, Aldrich Chemical Co.
##NAMES=HP
##CAS NAME=D-.alpha.,.beta.-Isopropylideneglycerol-.gamma.-tosylate
##MOLFORM=C13H18O5S
##CAS REGISTRY NO=23788-74-1
##MP= -300
##BP= -300
##MW= 286
##$RETENTION INDEX=0
##$CONDENSED SPECTRUM=NO
##NPOINTS= 90
##XYDATA=(XY..XY) 1 
    14          2
    15         38
    18          1
    26          3
    27         22
    28          8
    29         40
    30          3
    31         30
    32          0
    37          1
    38          7
    39        103
    40         16
    41        129
    42         86
    43        999
    44         32
    45         11
    48          4
    50         12
    51         22
    52          7
    53          6
    55         19
    56          8
    57         48
    58          9
    59         60
    60          4
    61         23
    62          6
    63         27
    64         10
    65        109
    66          6
    67          1
    71          8
    72         40
    73         51
    74          3
    75          1
    76          0
    77         12
    78          3
    79          4
    83         22
    84          3
    85         18
    86         44
    87          3
    89         39
    90         29
    91        540
    92         49
    93          4
    95          0
    99         11
   100          9
   101        495
   102         27
   103          4
   105          4
   107         12
   108          4
   109          1
   114         10
   115          9
   116         12
   117          1
   119          0
   130          1
   136          4
   139          9
   155        487
   156         40
   157         25
   158          2
   171          2
   172          7
   173         60
   174          5
   175          3
   213          0
   227          4
   256          2
   271        282
   272         38
   273         18
   274          2