##TITLE=Library Entry 35841
##JCAMP-DX=Revision 4.10 
##DATA TYPE=MASS SPECTRUM
##SAMPLE DESCRIPTION=MUS23 A. Mujsce, AT&T Bell Labs., Murray Hill, N.J., US
A
##NAMES=HP
##CAS NAME=1,1,1,3,3,3-Hexafluoro-2-(trifluoromethyl)-2-propanol
##MOLFORM=C4HF9O
##CAS REGISTRY NO=2378-02-1
##MP= -300
##BP= -300
##MW= 236
##$RETENTION INDEX=0
##$CONDENSED SPECTRUM=NO
##NPOINTS= 101
##XYDATA=(XY..XY) 1 
    19          5
    20          2
    21          4
    27          4
    29         24
    31         41
    32          3
    33          1
    34          1
    35          3
    36          6
    40          2
    46          4
    47         11
    48          5
    50         72
    51         60
    52          5
    55          5
    57          2
    60          8
    62          2
    67         21
    69        999
    70         10
    71          1
    73          3
    74          3
    78        106
    79         12
    80          5
    81         11
    84          3
    85          2
    86          2
    87          4
    89         11
    91          1
    93         28
    94          3
    95          1
    97        643
    98         22
    99          3
   100         70
   101          5
   102          2
   103          0
   106          1
   107          2
   108          0
   109          9
   110          0
   112          5
   113          0
   115          0
   117         30
   119        123
   120          4
   124          1
   128        135
   129         40
   130          4
   131          5
   137          1
   141          0
   143          1
   147        289
   148         60
   150          2
   156          0
   157          0
   159          1
   164          0
   165          0
   167        300
   168         15
   169         12
   170          1
   172          1
   175          0
   177          0
   178          0
   180          2
   181          3
   188          2
   189          0
   194          0
   197        422
   198         17
   199          3
   201          0
   202          0
   207          2
   217         25
   218          1
   231          1
   233          0
   234          1
   235          0
   236          0