##TITLE=Library Entry 33305
##JCAMP-DX=Revision 4.10 
##DATA TYPE=MASS SPECTRUM
##SAMPLE DESCRIPTION=R.C. DOUGHERTY
##NAMES=HP
##CAS NAME=Cycloheptane, 1-methyl-4-methylene-
##MOLFORM=C9H16
##CAS REGISTRY NO=23799-25-9
##MP= -300
##BP= -300
##MW= 124
##$RETENTION INDEX=0
##$CONDENSED SPECTRUM=NO
##NPOINTS= 34
##XYDATA=(XY..XY) 1 
    29         80
    38        160
    39        310
    40         50
    41        460
    42         60
    43         60
    44         15
    51         30
    52         20
    53        100
    54         80
    55        240
    56         60
    57         20
    63         20
    65         20
    66         20
    67        300
    68        999
    69        220
    70         40
    79         60
    81        350
    82        140
    83         20
    91         20
    93         20
    95        120
    96        180
    97         20
   106         20
   109        180
   124         80