##TITLE=Library Entry 54875
##JCAMP-DX=Revision 4.10 
##DATA TYPE=MASS SPECTRUM
##SAMPLE DESCRIPTION=R. RYHAGE KAROLINSKA INSTITUTET, STOCKHOLM
##NAMES=HP
##CAS NAME=Octadecanoic acid, 6-hydroxy-, methyl ester
##MOLFORM=C19H38O3
##CAS REGISTRY NO=2379-94-4
##MP= -300
##BP= -300
##MW= 314
##$RETENTION INDEX=0
##$CONDENSED SPECTRUM=NO
##NPOINTS= 201
##XYDATA=(XY..XY) 1 
    12          8
    13         17
    14         38
    15        240
    16          7
    17         47
    18          1
    19          4
    25          3
    26         22
    27        150
    28        140
    29        670
    30         75
    31          8
    32          5
    33         12
    37          3
    38          5
    39        110
    40         25
    41        620
    42        150
    43        520
    44         48
    45         20
    51          6
    52          4
    53         40
    54         83
    55        820
    56        360
    57        330
    58         28
    59         16
    60         18
    61          4
    65          9
    66         14
    67        280
    68        140
    69        330
    70        160
    71        130
    72         12
    73         38
    74         20
    75          6
    76          2
    77          8
    78          3
    79         23
    80         16
    81        110
    82        140
    83        300
    84        810
    85        999
    86         61
    87         40
    88          7
    89          3
    91          9
    92          3
    93         14
    94         15
    95        110
    96        120
    97        230
    98        130
    99         34
   100         24
   101         33
   102          6
   103          4
   104          3
   105          6
   106          3
   107         10
   108         13
   109         49
   110         98
   111        140
   112         58
   113        400
   114         74
   115         25
   116         10
   117          2
   119         10
   120          9
   121         13
   122          9
   123         44
   124         49
   125         65
   126         48
   127         37
   128         49
   129         26
   130          5
   133         15
   134         17
   135         12
   136          7
   137         35
   138         36
   139         35
   140         23
   141         16
   142          8
   143         16
   144          4
   145          5
   147         14
   148         20
   149          5
   150          3
   151         37
   152         34
   153         23
   154         31
   155         15
   156          7
   157          7
   158         23
   159          3
   161          9
   162          6
   163          6
   164          7
   165         32
   166         23
   167         10
   168         12
   169         14
   170          5
   171          7
   172          3
   175          7
   176          3
   177          4
   178          4
   179         21
   180         49
   181         21
   182         10
   183         10
   184          4
   185          6
   186          7
   189          5
   190          2
   191          2
   192          3
   193         14
   194         14
   195          8
   196          6
   197         28
   198         18
   199          9
   200          4
   201          2
   202          3
   203          3
   207         12
   208         11
   209          5
   210          9
   211          6
   212         13
   213          7
   214          6
   215          2
   220         62
   221         25
   222         40
   223         11
   224          2
   225          6
   227          3
   235         11
   236         10
   237          2
   238          4
   239          7
   240          2
   246         27
   247          7
   253          4
   254          4
   263          4
   264        210
   265         46
   266          6
   280          3
   281          4
   282         25
   283         16
   284          3