##TITLE=Library Entry 97617
##JCAMP-DX=Revision 4.10 
##DATA TYPE=MASS SPECTRUM
##SAMPLE DESCRIPTION=Japan AIST/NIMC Database- Spectrum MS-NW-2007
##NAMES=HP
##CAS NAME=Quinoxaline, 2,3-dimethyl-
##MOLFORM=C10H10N2
##CAS REGISTRY NO=2379-55-7
##MP= -300
##BP= -300
##MW= 158
##$RETENTION INDEX=0
##$CONDENSED SPECTRUM=NO
##NPOINTS= 62
##XYDATA=(XY..XY) 1 
    15          8
    26          8
    27         30
    28          7
    37          8
    38         13
    39         32
    40          3
    41          6
    42         14
    44          1
    49          3
    50        137
    51         42
    52         18
    53          9
    54          2
    58          9
    61          4
    62         10
    63         30
    64         15
    65          7
    66          2
    73          2
    74         24
    75         63
    76        279
    77        199
    78         16
    79         30
    87          2
    88          5
    89         42
    90         54
    91          8
    92          1
   100          1
   101          2
   102         39
   103          6
   104          1
   114          2
   115          4
   116         37
   117        999
   118         93
   119          4
   128          1
   129          2
   130          3
   131          1
   132          2
   142          4
   143         29
   144          3
   155          2
   156          5
   157         15
   158        854
   159        103
   160          5