##TITLE=Library Entry 14027
##JCAMP-DX=Revision 4.10 
##DATA TYPE=MASS SPECTRUM
##SAMPLE DESCRIPTION=Institute of Organic Chemistry, Novosibirsk, USSR 1988
##NAMES=HP
##CAS NAME=Methyl 10-acetoxyoctadecanoate
##MOLFORM=C21H40O4
##CAS REGISTRY NO=2380-02-1
##MP= -300
##BP= -300
##MW= 356
##$RETENTION INDEX=0
##$CONDENSED SPECTRUM=NO
##NPOINTS= 128
##XYDATA=(XY..XY) 1 
    38         15
    41        119
    42         25
    43        999
    45         15
    54         32
    55        306
    56         46
    57         90
    58         42
    59         40
    61         16
    67         69
    68         42
    69        223
    70         48
    71         45
    72          8
    73         13
    74        276
    75         32
    79          8
    80         15
    81         89
    82         43
    83        308
    84         88
    85         23
    86          7
    87        156
    88          5
    93          9
    94          7
    95         48
    96         68
    97        118
    98        108
    99         46
   100         10
   101         25
   102          6
   107         12
   108          4
   109         30
   110         38
   111         58
   112         36
   113          7
   114         15
   115         29
   116          4
   119         16
   121          7
   122         10
   123         28
   124         32
   125         36
   126         33
   127         10
   128          9
   129         22
   130         18
   133         12
   134          9
   135         13
   136          7
   137         17
   138         10
   139         12
   140          3
   141         28
   142          9
   143         79
   144          3
   147          4
   148         20
   149         27
   150          4
   151         10
   152         16
   153          6
   156          8
   157          7
   164         19
   165          9
   166         96
   167         88
   168          9
   169         23
   171         20
   175         25
   180         23
   181          9
   182          6
   193         17
   194          8
   198         35
   199         83
   200          9
   201         12
   208          6
   211        259
   212         38
   213         10
   214         26
   220         19
   221         10
   222         42
   225         18
   235          8
   243        352
   244         47
   246         10
   251          9
   253         32
   255         19
   264        211
   265        129
   266         16
   281         85
   282         16
   285          3
   286         10
   296         22
   297         16
   313         28
   314          5
   325          4