##TITLE=Library Entry 6362
##JCAMP-DX=Revision 4.10 
##DATA TYPE=MASS SPECTRUM
##SAMPLE DESCRIPTION=R RYHAGE MS-LAB KAROLINSKA INSTITUTET STOCKHOLM SWEDEN
##NAMES=HP
##CAS NAME=Octadecanoic acid, 12-oxo-, methyl ester
##MOLFORM=C19H36O3
##CAS REGISTRY NO=2380-27-0
##MP= -300
##BP= -300
##MW= 312
##$RETENTION INDEX=0
##$CONDENSED SPECTRUM=NO
##NPOINTS= 142
##XYDATA=(XY..XY) 1 
    15         17
    17         30
    18        127
    19         13
    26         14
    27         84
    28         61
    29        125
    30          9
    31         23
    32          8
    38          7
    39         75
    40         23
    41        542
    42        115
    43        999
    44         60
    45         33
    50          6
    51          6
    53         29
    54         37
    55         52
    56         84
    57        269
    58        289
    59        213
    60         10
    65          8
    66          6
    67        107
    68         82
    69        305
    70         84
    71        257
    72         49
    73         33
    74        166
    75         20
    76          7
    77          9
    79         27
    80         11
    81        102
    82         41
    83        197
    84        102
    85        281
    86         52
    87        111
    88         12
    91          9
    93         36
    94         17
    95         84
    96         53
    97        125
    98        273
    99         52
   100         21
   101         23
   102          5
   104          8
   105          7
   107         23
   108         21
   109         41
   110         44
   111         88
   112        259
   113        333
   114         41
   115         17
   116          5
   121         15
   122          8
   123         22
   124         21
   125         54
   126         27
   127         13
   128        280
   129         99
   130         10
   132          5
   133         10
   134         26
   135         71
   136         11
   137          8
   138          5
   139         16
   140          7
   141         52
   142         10
   143         24
   144          5
   149         99
   150         21
   151          9
   152        123
   153        167
   154         30
   155         14
   156          5
   157          6
   159         10
   163          5
   166          6
   167         58
   168         19
   169         11
   172         14
   173          6
   178          7
   183         10
   184          6
   185         47
   186         88
   187         15
   192         11
   195         25
   196          5
   199          8
   200          8
   202          5
   210         24
   211          7
   223         16
   224         14
   227         71
   228         11
   239         18
   242        104
   243         20
   255          8
   278          9
   280         49
   281         11
   312         14
   313          5