##TITLE=Library Entry 49230
##JCAMP-DX=Revision 4.10 
##DATA TYPE=MASS SPECTRUM
##SAMPLE DESCRIPTION=B. R. ANDERSON
##NAMES=HP
##CAS NAME=Bicyclo[2.2.2]oct-2-ene, 2-chloro-
##MOLFORM=C8H11Cl
##CAS REGISTRY NO=23804-47-9
##MP= -300
##BP= -300
##MW= 142
##$RETENTION INDEX=0
##$CONDENSED SPECTRUM=NO
##NPOINTS= 81
##XYDATA=(XY..XY) 1 
    14          3
    15         25
    18          1
    25          1
    26         32
    27        152
    28         40
    29         22
    35          1
    36          2
    37          9
    38         25
    39        171
    40         16
    41         43
    42          2
    43          1
    44          1
    45          1
    47          2
    49         11
    50         57
    55          6
    60          7
    61         18
    62         23
    63         48
    64          9
    65         62
    66         11
    67         12
    68          1
    69          1
    70          2
    71          1
    72          3
    73         24
    74         20
    75         36
    76         12
    77        316
    78        111
    79        999
    80         71
    81          4
    84          2
    85          4
    86          5
    87          5
    88          5
    89          7
    90          3
    91         49
    92          7
    93          2
    97          1
    98          1
    99          9
   100          6
   101         15
   102          4
   103          9
   104          2
   105         10
   106          2
   107         21
   108          2
   111          2
   112         15
   113         51
   114        680
   115         60
   116        209
   117         14
   125          2
   127          3
   128          1
   142        144
   143         13
   144         46
   145          4