##TITLE=Library Entry 114835
##JCAMP-DX=Revision 4.10 
##DATA TYPE=MASS SPECTRUM
##SAMPLE DESCRIPTION=R. RYHAGE KAROLINSKA INSTITUTET, STOCKHOLM
##NAMES=HP
##CAS NAME=Octadecanoic acid, 4-oxo-, methyl ester
##MOLFORM=C19H36O3
##CAS REGISTRY NO=2380-19-0
##MP= -300
##BP= -300
##MW= 312
##$RETENTION INDEX=0
##$CONDENSED SPECTRUM=NO
##NPOINTS= 131
##XYDATA=(XY..XY) 1 
    15          5
    17          3
    18         10
    27          9
    28          8
    29         19
    31          5
    32          3
    39          5
    41         57
    42         14
    43         99
    44          7
    45          4
    53          5
    54          6
    55         91
    56         23
    57        100
    58          6
    59         22
    67         15
    68          7
    69         35
    70         15
    71         63
    72          5
    74          2
    79          5
    80          4
    81         20
    82          8
    83         32
    84         11
    85         45
    86          4
    87         30
    88          6
    93          7
    94          6
    95         32
    96          9
    97         24
    98        380
    99         62
   100          5
   101          2
   107          6
   108          4
   109         21
   110          6
   111        110
   112         18
   113          8
   114          2
   115        210
   116         14
   117          2
   119          2
   121          8
   122          9
   123         14
   124          4
   125         17
   126          5
   127          4
   129          2
   130        999
   131         97
   132          7
   133          3
   135          9
   136          8
   137         11
   138          4
   139         10
   140         11
   141          4
   143         83
   144         12
   151          7
   152          4
   153         11
   154         11
   155          3
   157          5
   163          3
   165          4
   166          3
   167         13
   168          6
   172          5
   179          3
   180          6
   181          4
   182          2
   185          3
   186          3
   195          4
   199          6
   205          2
   207          5
   208          2
   209          4
   220         11
   221          4
   223          4
   224          2
   225        150
   226         27
   227          3
   237          5
   238          2
   239          2
   245          2
   251          4
   253          5
   262          2
   263          3
   265          2
   269          3
   270          2
   279          8
   280         30
   281        120
   282         25
   283          4
   294          2
   312         36
   313         11
   314          2