##TITLE=Library Entry 7322
##JCAMP-DX=Revision 4.10 
##DATA TYPE=MASS SPECTRUM
##SAMPLE DESCRIPTION=Institute of Organic Chemistry, Novosibirsk, USSR 1988
##NAMES=HP
##CAS NAME=Methyl 17-acetoxyoctadecanoate
##MOLFORM=C21H40O4
##CAS REGISTRY NO=2380-15-6
##MP= -300
##BP= -300
##MW= 356
##$RETENTION INDEX=0
##$CONDENSED SPECTRUM=NO
##NPOINTS= 192
##XYDATA=(XY..XY) 1 
    38          6
    39         60
    40          9
    41        319
    42        121
    43        999
    44         21
    45         52
    53         34
    54         59
    55        486
    56         97
    57        181
    58         49
    59        120
    60          8
    61         68
    66          3
    67         43
    68         81
    69        263
    70         96
    71         84
    72         18
    73         27
    74        432
    75         96
    76          7
    77          4
    78          6
    79         33
    80         14
    81         42
    82         52
    83        196
    84        124
    85         36
    86         25
    87        429
    88         27
    92          5
    93         35
    94         27
    95         28
    96        114
    97        154
    98        145
    99         23
   100          7
   101         42
   102         18
   105          8
   107         18
   108         24
   109        163
   110         19
   111         87
   112         50
   113         19
   114         24
   115         23
   116          8
   119          7
   121         48
   123         60
   125         24
   127          6
   128          7
   129         67
   130         28
   131          6
   133         12
   134         30
   135         29
   137        102
   138          3
   139         24
   141         40
   143         85
   144          8
   147         21
   149         27
   150          2
   151         46
   152         14
   153         14
   154          8
   155          6
   156          4
   157          7
   162          3
   163         14
   165         15
   166          9
   167         16
   169         17
   171         23
   172          3
   173          5
   174          2
   175          4
   177         45
   179         23
   180         59
   181          3
   182          3
   183         12
   185         16
   186          8
   188          2
   189          9
   190          2
   191          9
   193          3
   194         43
   195         21
   196          5
   197          9
   198         15
   199         28
   201          5
   203          8
   204          6
   205         16
   206          7
   207         21
   208         10
   209          6
   211         10
   213          6
   214         16
   215         12
   216          5
   217          2
   218          3
   219          2
   220         18
   221         19
   222         98
   223         73
   227         14
   228          2
   230          3
   231         14
   234          2
   235         35
   236         18
   237         18
   240          5
   241          9
   243          3
   244          2
   245          9
   246         37
   247         22
   248          8
   249          9
   253         17
   254         22
   255         29
   257          9
   258          6
   259          5
   261          4
   262          9
   263         16
   264        332
   265        126
   267         16
   270         13
   271          3
   274          6
   275          9
   276          6
   277          9
   279          2
   281        100
   283          5
   287          4
   291          6
   293         20
   295          4
   296         79
   297         12
   299         18
   301          3
   306          3
   308         20
   312         13
   313         36
   325          1
   341         15