##TITLE=Library Entry 13826
##JCAMP-DX=Revision 4.10 
##DATA TYPE=MASS SPECTRUM
##SAMPLE DESCRIPTION=R. RYHAGE KAROLINSKA INSTITUTET, STOCKHOLM
##NAMES=HP
##CAS NAME=Octadecanoic acid, 17-oxo-, methyl ester
##MOLFORM=C19H36O3
##CAS REGISTRY NO=2380-32-7
##MP= -300
##BP= -300
##MW= 312
##$RETENTION INDEX=0
##$CONDENSED SPECTRUM=NO
##NPOINTS= 206
##XYDATA=(XY..XY) 1 
    15         46
    16         10
    17         12
    18         91
    26         10
    27         56
    28         30
    29        160
    30          5
    31         19
    32          3
    33          2
    38          3
    39         94
    40         24
    41        520
    42        110
    43        999
    44         50
    45         44
    53         48
    54         54
    55        580
    56         91
    57        250
    58        730
    59        370
    60         16
    61          4
    62          2
    67        170
    68         71
    69        480
    70         74
    71        420
    72         34
    73        510
    74        440
    75         68
    76          8
    77         12
    78          8
    79         44
    80         29
    81        200
    82         87
    83        400
    84        210
    85        140
    86         13
    87        420
    88         44
    89          4
    93         38
    94         25
    95        190
    96        120
    97        290
    98        330
    99         63
   100         30
   101         55
   102          6
   103          2
   107         40
   108         20
   109        110
   110         40
   111        130
   112         33
   113         23
   114         15
   115         30
   116          8
   117          2
   119          6
   120          3
   121         61
   122         20
   123         73
   124         27
   125        100
   126         29
   127         22
   128         14
   129         25
   130         12
   131          3
   132          5
   133          5
   134          6
   135         65
   136         16
   137         36
   138         43
   139         70
   140         19
   141         27
   142         13
   143         47
   144          7
   147          4
   148          4
   152         19
   153         27
   154         16
   155         10
   156         14
   157         24
   158          8
   159          2
   163         28
   164          8
   165         18
   166         18
   167         55
   168         40
   169         15
   170          5
   171         27
   172          8
   173          2
   175          4
   176          3
   177         14
   178         44
   179         29
   180         90
   181         86
   182        100
   183         25
   184          9
   185         48
   186         14
   187          2
   189          3
   191          8
   192         10
   193         14
   194         28
   195         27
   196         25
   197         19
   198          8
   199         61
   200         12
   201          3
   202          3
   204         56
   205        370
   206         63
   207         11
   208          5
   209         17
   210         10
   211         23
   212          9
   213         29
   214          8
   215          2
   219         31
   220         22
   221         29
   222        530
   223        820
   224        140
   225         26
   226          9
   227         41
   228          7
   233          3
   234          5
   235         10
   236         18
   237         68
   238         72
   239        110
   240         21
   241         15
   242         35
   243          9
   252         31
   253         13
   254        150
   255        530
   256         86
   257         10
   261          3
   262         20
   263         10
   264          3
   265         16
   269         14
   270         27
   271          8
   279         19
   280        100
   281        200
   282         37
   283          5
   294          6
   295          2
   297         27
   298          7
   312         86
   313         41