##TITLE=Library Entry 17233
##JCAMP-DX=Revision 4.10 
##DATA TYPE=MASS SPECTRUM
##SAMPLE DESCRIPTION=Chemical Concepts
##NAMES=HP
##CAS NAME=2-(2,4,5-Trichlorophenoxy)acethydrazide
##MOLFORM=C8H7Cl3N2O2
##CAS REGISTRY NO=2381-77-3
##MP= -300
##BP= -300
##MW= 268
##$RETENTION INDEX=0
##$CONDENSED SPECTRUM=NO
##NPOINTS= 155
##XYDATA=(XY..XY) 1 
    33         39
    36         96
    37         33
    38         27
    40         77
    42        165
    43        180
    45        999
    47         17
    48         10
    49         21
    50         22
    51          8
    53         17
    55         32
    56          8
    58         53
    59         15
    61         92
    62         76
    63         23
    65          5
    66          6
    67          3
    68          2
    69          5
    73        830
    74         87
    75         23
    76          5
    77          4
    78          1
    79          1
    80          2
    81          3
    83         25
    84         32
    85         19
    86          9
    87          6
    88          1
    89          3
    90          2
    91          9
    92          2
    93          3
    94          3
    95          9
    97        133
    98         17
    99         33
   100          4
   101          1
   104          1
   105          3
   106          6
   107         37
   108         43
   109         87
   110         22
   111         32
   112          5
   113          6
   114          1
   115          2
   117          3
   118          4
   119          6
   120          3
   121          4
   122          1
   123          2
   124          1
   125          2
   126          1
   127          2
   128          1
   129          1
   131         11
   132         23
   133         19
   134         14
   135         11
   136          3
   137          2
   139          2
   140          1
   141          4
   143         68
   144         45
   145         90
   146         66
   147         41
   148         30
   149          9
   150          4
   151          1
   158          1
   160          7
   162         15
   163          4
   164          5
   165          2
   167         35
   169         33
   171         12
   173          8
   174          4
   175          6
   176          4
   179        108
   181        107
   182         11
   183         32
   184          4
   185          6
   186          1
   188          1
   189          1
   190          1
   191          1
   192          1
   196        173
   198        150
   199         16
   200         38
   201          5
   202          5
   203          1
   204          1
   205          1
   207          4
   209         60
   211         56
   213         18
   214          1
   215          2
   216          1
   218         11
   219          4
   220          5
   221          1
   222          1
   233         74
   235         52
   237         10
   238          1
   253          2
   255          2
   265          1
   268         56
   270         49
   272         17
   273          1
   274          1