##TITLE=Library Entry 51028
##JCAMP-DX=Revision 4.10 
##DATA TYPE=MASS SPECTRUM
##SAMPLE DESCRIPTION=NIST Mass Spectrometry Data Center
##NAMES=HP
##CAS NAME=Dehydromevalonic lactone
##MOLFORM=C6H8O2
##CAS REGISTRY NO=2381-87-5
##MP= -300
##BP= -300
##MW= 112
##$RETENTION INDEX=1169
##$CONDENSED SPECTRUM=NO
##NPOINTS= 33
##XYDATA=(XY..XY) 1 
    25          1
    26         15
    27         67
    28         31
    29         53
    30          8
    36          3
    37         37
    38         78
    39        410
    40         37
    42         35
    44          6
    48          2
    49         17
    50         87
    51         94
    52         44
    53        182
    54        364
    55         98
    56         10
    61          9
    62         12
    63          9
    66         12
    67         71
    82        999
    83         74
    84          7
   112        394
   113         27
   114          3