##TITLE=Library Entry 78743
##JCAMP-DX=Revision 4.10 
##DATA TYPE=MASS SPECTRUM
##SAMPLE DESCRIPTION=Humboldt-Universitat zu Berlin, Department of Chemistry
, Analytical Group
##NAMES=HP
##CAS NAME=N,N-Dibenzoylmethylamine
##MOLFORM=C15H13NO2
##CAS REGISTRY NO=23825-32-3
##MP= -300
##BP= -300
##MW= 239
##$RETENTION INDEX=0
##$CONDENSED SPECTRUM=NO
##NPOINTS= 131
##XYDATA=(XY..XY) 1 
    12          0
    14          1
    15          6
    16          2
    17          9
    18         19
    26          2
    27         23
    28         12
    29          4
    30          1
    31          3
    32          0
    36          0
    37          1
    38          6
    39         19
    40          1
    41          5
    42          2
    43          5
    44          1
    45          1
    48          0
    49          2
    50         89
    51        287
    52         18
    53          4
    54          1
    55          4
    56          6
    57          6
    58          3
    60          0
    61          1
    62          3
    63          8
    64          4
    65          5
    66          1
    67          1
    68          0
    69          2
    70          2
    71          2
    73          1
    74         18
    75         17
    77        657
    78         46
    79          1
    81          0
    82          1
    83          2
    84          1
    85          1
    86          1
    87          1
    88          1
    89          1
    90          1
    91          6
    92          0
    93          1
    95          1
    96          0
    97          1
    98          1
    99          0
   100          0
   101          1
   102          1
   103          4
   105        999
   106         79
   107          5
   108          0
   109          0
   110          0
   111          1
   112          2
   113          1
   114          0
   115          1
   116          1
   117         30
   118         78
   119          8
   121          2
   122          0
   125          0
   126          1
   127          1
   128          1
   129          0
   133          0
   134          9
   135          1
   139          0
   140          0
   141          0
   149          0
   150          1
   151          3
   152          8
   153          3
   154          1
   155          0
   162          0
   167          0
   171          0
   180          0
   181          2
   182          1
   183          0
   185          0
   194          0
   195          0
   209          0
   210         15
   211        146
   212         24
   213          2
   224          0
   228          0
   238          7
   239        104
   240         18
   241          1
   242          0