##TITLE=Library Entry 17679
##JCAMP-DX=Revision 4.10 
##DATA TYPE=MASS SPECTRUM
##SAMPLE DESCRIPTION=NIST Mass Spectrometry Data Center
##NAMES=HP
##CAS NAME=(E)-1-Methyl-3-(prop-1-en-1-yl)trisulfane
##MOLFORM=C4H8S3
##CAS REGISTRY NO=23838-25-7
##MP= -300
##BP= -300
##MW= 152
##$RETENTION INDEX=1169
##$CONDENSED SPECTRUM=NO
##NPOINTS= 41
##XYDATA=(XY..XY) 1 
    27         24
    29         14
    37         11
    38         27
    39        221
    40         13
    41        117
    45        999
    46         89
    47        196
    48         13
    57         33
    58         72
    59         55
    60         15
    61        127
    64        182
    65         22
    66         21
    68         16
    69         74
    71        200
    72        153
    73        475
    74         37
    75         70
    79        267
    80         64
    81         15
    87         22
    88        555
    89         25
   103         52
   104         44
   105         92
   106         13
   107         30
   152        699
   153         39
   154         86
   155          6