##TITLE=Library Entry 22693
##JCAMP-DX=Revision 4.10 
##DATA TYPE=MASS SPECTRUM
##SAMPLE DESCRIPTION=Div. of Experiment Therapeutics WRAIR, WRAMC, Washingto
n DC 20307
##NAMES=HP
##CAS NAME=Phthalimide, N-[4-(2-oxo-3-oxazolidinyl)butyl]-
##MOLFORM=C15H16N2O4
##CAS REGISTRY NO=23830-89-9
##MP= -300
##BP= -300
##MW= 288
##$RETENTION INDEX=0
##$CONDENSED SPECTRUM=NO
##NPOINTS= 94
##XYDATA=(XY..XY) 1 
    41        178
    42        133
    43         87
    44         35
    45          7
    47          5
    49         26
    50        112
    51         68
    53         36
    54         74
    56        999
    57        238
    58         32
    63         12
    64          4
    65          6
    66          8
    68         45
    70        267
    71         82
    74         21
    75         40
    76        215
    77        169
    78         15
    80         10
    82         32
    84        263
    86         35
    87         30
    88          3
    89          8
    90          7
    92          5
    94          6
    96         47
    97        878
    98         38
   100        304
   101         33
   102         35
   104        155
   105         99
   106          2
   111          5
   113          6
   114         63
   115         24
   117         15
   118          2
   126          7
   128         25
   130         89
   133        109
   139         10
   140          7
   141          2
   143          2
   144          3
   145          4
   146         13
   147          4
   148         23
   149          6
   155          6
   158          4
   159          3
   160        431
   161         43
   162          3
   169          3
   170          3
   172          4
   173         13
   174         25
   175          7
   182          4
   183          3
   184          3
   186          7
   188         42
   189          4
   199          3
   200          2
   201         19
   202         13
   215          8
   216          2
   229         14
   230          1
   244          2
   288         13
   289          2