##TITLE=Library Entry 17662
##JCAMP-DX=Revision 4.10 
##DATA TYPE=MASS SPECTRUM
##SAMPLE DESCRIPTION=NIST Mass Spectrometry Data Center
##NAMES=HP
##CAS NAME=1,2-Di((Z)-prop-1-en-1-yl)disulfane
##MOLFORM=C6H10S2
##CAS REGISTRY NO=23838-22-4
##MP= -300
##BP= -300
##MW= 146
##$RETENTION INDEX=1110
##$CONDENSED SPECTRUM=NO
##NPOINTS= 79
##XYDATA=(XY..XY) 1 
    25          1
    26         10
    27         21
    28          9
    29         15
    32          4
    33          3
    36          1
    37         15
    38         33
    39        384
    40         29
    41        238
    42         18
    44          6
    45        999
    46         41
    47        160
    48         10
    49         12
    53         15
    54          4
    55         20
    57         44
    58        100
    59        180
    60         21
    61         39
    63          4
    64         44
    65          5
    66          6
    67        189
    68         22
    69        179
    70         21
    71        307
    72        197
    73        298
    74        351
    75         20
    76         19
    77         19
    78          5
    79         54
    80         12
    81         35
    82        220
    83         16
    85         71
    86         22
    87          6
    88          4
    89          2
    96          2
    97         15
    98         16
    99          7
   100          6
   101         88
   102          7
   103         39
   104          9
   105         17
   110          3
   111          7
   113        341
   114         27
   115          9
   116          7
   117        132
   118         13
   119          8
   130          7
   131         50
   145          2
   146        918
   147         73
   148         17