##TITLE=Library Entry 57678
##JCAMP-DX=Revision 4.10 
##DATA TYPE=MASS SPECTRUM
##SAMPLE DESCRIPTION=Humboldt-Universitat zu Berlin, Department of Chemistry
, Analytical Group
##NAMES=HP
##CAS NAME=2-(N-Dimethyl-thiocarbamoylthio)-cyclopentanone
##MOLFORM=C8H13NOS2
##CAS REGISTRY NO=23839-30-7
##MP= -300
##BP= -300
##MW= 203
##$RETENTION INDEX=0
##$CONDENSED SPECTRUM=NO
##NPOINTS= 121
##XYDATA=(XY..XY) 1 
    14          3
    15         40
    16          3
    17         11
    18         51
    25          1
    26         17
    27        102
    28         46
    29         43
    30          5
    31          3
    32          5
    33          1
    34          2
    35          1
    37          1
    38          5
    39         44
    40          8
    41         30
    42        116
    43         28
    44        130
    45         80
    46        239
    47         45
    48          1
    49          2
    50          4
    51          7
    52          3
    53         21
    54          6
    55         98
    56         41
    57          9
    58         21
    59         19
    60          3
    61         12
    62          0
    63          1
    64          5
    65          1
    66          1
    67          1
    68          1
    69          4
    70          5
    71          8
    72         46
    73         71
    74         32
    75          4
    76         15
    77         43
    78          2
    79          4
    80          0
    81          2
    82          2
    83         41
    84          9
    85          4
    86          1
    88        999
    89         53
    90         53
    91          3
    92          0
    94          1
    95          1
    96          0
    97          3
    98          1
    99          1
   101          0
   103          0
   105          1
   106          0
   108          0
   109          0
   110          1
   111          1
   112          1
   113          1
   114          3
   115          1
   116          0
   120         37
   121         39
   122          7
   123          3
   124          1
   125          1
   127          0
   129          1
   130          1
   132          0
   142          1
   146          3
   147          0
   148          0
   149          1
   154          0
   158         57
   159          5
   160          5
   161          0
   170          5
   171          1
   172          0
   174          0
   175          0
   183          0
   186          0
   203         14
   204          1
   205          1
   210          0