##TITLE=Library Entry 66779
##JCAMP-DX=Revision 4.10 
##DATA TYPE=MASS SPECTRUM
##SAMPLE DESCRIPTION=Japan AIST/NIMC Database- Spectrum MS-NW-3772
##NAMES=HP
##CAS NAME=(Z,E)-2,2'-Furil dioxime
##MOLFORM=C10H8N2O4
##CAS REGISTRY NO=23844-84-0
##MP= -300
##BP= -300
##MW= 220
##$RETENTION INDEX=0
##$CONDENSED SPECTRUM=NO
##NPOINTS= 188
##XYDATA=(XY..XY) 1 
    12          3
    13          4
    14          9
    15          4
    16          3
    17         23
    18         83
    24          2
    25          6
    26         57
    27         92
    28        110
    29        191
    30         63
    31          6
    32          4
    36          9
    37        142
    38        338
    39        861
    40         50
    41         83
    42         49
    43         14
    44         20
    45          6
    46          3
    48          3
    49         19
    50         95
    51        310
    52        124
    53         93
    54         73
    55        237
    56         32
    57          8
    58          7
    59         18
    60          4
    61         23
    62         52
    63        114
    64        356
    65        243
    66        105
    67         48
    68         62
    69         55
    70         17
    71         20
    72          9
    73         28
    74         30
    75         70
    76        106
    77        156
    78         64
    79        119
    80         87
    81         77
    82         70
    83        359
    84        353
    85         28
    86         13
    87         18
    88         28
    89        189
    90         97
    91         59
    92         65
    93        999
    94        562
    95        188
    96         23
    97         52
    98         15
    99         10
   100          7
   101         16
   102         95
   103         68
   104         54
   105         46
   106        170
   107        101
   108         24
   109        280
   110        152
   111         20
   112          4
   113          1
   114          9
   115         12
   116        193
   117        246
   118        256
   119         85
   120         35
   121        204
   122         64
   123         11
   124          3
   125          2
   126          2
   127          5
   128          5
   129         18
   130         24
   131        118
   132         30
   133         38
   134         33
   135         17
   136         15
   137        302
   138         27
   139          5
   140          2
   141          1
   142          4
   143          9
   144        108
   145        156
   146        268
   147         75
   148         51
   149          9
   150          6
   151          2
   152          3
   153          1
   154          1
   155          1
   156          5
   157          6
   158         77
   159         28
   160         32
   161         64
   162         43
   163         18
   164          3
   165          2
   166          2
   167          1
   168          1
   169          1
   170          2
   171          2
   172        614
   173        714
   174        147
   175        562
   176         78
   177          9
   178          1
   179          1
   183          1
   184          2
   185         17
   186         17
   187          9
   188         26
   189         15
   190         69
   191        166
   192         19
   193          2
   194          1
   195          1
   197          1
   199          1
   200          1
   201          2
   202        296
   203        145
   204         44
   205          7
   206          1
   217          1
   218         15
   219          4
   220        961
   221        113
   222         15
   223          2