##TITLE=Library Entry 49807
##JCAMP-DX=Revision 4.10 
##DATA TYPE=MASS SPECTRUM
##SAMPLE DESCRIPTION=D.HENNEBERG, MAX-PLANCK INSTITUTE, MULHEIM, WEST GERMAN
Y
##NAMES=HP
##CAS NAME=2,4-Heptadiene, (E,E)-
##MOLFORM=C7H12
##CAS REGISTRY NO=2384-94-3
##MP= -300
##BP= -300
##MW= 96
##$RETENTION INDEX=744
##$CONDENSED SPECTRUM=NO
##NPOINTS= 68
##XYDATA=(XY..XY) 1 
    22          0
    23          1
    24          0
    26         18
    27        233
    28         29
    29        100
    30          2
    31          0
    32          0
    36          1
    37         11
    38         30
    39        337
    40         49
    41        376
    42         30
    43          8
    44          1
    45          4
    46          9
    47          9
    48          3
    49          5
    50         33
    51         68
    52         38
    53        278
    54        201
    55        185
    56         21
    57          1
    60          2
    61          4
    62         10
    63         23
    64          5
    65         73
    66         46
    67        205
    68         60
    69          7
    70          0
    71          0
    73          2
    74          3
    75         10
    76          2
    77         87
    78         20
    79        244
    80         30
    81        999
    82         59
    83          1
    85          0
    86          1
    87          0
    89          1
    90          0
    91         13
    92          0
    93          6
    94          2
    95         29
    96        359
    97         24
    98          0