##TITLE=Library Entry 82020
##JCAMP-DX=Revision 4.10 
##DATA TYPE=MASS SPECTRUM
##SAMPLE DESCRIPTION=Exported from NIST MS Search
##NAMES=HP
##CAS NAME=Methanone, [1-(1-methylethyl)-3-phenyl-2-aziridinyl]phenyl-, cis-
##MOLFORM=C18H19NO
##CAS REGISTRY NO=23846-11-9
##MP= -300
##BP= -300
##MW= 265
##$RETENTION INDEX=0
##$CONDENSED SPECTRUM=NO
##NPOINTS= 48
##XYDATA=(XY..XY) 1 
    39         35
    41         37
    43         27
    51         78
    77        478
    78         41
    79          6
    89        104
    90        110
    91        147
    92         16
   104         37
   105        999
   106         77
   107          6
   117         96
   118        220
   119         30
   120          5
   145         11
   146        124
   147         13
   152         24
   160        179
   162         13
   165         55
   166         19
   167        248
   168         31
   188        179
   189         27
   190          4
   206         55
   207         41
   208         41
   209         13
   220          4
   221         37
   222        230
   223         46
   224          9
   248         60
   249         11
   250         30
   251          9
   265        543
   266         99
   267         11