##TITLE=Library Entry 48733
##JCAMP-DX=Revision 4.10 
##DATA TYPE=MASS SPECTRUM
##SAMPLE DESCRIPTION=D.HENNEBERG, MAX-PLANCK INSTITUTE, MULHEIM, WEST GERMAN
Y
##NAMES=HP
##CAS NAME=1-Hepten-3-yne
##MOLFORM=C7H10
##CAS REGISTRY NO=2384-73-8
##MP= -300
##BP= -300
##MW= 94
##$RETENTION INDEX=0
##$CONDENSED SPECTRUM=NO
##NPOINTS= 71
##XYDATA=(XY..XY) 1 
    22          0
    23          5
    24          1
    25          3
    26         37
    27        250
    28         18
    29        133
    30          2
    31          2
    32          1
    33          2
    34          3
    35          3
    36          3
    37         40
    38        103
    39        810
    40        170
    41        136
    42         84
    43         21
    44          3
    45          9
    46          2
    47          2
    48          3
    49         15
    50        107
    51        180
    52        219
    53        169
    54         55
    55         59
    56          3
    59          2
    60          4
    61         36
    62         81
    63        190
    64         67
    65        716
    66        230
    67         63
    68          6
    69          0
    70          0
    71          0
    72          1
    73          5
    74         22
    75         65
    76         12
    77        923
    78        116
    79        999
    80         67
    81          2
    84          1
    85          3
    86          6
    87          4
    88          1
    89         13
    90          3
    91        225
    92         31
    93        128
    94        793
    95         57
    96          1