##TITLE=Library Entry 32505
##JCAMP-DX=Revision 4.10 
##DATA TYPE=MASS SPECTRUM
##SAMPLE DESCRIPTION=S.A. Rang et al., IR & MS of Unsatd. Hydrocarbons, 1977
##NAMES=HP
##CAS NAME=3-Decyne
##MOLFORM=C10H18
##CAS REGISTRY NO=2384-85-2
##MP= -300
##BP= -300
##MW= 138
##$RETENTION INDEX=1014
##$CONDENSED SPECTRUM=NO
##NPOINTS= 83
##XYDATA=(XY..XY) 1 
    15          4
    25          1
    26         15
    27        232
    28         12
    29        238
    30          5
    31          0
    37          2
    38         10
    39        250
    40         81
    41        636
    42        119
    43        407
    44         11
    45          1
    49          0
    50         13
    51         50
    52         45
    53        194
    54         81
    55        351
    56         55
    57         17
    58          2
    59          0
    60          1
    61          0
    62          3
    63         17
    64          6
    65         72
    66         93
    67        999
    68        438
    69        194
    70         26
    71          9
    72          1
    73          0
    74          1
    75          2
    76          1
    77         52
    78         12
    79         94
    80         21
    81        275
    82        156
    83         26
    84          5
    85          5
    86          1
    89          0
    91         20
    92          2
    93         22
    94         11
    95        326
    96         94
    97         12
    98          1
    99          0
   102          0
   103          0
   105          2
   106          0
   107          7
   108          5
   109        618
   110         62
   111          3
   119          0
   121          0
   123         16
   124          1
   125          0
   135          2
   137          5
   138         10
   139          1