##TITLE=Library Entry 80368
##JCAMP-DX=Revision 4.10 
##DATA TYPE=MASS SPECTRUM
##SAMPLE DESCRIPTION=Humboldt-Universitat zu Berlin, Department of Chemistry
, Analytical Group
##NAMES=HP
##CAS NAME=1-Phenyl-7-p-tolyl-2,6-diisocyano-heptane
##MOLFORM=C22H24N2
##CAS REGISTRY NO=238412-02-7
##MP= -300
##BP= -300
##MW= 316
##$RETENTION INDEX=0
##$CONDENSED SPECTRUM=NO
##NPOINTS= 166
##XYDATA=(XY..XY) 1 
    15          4
    16          5
    17         25
    18        100
    26          6
    27         63
    28         21
    29         16
    30          5
    31          2
    38          5
    39         86
    40         12
    41         60
    42          9
    43         21
    44          9
    45          5
    50         12
    51         52
    52         17
    53         29
    54         20
    55         27
    56         11
    57         17
    60          2
    62          4
    63         25
    64          8
    65        120
    66         14
    67         31
    68         11
    69         18
    70          6
    71         10
    72          4
    74          2
    75          7
    76         11
    77        151
    78         49
    79        119
    80         20
    81         25
    82         13
    83         10
    84          3
    85          6
    89         32
    90         15
    91        585
    92         64
    93          9
    94         12
    95         10
    96          4
    97          7
    98          3
    99          3
   100          5
   101          8
   102         20
   103        116
   104        409
   105        999
   106        100
   107         10
   108          4
   109          4
   111          6
   112          4
   113          5
   114          4
   115        111
   116         77
   117        233
   118         82
   119         24
   120          5
   121          6
   123          3
   125          3
   126          4
   127         19
   128         51
   129        129
   130        151
   131        281
   132         53
   133         12
   139          3
   140          9
   141         22
   142         35
   143        104
   144         73
   145         66
   146         15
   147          3
   149          5
   152          4
   153          4
   154          9
   155         19
   156         61
   157         63
   158         48
   159         34
   160          5
   161          9
   165          5
   166          4
   167         11
   168          9
   169         14
   170         71
   171         56
   172         33
   173         19
   174          4
   178          3
   179          4
   180          4
   181         18
   182         14
   183         11
   184         54
   185         34
   186         12
   187          5
   193         10
   194          5
   195          4
   196          9
   197         12
   198         76
   199         16
   200          5
   205          4
   207          4
   208          5
   209          3
   210          3
   211         24
   212         47
   213          7
   223          7
   225        284
   226         51
   227          5
   246          9
   247          4
   248          3
   260         13
   261         10
   262          4
   273          3
   274          6
   288         37
   289         23
   290          7
   315          8
   316         25
   317          6