##TITLE=Library Entry 67728
##JCAMP-DX=Revision 4.10 
##DATA TYPE=MASS SPECTRUM
##SAMPLE DESCRIPTION=B. Derendyaev, Novosibirsk Institute of Organic Chemist
ry
##NAMES=HP
##CAS NAME=2-Decyne
##MOLFORM=C10H18
##CAS REGISTRY NO=2384-70-5
##MP= -300
##BP= -300
##MW= 138
##$RETENTION INDEX=1041
##$CONDENSED SPECTRUM=NO
##NPOINTS= 67
##XYDATA=(XY..XY) 1 
    15          5
    25          2
    26         22
    27        444
    28         33
    29        344
    30          8
    37          3
    38         11
    39        335
    40         75
    41        762
    42        142
    43        257
    44         21
    45          1
    49          1
    50         20
    51         70
    52         62
    53        335
    54        480
    55        634
    56        144
    57         87
    58          5
    62          3
    63         12
    64          5
    65         62
    66         75
    67        643
    68        534
    69        153
    70         37
    71          4
    72          1
    74          1
    75          3
    76          1
    77         48
    78         12
    79        107
    80         42
    81        562
    82        156
    83         68
    84         13
    85          5
    89          1
    91         17
    92          3
    93         32
    94         24
    95        999
    96        253
    97         27
    98          3
   103          1
   105          2
   107          6
   108          5
   109        380
   110         43
   111          3
   121          1
   123         28