##TITLE=Library Entry 15778
##JCAMP-DX=Revision 4.10 
##DATA TYPE=MASS SPECTRUM
##SAMPLE DESCRIPTION=L.FOWDEN UNIVERSITY COLLEGE, LONDON, W.C.1 UK
##NAMES=HP
##CAS NAME=6-Heptynoic acid, 2-amino-4-hydroxy-
##MOLFORM=C7H11NO3
##CAS REGISTRY NO=23840-14-4
##MP= -300
##BP= -300
##MW= 157
##$RETENTION INDEX=0
##$CONDENSED SPECTRUM=NO
##NPOINTS= 20
##XYDATA=(XY..XY) 1 
    41        240
    42        160
    43        130
    44        999
    45         70
    46        110
    55         60
    56        170
    67         60
    68        230
    69         70
    72        170
    74        830
    75         60
    94         70
    95        120
   112        540
   113         60
   118        130
   139          3