##TITLE=Library Entry 69243
##JCAMP-DX=Revision 4.10 
##DATA TYPE=MASS SPECTRUM
##SAMPLE DESCRIPTION=L.FOWDEN UNIVERSITY COLLEGE, LONDON, W.C.1 UK
##NAMES=HP
##CAS NAME=5-Hexynoic acid, 2-amino-4-methyl-
##MOLFORM=C7H11NO2
##CAS REGISTRY NO=23840-12-2
##MP= -300
##BP= -300
##MW= 141
##$RETENTION INDEX=0
##$CONDENSED SPECTRUM=NO
##NPOINTS= 22
##XYDATA=(XY..XY) 1 
    41        140
    42        120
    43         90
    44        190
    45         50
    51         50
    53        220
    54         50
    55         50
    67         60
    68         50
    69         60
    74        350
    75         50
    80         80
    81        100
    86         90
    94         50
    96        999
    97        100
   126         10
   141          2