##TITLE=Library Entry 18592
##JCAMP-DX=Revision 4.10 
##DATA TYPE=MASS SPECTRUM
##SAMPLE DESCRIPTION=J.VOTH, UNIV. OF CALIFORNIA, DAVIS, CALIFORNIA, 95616,
 USA
##NAMES=HP
##CAS NAME=1,2-Heptadiene
##MOLFORM=C7H12
##CAS REGISTRY NO=2384-90-9
##MP= -300
##BP= -300
##MW= 96
##$RETENTION INDEX=0
##$CONDENSED SPECTRUM=NO
##NPOINTS= 63
##XYDATA=(XY..XY) 1 
    12          2
    13          3
    14          9
    15         46
    16          1
    17          1
    18          5
    25          3
    26         51
    27        421
    28         65
    29        156
    30          3
    31          1
    36          1
    37         20
    38         49
    39        384
    40         62
    41        360
    42         41
    43         46
    44          2
    45          5
    48          0
    49          6
    50         44
    51         72
    52         49
    53        285
    54        999
    55        151
    56         19
    57          5
    60          0
    61          5
    62         10
    63         18
    64          4
    65         44
    66         22
    67        195
    68         43
    69          5
    70          1
    71          2
    73          1
    74          2
    75          1
    77         17
    78          5
    79         31
    80          7
    81        153
    82         10
    85          0
    86          0
    91          3
    93          1
    94          0
    95          7
    96         11
    97          1