##TITLE=Library Entry 47002
##JCAMP-DX=Revision 4.10 
##DATA TYPE=MASS SPECTRUM
##SAMPLE DESCRIPTION=NIST Mass Spectrometry Data Center
##NAMES=HP
##CAS NAME=s-Hydroxymethylthiobenzoate
##MOLFORM=C8H8O2S
##CAS REGISTRY NO=23853-33-0
##MP= -300
##BP= -300
##MW= 168
##$RETENTION INDEX=0
##$CONDENSED SPECTRUM=NO
##NPOINTS= 62
##XYDATA=(XY..XY) 1 
    12          2
    16          1
    26         21
    27         15
    28          5
    32         42
    33         70
    34          6
    35          4
    36          9
    37         57
    38         79
    39         73
    40          4
    46          2
    47          2
    49         50
    50        306
    51        524
    52         34
    53         17
    54          4
    55          5
    56          3
    57          6
    58          3
    60         15
    61         32
    62         17
    63         14
    64          2
    65         15
    66          4
    68          5
    69         32
    70          4
    71          2
    73         27
    74         83
    75         50
    77        999
    78         73
    79          3
    80          2
    81          8
    82          9
    83          3
    84          2
    85          2
    86          2
    92          2
    93          6
   102          2
   105        903
   106         75
   107          5
   108          5
   109         16
   110          4
   121          5
   122          3
   138          9