##TITLE=Library Entry 3456
##JCAMP-DX=Revision 4.10 
##DATA TYPE=MASS SPECTRUM
##SAMPLE DESCRIPTION=Chuck Anderson, Aldrich Chemical Co.
##NAMES=HP
##CAS NAME=6-Octenal, 3,7-dimethyl-, (R)-
##MOLFORM=C10H18O
##CAS REGISTRY NO=2385-77-5
##MP= -300
##BP= -300
##MW= 154
##$RETENTION INDEX=1152
##$CONDENSED SPECTRUM=NO
##NPOINTS= 80
##XYDATA=(XY..XY) 1 
    15         12
    18          0
    26          8
    27        197
    28         32
    29        216
    30          4
    31          7
    35          2
    36         13
    37          2
    38         14
    39        243
    40         45
    41        999
    42         91
    43        195
    44         19
    45          3
    50          7
    51         25
    52         11
    53        119
    54         27
    55        456
    56        258
    57         99
    58          6
    59         23
    62          1
    63          6
    65         33
    66         10
    67        279
    68         98
    69        924
    70        128
    71        122
    72         27
    73          0
    77         29
    78          4
    79         61
    80         23
    81        137
    82         48
    83        143
    84        156
    85         30
    86          3
    91         23
    92          7
    93         96
    94         15
    95        493
    96         51
    97        101
    98         74
    99          7
   105          7
   107         27
   108          6
   109        135
   110        109
   111        189
   112         77
   113          5
   119          1
   121        229
   122         18
   123         27
   124          0
   125          5
   126          1
   136         61
   137          6
   139         68
   140          5
   154         52
   155          4