##TITLE=Library Entry 54607
##JCAMP-DX=Revision 4.10 
##DATA TYPE=MASS SPECTRUM
##SAMPLE DESCRIPTION=Chemical Concepts
##NAMES=HP
##CAS NAME=Oxirane, (2-methylpropyl)-
##MOLFORM=C6H12O
##CAS REGISTRY NO=23850-78-4
##MP= -300
##BP= -300
##MW= 100
##$RETENTION INDEX=752
##$CONDENSED SPECTRUM=NO
##NPOINTS= 59
##XYDATA=(XY..XY) 1 
    27        435
    28         85
    29        462
    30         23
    31        201
    33          1
    35          1
    36          0
    37          6
    38         20
    39        259
    40         43
    41        770
    42        274
    43        502
    44         30
    45         32
    46          0
    47          7
    48          2
    49         36
    50         13
    51         25
    52         12
    53         63
    54         25
    55        602
    56        137
    57        317
    58        285
    59         28
    60          1
    61          1
    62          3
    63          4
    64          0
    65         11
    66          2
    67         68
    68         59
    69         71
    70         54
    71         19
    72         13
    73          1
    74          1
    75          0
    76          1
    77          7
    78          9
    79          7
    80          0
    81         15
    82          4
    83          8
    84         31
    85        999
    86         50
    87          4