##TITLE=Library Entry 87642
##JCAMP-DX=Revision 4.10 
##DATA TYPE=MASS SPECTRUM
##SAMPLE DESCRIPTION=Exported from NIST MS Search
##NAMES=HP
##CAS NAME=Piperidine, 1-(1,2,3,4-tetrahydro-2-naphthalenyl)-
##MOLFORM=C15H21N
##CAS REGISTRY NO=23853-55-6
##MP= -300
##BP= -300
##MW= 215
##$RETENTION INDEX=0
##$CONDENSED SPECTRUM=NO
##NPOINTS= 176
##XYDATA=(XY..XY) 1 
    13          4
    14         10
    15        110
    16          5
    25          2
    26         40
    27        366
    28        401
    29        214
    30        122
    31          4
    32          1
    35          1
    36          5
    37          7
    38         22
    39        280
    40         48
    41        493
    42        304
    43         64
    44        102
    45          4
    49          3
    50         48
    51        148
    52         58
    53        109
    54        153
    55        301
    56        162
    57         83
    58         14
    61          5
    62         21
    63         89
    64         59
    65         81
    66         14
    67         43
    68         92
    69        117
    70         76
    71         14
    72         12
    74         20
    75         37
    76         33
    77        184
    78        110
    79         52
    80         30
    81         33
    82        111
    83         98
    84        510
    85         91
    86         65
    87         18
    88         10
    89         46
    90         18
    91        306
    92         33
    93          9
    94         16
    95         10
    96        240
    97         42
    98        122
    99         18
   100         14
   101         44
   102         84
   103        140
   104        217
   105        115
   106         24
   107         15
   108         33
   109         33
   110        999
   111        276
   112         23
   113         14
   114         23
   115        416
   116        184
   117        169
   118         45
   119         28
   120          7
   121          3
   122         17
   123          7
   124        214
   125         33
   126         74
   127        378
   128        487
   129        434
   130        405
   131        265
   132         88
   133         12
   134          2
   136          2
   138          3
   139         11
   140         20
   141         64
   142         31
   143         43
   144         62
   145         19
   146         10
   147          3
   150          2
   151          5
   152         12
   153         27
   154         73
   155        190
   156         91
   157         57
   158         77
   159         26
   160         11
   161          4
   165          8
   166          7
   167         24
   168         24
   169         16
   170         71
   171         19
   172         59
   173         13
   174          8
   175          2
   178          3
   179          4
   180         22
   181         12
   182         32
   183         11
   184         30
   185         15
   186         73
   187         18
   188          5
   191          3
   192          3
   193          4
   194          7
   195          4
   196         24
   197          9
   198         60
   199         16
   200        105
   201         18
   202          3
   204          2
   206          5
   207          6
   208         17
   209         65
   210        411
   211        584
   212        221
   213        510
   214        347
   215        956
   216        167
   217         15