##TITLE=Library Entry 64331
##JCAMP-DX=Revision 4.10 
##DATA TYPE=MASS SPECTRUM
##SAMPLE DESCRIPTION=A.A.Kutin, Moscow, Russia
##NAMES=HP
##CAS NAME=Pyrrole-2-carboxylic acid, 4-acetyl-3,5-dimethyl-, benzyl ester
##MOLFORM=C16H17NO3
##CAS REGISTRY NO=2386-27-8
##MP= -300
##BP= -300
##MW= 271
##$RETENTION INDEX=0
##$CONDENSED SPECTRUM=NO
##NPOINTS= 142
##XYDATA=(XY..XY) 1 
    33         11
    34          0
    37          0
    38          2
    39         21
    40         12
    41          9
    42         14
    43         48
    44          3
    45          0
    46          0
    51         12
    52          6
    53          4
    54          1
    55          1
    56          0
    57          0
    58          0
    61          0
    63          8
    65         67
    66         14
    67          7
    68          0
    69          0
    70          0
    75          0
    76          1
    77         10
    79         11
    80          3
    81          1
    82          1
    83          0
    84          0
    85          0
    87          0
    88          0
    89         15
    91        999
    92         75
    93         13
    94          7
    95          0
   102          0
   103          0
   104          0
   105          1
   106          1
   107          3
   108          3
   109          1
   115          0
   116          0
   118          2
   119          2
   120          4
   121          6
   122         16
   123          0
   124          0
   127          0
   128          1
   129          0
   131          0
   132          0
   134          4
   135          6
   136         25
   137         33
   138          2
   139          0
   141          0
   142          0
   143          0
   145          0
   146          1
   148         66
   149          5
   150          6
   151          0
   152          1
   154          0
   155          0
   158          0
   160          0
   161          1
   162         50
   163         19
   164         67
   165          7
   166          2
   167          0
   168          1
   169          1
   170          0
   171          0
   172          0
   176          0
   177          0
   178          0
   180         60
   181          5
   182          2
   183          1
   184          3
   185          0
   194          2
   195          0
   196          0
   198          0
   209          2
   210          2
   211          1
   212          3
   213          0
   214          0
   224          0
   225          0
   226          2
   227          0
   228          1
   229          1
   230          0
   238          0
   239          0
   240          0
   242          0
   252          0
   253          1
   254          0
   256         99
   257         14
   258          2
   259          0
   269          1
   271        435
   272         74
   273          7
   274          0