##TITLE=Library Entry 76
##JCAMP-DX=Revision 4.10 
##DATA TYPE=MASS SPECTRUM
##SAMPLE DESCRIPTION=NIST Mass Spectrometry Data Center, 1994
##NAMES=HP
##CAS NAME=Vinylsulfonamide
##MOLFORM=C2H5NO2S
##CAS REGISTRY NO=2386-58-5
##MP= -300
##BP= -300
##MW= 107
##$RETENTION INDEX=0
##$CONDENSED SPECTRUM=NO
##NPOINTS= 34
##XYDATA=(XY..XY) 1 
    14         15
    15         29
    16        143
    17        210
    18          5
    24          9
    25         46
    26        270
    27        999
    28         57
    30         29
    32         94
    33         12
    40          8
    41         16
    42        172
    43        733
    44        157
    45         16
    46        122
    47         78
    48        227
    49         50
    50         16
    56         11
    57         38
    58         36
    63         39
    64        642
    65        166
    66         36
    80        119
    81         11
    91        132