##TITLE=Library Entry 23573
##JCAMP-DX=Revision 4.10 
##DATA TYPE=MASS SPECTRUM
##SAMPLE DESCRIPTION=RADIAN CORP
##NAMES=HP
##CAS NAME=1-Butanesulfonyl chloride
##MOLFORM=C4H9ClO2S
##CAS REGISTRY NO=2386-60-9
##MP= -300
##BP= -300
##MW= 156
##$RETENTION INDEX=0
##$CONDENSED SPECTRUM=NO
##NPOINTS= 60
##XYDATA=(XY..XY) 1 
    15          5
    26         36
    27        188
    29        233
    30          5
    33          1
    35          9
    36          1
    37         10
    38         20
    39        232
    40         31
    41        731
    42         44
    43         12
    45         19
    46          6
    47          4
    48         69
    49          8
    50         26
    51         26
    52          6
    53         33
    54         13
    55        151
    56        308
    57        999
    58         52
    59          6
    60          2
    61          2
    62          2
    63         15
    64         62
    65         37
    66          5
    67          3
    69          3
    71          2
    75          1
    77          2
    78          1
    79          5
    81          1
    83         25
    85         10
    87          1
    89          1
    91          2
    93          2
    99         38
   101         16
   103          2
   113          1
   114          5
   116          2
   121         11
   127          2
   157          2