##TITLE=Library Entry 78998
##JCAMP-DX=Revision 4.10 
##DATA TYPE=MASS SPECTRUM
##SAMPLE DESCRIPTION=Japan AIST/NIMC Database- Spectrum MS-IW-7289
##NAMES=HP
##CAS NAME=1-Benzoyl-2-methylenehydrazine
##MOLFORM=C8H8N2O
##CAS REGISTRY NO=23875-79-8
##MP= -300
##BP= -300
##MW= 148
##$RETENTION INDEX=0
##$CONDENSED SPECTRUM=NO
##NPOINTS= 85
##XYDATA=(XY..XY) 1 
    14          2
    15          2
    16          1
    17         16
    18         83
    26          9
    27         54
    28         61
    29          8
    30          1
    36          1
    37          8
    38          9
    39         19
    40          1
    41          2
    42          7
    43         16
    44          8
    48          1
    49          6
    50         72
    51        143
    52         20
    53          3
    55          2
    56          1
    57          2
    60          1
    61          3
    62          4
    63         10
    64          7
    65          5
    66          2
    67          1
    69          1
    71          2
    73          5
    74         23
    75         30
    76        137
    77        597
    78         59
    79          3
    81          1
    83          1
    85          1
    88          2
    89          2
    90          3
    91          8
    92          3
    93          2
    94          1
    95          1
    97          2
    98          1
    99          5
   100          2
   101          2
   102          9
   103        427
   104         44
   105        999
   106         80
   107          6
   109          1
   110          1
   111          1
   118          2
   119          4
   120          3
   121        287
   122         24
   123          2
   128          3
   129          1
   136          1
   141          1
   146          5
   147         18
   148         75
   149          8
   150          1