##TITLE=Library Entry 34137
##JCAMP-DX=Revision 4.10 
##DATA TYPE=MASS SPECTRUM
##SAMPLE DESCRIPTION=A.A.Kutin, Moscow, Russia
##NAMES=HP
##CAS NAME=6,10-Dodecadien-1-yn-3-ol, 3,7,11-trimethyl-
##MOLFORM=C15H24O
##CAS REGISTRY NO=2387-68-0
##MP= -300
##BP= -300
##MW= 220
##$RETENTION INDEX=1562
##$CONDENSED SPECTRUM=NO
##NPOINTS= 107
##XYDATA=(XY..XY) 1 
    34          0
    39        148
    40         67
    41        862
    42         53
    43        716
    44         23
    45         20
    46          0
    50          5
    51         29
    52         15
    53        139
    54         22
    55        161
    56         12
    57         28
    58          7
    59         10
    62          0
    63          7
    65         48
    66         19
    67        215
    68         86
    69        999
    70         71
    71         44
    72          4
    77         89
    78         19
    79        128
    80         27
    81        119
    82         48
    83         20
    84          6
    85          7
    89          1
    91        182
    92         33
    93        205
    94         43
    95        104
    96         19
    97         11
   102          0
   103         12
   104          7
   105        185
   106         31
   107         75
   108         28
   109        106
   110         13
   111          6
   115         15
   116          7
   117         37
   118         23
   119         65
   120         17
   121         54
   122         13
   123         50
   124          7
   125         24
   126          2
   128          2
   129          3
   131         69
   132         17
   133         52
   134         13
   135         20
   136         50
   137         34
   138          4
   143          2
   144          5
   145         39
   146         27
   147         20
   148          4
   149         31
   150          8
   151          8
   152          1
   157          1
   159         74
   160         14
   161          5
   162          9
   163          7
   164          1
   173          5
   174          4
   175          1
   177         21
   178          2
   187         47
   188          6
   191          2
   202         11
   203          2
   205         36
   206          4