##TITLE=Library Entry 22709
##JCAMP-DX=Revision 4.10 
##DATA TYPE=MASS SPECTRUM
##SAMPLE DESCRIPTION=NIST Mass Spectrometry Data Center, 2011
##NAMES=HP
##CAS NAME=1,3-Dicyclohexylurea
##MOLFORM=C13H24N2O
##CAS REGISTRY NO=2387-23-7
##MP= -300
##BP= -300
##MW= 224
##$RETENTION INDEX=2075
##$CONDENSED SPECTRUM=NO
##NPOINTS= 96
##XYDATA=(XY..XY) 1 
    15          1
    18          7
    26          2
    27         21
    28         47
    29         30
    30         38
    31          1
    38          1
    39         39
    40          7
    41        158
    42         37
    43        147
    44         33
    45          2
    46          1
    50          1
    51          4
    52          3
    53         29
    54         45
    55        222
    56        999
    57         63
    58          6
    61        266
    62          5
    63          1
    65          7
    66          4
    67         52
    68         15
    69         28
    70        165
    71         15
    72          1
    73          3
    74          2
    75          1
    77          9
    78          2
    79         25
    80          7
    81         50
    82         57
    83         87
    84         15
    85         23
    86          3
    87          1
    93          1
    94          3
    95          2
    96         11
    97         17
    98        248
    99        385
   100         93
   101          6
   108          1
   110          2
   111          2
   112          1
   113          4
   114          1
   122          1
   123          1
   124          2
   125          3
   126          9
   127          4
   138          2
   139          1
   141          7
   142         24
   143        306
   144         26
   145          2
   153          2
   154          2
   155          3
   156          1
   163          1
   164          1
   167          3
   168          2
   169          1
   181          9
   182          2
   183          2
   195          2
   209          1
   224        206
   225         33
   226          3