##TITLE=Library Entry 71813
##JCAMP-DX=Revision 4.10 
##DATA TYPE=MASS SPECTRUM
##SAMPLE DESCRIPTION=G. LUNN,ENVIRON. CONTROL,NATL. CANCER INST.,FREDERICK,M
D.,USA
##NAMES=HP
##CAS NAME=1-(2-Chloroethyl)imidazolidin-2-one
##MOLFORM=C5H9ClN2O
##CAS REGISTRY NO=2387-20-4
##MP= -300
##BP= -300
##MW= 148
##$RETENTION INDEX=0
##$CONDENSED SPECTRUM=NO
##NPOINTS= 100
##XYDATA=(XY..XY) 1 
    35         61
    36        173
    37         23
    38         77
    39         73
    40        180
    41        402
    42        796
    43        370
    44        198
    45         17
    46          5
    47          2
    48         10
    49         19
    50          4
    51          4
    52          2
    53         12
    54         20
    55        206
    56         70
    57         12
    58          7
    59          2
    60         17
    61         18
    62        120
    63         17
    64         54
    65          5
    66          9
    67         37
    68         61
    69        535
    70        186
    71         18
    72          5
    73          2
    74          4
    75          8
    76          3
    77          6
    80          1
    81          3
    82          3
    83         16
    84         31
    85        178
    86        130
    87          8
    88          5
    89          5
    90         19
    91         10
    92         56
    93          6
    94         16
    95          6
    96          2
    97         17
    98         37
    99        999
   100        535
   101         34
   102          5
   103          4
   104         38
   105          6
   106         15
   107          2
   108          1
   109          5
   110          3
   111         27
   112         28
   113         65
   114          4
   115          2
   117          2
   118          1
   119          9
   120          1
   121          4
   122          1
   123          3
   125          2
   127          1
   128          1
   135         12
   137          5
   139          1
   141          1
   146          2
   147         22
   148        303
   149         73
   150        106
   151         16
   152          1