##TITLE=Library Entry 19756
##JCAMP-DX=Revision 4.10 
##DATA TYPE=MASS SPECTRUM
##SAMPLE DESCRIPTION=Exported from NIST MS Search
##NAMES=HP
##CAS NAME=Docosanoic acid, 13-oxo-, methyl ester
##MOLFORM=C23H44O3
##CAS REGISTRY NO=2388-99-0
##MP= -300
##BP= -300
##MW= 368
##$RETENTION INDEX=0
##$CONDENSED SPECTRUM=NO
##NPOINTS= 101
##XYDATA=(XY..XY) 1 
    27        110
    28         50
    29        300
    39         80
    41        509
    42        180
    43        979
    44         50
    45         40
    53         60
    54         60
    55        999
    56        140
    57        559
    58        480
    59        340
    67        320
    68        120
    69        689
    70        110
    71        759
    72         90
    73         70
    74        370
    75         50
    79         50
    81        420
    82        270
    83        460
    84        240
    85        400
    86         50
    87        230
    93        100
    95        420
    96        210
    97        420
    98        509
    99        110
   100        140
   101         60
   107         80
   108         40
   109        150
   110        220
   111        170
   112        370
   113        110
   114        100
   115         50
   121         60
   122         50
   123         80
   124         60
   126        539
   127        190
   128         70
   129         50
   135         40
   137         50
   139         80
   140         60
   141         60
   143        120
   148        100
   149        200
   152         60
   154         90
   155        430
   156         50
   157         60
   163        130
   166        370
   167        300
   168         60
   170        859
   171        280
   173         40
   181        120
   182         60
   183         90
   186         40
   196         40
   198        310
   199        270
   200         60
   224        200
   225         70
   237         50
   238         80
   241        270
   242         40
   243         70
   256        859
   257        170
   269         60
   295         70
   337        170
   338         40
   368        100
   369         40