##TITLE=Library Entry 78303
##JCAMP-DX=Revision 4.10 
##DATA TYPE=MASS SPECTRUM
##SAMPLE DESCRIPTION=Exported from NIST MS Search
##NAMES=HP
##CAS NAME=1,2,4-Trioxolane, 3-methyl-5-phenyl-
##MOLFORM=C9H10O3
##CAS REGISTRY NO=23888-16-6
##MP= -300
##BP= -300
##MW= 166
##$RETENTION INDEX=0
##$CONDENSED SPECTRUM=NO
##NPOINTS= 52
##XYDATA=(XY..XY) 1 
    14         31
    15         81
    16         24
    26         24
    27         38
    28        658
    29        408
    38         28
    39         38
    40         52
    41         19
    42         19
    43         40
    44        216
    45        254
    46         38
    47         14
    49         24
    50        201
    51        456
    52         52
    60         21
    61          9
    62          7
    63         14
    65         24
    66         38
    67         14
    73         14
    74         36
    75         24
    76         24
    77        927
    78        110
    79         81
    89          7
    90         55
    91         40
    92         12
    93         43
   105        999
   106        536
   107         62
   108         16
   119          7
   122        377
   123         57
   124         14
   133         52
   134         28
   135          2
   166         45