##TITLE=Library Entry 434
##JCAMP-DX=Revision 4.10 
##DATA TYPE=MASS SPECTRUM
##SAMPLE DESCRIPTION=Humboldt-Universitat zu Berlin, Department of Chemistry
, Analytical Group
##NAMES=HP
##CAS NAME=2,4-Dinitrophenylsulfenic acid, ethyl ester
##MOLFORM=C8H8N2O5S
##CAS REGISTRY NO=2388-58-1
##MP= -300
##BP= -300
##MW= 244
##$RETENTION INDEX=0
##$CONDENSED SPECTRUM=NO
##NPOINTS= 130
##XYDATA=(XY..XY) 1 
    12          5
    13          5
    14         32
    15        156
    16         14
    17         14
    18         42
    19          3
    26         44
    27        237
    28         79
    29        999
    30        697
    31         12
    32          6
    33          1
    37         22
    38         42
    39        112
    40         10
    41         10
    42         16
    43         52
    45        299
    46         29
    47         13
    48         11
    49          9
    50         68
    51        185
    52         53
    53         43
    54          9
    55         11
    57         25
    58         20
    59          3
    60          3
    61         28
    62         90
    63        219
    64         49
    65         36
    66         39
    67         14
    68         25
    69        187
    70         44
    71         16
    72          9
    73         20
    74        130
    75        244
    76         69
    77         64
    78        305
    79        327
    80         42
    81         28
    82         19
    83         25
    84         17
    85          8
    86          4
    87          6
    88         13
    89          8
    90         14
    91          7
    92         43
    93         64
    94         38
    95        259
    96         38
    97         17
    98          3
    99          2
   100          6
   102          1
   103          3
   104         11
   105         43
   106         55
   107         18
   108         11
   109          4
   110          3
   111         24
   112         19
   113          3
   114          1
   116          1
   117          2
   118          1
   119          9
   120          4
   121          6
   122         70
   123         32
   124         29
   125          6
   126          1
   128          2
   133          2
   135          2
   136          9
   137          9
   138          2
   139          4
   140          2
   152        463
   153         38
   154          5
   165          1
   168          3
   170          5
   171          1
   182          1
   183         13
   184          1
   185          1
   199         24
   200          3
   201          1
   216         82
   217          7
   218          4
   244         24
   245          5
   246          1