##TITLE=Library Entry 79090
##JCAMP-DX=Revision 4.10 
##DATA TYPE=MASS SPECTRUM
##SAMPLE DESCRIPTION=Exported from NIST MS Search
##NAMES=HP
##CAS NAME=1,2,4-Trioxolane, 3,5-diphenyl-
##MOLFORM=C14H12O3
##CAS REGISTRY NO=23888-15-5
##MP= -300
##BP= -300
##MW= 228
##$RETENTION INDEX=0
##$CONDENSED SPECTRUM=NO
##NPOINTS= 39
##XYDATA=(XY..XY) 1 
    26         17
    27         55
    28          4
    29         26
    37         22
    38         40
    39         80
    41         22
    43         13
    44         28
    45         22
    49         17
    50        182
    51        364
    52         71
    53         22
    61         17
    62         22
    63         26
    64         31
    65         22
    73         22
    74         66
    75         33
    76         48
    77        857
    78        137
    79         22
    89         17
    91         55
    94         31
   105        999
   106        611
   107         37
   108         13
   122        351
   123         22
   196         22
   197         26