##TITLE=Library Entry 85324
##JCAMP-DX=Revision 4.10 
##DATA TYPE=MASS SPECTRUM
##SAMPLE DESCRIPTION=Japan AIST/NIMC Database- Spectrum MS-IW-4981
##NAMES=HP
##CAS NAME=2-Methoxyformanilide
##MOLFORM=C8H9NO2
##CAS REGISTRY NO=23896-88-0
##MP= -300
##BP= -300
##MW= 151
##$RETENTION INDEX=0
##$CONDENSED SPECTRUM=NO
##NPOINTS= 79
##XYDATA=(XY..XY) 1 
    14          1
    15          7
    26          9
    27         31
    28         36
    29         24
    30          4
    31          6
    37          9
    38         23
    39         62
    40          7
    41         21
    42          6
    43          2
    44          1
    45          2
    46          3
    49          3
    50         34
    51         80
    52        126
    53        118
    54         19
    55          4
    61          7
    62         14
    63         44
    64         32
    65        127
    66         26
    67          8
    68          1
    73          1
    74          6
    75          6
    76         10
    77         36
    78         38
    79         30
    80        538
    81         39
    82          1
    88          1
    89          1
    90          9
    91         17
    92         68
    93         38
    94         32
    95         19
    96          1
   100          1
   102          1
   103          1
   104         14
   105         16
   106         18
   107          6
   108        999
   109         75
   110          5
   119          3
   120         24
   121          4
   122         11
   123        355
   124         34
   125          2
   132          3
   133          9
   134         11
   135         18
   136          5
   149          6
   150          5
   151        944
   152         90
   153          8