##TITLE=Library Entry 13655
##JCAMP-DX=Revision 4.10 
##DATA TYPE=MASS SPECTRUM
##SAMPLE DESCRIPTION=A.A.Kutin, Moscow, Russia
##NAMES=HP
##CAS NAME=2-Thiophenecarboxylic acid, 5-(acetylamino)-4-cyano-3-methyl-, et
hyl ester
##MOLFORM=C11H12N2O3S
##CAS REGISTRY NO=23903-49-3
##MP= -300
##BP= -300
##MW= 252
##$RETENTION INDEX=0
##$CONDENSED SPECTRUM=NO
##NPOINTS= 103
##XYDATA=(XY..XY) 1 
    33          2
    34          6
    37         13
    38         18
    39         52
    40         63
    41         34
    43        999
    45         71
    46          4
    47          5
    50         11
    51         11
    52         11
    53          7
    54          3
    55         14
    56          6
    58         67
    59         12
    60         11
    61          2
    62          5
    64         49
    65         11
    66         70
    67         14
    69         43
    70         26
    71         21
    72          9
    73          2
    74          2
    75          5
    76         13
    77          7
    78          6
    79          4
    80          5
    81          7
    82         13
    83         18
    84          8
    85          4
    86          1
    89          2
    90          2
    91         17
    92          7
    93         28
    94         49
    95          6
    96          5
    97          3
    98          4
    99          1
   103          3
   104          1
   105          6
   106          2
   107          3
   108          5
   109         41
   110         60
   111         11
   112          4
   113          1
   118          1
   120          1
   121          2
   122          1
   123          1
   125          4
   126          1
   128          1
   135         39
   136         40
   137         38
   138        171
   139          8
   152          0
   153          3
   154          2
   155          0
   164         36
   165        176
   166         38
   167         11
   168          1
   179          0
   181         23
   182        136
   183         10
   184          7
   185          0
   210        270
   211         28
   212         13
   213          1
   223          0
   252         48
   253          5
   254          2