##TITLE=Library Entry 16566
##JCAMP-DX=Revision 4.10 
##DATA TYPE=MASS SPECTRUM
##SAMPLE DESCRIPTION=Chemical Concepts
##NAMES=HP
##CAS NAME=2-(3,3-Diphenyl-propylamino)-ethanol
##MOLFORM=C17H21NO
##CAS REGISTRY NO=23903-09-5
##MP= -300
##BP= -300
##MW= 255
##$RETENTION INDEX=0
##$CONDENSED SPECTRUM=NO
##NPOINTS= 113
##XYDATA=(XY..XY) 1 
    27         35
    28         35
    29         64
    30        104
    31         30
    39         32
    41         61
    42         62
    43        108
    44        999
    45         79
    50         11
    51         33
    52          9
    55         45
    56        171
    57         89
    58         86
    59         14
    60         17
    63         19
    65         36
    67         14
    68         10
    69         37
    70         23
    71         35
    72         14
    73         12
    74        594
    75         44
    76         22
    77         68
    78         29
    79         14
    81         20
    82         13
    83         25
    84         17
    85         20
    86          9
    87         11
    88         36
    89         28
    91        246
    92         23
    93         10
    95         17
    97         21
    98          9
    99         10
   102         24
   103         60
   104         34
   105         19
   106         22
   109         11
   111         14
   112         29
   113         13
   115        143
   116         67
   117         91
   118         15
   119         18
   120         34
   121         11
   123          9
   125          9
   126          9
   127         14
   128         34
   129         12
   132         10
   137         11
   139         32
   141         21
   146         22
   148         30
   149         28
   150         32
   151         29
   152        198
   153         45
   163         27
   164         35
   165        400
   166        153
   167        350
   168        157
   169         22
   176         16
   177         30
   178         92
   179        105
   180         41
   181         46
   182         10
   189          9
   191         12
   192         13
   193        166
   194        189
   195         33
   222         14
   223         18
   224        633
   225        136
   226         14
   254         12
   255        863
   256        190
   257         22