##TITLE=Library Entry 44495
##JCAMP-DX=Revision 4.10 
##DATA TYPE=MASS SPECTRUM
##SAMPLE DESCRIPTION=Exported from NIST MS Search
##NAMES=HP
##CAS NAME=L-Threonine, ethyl ester
##MOLFORM=C6H13NO3
##CAS REGISTRY NO=23926-51-4
##MP= -300
##BP= -300
##MW= 147
##$RETENTION INDEX=0
##$CONDENSED SPECTRUM=NO
##NPOINTS= 30
##XYDATA=(XY..XY) 1 
    29        517
    30        537
    31        101
    32          8
    39          8
    41         19
    42        101
    43         90
    44         71
    45        132
    46         71
    47          8
    54         11
    55         11
    56        157
    57        269
    58         60
    59         11
    60         11
    71          8
    72         19
    73          8
    74        999
    75         71
    76          8
   101          5
   102         60
   103        258
   104          5
   132         13