##TITLE=Library Entry 9431
##JCAMP-DX=Revision 4.10 
##DATA TYPE=MASS SPECTRUM
##SAMPLE DESCRIPTION=NIST Mass Spectrometry Data Center, 1998.
##NAMES=HP
##CAS NAME=Alfaxalone
##MOLFORM=C21H32O3
##CAS REGISTRY NO=23930-19-0
##MP= -300
##BP= -300
##MW= 332
##$RETENTION INDEX=0
##$CONDENSED SPECTRUM=NO
##NPOINTS= 264
##XYDATA=(XY..XY) 1 
    15          7
    26          1
    27         27
    28          9
    29         77
    30          2
    31         13
    39         65
    40         18
    41        300
    42         24
    43        999
    44         34
    45         26
    50          1
    51         15
    52         10
    53        147
    54         24
    55        352
    56         19
    57         90
    58         11
    59          6
    63          4
    64          2
    65         80
    66         29
    67        327
    68         79
    69        127
    70         17
    71        113
    72          7
    73          1
    75          1
    77        202
    78         44
    79        426
    80         86
    81        376
    82         53
    83         89
    84         61
    85        172
    86         12
    87          3
    89          4
    91        423
    92         72
    93        346
    94         91
    95        320
    96         93
    97         57
    98         32
    99         10
   100          1
   102          3
   103         25
   104         17
   105        330
   106         91
   107        280
   108        175
   109        202
   110         63
   111         41
   112          6
   113          2
   115         29
   116         16
   117         70
   118         46
   119        170
   120         81
   121        164
   122        196
   123        132
   124         71
   125         41
   126          7
   127          8
   128         21
   129         30
   130         18
   131        101
   132         27
   133        158
   134         71
   135        135
   136         78
   137         77
   138         40
   139         13
   140          3
   141         12
   142         10
   143         31
   144         20
   145         95
   146         42
   147        326
   148        154
   149         88
   150         29
   151         45
   152         12
   153          4
   154          3
   155         12
   156          7
   157         38
   158         14
   159        100
   160         49
   161         71
   162         21
   163         34
   164         13
   165         57
   166         39
   167         13
   168          3
   169         12
   170          7
   171         30
   172         14
   173         89
   174         26
   175         88
   176         18
   177         40
   178         27
   179         10
   180          1
   181          4
   182          2
   183         13
   184          6
   185         24
   186         23
   187         34
   188         49
   189         30
   190         16
   191         54
   192         13
   193        126
   194         20
   195         12
   196          4
   197         19
   198          7
   199         25
   200         10
   201         43
   202         11
   203         13
   204         18
   205         13
   206        138
   207         25
   208         10
   209          7
   210          3
   211         41
   212         12
   213         28
   214          7
   215         27
   216         12
   217          8
   218         12
   219        115
   220         22
   221          7
   222          4
   223          8
   224          2
   225         14
   226         14
   227         28
   228         15
   229         69
   230         26
   231         27
   232          6
   233         13
   234          5
   235          4
   236          2
   237          4
   238          8
   239         11
   240          3
   241         15
   242          6
   243         49
   244         28
   245         23
   246         15
   247         91
   248         76
   249         16
   250          3
   251          2
   252          2
   253         26
   254          8
   255          9
   256         13
   257         18
   258          6
   259         23
   260         17
   261        157
   262        105
   263         23
   264          2
   265          1
   267          7
   268          4
   269         12
   270          4
   271         35
   272         13
   273          8
   274         43
   275         18
   276          5
   278          1
   281         25
   282          6
   285          4
   286         11
   287         10
   288          4
   289        218
   290         47
   291          4
   295          2
   296         11
   297          4
   298          2
   299         47
   300         10
   301          2
   303          2
   304         27
   305          5
   313          2
   314         26
   315          6
   316          1
   317         58
   318         11
   319          2
   330          8
   331          2
   332        379
   333         82
   334         13
   335          2