##TITLE=Library Entry 19377
##JCAMP-DX=Revision 4.10 
##DATA TYPE=MASS SPECTRUM
##SAMPLE DESCRIPTION=H. Fales, LC, NHLBI, NIH, Bethesda, MD 20892
##NAMES=HP
##CAS NAME=5.alpha.-Androstane, 17-ethyl-1,3-dihydroxy-, (1.beta.,3.beta.)-
##MOLFORM=C21H36O2
##CAS REGISTRY NO=23931-04-6
##MP= -300
##BP= -300
##MW= 320
##$RETENTION INDEX=0
##$CONDENSED SPECTRUM=NO
##NPOINTS= 232
##XYDATA=(XY..XY) 1 
    41        760
    42        151
    43        597
    44        170
    45        234
    46          9
    47         16
    49          7
    50          4
    51         15
    53        205
    55        999
    56        102
    57        177
    58         11
    59          8
    60          6
    61          4
    63          4
    65         78
    66         52
    67        547
    68        158
    69        304
    70         69
    71         86
    72          3
    73        407
    74         32
    75         98
    76          1
    77        181
    78         54
    79        476
    80        111
    81        726
    82         88
    83        133
    84         35
    85         22
    86         14
    87         13
    88         26
    89         47
    91        364
    92         89
    93        447
    94        156
    95        519
    96         77
    97         75
    98         13
    99          8
   100          6
   101          8
   102          7
   103         18
   104         19
   105        325
   106        153
   107        393
   108        202
   109        327
   110         68
   111         49
   112          8
   113         11
   114          6
   115         21
   116         12
   117         62
   118         49
   119        187
   120        119
   121        233
   122        216
   123        245
   124        135
   125         27
   126          9
   127         14
   128         15
   129         27
   130         14
   131        118
   132         45
   133        184
   134         93
   135        216
   136        123
   137         75
   138         40
   139         26
   140         35
   141         65
   142         12
   143         43
   144         19
   145        135
   146         49
   147        200
   148         82
   149        130
   150         35
   151         31
   152          7
   153          8
   154          3
   155          5
   156          4
   157         44
   158         28
   159        135
   160         88
   161        297
   162        107
   163        243
   164         56
   165         25
   166          8
   167          4
   168          1
   169          3
   170          2
   171         33
   172         21
   173         80
   174         54
   175        174
   176        319
   177        163
   178         98
   179         30
   180          7
   181          6
   182          2
   183          4
   184          1
   185         29
   186         15
   187         52
   188         26
   189        137
   190        116
   191         97
   192         40
   193          9
   194          3
   195          2
   197          3
   199         32
   200         17
   201         46
   202         26
   203        126
   204         53
   205         22
   206          6
   207          5
   208          3
   209          2
   211          3
   213         94
   214         39
   215         67
   216         26
   217        187
   218         62
   219         20
   220          4
   221          4
   222          4
   227         15
   228         27
   229         52
   230        192
   231        285
   232        384
   233         97
   234         14
   235          6
   236          2
   241          8
   242          5
   243         82
   244         25
   245         40
   246        243
   247         52
   248         11
   249         26
   250         37
   251          7
   253          2
   255         44
   256         15
   257          9
   258         10
   259         11
   260          4
   261          7
   262          4
   264          9
   265          2
   267          6
   269         98
   270         21
   271         12
   272          3
   273         64
   274         19
   275          4
   282          5
   283          5
   284        120
   285         31
   286          6
   287        162
   288         35
   289          7
   291          2
   300         17
   301          8
   302        542
   303        125
   304         15
   305         11
   306          2
   318          5
   320        146
   321         33
   322          5