##TITLE=Library Entry 40467
##JCAMP-DX=Revision 4.10 
##DATA TYPE=MASS SPECTRUM
##SAMPLE DESCRIPTION=Exported from NIST MS Search
##NAMES=HP
##CAS NAME=Pregnan-1-ol, 3-amino-, (1.beta.,3.alpha.,5.alpha.)-
##MOLFORM=C21H37NO
##CAS REGISTRY NO=23931-05-7
##MP= -300
##BP= -300
##MW= 319
##$RETENTION INDEX=0
##$CONDENSED SPECTRUM=NO
##NPOINTS= 136
##XYDATA=(XY..XY) 1 
    40         77
    41         30
    42        386
    43         77
    44        239
    45        382
    46         77
    47         38
    50          7
    51         19
    52         23
    53         96
    54         34
    55        389
    56        139
    57         69
    58         65
    59         23
    65         46
    66         34
    67        227
    68         77
    69        243
    70        115
    71         38
    72        999
    73         69
    74        150
    77         77
    78         23
    79        189
    80         57
    81        305
    82        158
    83         73
    84         34
    85         34
    87         38
    90        154
    91         42
    92        189
    93         77
    94        212
    95         46
    96         42
    97         19
   104         19
   105        108
   106         96
   107        158
   108         81
   109        135
   110         61
   111         50
   114         19
   116         34
   117         34
   118         77
   119         38
   120         81
   121         61
   122        115
   123         77
   124         11
   127         11
   128         15
   129         19
   130         38
   131         15
   132         61
   133         38
   134         61
   135         34
   136         38
   137         19
   139         19
   141         23
   145         38
   146         19
   147         61
   148         38
   149         46
   150          7
   151         11
   155         11
   157         38
   158          7
   159         73
   160         30
   161         77
   162         11
   163         23
   169         30
   171         19
   172         19
   173         30
   174         38
   175         38
   176         23
   177         23
   187         19
   189         34
   190         19
   191         30
   201         19
   203         50
   204         19
   210          7
   212         19
   213         15
   214         57
   215         19
   227         11
   228         15
   229         57
   230         96
   231         96
   232         34
   243         19
   244         23
   246         30
   248         23
   253         19
   258         34
   265         38
   266         19
   268         19
   270         38
   280         81
   281         34
   282         57
   283         19
   301         19
   302        698
   303        173
   304         50