##TITLE=Library Entry 14525
##JCAMP-DX=Revision 4.10 
##DATA TYPE=MASS SPECTRUM
##SAMPLE DESCRIPTION=Chemical Concepts
##NAMES=HP
##CAS NAME=Pregnan-20-one, 3-(acetyloxy)-, (3.beta.,5.beta.)-
##MOLFORM=C23H36O3
##CAS REGISTRY NO=2394-44-7
##MP= -300
##BP= -300
##MW= 360
##$RETENTION INDEX=0
##$CONDENSED SPECTRUM=NO
##NPOINTS= 192
##XYDATA=(XY..XY) 1 
    26          1
    27         16
    29         47
    31          1
    39         18
    41        151
    42          6
    43        999
    44         21
    45         15
    51          2
    52          2
    53         45
    54         15
    55        165
    56          8
    57         11
    58          8
    59          2
    60          3
    61         16
    65         20
    66         10
    67        179
    68         37
    69         62
    70          4
    71        134
    72          7
    77         62
    78         14
    79        194
    80         46
    81        235
    82         20
    83         38
    84        138
    85         81
    86          8
    91        144
    92         36
    93        219
    94        102
    95        199
    96         20
    97         23
    98          3
    99          3
   100          2
   103          6
   104          6
   105        152
   106         75
   107        211
   108        209
   109        130
   110         15
   111         16
   113          1
   115          6
   116          6
   117         29
   118         17
   119         97
   120         69
   121        132
   122         50
   123         45
   124          8
   125          4
   128          3
   129          8
   130          5
   131         54
   132         37
   133        103
   134         58
   135         96
   136         20
   137         20
   138          6
   139          2
   141          3
   142          2
   143         16
   144          9
   145         71
   146         30
   147        125
   148         41
   149         63
   150         11
   151          8
   152          1
   155          3
   156          1
   157         14
   158          5
   159         59
   160         34
   161         79
   162         42
   163         34
   164          6
   165          4
   169          4
   171         14
   172          9
   173         53
   174         26
   175         42
   176         14
   177         16
   178          5
   179          3
   183          2
   185         14
   186          8
   187         27
   188         19
   189         20
   190         27
   191         19
   192         11
   193          5
   197          4
   198          2
   199         13
   200          8
   201         39
   202         12
   203         21
   204         16
   205          6
   206          4
   211          5
   212          3
   213         24
   214         11
   215        166
   216         46
   217         36
   218         22
   219          4
   225          5
   226          3
   227         19
   228          9
   229         36
   230         76
   231         24
   232          7
   233          5
   239          3
   240          3
   241         11
   242         44
   243         21
   244         18
   245         18
   246         35
   247          7
   253          6
   254          3
   255         15
   256          9
   257         64
   258         30
   259         23
   260          4
   261          2
   267         23
   268          5
   271          6
   272          4
   273          2
   275          2
   282         13
   283          7
   284          2
   285        105
   286         23
   287          2
   299          2
   300        407
   301        101
   302         18
   303          1
   314          5
   342          7
   343          2
   360          1