##TITLE=Library Entry 88876
##JCAMP-DX=Revision 4.10 
##DATA TYPE=MASS SPECTRUM
##SAMPLE DESCRIPTION=NIST Mass Spectrometry Data Center, 1994
##NAMES=HP
##CAS NAME=Bis(4-Chlorophenylsulfonyl)methane
##MOLFORM=C13H10Cl2O4S2
##CAS REGISTRY NO=2394-02-7
##MP= -300
##BP= -300
##MW= 364
##$RETENTION INDEX=0
##$CONDENSED SPECTRUM=NO
##NPOINTS= 57
##XYDATA=(XY..XY) 1 
    17          9
    18         48
    27         13
    38         19
    39         35
    44         21
    45         40
    48         11
    50        182
    51        104
    61         18
    62         18
    63         72
    64         23
    69         14
    73         46
    74         74
    75        503
    76         96
    77         28
    84         13
    85         50
    86          7
    87         26
    88          7
    89         67
    90         22
    95         13
    99         63
   101         22
   108         21
   111        999
   112         80
   113        316
   114         27
   115         14
   125        404
   126         37
   127        148
   131         56
   133         23
   141        607
   142         56
   143        221
   144         23
   159        104
   161         40
   173        122
   175        659
   176         57
   177        220
   178         15
   179         11
   300         18
   302         14
   364         16
   366         16