##TITLE=Library Entry 88641
##JCAMP-DX=Revision 4.10 
##DATA TYPE=MASS SPECTRUM
##SAMPLE DESCRIPTION=NIST Mass Spectrometry Data Center
##NAMES=HP
##CAS NAME=Bis(3-chlorophenylsulphonyl)methane
##MOLFORM=C13H10Cl2O4S2
##CAS REGISTRY NO=2394-03-8
##MP= -300
##BP= -300
##MW= 364
##$RETENTION INDEX=0
##$CONDENSED SPECTRUM=NO
##NPOINTS= 87
##XYDATA=(XY..XY) 1 
    15          4
    27         10
    28         10
    29          4
    32          8
    38         14
    39         27
    44          6
    45         38
    46          7
    47          3
    48         15
    50        191
    51        103
    52          8
    53          4
    61         21
    62         18
    63         73
    64         28
    65         14
    69         14
    70          6
    73         42
    74        103
    75        582
    76        108
    77         48
    78          8
    79         12
    81          6
    82          5
    84         17
    85         66
    86         10
    87         36
    89         85
    90         29
    95         15
    96         13
    99         71
   100          7
   101         19
   107          6
   108         22
   109          8
   111        999
   112         96
   113        335
   114         30
   115         24
   121          5
   123          5
   125        389
   126         40
   127        130
   128         14
   131         76
   132          9
   133         26
   139          5
   141        698
   142         70
   143        235
   144         26
   150          4
   151          6
   152         10
   157          8
   159        108
   160         18
   161         40
   162          6
   165         10
   166          6
   173         86
   175        347
   176         24
   177        116
   178         10
   179          5
   189          4
   364         41
   365          5
   366         40
   367          5
   368          7