##TITLE=Library Entry 55899
##JCAMP-DX=Revision 4.10 
##DATA TYPE=MASS SPECTRUM
##SAMPLE DESCRIPTION=Drug Lab
##NAMES=HP
##CAS NAME=Articaine
##MOLFORM=C13H20N2O3S
##CAS REGISTRY NO=23964-58-1
##MP= -300
##BP= -300
##MW= 284
##$RETENTION INDEX=0
##$CONDENSED SPECTRUM=NO
##NPOINTS= 72
##XYDATA=(XY..XY) 1 
    42         18
    43         33
    44        227
    45         17
    47          1
    51          1
    52          2
    53          2
    54          2
    55          6
    56         35
    57         10
    58         10
    59          9
    60          1
    65          1
    66          3
    67          3
    68          4
    69          4
    70         16
    71          8
    72          3
    73          1
    78          1
    80          1
    81          1
    82          1
    83          6
    84         19
    86        999
    87         63
    88          1
    94          4
    95          1
    96          1
    97          2
    98          1
   103          1
   109          1
   110          7
   111          9
   112          8
   113          2
   114          1
   137          1
   138          8
   139         44
   140         16
   141          3
   150          1
   152          4
   166         43
   167          4
   168          9
   169          1
   171        142
   172         13
   173          8
   184          9
   185          1
   194          1
   195          2
   198          1
   223          2
   227          3
   237          1
   253          2
   255          1
   284         15
   285          2
   286          1