##TITLE=Library Entry 44544
##JCAMP-DX=Revision 4.10 
##DATA TYPE=MASS SPECTRUM
##SAMPLE DESCRIPTION=Chemical Concepts
##NAMES=HP
##CAS NAME=5-Hexenoic acid, methyl ester
##MOLFORM=C7H12O2
##CAS REGISTRY NO=2396-80-7
##MP= -300
##BP= -300
##MW= 128
##$RETENTION INDEX=894
##$CONDENSED SPECTRUM=NO
##NPOINTS= 77
##XYDATA=(XY..XY) 1 
    24          1
    25          1
    26         26
    27        197
    28         24
    29         84
    30          4
    31         57
    32          9
    33          3
    34          0
    36          2
    37          7
    38         20
    39        309
    40         47
    41        569
    42         76
    43        675
    44         15
    45         34
    46          0
    48          0
    49          1
    50         10
    51         17
    52          7
    53         66
    54        139
    55        199
    56         13
    57         10
    58         10
    59        182
    60          6
    61          4
    62          3
    63          5
    64          0
    65         12
    66          9
    67         71
    68        467
    69        214
    70         12
    71         24
    72          5
    73          3
    74        999
    75         36
    76          5
    77          1
    79          4
    80          0
    81         15
    82          2
    83          1
    84          0
    85         13
    86          4
    87         52
    88          2
    89          0
    95          6
    96        120
    97        217
    98         16
    99          4
   100          6
   101          0
   109          0
   111          1
   113         27
   114          2
   127          2
   128         48
   129          3