##TITLE=Library Entry 18996
##JCAMP-DX=Revision 4.10 
##DATA TYPE=MASS SPECTRUM
##SAMPLE DESCRIPTION=Exported from NIST MS Search
##NAMES=HP
##CAS NAME=2-Hexenoic acid, methyl ester
##MOLFORM=C7H12O2
##CAS REGISTRY NO=2396-77-2
##MP= -300
##BP= -300
##MW= 128
##$RETENTION INDEX=1272
##$CONDENSED SPECTRUM=NO
##NPOINTS= 72
##XYDATA=(XY..XY) 1 
    15        282
    26         73
    27        538
    28        135
    29        359
    30         25
    31         39
    32         16
    33         64
    37         20
    38         77
    39        657
    40        211
    41        891
    42        321
    43        141
    44         13
    45         48
    46         16
    47         32
    49         32
    50         29
    51         56
    52         26
    53        189
    54         59
    55        999
    56         63
    57         30
    58         14
    59        244
    60         64
    61         48
    62         80
    63         14
    64         42
    65         29
    66         20
    67        106
    68        497
    69        304
    70         26
    71        112
    72         21
    73         77
    74        308
    75         13
    79         42
    81        150
    82         13
    83         96
    85         81
    86         13
    87        574
    88         32
    89         45
    95         26
    96         66
    97        535
    98         48
    99         29
   100         26
   101         32
   111         48
   113        321
   114         29
   115         16
   126         10
   127         22
   128        433
   129         55
   130         80