##TITLE=Library Entry 19446
##JCAMP-DX=Revision 4.10 
##DATA TYPE=MASS SPECTRUM
##SAMPLE DESCRIPTION=Exported from NIST MS Search
##NAMES=HP
##CAS NAME=2-Octenoic acid, methyl ester
##MOLFORM=C9H16O2
##CAS REGISTRY NO=2396-85-2
##MP= -300
##BP= -300
##MW= 156
##$RETENTION INDEX=1164
##$CONDENSED SPECTRUM=NO
##NPOINTS= 94
##XYDATA=(XY..XY) 1 
    15        202
    26         40
    27        497
    28        143
    29        692
    30         25
    31         29
    32          7
    33         52
    37         56
    38         29
    39        500
    40        170
    41        815
    42        298
    43        199
    44         13
    45         51
    46         20
    47         35
    48          7
    49         10
    50         14
    51         45
    52         28
    53        222
    54        119
    55        999
    56        161
    57        162
    58         21
    59        315
    60         12
    61         52
    62         17
    63         87
    64         17
    65         27
    66         26
    67        136
    68        343
    69        221
    70        129
    71         87
    72         29
    73         10
    74        294
    75         23
    76         14
    77         14
    78         45
    79         18
    80         11
    81        182
    82        314
    83        126
    84         13
    85         76
    86         80
    87        790
    88         76
    89         70
    91          3
    92         17
    93         52
    94         17
    95         63
    96        224
    97         45
    98         87
    99         27
   100        160
   101        202
   102         17
   103         14
   109         70
   111         49
   112         35
   113        312
   114        102
   115         21
   116         24
   124        276
   125        294
   126         38
   127         47
   128         11
   129         28
   141        101
   142          7
   155         77
   156         76
   157         18
   158         38