##TITLE=Library Entry 87463
##JCAMP-DX=Revision 4.10 
##DATA TYPE=MASS SPECTRUM
##SAMPLE DESCRIPTION=Div. of Experiment Therapeutics WRAIR, WRAMC, Washingto
n DC 20307
##NAMES=HP
##CAS NAME=1-Ethyl-1,2,3,6-tetrahydro-4-[1-acetamidoethyl]pyridine
##MOLFORM=C11H20N2O
##CAS REGISTRY NO=23969-86-0
##MP= -300
##BP= -300
##MW= 196
##$RETENTION INDEX=0
##$CONDENSED SPECTRUM=NO
##NPOINTS= 122
##XYDATA=(XY..XY) 1 
    41         99
    42        291
    43        419
    44        282
    45         12
    46          4
    47          0
    48          1
    50          4
    51         17
    52         17
    53         87
    54         40
    55         50
    56        104
    57         38
    58        112
    59         10
    60         32
    62          4
    63          3
    64          2
    65         18
    66         10
    67         48
    68         29
    69         20
    70         20
    71         17
    72         41
    73          2
    74          1
    77         25
    78         13
    79         42
    80         92
    81         44
    82        112
    83          9
    84         25
    85          5
    86         26
    87          5
    88          4
    89          0
    91         13
    92          6
    93         46
    94         55
    95         33
    96         65
    97         79
    98         65
    99          3
   100          5
   101          1
   103          0
   104          2
   105          7
   106         30
   107         36
   108        143
   110        999
   111         62
   112         14
   113          2
   114          3
   116          0
   117          0
   118          1
   119          1
   120          5
   121          8
   122        349
   123         49
   124         45
   125          4
   126         26
   127          1
   128         15
   129          1
   130          0
   131          0
   132          1
   133          2
   134         19
   135         18
   136        118
   137        507
   138         97
   139          6
   140         22
   141          2
   142          5
   143          0
   144          2
   146          0
   147          0
   150          4
   151          8
   152         25
   153          8
   154          3
   155          3
   156          1
   157          0
   158          0
   166          2
   167          6
   168          1
   169          4
   170          1
   180          4
   181         54
   182         15
   183          0
   194          5
   195         52
   196        105
   197         15
   198          5
   199          1