##TITLE=Library Entry 58889
##JCAMP-DX=Revision 4.10 
##DATA TYPE=MASS SPECTRUM
##SAMPLE DESCRIPTION=NIST Mass Spectrometry Data Center, 1990.
##NAMES=HP
##CAS NAME=1,6-Heptadiyne
##MOLFORM=C7H8
##CAS REGISTRY NO=2396-63-6
##MP= -300
##BP= -300
##MW= 92
##$RETENTION INDEX=664
##$CONDENSED SPECTRUM=NO
##NPOINTS= 50
##XYDATA=(XY..XY) 1 
    12          2
    13          3
    14          1
    15          3
    24          2
    25         10
    26         57
    27        361
    28         13
    36          7
    37         64
    38        125
    39        349
    40        115
    41         22
    42          3
    43          5
    44          1
    45          2
    48          4
    49         27
    50        149
    51        211
    52        131
    53        179
    54          7
    60          4
    61         28
    62         53
    63         93
    64         41
    65        164
    66         37
    67          2
    73          3
    74          7
    75          4
    76          2
    77         12
    78          1
    84          3
    85          7
    86         10
    87          4
    88          2
    89         24
    90          1
    91        999
    92         75
    93          3