##TITLE=Library Entry 60262
##JCAMP-DX=Revision 4.10 
##DATA TYPE=MASS SPECTRUM
##SAMPLE DESCRIPTION=NIST Mass Spectrometry Data Center, 1990.
##NAMES=HP
##CAS NAME=1,8-Nonadiyne
##MOLFORM=C9H12
##CAS REGISTRY NO=2396-65-8
##MP= -300
##BP= -300
##MW= 120
##$RETENTION INDEX=926
##$CONDENSED SPECTRUM=NO
##NPOINTS= 50
##XYDATA=(XY..XY) 1 
    14          4
    25          3
    26         25
    27        151
    28         12
    29         30
    37         29
    38         86
    39        473
    40         81
    41        270
    42         19
    44          5
    49         11
    50        119
    51        211
    52        115
    53        365
    54         57
    55         83
    56          4
    61         11
    62         27
    63         61
    64         16
    65        152
    66        100
    67         91
    68         36
    73          3
    74         16
    75          8
    76          3
    77        334
    78        186
    79        596
    80         86
    81         90
    82          6
    89         10
    91        999
    92        254
    93         35
   103         44
   105        218
   106         17
   115         11
   117         17
   119         22
   120          4