##TITLE=Library Entry 3424
##JCAMP-DX=Revision 4.10 
##DATA TYPE=MASS SPECTRUM
##SAMPLE DESCRIPTION=Exported from NIST MS Search
##NAMES=HP
##CAS NAME=3-Hexenoic acid, methyl ester
##MOLFORM=C7H12O2
##CAS REGISTRY NO=2396-78-3
##MP= -300
##BP= -300
##MW= 128
##$RETENTION INDEX=933
##$CONDENSED SPECTRUM=NO
##NPOINTS= 49
##XYDATA=(XY..XY) 1 
    17          1
    18          4
    26         36
    27        283
    28         56
    29        130
    30         12
    31         34
    37         11
    38         37
    39        283
    40         57
    41        999
    42        103
    43        170
    44         13
    45         24
    50         19
    51         34
    52         17
    53        107
    54         58
    55        228
    56         21
    57         13
    59        316
    60         11
    65         16
    66          8
    67         91
    68        380
    69        433
    70         28
    71        116
    72          9
    74        397
    75         19
    81         36
    82          9
    85         22
    86         13
    87         44
    95         10
    96         43
    97         65
    99         10
   113         37
   128        123
   129         13