##TITLE=Library Entry 83543
##JCAMP-DX=Revision 4.10 
##DATA TYPE=MASS SPECTRUM
##SAMPLE DESCRIPTION=Japan AIST/NIMC Database- Spectrum MS-NW-5814
##NAMES=HP
##CAS NAME=Diazene, (4-methoxyphenyl)phenyl-
##MOLFORM=C13H12N2O
##CAS REGISTRY NO=2396-60-3
##MP= -300
##BP= -300
##MW= 212
##$RETENTION INDEX=0
##$CONDENSED SPECTRUM=NO
##NPOINTS= 105
##XYDATA=(XY..XY) 1 
    14          2
    15          9
    26          5
    27         17
    28          1
    29          4
    31          1
    32          1
    37          7
    38         29
    39         35
    40          3
    41          4
    42          1
    43          1
    44          7
    49          2
    50         42
    51        133
    52         27
    53         11
    54          2
    55          3
    57          1
    58          1
    61          5
    62         12
    63         65
    64        130
    65         21
    66          4
    67          1
    73          2
    74          9
    75         10
    76         27
    77        875
    78         70
    79         30
    80         11
    81          1
    85          1
    86          3
    87          1
    88          2
    89          4
    90          3
    91         11
    92        256
    93         22
    94          3
   100          1
   101          1
   102          3
   103          1
   104          2
   105         45
   106         12
   107        999
   108         79
   109          6
   114          2
   115         50
   116          8
   117          1
   120          2
   121          3
   123          1
   126          2
   127          2
   128          1
   130          1
   135        372
   136         34
   137          3
   139          9
   140          4
   141         45
   142          7
   145          1
   150          1
   151          3
   152          8
   153          4
   154          2
   165          1
   167          1
   168          6
   169          5
   170          1
   180          1
   181          1
   182          1
   184          2
   194          1
   195          1
   196          4
   197          6
   198          1
   210          1
   211          1
   212        610
   213        101
   214         10
   215          1