##TITLE=Library Entry 607
##JCAMP-DX=Revision 4.10 
##DATA TYPE=MASS SPECTRUM
##SAMPLE DESCRIPTION=Chemical Concepts
##NAMES=HP
##CAS NAME=3-Hexenoic acid, ethyl ester
##MOLFORM=C8H14O2
##CAS REGISTRY NO=2396-83-0
##MP= -300
##BP= -300
##MW= 142
##$RETENTION INDEX=1005
##$CONDENSED SPECTRUM=NO
##NPOINTS= 69
##XYDATA=(XY..XY) 1 
    26         16
    27        130
    29        999
    30         18
    31          9
    33         27
    34          4
    37          3
    38          9
    39        136
    40         55
    41        781
    42         84
    43         60
    44         16
    45         30
    50         12
    51         22
    52         10
    53         79
    54         41
    55        165
    56         45
    57         37
    58          3
    59         11
    60         66
    61         20
    64          3
    65         13
    66          6
    67        118
    68        407
    69        788
    70        109
    71        159
    72         12
    73         42
    77          3
    78          4
    79          3
    81         32
    82         13
    83         21
    85         27
    86          5
    87          2
    88        179
    89          8
    91          8
    94          2
    95         21
    96        135
    97        120
    98         10
    99         38
   100          8
   101          9
   105          6
   106          3
   109          3
   111          3
   113         39
   114         46
   115         11
   117          2
   127          8
   142        249
   143         24