##TITLE=Library Entry 68024
##JCAMP-DX=Revision 4.10 
##DATA TYPE=MASS SPECTRUM
##SAMPLE DESCRIPTION=Japan AIST/NIMC Database- Spectrum MS-NW-1108
##NAMES=HP
##CAS NAME=2,4-Hexadienoic acid, ethyl ester, (2E,4E)-
##MOLFORM=C8H12O2
##CAS REGISTRY NO=2396-84-1
##MP= -300
##BP= -300
##MW= 140
##$RETENTION INDEX=1097
##$CONDENSED SPECTRUM=NO
##NPOINTS= 87
##XYDATA=(XY..XY) 1 
    14          4
    15         19
    16          1
    17          1
    18          3
    25          1
    26         24
    27        157
    28         53
    29        194
    30          5
    31          9
    32         11
    33          1
    37          9
    38         33
    39        330
    40         78
    41        470
    42         21
    43         89
    44          6
    45         22
    46          1
    47          4
    49          1
    50         15
    51         38
    52         22
    53         27
    54         13
    55         48
    56         11
    57          9
    58         12
    59          1
    60          1
    61          5
    62         10
    63         25
    64          9
    65        134
    66        201
    67        942
    68         90
    69         39
    70         10
    71          9
    72          1
    73          2
    77          7
    78          2
    79         10
    80          3
    81         30
    82          7
    83         43
    84         41
    85          3
    86          6
    91          4
    92          2
    93         16
    94         33
    95        999
    96         79
    97        690
    98         40
    99          8
   101          2
   105          4
   107          2
   110          2
   111         83
   112        110
   113          8
   114          1
   119          2
   121          2
   125        315
   126         25
   127          3
   137          1
   139          8
   140        477
   141         46
   142          4