##TITLE=Library Entry 57491
##JCAMP-DX=Revision 4.10 
##DATA TYPE=MASS SPECTRUM
##SAMPLE DESCRIPTION=D.HENNEBERG, MAX-PLANCK INSTITUTE, MULHEIM, WEST GERMAN
Y
##NAMES=HP
##CAS NAME=1-Propene, 3,3'-thiobis[2-methyl-
##MOLFORM=C8H14S
##CAS REGISTRY NO=23973-54-8
##MP= -300
##BP= -300
##MW= 142
##$RETENTION INDEX=0
##$CONDENSED SPECTRUM=NO
##NPOINTS= 106
##XYDATA=(XY..XY) 1 
    26         23
    27        375
    28         66
    29        576
    30         12
    31          0
    32          6
    33          3
    34          8
    35          4
    36          0
    37          2
    38          9
    39        390
    40         62
    41        386
    42         19
    43         74
    44         14
    45        713
    46         64
    47        312
    48         10
    49         14
    50          7
    51         23
    52         15
    53        557
    54         69
    55        901
    56        112
    57         18
    58         26
    59        365
    60         25
    61         36
    62          1
    63          1
    65         20
    66          5
    67        188
    68         32
    69         56
    70          5
    71        356
    72         25
    73         42
    74        122
    75          8
    76          9
    77         27
    78          4
    79         48
    80         14
    81         76
    82         13
    83         11
    85        484
    86        762
    87        999
    88         85
    89         45
    90          2
    91         31
    92          5
    93        180
    94         21
    95        495
    96         65
    97          7
    98         10
    99        206
   100         46
   101         29
   102          3
   103          1
   104          0
   105          4
   106          0
   107         13
   108        139
   109        242
   110         19
   111          3
   112          1
   113         34
   114         16
   115          4
   116          1
   117          0
   119          0
   120          0
   121          0
   122          0
   124          0
   126          1
   127        334
   128         28
   129         16
   130          0
   140          0
   141          3
   142        915
   143         91
   144         45
   145          4