##TITLE=Library Entry 91160
##JCAMP-DX=Revision 4.10 
##DATA TYPE=MASS SPECTRUM
##SAMPLE DESCRIPTION=Institute of Organic Chemistry, USSR, 1990
##NAMES=HP
##CAS NAME=4,7,13,16,21,24-Hexaoxa-1,10-diazabicyclo[8.8.8]hexacosane
##MOLFORM=C18H36N2O6
##CAS REGISTRY NO=23978-09-8
##MP= -300
##BP= -300
##MW= 376
##$RETENTION INDEX=0
##$CONDENSED SPECTRUM=NO
##NPOINTS= 164
##XYDATA=(XY..XY) 1 
    54         39
    55         56
    56        527
    57        213
    58        233
    59         50
    67         17
    68         35
    69        107
    70        300
    71        187
    72        193
    73         44
    74         48
    81         20
    82         73
    83         97
    84        160
    85         80
    86        153
    87         61
    88        107
    89         17
    94         37
    95        103
    96         77
    97        107
    98        115
    99         87
   100        600
   101        112
   102        110
   107         12
   108         29
   109         20
   110         36
   111         44
   112        133
   113         78
   114        999
   115        108
   116        121
   117         15
   118         65
   122         16
   123         12
   124         20
   125        180
   126         83
   127         75
   128        191
   129         65
   130        132
   131         21
   132        233
   133         18
   138         21
   139         20
   140         40
   141         19
   142         90
   143         27
   144        733
   145         45
   146        217
   150         11
   151         78
   155         23
   156         41
   157         95
   158        207
   159         35
   160         39
   168         12
   169         13
   170         67
   171         15
   172         80
   173         26
   174         48
   175          8
   176         39
   182          8
   183         24
   184         25
   185         23
   186         36
   187         45
   188         47
   189         21
   190         35
   199         33
   200         21
   201         24
   202         32
   203          7
   204         67
   205          8
   206         91
   207         11
   213         93
   214         22
   215         31
   216         21
   217         19
   218         23
   219         12
   220         15
   225          7
   226          4
   227         24
   228          7
   229         17
   230         19
   231         12
   232         29
   235          5
   236          1
   237         17
   238          4
   239         24
   240          7
   241          9
   242          7
   243          4
   245         20
   246         27
   247          9
   271        100
   272         17
   273         23
   274          6
   275         83
   276         13
   285         55
   286         11
   287         47
   288         15
   289         40
   290         10
   299          6
   300          2
   301        333
   302         55
   303         35
   304          5
   314          5
   315        280
   316         52
   317         17
   318          3
   319         13
   331         15
   332          4
   333         13
   334          3
   345         10
   346         11
   347         10
   348          3
   375         15
   376        180
   377         40
   378         10