##TITLE=Library Entry 64256
##JCAMP-DX=Revision 4.10 
##DATA TYPE=MASS SPECTRUM
##SAMPLE DESCRIPTION=Exported from NIST MS Search
##NAMES=HP
##CAS NAME=Spiro[furo[2,3-d]thiazole-2(3H),4'-imidazolidine]-2',5'-dithione,
 tetrahydro-1',3',3a-trimethyl-3-(phenylmethyl)-
##MOLFORM=C17H21N3OS3
##CAS REGISTRY NO=23971-99-5
##MP= -300
##BP= -300
##MW= 379
##$RETENTION INDEX=0
##$CONDENSED SPECTRUM=NO
##NPOINTS= 67
##XYDATA=(XY..XY) 1 
    39         34
    40         10
    41         47
    42        112
    43        443
    44         20
    45         75
    46          6
    47          6
    51         20
    52          6
    53         41
    54          6
    55          6
    56          6
    57         20
    58          6
    59         17
    83        170
    84        604
    85         44
    86         34
    87         27
    88         20
    89         34
    90         23
    91        999
    99         20
   101         34
   102          6
   103         17
   104         34
   105          6
   106        498
   107         47
   113         27
   114          6
   115         34
   116        109
   117         47
   118         27
   119          6
   120         20
   189         95
   190         27
   191          6
   192         17
   193         23
   200         75
   204        443
   205         34
   206         61
   261         13
   262         95
   263         61
   264        682
   265         61
   274         61
   275          6
   276          6
   295          6
   315        129
   316         27
   379        112
   380         27
   381         17
   382          6