##TITLE=Library Entry 80689
##JCAMP-DX=Revision 4.10 
##DATA TYPE=MASS SPECTRUM
##SAMPLE DESCRIPTION=CONTINENTAL OIL CO., PONCA CITY, OKLA, USA
##NAMES=HP
##CAS NAME=Benzene, (1-methylnonadecyl)-
##MOLFORM=C26H46
##CAS REGISTRY NO=2398-66-5
##MP= -300
##BP= -300
##MW= 358
##$RETENTION INDEX=0
##$CONDENSED SPECTRUM=NO
##NPOINTS= 105
##XYDATA=(XY..XY) 1 
    27         13
    28          5
    29         27
    30          0
    39          6
    40          1
    41         47
    42          9
    43         73
    44          2
    50          0
    51          2
    52          0
    53          2
    54          3
    55         31
    56         10
    57         33
    58          1
    63          0
    64          0
    65          1
    66          0
    67          3
    68          2
    69         14
    70          5
    71         18
    72          1
    74          0
    75          0
    76          1
    77         22
    78         10
    79         23
    80          2
    81          2
    82          1
    83         10
    84          3
    85          7
    86          0
    89          1
    90          1
    91         96
    92         12
    93          1
    94          0
    95          1
    96          0
    97          5
    98          1
    99          1
   100          0
   101          1
   102          2
   103         15
   104         45
   105        999
   106        137
   107          8
   108          0
   109          0
   110          0
   111          1
   112          0
   113          0
   114          0
   115          3
   116          1
   117          9
   118         11
   119          9
   120          2
   121          0
   125          0
   127          0
   128          1
   129          1
   130          0
   131          5
   132          1
   133          2
   134          0
   141          0
   143          0
   144          0
   145          1
   146          0
   147          3
   148          0
   160          1
   167          0
   169          0
   174          0
   188          0
   301          0
   315          0
   316          0
   343          3
   344          1
   356          0
   358         77
   359         22
   360          3