##TITLE=Library Entry 63028
##JCAMP-DX=Revision 4.10 
##DATA TYPE=MASS SPECTRUM
##SAMPLE DESCRIPTION=GULF R. ' D. CO., PITTSBURGH, PA, USA
##NAMES=HP
##CAS NAME=Benzene, (1-hexyltetradecyl)-
##MOLFORM=C26H46
##CAS REGISTRY NO=2398-64-3
##MP= -300
##BP= -300
##MW= 358
##$RETENTION INDEX=0
##$CONDENSED SPECTRUM=NO
##NPOINTS= 136
##XYDATA=(XY..XY) 1 
    15          2
    26          2
    27         40
    28         12
    29         98
    30          2
    38          1
    39         17
    40          3
    41        125
    42         21
    43        195
    44          7
    50          1
    51          3
    52          1
    53          6
    54          6
    55         85
    56         16
    57         82
    58          4
    62          0
    63          3
    64          1
    65          9
    66          2
    67         13
    68          5
    69         37
    70         10
    71         41
    72          2
    74          0
    75          1
    76          1
    77         14
    78         15
    79         10
    80          1
    81          7
    82          3
    83         21
    84          4
    85         21
    86          2
    89          2
    90          4
    91        999
    92         97
    93          5
    94          1
    95          4
    96          1
    97         13
    98          2
    99          4
   100          1
   102          3
   103         17
   104        106
   105        150
   106         13
   107          1
   109          1
   110          0
   111          4
   112          1
   113          4
   115         17
   116          8
   117         75
   118         42
   119         62
   120          7
   121          0
   122          1
   125          1
   127          3
   128          5
   129          8
   130          4
   131         21
   132          5
   133         33
   134          4
   139          0
   141          3
   142          1
   143          2
   144          1
   145          4
   146          1
   147         18
   148          2
   152          1
   153          1
   154          1
   155          2
   157          1
   159          1
   161         15
   162          2
   165          1
   167          1
   169          2
   173          4
   174         16
   175        305
   176         57
   177          5
   178          0
   181          1
   183          1
   188          2
   189          9
   190          2
   201          1
   202          1
   203          6
   204          1
   217          4
   218          1
   231          2
   271          2
   272          9
   273        125
   274         34
   275          4
   350          1
   352          3
   353          1
   356          2
   358         76
   359         21
   360          3