##TITLE=Library Entry 63539
##JCAMP-DX=Revision 4.10 
##DATA TYPE=MASS SPECTRUM
##SAMPLE DESCRIPTION=CONTINENTAL OIL CO., PONCA CITY, OKLA, USA
##NAMES=HP
##CAS NAME=Benzene, (1-octyldodecyl)-
##MOLFORM=C26H46
##CAS REGISTRY NO=2398-65-4
##MP= -300
##BP= -300
##MW= 358
##$RETENTION INDEX=0
##$CONDENSED SPECTRUM=NO
##NPOINTS= 157
##XYDATA=(XY..XY) 1 
    26          1
    27         32
    28          7
    29         73
    30          1
    36          0
    37          0
    38          0
    39         12
    40          2
    41         92
    42         15
    43        135
    44          5
    45          0
    50          0
    51          1
    52          0
    53          5
    54          4
    55         54
    56         10
    57         72
    58          3
    62          0
    63          0
    64          0
    65          4
    66          0
    67          7
    68          2
    69         28
    70          4
    71         36
    72          2
    73          0
    74          0
    75          1
    76          0
    77         13
    78         16
    79         11
    80          1
    81          6
    82          2
    83         18
    84          2
    85         21
    86          1
    87          1
    88          2
    89          4
    90         11
    91        999
    92         93
    93          5
    94          0
    95          2
    96          0
    97          9
    98          1
    99          5
   100          0
   101          1
   102          3
   103         16
   104        112
   105        150
   106         14
   107          1
   108          1
   109          0
   110          0
   111          4
   112          0
   113          1
   114          1
   115         16
   116          8
   117         76
   118         27
   119         63
   120          6
   121          0
   123          0
   124          0
   125          1
   126          0
   127          2
   128          4
   129          6
   130          3
   131         16
   132          4
   133         46
   134          5
   135          0
   139          0
   141          2
   142          0
   143          1
   144          0
   145          4
   146          2
   147         37
   148          4
   149          0
   151          0
   153          0
   154          0
   155          0
   157          0
   158          0
   159          1
   160          1
   161         22
   162          3
   163          0
   167          0
   168          0
   169          0
   173          0
   174          1
   175         12
   176          2
   177          0
   187          0
   188          0
   189          6
   190          1
   201          0
   202         13
   203        209
   204         44
   205          4
   206          0
   207          0
   216          0
   217          0
   218          0
   231          0
   243          1
   244         10
   245        141
   246         35
   247          4
   248          0
   259          0
   260          0
   273          1
   274          0
   287          0
   301          0
   356          0
   358         69
   359         20
   360          2