##TITLE=Library Entry 65219
##JCAMP-DX=Revision 4.10 
##DATA TYPE=MASS SPECTRUM
##SAMPLE DESCRIPTION=CONTINENTAL OIL CO., PONCA CITY, OKLA, USA
##NAMES=HP
##CAS NAME=Benzene, eicosyl-
##MOLFORM=C26H46
##CAS REGISTRY NO=2398-68-7
##MP= -300
##BP= -300
##MW= 358
##$RETENTION INDEX=0
##$CONDENSED SPECTRUM=NO
##NPOINTS= 109
##XYDATA=(XY..XY) 1 
    27         31
    28         16
    29         88
    30          2
    38          1
    39         19
    40          4
    41        147
    42         29
    43        275
    44          9
    50          1
    51          4
    52          2
    53          7
    54         10
    55        110
    56         29
    57        163
    58          7
    63          2
    64          0
    65         17
    66          2
    67         13
    68          7
    69         48
    70         15
    71         67
    72          3
    75          1
    76          2
    77         25
    78         41
    79         28
    80          7
    81         10
    82          7
    83         35
    84          8
    85         45
    86          3
    89          8
    90          9
    91        958
    92        999
    93         82
    94         14
    95          6
    96          3
    97         17
    98          3
    99          4
   100          0
   101          1
   102          2
   103         13
   104        118
   105        130
   106         26
   107          3
   108          1
   109          2
   110          1
   111          5
   112          2
   113          2
   114          0
   115          7
   116          3
   117         37
   118         17
   119         24
   120          7
   121          2
   125          1
   126          1
   127          2
   128          2
   129          2
   130          2
   131         10
   132          6
   133         50
   134         12
   135          2
   141          1
   145          2
   146          2
   147          7
   148          2
   160          1
   161          3
   162          0
   167          1
   169          1
   174          1
   175          1
   188          1
   189          1
   216          0
   230          0
   244          0
   301          0
   344          1
   356          6
   358        424
   359        122
   360         17