##TITLE=Library Entry 70221
##JCAMP-DX=Revision 4.10 
##DATA TYPE=MASS SPECTRUM
##SAMPLE DESCRIPTION=A.A.Kutin, Moscow, Russia
##NAMES=HP
##CAS NAME=Piperazine, 1-(1-methyl-4-piperidyl)-
##MOLFORM=C10H21N3
##CAS REGISTRY NO=23995-88-2
##MP= -300
##BP= -300
##MW= 183
##$RETENTION INDEX=0
##$CONDENSED SPECTRUM=NO
##NPOINTS= 120
##XYDATA=(XY..XY) 1 
    35         23
    36        124
    38         48
    39         68
    40         29
    41        148
    42        601
    43        713
    44        355
    45         11
    46          1
    47          1
    49          0
    50          2
    51          7
    52          7
    53         43
    54         83
    55        322
    56        313
    57        142
    58        148
    59          7
    60          4
    61          0
    62          0
    63          2
    65          6
    66          4
    67         19
    68         76
    70        685
    71        620
    72         43
    73          3
    74          1
    75          0
    76          0
    77          7
    78          4
    79          4
    80         16
    82        382
    83         53
    84         88
    85        115
    86         19
    87         64
    89        117
    90          5
    91          6
    92          4
    94         41
    95         72
    96        799
    97        999
    98        346
    99         65
   100          4
   101          0
   103          0
   104          0
   105          2
   106          1
   107          1
   108          6
   109         11
   110         16
   111        142
   112         25
   113         26
   114          6
   115          8
   116          0
   118          0
   119          0
   120          1
   121          2
   122          3
   123         11
   124          8
   125        106
   126         18
   127         29
   128          4
   129          0
   130          0
   133          0
   134          0
   135          2
   136          0
   137          4
   138          4
   139         40
   140         11
   141         45
   142          3
   143          0
   146          2
   147          0
   148          0
   149          2
   150          1
   151          3
   153        424
   154         50
   155          3
   156          0
   165          0
   166          5
   167          1
   168          4
   169          0
   171          0
   180          2
   181          2
   182          6
   183         83
   184          9
   185          0