##TITLE=Library Entry 38380
##JCAMP-DX=Revision 4.10 
##DATA TYPE=MASS SPECTRUM
##SAMPLE DESCRIPTION=NIST Mass Spectrometry Data Center
##NAMES=HP
##CAS NAME=Tetrahydrofurfuryl acrylate
##MOLFORM=C8H12O3
##CAS REGISTRY NO=2399-48-6
##MP= -300
##BP= -300
##MW= 156
##$RETENTION INDEX=0
##$CONDENSED SPECTRUM=NO
##NPOINTS= 39
##XYDATA=(XY..XY) 1 
    15          7
    25          2
    26         25
    27        196
    29         67
    30          4
    31         19
    37          1
    38          5
    39         76
    40         14
    41        196
    42         97
    43        488
    44         22
    45          4
    50          2
    51          3
    52          2
    53         19
    54         25
    55        377
    56         32
    57         11
    58          2
    67          5
    68          3
    69          7
    70         27
    71        999
    72         48
    73          6
    81          1
    83          9
    84        142
    85         16
    86          1
    97          1
    98          1