##TITLE=Library Entry 86542
##JCAMP-DX=Revision 4.10 
##DATA TYPE=MASS SPECTRUM
##SAMPLE DESCRIPTION=NIST Mass Spectrometry Data Center
##NAMES=HP
##CAS NAME=1-(2-Cyanoethyl)-2-ethyl-4-methylimidazole
##MOLFORM=C9H13N3
##CAS REGISTRY NO=23996-25-0
##MP= -300
##BP= -300
##MW= 163
##$RETENTION INDEX=0
##$CONDENSED SPECTRUM=NO
##NPOINTS= 73
##XYDATA=(XY..XY) 1 
    13          5
    14         15
    15         85
    18          3
    26        136
    27        355
    28        616
    29        116
    30         17
    36          4
    37         33
    38        100
    39        656
    40        225
    41        817
    42        422
    43         18
    44         11
    50          8
    51         48
    52        204
    53        151
    54        448
    55        103
    56        168
    57         15
    61          6
    63          8
    64         22
    65         26
    66        164
    67        124
    68        395
    69         53
    70         21
    77          8
    78         17
    79         26
    80        103
    81        102
    82        122
    83         42
    92          6
    93         43
    95        565
    96         71
   105         10
   106         28
   107        141
   108        249
   109        999
   110        409
   111         33
   119          9
   120         34
   121        171
   122         71
   123        369
   124         33
   133         12
   134         63
   135         74
   136         21
   137         28
   146         15
   148        916
   149         97
   150          3
   160          7
   162        327
   163        996
   164        111
   165          7