##TITLE=Library Entry 61013
##JCAMP-DX=Revision 4.10 
##DATA TYPE=MASS SPECTRUM
##SAMPLE DESCRIPTION=D.HENNEBERG, MAX-PLANCK INSTITUTE, MULHEIM, WEST GERMAN
Y
##NAMES=HP
##CAS NAME=Benzene, (1-hexylheptyl)-
##MOLFORM=C19H32
##CAS REGISTRY NO=2400-01-3
##MP= -300
##BP= -300
##MW= 260
##$RETENTION INDEX=1819
##$CONDENSED SPECTRUM=NO
##NPOINTS= 105
##XYDATA=(XY..XY) 1 
    22          0
    27         19
    29         45
    37          1
    38          2
    39         13
    41         57
    42          6
    43         60
    47          0
    48          0
    51          5
    53          1
    54          4
    55         56
    56          6
    57         12
    58          3
    62          4
    63          4
    64          2
    65         12
    66          2
    67          2
    68          1
    69         11
    70          0
    71         16
    74          0
    75          1
    76          2
    77         16
    78         10
    79         19
    81          6
    82          2
    83          8
    84          1
    85          4
    86          2
    87          2
    88          0
    89          1
    90          3
    91        999
    92         90
    93          7
    97          5
   100          2
   101          2
   102          5
   103         16
   104         60
   105        196
   106         14
   107          1
   111          1
   115         11
   116          1
   117         14
   118          6
   119        100
   120          9
   121          1
   129          0
   132          4
   133         38
   134          4
   135          0
   137          1
   139          0
   142          2
   145          0
   146          2
   147          2
   148          4
   150          0
   161         15
   164          1
   167          2
   171          0
   172          1
   173          1
   174          7
   175        169
   176         26
   177          1
   180          1
   189         13
   190          6
   191          1
   194          1
   203          0
   209          5
   214          0
   217          1
   224          0
   235          1
   246          0
   248          0
   251          1
   257          0
   259          1
   260         32
   261          7