##TITLE=Library Entry 51210
##JCAMP-DX=Revision 4.10 
##DATA TYPE=MASS SPECTRUM
##SAMPLE DESCRIPTION=NIST Mass Spectrometry Data Center
##NAMES=HP
##CAS NAME=Eicosanal-
##MOLFORM=C20H40O
##CAS REGISTRY NO=2400-66-0
##MP= -300
##BP= -300
##MW= 296
##$RETENTION INDEX=2224
##$CONDENSED SPECTRUM=NO
##NPOINTS= 57
##XYDATA=(XY..XY) 1 
    27         41
    29        132
    39         50
    41        522
    42         96
    43        740
    44        181
    45         59
    53         35
    54         95
    55        679
    56        220
    57        893
    58         52
    66         95
    67        416
    68        546
    69        529
    70        209
    71        507
    72         71
    80         30
    81        421
    82        999
    83        602
    84        131
    85        236
    86         45
    94         27
    95        368
    96        645
    97        398
    98         72
    99         61
   109        222
   110        218
   111        176
   112         54
   113         25
   123        122
   124        148
   125         78
   137         88
   138         79
   139         32
   152         43
   154         15
   166         19
   180         19
   208         27
   222         19
   236         17
   250         59
   251         10
   252         29
   278         68
   279         16