##TITLE=Library Entry 62053
##JCAMP-DX=Revision 4.10 
##DATA TYPE=MASS SPECTRUM
##SAMPLE DESCRIPTION=CONTINENTAL OIL CO., PONCA CITY, OKLA, USA
##NAMES=HP
##CAS NAME=Benzene, (1-propylheptadecyl)-
##MOLFORM=C26H46
##CAS REGISTRY NO=2400-03-5
##MP= -300
##BP= -300
##MW= 358
##$RETENTION INDEX=0
##$CONDENSED SPECTRUM=NO
##NPOINTS= 172
##XYDATA=(XY..XY) 1 
    25          0
    26          1
    27         28
    28          6
    29         56
    30          1
    36          0
    37          0
    38          0
    39         11
    40          2
    41         86
    42         17
    43        136
    44          5
    45          0
    50          0
    51          2
    52          1
    53          5
    54          4
    55         62
    56         14
    57         72
    58          3
    62          1
    63          1
    64          0
    65          5
    66          1
    67          7
    68          3
    69         26
    70          7
    71         45
    72          2
    73          0
    74          0
    75          1
    76          1
    77         16
    78         15
    79         10
    80          1
    81          6
    82          2
    83         21
    84          4
    85         25
    86          2
    87          0
    88          3
    89          5
    90         13
    91        999
    92         91
    93          4
    94          0
    95          2
    96          1
    97         11
    98          1
    99          5
   100          0
   101          1
   102          3
   103         14
   104         70
   105         73
   106          7
   107          0
   108          0
   109          1
   110          0
   111          4
   112          1
   113          3
   114          1
   115         13
   116          6
   117         48
   118         15
   119         26
   120          3
   121          0
   122          0
   123          0
   124          0
   125          1
   126          0
   127          3
   128          3
   129          5
   130          3
   131         19
   132         22
   133        445
   134         67
   135          4
   136          0
   139          0
   140          0
   141          2
   142          0
   143          1
   144          0
   145          3
   146          3
   147         14
   148          2
   149          0
   150          0
   152          0
   153          0
   154          0
   155          1
   156          0
   157          0
   158          0
   159          1
   160          0
   161         10
   162          1
   165          0
   167          0
   168          0
   169          1
   170          0
   171          0
   173          0
   175          8
   176          1
   181          0
   183          0
   184          0
   187          0
   189          6
   190          1
   191          0
   197          0
   198          0
   201          0
   203          5
   204          1
   211          1
   212          0
   217          4
   218          0
   231          3
   232          0
   244          0
   245          2
   246          0
   258          0
   259          1
   260          0
   272          0
   273          1
   274          0
   287          0
   288          0
   313          1
   314          6
   315        103
   316         30
   317          4
   329          0
   354          0
   356          1
   358         66
   359         19
   360          2