##TITLE=Library Entry 61556
##JCAMP-DX=Revision 4.10 
##DATA TYPE=MASS SPECTRUM
##SAMPLE DESCRIPTION=CONTINENTAL OIL CO., PONCA CITY, OKLA, USA
##NAMES=HP
##CAS NAME=Benzene, (1-ethyloctadecyl)-
##MOLFORM=C26H46
##CAS REGISTRY NO=2400-02-4
##MP= -300
##BP= -300
##MW= 358
##$RETENTION INDEX=0
##$CONDENSED SPECTRUM=NO
##NPOINTS= 159
##XYDATA=(XY..XY) 1 
    26          1
    27         32
    28         25
    29         71
    30          1
    37          0
    38          0
    39         15
    40          3
    41        137
    42         22
    43        184
    44          6
    50          0
    51          3
    52          1
    53          6
    54          6
    55         83
    56         19
    57        107
    58          5
    63          1
    64          0
    65          6
    66          1
    67          9
    68          4
    69         38
    70         11
    71         70
    72          4
    73          0
    74          0
    75          1
    76          2
    77         23
    78         21
    79         18
    80          2
    81          8
    82          4
    83         33
    84          6
    85         40
    86          3
    87          0
    88          0
    89          4
    90          6
    91        999
    92         97
    93          5
    94          1
    95          4
    96          1
    97         17
    98          2
    99          8
   100          0
   101          1
   102          4
   103         19
   104         84
   105        118
   106         12
   107          1
   108          0
   109          1
   110          0
   111          6
   112          1
   113          5
   114          1
   115         18
   116          9
   117         67
   118         48
   119        831
   120        118
   121          7
   122          0
   123          0
   124          0
   125          2
   126          0
   127          4
   128          3
   129          5
   130          3
   131         22
   132         20
   133         27
   134          4
   135          0
   139          0
   140          0
   141          3
   142          0
   143          1
   144          1
   145          8
   146          2
   147         20
   148          2
   150          0
   153          0
   154          0
   155          2
   156          0
   157          0
   159          2
   161         16
   162          2
   167          0
   168          0
   169          1
   170          0
   173          0
   175         12
   176          1
   183          1
   184          0
   187          0
   189          9
   190          1
   197          0
   198          0
   201          0
   203          7
   204          1
   211          0
   217          6
   218          1
   225          2
   231          5
   232          1
   245          4
   246          0
   258          0
   259          3
   260          0
   272          0
   273          2
   274          0
   287          1
   288          0
   315          0
   327          2
   328          8
   329        170
   330         47
   331          6
   344          0
   355          0
   356          2
   358         98
   359         28
   360          3