##TITLE=Library Entry 61687
##JCAMP-DX=Revision 4.10 
##DATA TYPE=MASS SPECTRUM
##SAMPLE DESCRIPTION=CONTINENTAL OIL CO., PONCA CITY, OKLA, USA
##NAMES=HP
##CAS NAME=Benzene, (1-ethyldecyl)-
##MOLFORM=C18H30
##CAS REGISTRY NO=2400-00-2
##MP= -300
##BP= -300
##MW= 246
##$RETENTION INDEX=1766
##$CONDENSED SPECTRUM=NO
##NPOINTS= 103
##XYDATA=(XY..XY) 1 
    27         45
    28         11
    29         77
    30          1
    38          0
    39         27
    40          4
    41        115
    42         12
    43         66
    44          3
    50          2
    51          9
    52          3
    53          8
    54          3
    55         36
    56          5
    57         33
    58          1
    62          0
    63          3
    64          1
    65         14
    66          1
    67          4
    68          1
    69         15
    70          3
    71         19
    72          1
    75          3
    76          4
    77         40
    78         30
    79         21
    80          2
    81          3
    82          1
    83         10
    84          1
    85          6
    86          0
    87          1
    88          1
    89          7
    90          6
    91        999
    92         80
    93          4
    94          1
    95          1
    97          3
    98          0
    99          1
   100          0
   101          0
   102          7
   103         29
   104         75
   105        100
   106          9
   107          0
   113          3
   114          1
   115         30
   116         12
   117         63
   118         32
   119        535
   120         73
   121          4
   125          1
   127          2
   128          5
   129          5
   130          2
   131          7
   132          5
   133         27
   134          3
   141          1
   143          0
   145          3
   146          1
   147         22
   148          2
   159          0
   160          0
   161         14
   162          2
   174          0
   175          6
   176          1
   189          0
   216          4
   217        150
   218         27
   219          2
   244          0
   246        102
   247         20
   248          2