##TITLE=Library Entry 62347
##JCAMP-DX=Revision 4.10 
##DATA TYPE=MASS SPECTRUM
##SAMPLE DESCRIPTION=CONTINENTAL OIL CO., PONCA CITY, OKLA, USA
##NAMES=HP
##CAS NAME=Benzene, (1-butylhexadecyl)-
##MOLFORM=C26H46
##CAS REGISTRY NO=2400-04-6
##MP= -300
##BP= -300
##MW= 358
##$RETENTION INDEX=0
##$CONDENSED SPECTRUM=NO
##NPOINTS= 164
##XYDATA=(XY..XY) 1 
    26          1
    27         31
    28          7
    29         62
    30          1
    36          0
    37          0
    38          0
    39         12
    40          2
    41        101
    42         16
    43        138
    44          5
    50          0
    51          2
    52          1
    53          5
    54          4
    55         58
    56         13
    57         68
    58          3
    62          0
    63          0
    64          0
    65          5
    66          0
    67          7
    68          3
    69         29
    70          6
    71         41
    72          2
    73          0
    74          0
    75          1
    76          1
    77         16
    78         15
    79         11
    80         11
    81          6
    82          2
    83         20
    84          3
    85         24
    86          2
    87          0
    88          0
    89          3
    90          5
    91        999
    92         93
    93          5
    94          0
    95          2
    96          1
    97         10
    98          1
    99          4
   100          0
   101          1
   102          3
   103         15
   104         80
   105        111
   106         10
   107          0
   108          0
   109          1
   110          0
   111          3
   112          1
   113          3
   114          1
   115         15
   116          7
   117         57
   118         24
   119         27
   120          3
   121          0
   122          0
   123          0
   124          0
   125          1
   126          0
   127          3
   128          4
   129          5
   130          3
   131         17
   132          3
   133         20
   134          2
   135          0
   136          0
   137          0
   139          0
   140          0
   141          2
   142          0
   143          1
   144          0
   145          6
   146         17
   147        403
   148         39
   149          4
   150          0
   152          0
   153          0
   154          0
   155          1
   156          0
   157          0
   159          1
   160          1
   161         12
   162          2
   165          0
   167          0
   168          0
   169          0
   171          0
   173          1
   174          0
   175          9
   176          1
   177          0
   183          0
   187          0
   189          7
   190          1
   197          1
   198          0
   203          5
   204          1
   207          0
   217          4
   218          0
   230          0
   231          3
   232          0
   244          0
   245          2
   246          0
   258          0
   259          1
   273          0
   299          1
   300          6
   301        106
   302         30
   303          4
   314          0
   315          1
   316          0
   329          0
   330          0
   358         66
   359         19
   360          2