##TITLE=Library Entry 107266
##JCAMP-DX=Revision 4.10 
##DATA TYPE=MASS SPECTRUM
##SAMPLE DESCRIPTION=NIST Mass Spectrometry Data Center, 1994
##NAMES=HP
##CAS NAME=2-(4-Fluorophenyl)-1,1,1,3,3,3-hexafluoro-2-propanol
##MOLFORM=C9H5F7O
##CAS REGISTRY NO=2402-74-6
##MP= -300
##BP= -300
##MW= 262
##$RETENTION INDEX=0
##$CONDENSED SPECTRUM=NO
##NPOINTS= 84
##XYDATA=(XY..XY) 1 
    17          2
    18          1
    20          5
    28         12
    33          2
    37          7
    38         12
    39         13
    48          6
    49          6
    50         77
    51         43
    52          3
    53          8
    56          8
    57         28
    62         17
    63         17
    67          3
    68         28
    69        353
    70         20
    71          3
    72          2
    73          3
    74          2
    75        138
    76         18
    77         69
    78          9
    79          3
    80          6
    81         16
    85          5
    86          4
    87         10
    88          3
    92          5
    93         16
    94         33
    95        321
    96         76
    97         34
    98          2
    99         11
   100          4
   101          3
   104          3
   105          8
   106          5
   107         13
   112          2
   113          8
   114          8
   119          3
   121          3
   123        999
   124         79
   125         26
   126         10
   127          4
   137          7
   141          8
   143          9
   145        107
   146          8
   154          2
   155          3
   156          5
   157          7
   163         13
   174          6
   175          9
   176          5
   193        450
   194         41
   195         43
   196          3
   205          2
   223         75
   224          7
   226          2
   262        210
   263         19