##TITLE=Library Entry 89714
##JCAMP-DX=Revision 4.10 
##DATA TYPE=MASS SPECTRUM
##SAMPLE DESCRIPTION=RADIAN CORP
##NAMES=HP
##CAS NAME=Pyridine, 2,6-dichloro-
##MOLFORM=C5H3Cl2N
##CAS REGISTRY NO=2402-78-0
##MP= -300
##BP= -300
##MW= 147
##$RETENTION INDEX=0
##$CONDENSED SPECTRUM=NO
##NPOINTS= 54
##XYDATA=(XY..XY) 1 
    12          2
    25          4
    26         12
    27          3
    28          2
    35         17
    36          6
    37         33
    38         29
    39         12
    40          1
    43          1
    44          2
    47         27
    48         12
    49         62
    50        165
    51        119
    52         35
    55          4
    56          5
    59          2
    60         55
    61         42
    62         66
    63         19
    64         23
    71          2
    72         11
    73         22
    74         13
    75        104
    76        488
    77         37
    78          1
    83          2
    84         23
    85        116
    86         40
    87         40
    88         11
   109          3
   110          9
   111          2
   112        999
   113         60
   114        329
   115         19
   147        813
   148         49
   149        514
   150         30
   151         84
   152          5