##TITLE=Library Entry 20339
##JCAMP-DX=Revision 4.10 
##DATA TYPE=MASS SPECTRUM
##SAMPLE DESCRIPTION=Exported from NIST MS Search
##NAMES=HP
##CAS NAME=Cyclopropane, 1,2-dimethyl-, trans-
##MOLFORM=C5H10
##CAS REGISTRY NO=2402-06-4
##MP= -300
##BP= -300
##MW= 70
##$RETENTION INDEX=0
##$CONDENSED SPECTRUM=NO
##NPOINTS= 48
##XYDATA=(XY..XY) 1 
    12          3
    13          5
    14         14
    15         63
    16          2
    24          1
    25          6
    26         71
    27        325
    28         58
    29        305
    30          7
    31         11
    32          6
    33          2
    34          1
    36          2
    37         22
    38         47
    39        380
    40         66
    41        415
    42        431
    43         27
    44          1
    48          1
    49          5
    50         28
    51         32
    52         10
    53        103
    54         31
    55        999
    56         45
    57          1
    60          1
    61          4
    62          6
    63          7
    64          1
    65          6
    66          2
    67         16
    68          4
    69         22
    70        538
    71         30
    72          1