##TITLE=Library Entry 1932
##JCAMP-DX=Revision 4.10 
##DATA TYPE=MASS SPECTRUM
##SAMPLE DESCRIPTION=A.A.Kutin, Moscow, Russia
##NAMES=HP
##CAS NAME=Pyridine, 3-bromo-, 1-oxide
##MOLFORM=C5H4BrNO
##CAS REGISTRY NO=2402-97-3
##MP= -300
##BP= -300
##MW= 173
##$RETENTION INDEX=0
##$CONDENSED SPECTRUM=NO
##NPOINTS= 79
##XYDATA=(XY..XY) 1 
    33          3
    34         10
    36         14
    37         67
    38        352
    39        999
    40        229
    41        120
    42        127
    43         63
    44        118
    45         18
    46         18
    47          4
    49         69
    50        224
    51        254
    52         98
    53        125
    54         16
    55         47
    56         17
    57         29
    58          2
    59         71
    60         54
    62        129
    63        285
    64        108
    66        516
    67         93
    68         22
    69         31
    70         16
    71         17
    72         37
    73         31
    74          7
    75         26
    76         63
    77         28
    78        223
    79         35
    81         42
    82         23
    83         19
    84          9
    85         11
    86         27
    87         26
    91          9
    93        288
    94         88
    95         17
    96          9
   117         96
   118         45
   119         98
   120         45
   121          6
   129         61
   131         31
   132          2
   145         33
   146         88
   147         14
   148         81
   149         13
   154          2
   156         16
   157         94
   158         20
   159         97
   160          4
   171          4
   173        809
   175        774
   176         37
   177          2