##TITLE=Library Entry 29081
##JCAMP-DX=Revision 4.10 
##DATA TYPE=MASS SPECTRUM
##SAMPLE DESCRIPTION=Japan AIST/NIMC Database- Spectrum MS-NW-8656
##NAMES=HP
##CAS NAME=4-Piperidinol, 2,2,6,6-tetramethyl-
##MOLFORM=C9H19NO
##CAS REGISTRY NO=2403-88-5
##MP= -300
##BP= -300
##MW= 157
##$RETENTION INDEX=0
##$CONDENSED SPECTRUM=NO
##NPOINTS= 77
##XYDATA=(XY..XY) 1 
    15         16
    26          1
    27         28
    28         17
    29         58
    30         22
    31          6
    38          1
    39         47
    40          9
    41        133
    42        195
    43         42
    44         16
    45          9
    46          2
    49          1
    50          1
    51          3
    52          2
    53         13
    54          7
    55         67
    56         58
    57         91
    58        999
    59         38
    60          2
    63          8
    65          5
    66          2
    67         22
    68          7
    69          4
    70         15
    71         14
    72         12
    77          2
    79          7
    80          3
    81          7
    82         21
    83         22
    84         15
    85        121
    86        159
    87          7
    91          4
    92          1
    93          2
    94          4
    95          4
    96          8
    97          4
    98         73
    99         27
   100          4
   101          1
   105          1
   107         36
   108         10
   109          4
   110          3
   112         19
   113          3
   122          4
   123          1
   124        102
   125         10
   126          4
   140          9
   141          2
   142        710
   143         66
   144          4
   157          4
   158          2