##TITLE=Library Entry 35379
##JCAMP-DX=Revision 4.10 
##DATA TYPE=MASS SPECTRUM
##SAMPLE DESCRIPTION=Chemical Concepts
##NAMES=HP
##CAS NAME=2,6,10,14-Hexadecatetraenoic acid, 3,7,11,15-tetramethyl-, ethyl
 ester, all E-
##MOLFORM=C22H36O2
##CAS REGISTRY NO=24035-35-6
##MP= -300
##BP= -300
##MW= 332
##$RETENTION INDEX=0
##$CONDENSED SPECTRUM=NO
##NPOINTS= 189
##XYDATA=(XY..XY) 1 
    26          1
    27         31
    29        100
    30          3
    31          2
    39         38
    41        354
    42         12
    43         62
    45          2
    51          4
    52          3
    53         65
    54         16
    55        131
    56         10
    57         13
    59         12
    60          0
    63          0
    65          3
    66          5
    67         99
    68        139
    69        999
    70         49
    71         14
    72          1
    73          3
    74          1
    75          0
    77         27
    78          4
    79         64
    80         27
    81        520
    82         72
    83         22
    84          2
    85          9
    87          4
    88          0
    89          1
    91         34
    92         19
    93        129
    94         32
    95         98
    96         22
    97          7
    98          0
    99          9
   100         26
   101          6
   103          4
   104          1
   105         28
   106         10
   107         77
   108         24
   109         72
   110          7
   111          7
   112          1
   113          5
   114         66
   115          8
   117          4
   119         23
   120          4
   121        200
   122         68
   123        132
   124         17
   125          4
   126          3
   127          1
   128        219
   129          8
   130          1
   132          2
   133         20
   134         29
   135         93
   136        252
   137        108
   138          8
   139         14
   140          2
   141         10
   142          1
   143          2
   144          0
   145          6
   146          4
   147         29
   148         17
   149         49
   150         17
   151          2
   152          2
   153         22
   155          1
   157          1
   159          3
   160          0
   161         22
   162         10
   163          6
   164          0
   165          3
   166          2
   167          3
   168          2
   172          0
   173          4
   174          2
   175         24
   176          7
   177          6
   178          3
   179          7
   180          4
   181          3
   182          2
   183          1
   187          1
   188          3
   189         40
   190          8
   191          4
   192          9
   193          1
   194          3
   195          5
   197          1
   201          2
   202          4
   203          6
   204         15
   205         12
   206          4
   207          3
   208          2
   209          8
   210          2
   211          0
   215          7
   216          1
   217          3
   218          1
   219          3
   220          2
   221          3
   229          0
   231          1
   232          0
   233          2
   234          0
   236          3
   237          0
   243          2
   244          0
   245          1
   247          2
   248          2
   249          1
   250          4
   258          2
   259          1
   260          0
   261          1
   263          4
   269          0
   271          2
   275          6
   276          3
   277          0
   286          0
   287         24
   288          4
   289          4
   303          1
   317          2
   318         14
   319          4
   332         37
   333          9
   334          1