##TITLE=Library Entry 38233
##JCAMP-DX=Revision 4.10 
##DATA TYPE=MASS SPECTRUM
##SAMPLE DESCRIPTION=J.E. SAAVEDRA, NCI-FREDERICK CANCER RES. FAC., MD., USA
##NAMES=HP
##CAS NAME=N-Nitroso-2-ethyl-1,3-tetrahydrooxazine
##MOLFORM=C6H12N2O2
##CAS REGISTRY NO=24033-81-6
##MP= -300
##BP= -300
##MW= 144
##$RETENTION INDEX=0
##$CONDENSED SPECTRUM=NO
##NPOINTS= 43
##XYDATA=(XY..XY) 1 
    29        585
    30        478
    31        225
    32         21
    38         22
    39        147
    40         78
    41        589
    42        897
    43        208
    44         36
    45         29
    46         14
    52         17
    53         15
    54        100
    55        109
    56        358
    57        664
    58        316
    59        390
    60         24
    71        999
    72         64
    81         14
    82         11
    83         20
    84        243
    85        405
    86        185
    87        133
    88         16
    99         12
   112         40
   113         30
   114         68
   115        854
   116         91
   117         10
   127         12
   143          9
   144        187
   145         27