##TITLE=Library Entry 61745
##JCAMP-DX=Revision 4.10 
##DATA TYPE=MASS SPECTRUM
##SAMPLE DESCRIPTION=NIST Mass Spectrometry Data Center, 1992
##NAMES=HP
##CAS NAME=N-Butylbenzylamine
##MOLFORM=C11H17N
##CAS REGISTRY NO=2403-22-7
##MP= -300
##BP= -300
##MW= 163
##$RETENTION INDEX=1303
##$CONDENSED SPECTRUM=NO
##NPOINTS= 85
##XYDATA=(XY..XY) 1 
    15          6
    17          1
    18          8
    26          4
    27         51
    28         21
    29         50
    30         39
    31          1
    37          1
    38          6
    39         61
    40          7
    41         53
    42         14
    43         15
    44         17
    45          0
    46          1
    50         14
    51         34
    52          9
    53          4
    54          3
    55          4
    56          4
    57          6
    59          4
    60         15
    62          5
    63         24
    64         10
    65        122
    66          6
    67          0
    68          1
    70          1
    72          4
    74          3
    75          3
    76          4
    77         30
    78         10
    79         20
    80          1
    82          0
    83          4
    84          5
    85          0
    86          5
    87          1
    89         27
    91        999
    92         85
    93          3
   101          0
   102          0
   103          2
   104         16
   105          7
   106         62
   107          6
   108          0
   115          1
   116          1
   117          8
   118         34
   119          0
   120        447
   121         38
   122          1
   129          0
   130          1
   132          8
   133          5
   134          1
   144          0
   146          1
   147          0
   160          4
   161          2
   162         10
   163         20
   164          2
   165          0