##TITLE=Library Entry 35392
##JCAMP-DX=Revision 4.10 
##DATA TYPE=MASS SPECTRUM
##SAMPLE DESCRIPTION=NIST Mass Spectrometry Data Center
##NAMES=HP
##CAS NAME=trans-Geranylgeraniol
##MOLFORM=C20H34O
##CAS REGISTRY NO=24034-73-9
##MP= -300
##BP= -300
##MW= 290
##$RETENTION INDEX=2201
##$CONDENSED SPECTRUM=NO
##NPOINTS= 160
##XYDATA=(XY..XY) 1 
    26          1
    27         20
    28          3
    29         66
    30          2
    31          6
    38          1
    39         53
    40         19
    41        426
    42         24
    43         69
    44          3
    45          4
    50          2
    51          9
    52          6
    53         99
    54         10
    55        134
    56         12
    57         69
    58          3
    59          3
    63          2
    64          1
    65         27
    66         11
    67        202
    68        196
    69        999
    70         63
    71         31
    72          2
    73          1
    75          1
    77         56
    78         11
    79         98
    80         47
    81        497
    82         60
    83         41
    84         37
    85         11
    86          1
    89          1
    91         80
    92         37
    93        266
    94         51
    95        198
    96         24
    97         29
    98          4
    99          2
   102          1
   103          5
   104          2
   105         59
   106         16
   107        175
   108         38
   109        114
   110         17
   111         21
   112          2
   113          1
   115          4
   116          1
   117          6
   118          2
   119         63
   120         22
   121        146
   122         52
   123        104
   124         16
   125          5
   126          1
   127          1
   128          1
   129          1
   130          1
   131          5
   132          8
   133         45
   134         26
   135         98
   136        119
   137         78
   138         20
   139          7
   140          1
   141          1
   145          7
   146          4
   147         38
   148         19
   149         33
   150          7
   151          8
   152          2
   153          1
   157          1
   159         12
   160          4
   161         43
   162         11
   163         13
   164          3
   165          3
   166          2
   173          3
   174          1
   175         10
   176          4
   177         18
   178          4
   179          6
   180          1
   187          6
   188          3
   189         22
   190          7
   191          9
   192          3
   193          1
   194          1
   195          6
   196          1
   201          3
   202          4
   203         15
   204         16
   205          5
   206          2
   207          2
   208          1
   215          2
   216          2
   217          2
   219          2
   221         11
   222          2
   229          6
   230          2
   231          1
   243          1
   245          1
   247          3
   248          1
   257          4
   258          1
   259          3
   260          1
   272          3
   273          1
   275          1
   290          2