##TITLE=Library Entry 41213
##JCAMP-DX=Revision 4.10 
##DATA TYPE=MASS SPECTRUM
##SAMPLE DESCRIPTION=CARL DJERASSI DEPT OF CHEM STANFORD UNIV STANFORD CALIF
 94305
##NAMES=HP
##CAS NAME=Lanosta-7,9(11)-dien-18-oic acid, 3,20-dihydroxy-25-methoxy-, .ga
mma.-lactone, (3.beta.,20.xi.)-
##MOLFORM=C31H48O4
##CAS REGISTRY NO=24041-66-5
##MP= -300
##BP= -300
##MW= 484
##$RETENTION INDEX=0
##$CONDENSED SPECTRUM=NO
##NPOINTS= 229
##XYDATA=(XY..XY) 1 
    41        400
    42         30
    43        450
    44         30
    45         40
    53         50
    55        410
    56         40
    57        100
    59         40
    65         20
    68         20
    69        600
    70         30
    71        110
    72         20
    73        999
    74         50
    77         40
    79         80
    80         10
    81        190
    82         20
    83        120
    85        260
    91        100
    93        100
    94         20
    95        170
    96         30
    97         50
    98         10
    99         50
   103         10
   105        120
   106         20
   107         90
   108         10
   109        300
   110         20
   111         50
   113         10
   115         30
   116         10
   117         50
   118         10
   119         60
   121         50
   122         10
   123         40
   125         40
   127        400
   128         50
   129        100
   130         30
   131         70
   132         10
   133         50
   134         10
   135         50
   137         10
   139         10
   141         70
   142         70
   143        150
   144         30
   145         80
   146         20
   147         30
   149         20
   152         10
   153         30
   154         30
   155        130
   156         70
   157        120
   158         80
   159         60
   160         10
   161         20
   162         10
   163         10
   165         40
   166         20
   167         60
   168         40
   169        160
   170         60
   171        110
   172         20
   173         30
   175         10
   178         20
   179         40
   180         20
   181         80
   182         40
   183        130
   184         60
   185         80
   186         20
   187         30
   189         10
   191         20
   193         30
   194         20
   195         90
   196         40
   197        110
   198         30
   199         40
   200         10
   207         30
   208         10
   209         80
   210         30
   211         70
   212         20
   213         30
   215         20
   221         30
   222         10
   223         50
   224         10
   225         50
   226         10
   227         20
   229         10
   235         30
   236         10
   237         80
   238         30
   239        120
   240         30
   241         20
   243         10
   249         20
   250         10
   251         50
   252         20
   253         50
   254         10
   255         30
   256         10
   257         10
   263         20
   264         10
   265         70
   266         10
   267         20
   269         10
   271         70
   272         10
   277         20
   279         40
   280         20
   281         40
   282         10
   283        120
   284         30
   285         10
   291         20
   293         20
   295         20
   296         10
   297         80
   298         60
   299         20
   305         30
   306         10
   307         50
   308         10
   309         60
   310         10
   311         10
   319         20
   321         20
   323         40
   324         10
   325         30
   326         10
   335         10
   337         20
   338         10
   340         10
   341         40
   342         10
   351         20
   352         30
   353         50
   354         20
   363         10
   364         10
   365        520
   366        200
   367         50
   368         10
   369         10
   373         10
   375         80
   376         30
   379         10
   380         10
   381         10
   383         20
   389         10
   391         90
   392         30
   393        120
   394         40
   395         10
   407         10
   409         30
   412         20
   419        290
   420         90
   421         10
   434         40
   435         10
   437         30
   438         10
   451         10
   452        290
   454        120
   455         20
   484        420
   485        140
   486        150
   487         20