##TITLE=Library Entry 21057
##JCAMP-DX=Revision 4.10 
##DATA TYPE=MASS SPECTRUM
##SAMPLE DESCRIPTION=Japan AIST/NIMC Database- Spectrum MS-NW-3929
##NAMES=HP
##CAS NAME=Cycloheptane, bromo-
##MOLFORM=C7H13Br
##CAS REGISTRY NO=2404-35-5
##MP= -300
##BP= -300
##MW= 176
##$RETENTION INDEX=1157
##$CONDENSED SPECTRUM=NO
##NPOINTS= 60
##XYDATA=(XY..XY) 1 
    15          5
    18          1
    26          8
    27         74
    28          9
    29         57
    30          1
    36          1
    37          3
    38          9
    39        115
    40         20
    41        198
    42         23
    43         57
    44          2
    45          1
    46          4
    47          2
    50          6
    51         11
    52          6
    53         48
    54         76
    55        999
    56         45
    57          6
    61          1
    62          2
    63          4
    64          1
    65          9
    66          8
    67         75
    68         39
    69         72
    70          4
    73          1
    74          1
    77          8
    78          2
    79         10
    80          4
    81         43
    82          5
    83         18
    84          1
    91          2
    93          2
    95          9
    96          9
    97        983
    98         75
    99          3
   106          2
   107          2
   108          2
   109          2
   119          1
   121          1