##TITLE=Library Entry 100271
##JCAMP-DX=Revision 4.10 
##DATA TYPE=MASS SPECTRUM
##SAMPLE DESCRIPTION=TAT 1095 0
##NAMES=HP
##CAS NAME=Spiro[4.5]dec-7-ene, 1,8-dimethyl-4-(1-methylethenyl)-, [1S-(1.al
pha.,4.beta.,5.alpha.)]-
##MOLFORM=C15H24
##CAS REGISTRY NO=24048-44-0
##MP= -300
##BP= -300
##MW= 204
##$RETENTION INDEX=1471
##$CONDENSED SPECTRUM=NO
##NPOINTS= 57
##XYDATA=(XY..XY) 1 
    41        380
    42         60
    43        190
    44         50
    51         70
    52         60
    53        210
    54         50
    55        320
    56        140
    57         80
    65        110
    66         60
    67        240
    68        240
    69        210
    70         70
    77        270
    78         80
    79        410
    80        120
    81        270
    82        130
    83         90
    91        360
    92        200
    93        710
    94        220
    95        150
   103         50
   105        680
   106        160
   107        290
   108        230
   109        240
   115         60
   117         60
   119        999
   120        180
   121        810
   122        170
   123         70
   131         70
   133        180
   134        180
   135        110
   136         60
   137         80
   146         90
   147        460
   148        150
   149         70
   161        190
   162         70
   189        110
   204        180
   205         50