##TITLE=Library Entry 38724
##JCAMP-DX=Revision 4.10 
##DATA TYPE=MASS SPECTRUM
##SAMPLE DESCRIPTION=Japan AIST/NIMC Database- Spectrum MS-IW-2348
##NAMES=HP
##CAS NAME=Oxirane, octyl-
##MOLFORM=C10H20O
##CAS REGISTRY NO=2404-44-6
##MP= -300
##BP= -300
##MW= 156
##$RETENTION INDEX=1230
##$CONDENSED SPECTRUM=NO
##NPOINTS= 88
##XYDATA=(XY..XY) 1 
    14          2
    15         13
    26          9
    27        183
    28         57
    29        322
    30         10
    31         84
    32          3
    33          1
    37          1
    38          4
    39        162
    40         33
    41        709
    42        316
    43        641
    44         56
    45         95
    46          2
    50          3
    51          8
    52          5
    53         58
    54        222
    55        791
    56        634
    57        409
    58        549
    59         90
    60          5
    61          1
    63          2
    65          9
    66         27
    67        317
    68        454
    69        512
    70        345
    71        999
    72         94
    73         12
    74          1
    77          6
    78          1
    79         19
    80         10
    81        318
    82        366
    83        224
    84         85
    85        159
    86         15
    87          6
    88          3
    89          1
    91          4
    92          1
    93          5
    94          9
    95        282
    96        192
    97         92
    98         81
    99         43
   100          6
   101          4
   107          1
   108          1
   109         53
   110         27
   111          6
   112          9
   113         80
   114          7
   115          2
   116          1
   117          2
   123          4
   124         12
   125          3
   126          4
   127         27
   128          5
   129          1
   138          2
   141          1
   155          2