##TITLE=Library Entry 37239
##JCAMP-DX=Revision 4.10 
##DATA TYPE=MASS SPECTRUM
##SAMPLE DESCRIPTION=Philip Morris R&D
##NAMES=HP
##CAS NAME=Bicyclo[3.1.1]heptan-3-ol, 2,6,6-trimethyl-, [1S-(1.alpha.,2.beta
.,3.alpha.,5.alpha.)]-
##MOLFORM=C10H18O
##CAS REGISTRY NO=24041-60-9
##MP= -300
##BP= -300
##MW= 154
##$RETENTION INDEX=0
##$CONDENSED SPECTRUM=NO
##NPOINTS= 69
##XYDATA=(XY..XY) 1 
    36          1
    38          4
    39         93
    40         15
    41        307
    42         52
    43        756
    44         27
    45         20
    50          6
    51         17
    52          6
    53         52
    54         15
    55        366
    56         58
    57         76
    58         27
    59          8
    60          0
    61          0
    62          1
    63          4
    65         13
    66          9
    67         96
    68         43
    69        449
    70        999
    71        170
    72         13
    73          2
    77         32
    78          9
    79         59
    80         35
    81        275
    82         69
    83        242
    84        553
    85         93
    86          4
    91         28
    92         44
    93        142
    94         30
    95        181
    96         26
    97         26
    98        120
    99         77
   100          4
   105          8
   106          2
   107         37
   108          4
   109          5
   110         94
   111         23
   112          3
   113          3
   121         79
   122          9
   123          3
   125          2
   136         61
   137          3
   139         10
   152          0