##TITLE=Library Entry 646
##JCAMP-DX=Revision 4.10 
##DATA TYPE=MASS SPECTRUM
##SAMPLE DESCRIPTION=Japan AIST/NIMC Database- Spectrum MS-IW-7885
##NAMES=HP
##CAS NAME=Ethyl 2,3-diazapentacyclo(4.4.0.0(4,9).0(5,8).0(7,10))decane-2,3-
dicarboxylate
##MOLFORM=C14H18N2O4
##CAS REGISTRY NO=24046-79-5
##MP= -300
##BP= -300
##MW= 278
##$RETENTION INDEX=0
##$CONDENSED SPECTRUM=NO
##NPOINTS= 149
##XYDATA=(XY..XY) 1 
    15          3
    16          2
    17         43
    18          2
    26          9
    27        108
    28        148
    29        999
    30         38
    31         11
    32          1
    38          4
    39         61
    40          7
    41         25
    42         12
    43         12
    44         39
    45         16
    46          5
    47          2
    50         12
    51         47
    52         64
    53         38
    54         39
    55         28
    56         26
    57         12
    58          2
    59          2
    62          9
    63         13
    64          5
    65         51
    66         10
    67         41
    68          9
    69        183
    70         10
    71          3
    72          1
    73          5
    74          7
    75          5
    76          7
    77        146
    78        158
    79        264
    80        111
    81        714
    82         51
    83          4
    84          1
    85          1
    87         30
    88          1
    89         14
    90         46
    91        177
    92         37
    93         66
    94         12
    95          7
    96          2
    97         62
    98          9
    99          3
   100          2
   101          1
   102         24
   103        193
   104        503
   105        119
   106        239
   107         49
   108         20
   109         47
   110          4
   111          3
   113          4
   115         33
   116        116
   117        338
   118        251
   119         43
   120         12
   121          5
   122          1
   124          1
   125          7
   126          9
   127          2
   128          2
   129          2
   130         41
   131         97
   132         94
   133        422
   134         69
   135          9
   136          1
   139          7
   141         42
   142          4
   143          9
   144          9
   145         14
   146         26
   147          7
   148          2
   149          4
   150         11
   151          6
   152         11
   153         22
   154         34
   155          4
   159         52
   160         32
   161         66
   162         14
   163          3
   169          1
   176          4
   177         38
   178         27
   179          8
   180         11
   181          1
   182          1
   187          1
   189         15
   190         18
   191          4
   203          1
   204          1
   205        385
   206        125
   207         15
   208          3
   226          2
   233         15
   234          2
   249          1
   278        517
   279         91
   280         13
   281          1