##TITLE=Library Entry 39875
##JCAMP-DX=Revision 4.10 
##DATA TYPE=MASS SPECTRUM
##SAMPLE DESCRIPTION=Dennis Rohrbaugh, CBDCOM/ERDEC, Edgewood, MD
##NAMES=HP
##CAS NAME=Phosphonamidic acid, N,N-diethyl-P-methyl-, ethyl ester
##MOLFORM=C7H18NO2P
##CAS REGISTRY NO=2404-81-1
##MP= -300
##BP= -300
##MW= 179
##$RETENTION INDEX=0
##$CONDENSED SPECTRUM=NO
##NPOINTS= 38
##XYDATA=(XY..XY) 1 
    30        281
    42        281
    44        499
    45         28
    47        165
    48         16
    49         42
    56        172
    58        931
    59         35
    63         59
    65         73
    70         45
    72        999
    73         51
    78         48
    79        669
    80         88
    81         48
    86         20
    90         39
    92         40
    93         14
   104         42
   106         27
   107         66
   108        186
   118         10
   120        180
   122        117
   134        103
   136        780
   137         35
   150         69
   164        508
   165         31
   179        135
   180         10