##TITLE=Library Entry 15482
##JCAMP-DX=Revision 4.10 
##DATA TYPE=MASS SPECTRUM
##SAMPLE DESCRIPTION=Dennis Rohrbaugh, CBDCOM/ERDEC, Edgewood, MD
##NAMES=HP
##CAS NAME=Bis(N,N-dimethyl) O-ethyl phosphorodiamidate
##MOLFORM=C6H17N2O2P
##CAS REGISTRY NO=2404-65-1
##MP= -300
##BP= -300
##MW= 180
##$RETENTION INDEX=1217
##$CONDENSED SPECTRUM=NO
##NPOINTS= 21
##XYDATA=(XY..XY) 1 
    40         36
    42        284
    43        141
    44        999
    45        514
    47         38
    58         25
    65         19
    88         27
    90          9
    92         21
    93         19
   106         11
   108        322
   109         62
   135         62
   136         37
   137         90
   152          5
   180        225
   181          9