##TITLE=Library Entry 57789
##JCAMP-DX=Revision 4.10 
##DATA TYPE=MASS SPECTRUM
##SAMPLE DESCRIPTION=TNO Volatile Compounds in Food - Chemical Concepts
##NAMES=HP
##CAS NAME=Thiazolidine, 2-ethyl-
##MOLFORM=C5H11NS
##CAS REGISTRY NO=24050-09-7
##MP= -300
##BP= -300
##MW= 117
##$RETENTION INDEX=1029
##$CONDENSED SPECTRUM=NO
##NPOINTS= 75
##XYDATA=(XY..XY) 1 
    25          1
    26         29
    27        144
    28         32
    29         98
    30        131
    31         21
    32         34
    33          8
    34         24
    35         34
    37          5
    38          8
    39         58
    40        119
    41        200
    42        124
    43         50
    44        133
    45        104
    46         39
    47         24
    48          4
    51          4
    52          9
    53          6
    54         55
    55         17
    56        219
    57         19
    58        175
    59         98
    60        111
    61        187
    62         11
    63          6
    64          1
    65          1
    67         11
    68         26
    69          8
    70        430
    71        196
    72         12
    73         29
    74         15
    75          2
    79          1
    80          5
    81          4
    82          7
    83          7
    84         16
    85          4
    86         11
    87          2
    88        999
    89         60
    90         63
    91          2
    99          5
   100          2
   101          5
   102          1
   103          1
   111          1
   112          4
   113          5
   114          3
   115          8
   116         65
   117        413
   118         30
   119         18
   120          1