##TITLE=Library Entry 60322
##JCAMP-DX=Revision 4.10 
##DATA TYPE=MASS SPECTRUM
##SAMPLE DESCRIPTION=Japan AIST/NIMC Database- Spectrum MS-NW-7066
##NAMES=HP
##CAS NAME=Pyridinium toluene-4-sulfonate
##MOLFORM=C12H13NO3S
##CAS REGISTRY NO=24057-28-1
##MP= -300
##BP= -300
##MW= 251
##$RETENTION INDEX=0
##$CONDENSED SPECTRUM=NO
##NPOINTS= 103
##XYDATA=(XY..XY) 1 
    14          1
    15          1
    16          1
    17          1
    18          3
    25          7
    26         58
    27         45
    28         21
    29          4
    32          2
    34          1
    36          4
    37         26
    38         45
    39        218
    40         20
    41         43
    42          2
    43          8
    44          4
    45          9
    46          1
    47          1
    48         11
    49         31
    50        180
    51        272
    52        498
    53         84
    54          5
    55          8
    56          2
    57          5
    58          2
    59          1
    60          4
    61         15
    62         53
    63        136
    64         41
    65        334
    66         25
    67          5
    68          2
    69          7
    70          2
    71          3
    73          3
    74         18
    75         27
    76         15
    77        152
    78        108
    79        844
    80         78
    81         10
    82          2
    83          5
    84          3
    85          6
    86         10
    87          9
    88          5
    89        122
    90        113
    91        999
    92         87
    93          6
    94          1
    95          3
    96          2
    97          4
    98          1
   105          4
   106          3
   107        393
   108        294
   109         23
   110          3
   111          3
   112          1
   115          1
   121          4
   122          1
   123          4
   124          5
   125          1
   126          1
   137          1
   139          4
   140          2
   149          1
   150          1
   155         52
   156          6
   157          4
   170          2
   171          5
   172        804
   173         70
   174         45
   175          4