##TITLE=Library Entry 12302
##JCAMP-DX=Revision 4.10 
##DATA TYPE=MASS SPECTRUM
##SAMPLE DESCRIPTION=Chemical Concepts
##NAMES=HP
##CAS NAME=N-(4-Chloro-m-tolyl)isobutyramide
##MOLFORM=C11H14ClNO
##CAS REGISTRY NO=24051-40-9
##MP= -300
##BP= -300
##MW= 211
##$RETENTION INDEX=0
##$CONDENSED SPECTRUM=NO
##NPOINTS= 107
##XYDATA=(XY..XY) 1 
    33          1
    34          1
    36         27
    37         10
    38         33
    39        208
    41        408
    43        999
    47          1
    50         64
    51        165
    52         71
    53         23
    54          8
    55         34
    57         32
    59          3
    60          3
    61          9
    62         21
    63         53
    64         12
    65         18
    66          9
    69         11
    71        191
    73         14
    74          9
    75         33
    77        280
    78         61
    79         26
    82          1
    84          5
    85          6
    86          6
    87          8
    89         48
    90         11
    91          7
    92          1
    93          1
    95          1
    97          5
    99         14
   100          3
   101          5
   102         14
   104         75
   106        158
   107         18
   111          4
   112         10
   113         22
   114          6
   115          7
   116          2
   117          3
   118          3
   123          2
   125         18
   127          9
   128          1
   129          1
   130          2
   132         25
   133          7
   134          1
   138          7
   140        209
   141        700
   142         99
   143        236
   144         17
   145          1
   146          1
   147          1
   149          1
   152          3
   153          2
   154          3
   155          1
   156          1
   160          1
   161          1
   166          7
   167          9
   168         22
   169          4
   170          6
   171          2
   175          1
   176          3
   177          2
   178          1
   182          3
   183          1
   184          1
   194          1
   195          1
   196          3
   197         11
   199          3
   211        204
   212         25
   213         59
   214          7