##TITLE=Library Entry 3025
##JCAMP-DX=Revision 4.10 
##DATA TYPE=MASS SPECTRUM
##SAMPLE DESCRIPTION=RADIAN CORP
##NAMES=HP
##CAS NAME=Nitroxide, bis(1,1-dimethylethyl)
##MOLFORM=C8H18NO
##CAS REGISTRY NO=2406-25-9
##MP= -300
##BP= -300
##MW= 144
##$RETENTION INDEX=0
##$CONDENSED SPECTRUM=NO
##NPOINTS= 37
##XYDATA=(XY..XY) 1 
    14         16
    15         76
    16          4
    25          2
    26         41
    27        261
    29        381
    30        244
    31          4
    37         31
    38         62
    39        490
    40         88
    41        999
    42        191
    43        422
    44         15
    47         15
    50         34
    51         24
    52          5
    53         38
    54         11
    55        112
    56        291
    57        653
    58         73
    69          6
    70          3
    72         14
    74         64
    85          6
    88         35
    89          7
    98          9
    99         12
   103          2