##TITLE=Library Entry 57240
##JCAMP-DX=Revision 4.10 
##DATA TYPE=MASS SPECTRUM
##SAMPLE DESCRIPTION=Chemical Concepts
##NAMES=HP
##CAS NAME=Cyclopentanecarboxylic acid, 3-methyl-, methyl ester
##MOLFORM=C8H14O2
##CAS REGISTRY NO=24070-72-2
##MP= -300
##BP= -300
##MW= 142
##$RETENTION INDEX=0
##$CONDENSED SPECTRUM=NO
##NPOINTS= 84
##XYDATA=(XY..XY) 1 
    25          2
    26         23
    27        193
    28         44
    29        108
    30          5
    31         14
    32          3
    33          6
    35          1
    36          2
    37          4
    38         14
    39        215
    40         42
    41        380
    42         65
    43         35
    44          4
    45         18
    48          1
    50         11
    51         19
    52          9
    53         71
    54         37
    55        435
    56         79
    57         12
    58          2
    59         95
    60          3
    61          6
    62          2
    63          4
    64          1
    65         17
    66         16
    67        177
    68         38
    69         74
    70          6
    71          9
    72          8
    73          5
    74         41
    75          8
    77         10
    78          3
    79         22
    80          5
    81         66
    82         76
    83        259
    84         17
    85         10
    87        999
    88         64
    89          5
    91          2
    92          1
    93          1
    95         27
    96          1
    97          1
    99         15
   100        235
   101         33
   102          1
   109          7
   110         15
   111        120
   112         10
   113         24
   114         56
   115          4
   124          1
   125          1
   127         84
   128          7
   141         10
   142         96
   143          9
   144          1