##TITLE=Library Entry 52067
##JCAMP-DX=Revision 4.10 
##DATA TYPE=MASS SPECTRUM
##SAMPLE DESCRIPTION=T.H.SMOUSE W.L. CLAYTON RES. CENTRE, RICHARDSON, TEXAS,
 USA
##NAMES=HP
##CAS NAME=2(5H)-Furanone, 5-ethyl-
##MOLFORM=C6H8O2
##CAS REGISTRY NO=2407-43-4
##MP= -300
##BP= -300
##MW= 112
##$RETENTION INDEX=966
##$CONDENSED SPECTRUM=NO
##NPOINTS= 48
##XYDATA=(XY..XY) 1 
    12         43
    14         82
    15         63
    16         53
    17        324
    25         18
    26        222
    27        574
    28        280
    29        363
    36         43
    37         30
    38         88
    39        184
    41        113
    42         63
    43         69
    45         18
    49         12
    50         76
    51         76
    52         23
    53         92
    54        130
    55        632
    56         92
    57        194
    58         10
    61         10
    62         12
    63         12
    65         10
    66         10
    67         39
    68         18
    69         23
    70         12
    77         12
    81         32
    82         39
    83        999
    84        159
    85         15
    95         12
    97         18
    98         15
   112        135
   113         10