##TITLE=Library Entry 51199
##JCAMP-DX=Revision 4.10 
##DATA TYPE=MASS SPECTRUM
##SAMPLE DESCRIPTION=NIST Mass Spectrometry Data Center, 1990.
##NAMES=HP
##CAS NAME=Cyclohexanone, 2,2,6-trimethyl-
##MOLFORM=C9H16O
##CAS REGISTRY NO=2408-37-9
##MP= -300
##BP= -300
##MW= 140
##$RETENTION INDEX=1036
##$CONDENSED SPECTRUM=NO
##NPOINTS= 41
##XYDATA=(XY..XY) 1 
    14          8
    15          9
    26         13
    27         89
    28         29
    29         69
    39        198
    40         49
    41        394
    42        115
    43         55
    50         10
    51         25
    52         12
    53         68
    54         39
    55        413
    56        485
    57         96
    58          8
    63          5
    65         13
    67        114
    69        448
    70        160
    71         19
    72         58
    77         11
    79         14
    80          5
    82        999
    83        120
    84         39
    91          5
    95          6
    97         47
    98         27
   107          6
   125          6
   140        206
   141         19