##TITLE=Library Entry 67796
##JCAMP-DX=Revision 4.10 
##DATA TYPE=MASS SPECTRUM
##SAMPLE DESCRIPTION=Chemical Concepts
##NAMES=HP
##CAS NAME=Ketone, 1,5-dimethylbicyclo[2.1.0]pent-5-yl methyl
##MOLFORM=C9H14O
##CAS REGISTRY NO=24081-57-0
##MP= -300
##BP= -300
##MW= 138
##$RETENTION INDEX=0
##$CONDENSED SPECTRUM=NO
##NPOINTS= 74
##XYDATA=(XY..XY) 1 
    26         10
    27        112
    28         19
    29         67
    30          3
    31          5
    37          3
    38         14
    39        174
    40         31
    41        194
    42         19
    43        333
    44         16
    45          8
    47          7
    50         16
    51         49
    52         25
    53        133
    54         15
    55        268
    56         20
    57          4
    58         10
    59         25
    60          3
    62          5
    63         15
    64          6
    65         46
    66         12
    67        332
    68         30
    69          8
    70          3
    71          2
    74          3
    75          5
    76          2
    77         89
    78         18
    79         89
    80         54
    81         24
    82          4
    83          5
    87          4
    88          7
    89          3
    91         43
    92          8
    93         86
    94         26
    95        999
    97          8
    98          4
   101          9
   103          3
   105         19
   106          2
   107          3
   108          5
   109         24
   110         26
   111          3
   119          4
   120          9
   121          4
   123         30
   124          3
   137          4
   138         13
   139          2