##TITLE=Library Entry 87746
##JCAMP-DX=Revision 4.10 
##DATA TYPE=MASS SPECTRUM
##SAMPLE DESCRIPTION=Asinex Ltd, Moscow, Russia
##NAMES=HP
##CAS NAME=Isoxazole, 4-benzoyl-3-(2-thenoyl)-
##MOLFORM=C15H9NO3S
##CAS REGISTRY NO=240806-89-7
##MP= -300
##BP= -300
##MW= 283
##$RETENTION INDEX=0
##$CONDENSED SPECTRUM=NO
##NPOINTS= 138
##XYDATA=(XY..XY) 1 
    33          0
    34          0
    36          0
    37          5
    38         16
    39        239
    40         18
    41          2
    42          0
    43          2
    44          4
    45         17
    46          0
    47          0
    48          0
    49          1
    50         27
    51         74
    52          7
    53         10
    54          0
    55          2
    57         33
    58          5
    59          1
    60          0
    61          2
    62          5
    63         12
    64          3
    65          2
    66          2
    67          1
    68          1
    69          5
    70          1
    71          1
    72          0
    73          1
    74          7
    75          8
    76          9
    77        118
    78         11
    79          1
    81         10
    82         18
    83         89
    84          9
    85          5
    86          2
    87          3
    88          3
    89         16
    90          3
    91          2
    92          0
    93          1
    94          2
    95          1
    96          0
    97          0
    98          1
    99          1
   100          3
   101          2
   102          1
   103          0
   105         35
   106          2
   107          0
   108          0
   109          2
   111        999
   112         64
   113         52
   114          4
   115          2
   116          3
   117          0
   118          0
   119          2
   120          0
   121          0
   122          0
   123          0
   126          0
   127          2
   128          9
   129          1
   130          0
   131          0
   133          0
   134          0
   135          0
   136          0
   137          0
   139          0
   140          0
   142          2
   143          0
   144          0
   145          0
   146          0
   147          0
   149          1
   150          0
   152          0
   154          0
   155          0
   156          1
   157          0
   159          0
   160          0
   161          0
   162          0
   163          0
   171          0
   172          3
   173          3
   174          0
   187          0
   189          1
   190          0
   191          0
   197          0
   199          0
   219          0
   222          0
   227          0
   250          0
   254          0
   255          0
   282          0
   283         63
   284         10
   285          4
   286          0