##TITLE=Library Entry 714
##JCAMP-DX=Revision 4.10 
##DATA TYPE=MASS SPECTRUM
##SAMPLE DESCRIPTION=Japan AIST/NIMC Database- Spectrum MS-NW-4893
##NAMES=HP
##CAS NAME=Itaconic acid diethyl ester
##MOLFORM=C9H14O4
##CAS REGISTRY NO=2409-52-1
##MP= -300
##BP= -300
##MW= 186
##$RETENTION INDEX=1232
##$CONDENSED SPECTRUM=NO
##NPOINTS= 85
##XYDATA=(XY..XY) 1 
    14          6
    15         22
    16          1
    17          1
    18          3
    25          2
    26         25
    27        191
    28         33
    29        999
    30         25
    31         41
    32          5
    34          2
    37          6
    38         19
    39        163
    40        193
    41        146
    42         48
    43         42
    44          8
    45         57
    46          4
    47          2
    48          2
    50          1
    51          1
    53          5
    54          3
    55         16
    56          6
    57         76
    58         42
    59         10
    60          9
    61          2
    65          1
    66          3
    67         37
    68        181
    69        169
    70         24
    71         12
    72          8
    73         19
    74          2
    81          3
    82          1
    83          5
    84         38
    85        370
    86        533
    87         31
    88          6
    90          2
    95          9
    96         19
    97         14
    98          2
    99         33
   100          3
   101          4
   102          1
   111          2
   112         48
   113        596
   114        280
   115         23
   116          3
   127          3
   128          1
   129          7
   130          1
   131          1
   140         56
   141        392
   142         39
   143          5
   145          2
   157         41
   158         15
   159          4
   186         34
   187          5