##TITLE=Library Entry 27438
##JCAMP-DX=Revision 4.10 
##DATA TYPE=MASS SPECTRUM
##SAMPLE DESCRIPTION=Zaikin V.G., TIPS RAS, Moscow, Russia
##NAMES=HP
##CAS NAME=Propanamide, N-(4-bromophenyl)-2,2-dimethyl-
##MOLFORM=C11H14BrNO
##CAS REGISTRY NO=24109-06-6
##MP= -300
##BP= -300
##MW= 255
##$RETENTION INDEX=1740
##$CONDENSED SPECTRUM=NO
##NPOINTS= 74
##XYDATA=(XY..XY) 1 
    26          3
    27         17
    28         30
    29         75
    36          4
    37          3
    38         10
    39         50
    40          8
    41        155
    42         20
    43          3
    44          5
    46          3
    50         13
    51          7
    52          7
    53          4
    55         13
    56          9
    57        999
    58         45
    62          8
    63         45
    64         35
    65         50
    66          5
    69         10
    70          5
    74          5
    75         17
    76         18
    77          4
    80          5
    82          5
    85        174
    86          9
    90         29
    91         81
    92         63
    93         12
   117          7
   119          9
   120          3
   132          6
   143         23
   145         23
   146          5
   155         15
   157         15
   161          4
   169          8
   170         40
   171        341
   172         66
   173        327
   174         25
   177          3
   197         20
   198         13
   199         23
   200         12
   201          3
   212         23
   213          4
   214         23
   215          3
   240          3
   242          3
   255        416
   256         56
   257        410
   258         54
   259          3