##TITLE=Library Entry 48382
##JCAMP-DX=Revision 4.10 
##DATA TYPE=MASS SPECTRUM
##SAMPLE DESCRIPTION=A.A.Kutin, Moscow, Russia
##NAMES=HP
##CAS NAME=Pyridine, 2-bromo-3-methoxy-
##MOLFORM=C6H6BrNO
##CAS REGISTRY NO=24100-18-3
##MP= -300
##BP= -300
##MW= 187
##$RETENTION INDEX=0
##$CONDENSED SPECTRUM=NO
##NPOINTS= 88
##XYDATA=(XY..XY) 1 
    36          9
    37        124
    38        310
    39        397
    40         21
    41         11
    42          9
    43          4
    48          6
    49         40
    50        123
    51        220
    52         59
    53         56
    54         17
    55          3
    56          1
    57          0
    60          0
    61          1
    62          7
    63         29
    64        160
    65        172
    66         32
    67         17
    68          1
    72          8
    73          7
    74          4
    75         33
    76         72
    78        999
    79         99
    80         21
    81         27
    82          5
    86          1
    87          2
    91         14
    93        182
    94         11
    95         19
    96          0
   103          0
   104          1
   105          7
   106         11
   107          9
   108        303
   109         23
   110          1
   115          0
   116          5
   117         14
   118         10
   119         15
   120          4
   121          2
   127          0
   128          4
   129          6
   130          6
   131          6
   132          2
   133          0
   134          0
   142          0
   144        124
   145         10
   146        122
   147          6
   148          0
   156         10
   157          1
   158         10
   159          1
   160          0
   171          2
   172          5
   173          3
   174          4
   175          0
   187        539
   188          4
   189        517
   190         38
   191          2