##TITLE=Library Entry 56037
##JCAMP-DX=Revision 4.10 
##DATA TYPE=MASS SPECTRUM
##SAMPLE DESCRIPTION=Div. of Experiment Therapeutics WRAIR, WRAMC, Washingto
n DC 20307
##NAMES=HP
##CAS NAME=7-Chloro-1-[5-(diethylamino)pent-2-yl]]benzimidazole
##MOLFORM=C16H24ClN3
##CAS REGISTRY NO=24102-95-2
##MP= -300
##BP= -300
##MW= 293
##$RETENTION INDEX=0
##$CONDENSED SPECTRUM=NO
##NPOINTS= 133
##XYDATA=(XY..XY) 1 
    41         68
    42         57
    43         21
    44         23
    45          3
    46          0
    49          1
    50          1
    51          3
    52          2
    53          5
    54          5
    55          7
    56         47
    58        107
    59          3
    60          0
    61          1
    62          4
    63          9
    64          1
    65          3
    67          5
    69         16
    70         16
    71         11
    72         21
    73          6
    75         10
    76          1
    77          4
    78          0
    79          0
    80          0
    82          3
    84         24
    86        999
    87         39
    89          9
    90         10
    91          2
    96          2
    98         18
    99          4
   100          2
   102          4
   103          0
   110          2
   111          6
   112         21
   113          1
   114          5
   116          9
   117         14
   118          3
   119          1
   124          7
   125          4
   126         38
   127          1
   128          1
   129          2
   130          0
   131          2
   132          0
   136          0
   138          2
   139          3
   140          7
   142         20
   143          8
   144          6
   145          4
   147          0
   152         17
   153          9
   154          4
   155          3
   156          1
   157          1
   162          0
   163          0
   165         12
   166          3
   167          4
   168          1
   169          0
   171          1
   172          0
   173          1
   177          0
   179         36
   180          8
   181         11
   182          2
   185          1
   186          2
   187          2
   191          1
   192          0
   193          3
   194          0
   203          0
   205          2
   207          4
   209          1
   214          0
   219          0
   220          1
   221         13
   222          1
   223          6
   224          1
   228          2
   229          0
   230          7
   231          0
   242          1
   257         11
   258         59
   259          9
   264          1
   266          0
   278         23
   279          2
   280          7
   281          0
   291          3
   292          0
   293         15
   294          1
   295          5
   296          0