##TITLE=Library Entry 99920
##JCAMP-DX=Revision 4.10 
##DATA TYPE=MASS SPECTRUM
##SAMPLE DESCRIPTION=NIST Mass Spectrometry Data Center
##NAMES=HP
##CAS NAME=cis-Chrysanthenyl formate
##MOLFORM=C11H16O2
##CAS REGISTRY NO=241123-18-2
##MP= -300
##BP= -300
##MW= 180
##$RETENTION INDEX=1190
##$CONDENSED SPECTRUM=NO
##NPOINTS= 88
##XYDATA=(XY..XY) 1 
    26          1
    27         23
    28          4
    29         43
    30          1
    31          7
    37          1
    38          3
    39         80
    40         13
    41        163
    42         40
    44          5
    45          7
    46          1
    47          7
    50          7
    51         29
    52         13
    53         68
    54         11
    55        108
    56         15
    57         24
    58          4
    59        161
    60          7
    61          3
    62          2
    63         10
    64          3
    65         67
    66         17
    67        133
    68         18
    69        114
    70         11
    71          8
    72          3
    73          1
    75          1
    76          1
    77        135
    78         29
    79        186
    80        147
    81        144
    82         27
    83         42
    84         25
    85          2
    87          6
    88         33
    91        244
    92         84
    93        293
    94        129
    95        100
    96         30
    97          9
    98          1
   102          1
   103         17
   104         10
   105         70
   106         26
   107        126
   108         27
   109        174
   110         18
   112          2
   115          9
   117         21
   118          5
   119        999
   120        101
   121         48
   122         10
   123         19
   124          2
   134        131
   135         17
   136          4
   137         38
   138          4
   151          1
   165          6
   166          1