##TITLE=Library Entry 44561
##JCAMP-DX=Revision 4.10 
##DATA TYPE=MASS SPECTRUM
##SAMPLE DESCRIPTION=R RYHAGE MS-LAB KAROLINSKA INSTITUTET STOCKHOLM SWEDEN
##NAMES=HP
##CAS NAME=Pentanoic acid, 4-methyl-, methyl ester
##MOLFORM=C7H14O2
##CAS REGISTRY NO=2412-80-8
##MP= -300
##BP= -300
##MW= 130
##$RETENTION INDEX=881
##$CONDENSED SPECTRUM=NO
##NPOINTS= 54
##XYDATA=(XY..XY) 1 
    14         25
    15        131
    16         13
    17         10
    18         20
    26         28
    27        202
    29        177
    30         13
    31         39
    37         12
    38         18
    39        182
    40         31
    41        280
    42         93
    43        561
    44         39
    45         44
    50         13
    51         18
    52         10
    53         41
    54         18
    55        359
    56        108
    57        359
    58         21
    59        207
    60         18
    61         10
    69         54
    70         54
    71         74
    72         12
    73        216
    74        999
    75         62
    82        102
    83         13
    84         90
    85         10
    86         10
    87        541
    88        221
    89         30
    97         21
    98         12
    99        261
   100         21
   101         84
   115         54
   129         10
   130         10