##TITLE=Library Entry 59216
##JCAMP-DX=Revision 4.10 
##DATA TYPE=MASS SPECTRUM
##SAMPLE DESCRIPTION=HCACAV, 61(8)3062(1978); B. SCHOLL ET AL
##NAMES=HP
##CAS NAME=Benzeneacetic acid, .alpha.-(aminocarbonyl)-.alpha.-ethyl-
##MOLFORM=C11H13NO3
##CAS REGISTRY NO=24130-91-4
##MP= -300
##BP= -300
##MW= 207
##$RETENTION INDEX=0
##$CONDENSED SPECTRUM=NO
##NPOINTS= 21
##XYDATA=(XY..XY) 1 
    39        150
    41        140
    44        220
    51        140
    63         90
    65        110
    77        160
    78        150
    79         70
    89         70
    91        999
   103         80
   104         70
   105         60
   115         80
   117         70
   119        170
   120        130
   135        160
   163        100
   191         10