##TITLE=Library Entry 61457
##JCAMP-DX=Revision 4.10 
##DATA TYPE=MASS SPECTRUM
##SAMPLE DESCRIPTION=R.C. DOUGHERTY
##NAMES=HP
##CAS NAME=4a,8a-Ethenonaphthalene, 1,2,3,4,5,8-hexahydro-
##MOLFORM=C12H16
##CAS REGISTRY NO=24139-32-0
##MP= -300
##BP= -300
##MW= 160
##$RETENTION INDEX=0
##$CONDENSED SPECTRUM=NO
##NPOINTS= 42
##XYDATA=(XY..XY) 1 
    27        140
    28         30
    29         30
    39        240
    40         30
    41        190
    50         50
    51        130
    52         80
    53         90
    54         20
    55         20
    63         80
    64         30
    65        150
    66         40
    67         70
    77        220
    78        240
    79        200
    80         40
    81         30
    91        999
    92        230
    93         60
   103         80
   104        430
   105        220
   106         80
   115        130
   116         70
   117        650
   118        280
   119        145
   128         50
   129         50
   131        290
   132        500
   133         65
   134         40
   145        120
   160        100