##TITLE=Library Entry 394
##JCAMP-DX=Revision 4.10 
##DATA TYPE=MASS SPECTRUM
##SAMPLE DESCRIPTION=Humboldt-Universitat zu Berlin, Department of Chemistry
, Analytical Group
##NAMES=HP
##CAS NAME=2-Cyano-5-phenyl-2,4-pentadienoic acid ethyl ester
##MOLFORM=C14H13NO2
##CAS REGISTRY NO=24139-56-8
##MP= -300
##BP= -300
##MW= 227
##$RETENTION INDEX=0
##$CONDENSED SPECTRUM=NO
##NPOINTS= 137
##XYDATA=(XY..XY) 1 
    12          3
    13          4
    14         28
    15        143
    16         12
    17         10
    18         30
    19          7
    26        111
    27        644
    28        195
    29        999
    30         49
    31          9
    37         17
    38         37
    39        152
    40         14
    41         12
    42         17
    43         92
    44         16
    45         31
    46          1
    50        163
    51        312
    52        124
    53         23
    54          4
    55          5
    56          2
    57          1
    59          1
    61         12
    62         51
    63        149
    64         54
    65         37
    66          6
    67          3
    68          2
    69          2
    73          6
    74         62
    75         99
    76        131
    77        260
    78         70
    79          8
    80          7
    81          2
    85          4
    86         13
    87         28
    88         19
    89         43
    90         11
    91         64
    92          7
    93          2
    94          6
    95          2
    96          1
    97          2
    98         13
    99         26
   100         32
   101         69
   102        143
   103         47
   104         15
   105         21
   106          3
   110          1
   111          3
   112          4
   113         10
   115        366
   116         76
   117         14
   118          4
   119          1
   120          8
   121          2
   122         11
   123          4
   124          5
   125         46
   126        248
   127        564
   128        199
   129         28
   130         10
   131         39
   132          9
   133          3
   138          1
   139          3
   140         20
   141         10
   142         18
   143        110
   144         28
   145          3
   148          1
   150          7
   151         12
   152         85
   153        402
   154        550
   155        269
   156         61
   157          6
   158          1
   165          1
   166          2
   167          4
   168          4
   170         44
   171        204
   172         33
   173          3
   180         55
   181         69
   182         90
   183         13
   184         10
   185          1
   194          1
   198         53
   199         90
   200         13
   201          1
   213          1
   227        136
   228         24
   229          2