##TITLE=Library Entry 56967
##JCAMP-DX=Revision 4.10 
##DATA TYPE=MASS SPECTRUM
##SAMPLE DESCRIPTION=Div. of Experiment Therapeutics WRAIR, WRAMC, Washingto
n DC 20307
##NAMES=HP
##CAS NAME=1,3-Dimethyl-4-[4-diethylamino-1-methylbutylamino]-1H-pyrazolo[3,
4-b]quinoline
##MOLFORM=C21H31N5
##CAS REGISTRY NO=24158-33-6
##MP= -300
##BP= -300
##MW= 353
##$RETENTION INDEX=0
##$CONDENSED SPECTRUM=NO
##NPOINTS= 156
##XYDATA=(XY..XY) 1 
    41        106
    42        136
    43         41
    44         44
    45          4
    46          8
    47          6
    48          2
    49         30
    50          5
    51         15
    52          4
    53          5
    54          8
    55         13
    56         81
    57         23
    58        196
    59          7
    60          0
    61          0
    62          1
    63          4
    64          3
    65          5
    66          4
    67          7
    68          6
    69         28
    70         23
    71         30
    72         34
    73         90
    74         13
    75          6
    76          8
    77         12
    78          3
    79          2
    80          1
    81          2
    82          5
    83          2
    84         63
    86        999
    87         58
    88          6
    89          6
    90          3
    91          2
    92          1
    93          0
    96          3
    97          1
    98         18
    99         62
   100          9
   101         10
   102         12
   103          6
   104          4
   106          1
   110          2
   111          3
   112         62
   113         26
   114         20
   115         10
   116          9
   117          4
   118          2
   119          6
   120          0
   125          2
   126         78
   127         17
   128         14
   129         11
   130          3
   139          2
   140         32
   141         13
   142         25
   143          6
   144          6
   152          3
   153          5
   154          6
   155         11
   156          3
   157          2
   166          1
   167          9
   168          8
   169         15
   170          4
   179          0
   180          2
   181          5
   182          5
   183          6
   184          4
   193          1
   194          2
   195          4
   196         10
   197         15
   198         40
   199          6
   208          2
   209          5
   210          4
   211         26
   212         28
   213         67
   214          9
   221          2
   222          4
   223         15
   224         16
   225         13
   226          3
   235          1
   236          3
   237         15
   238         12
   239         64
   240         22
   241          6
   249          1
   250          1
   251         14
   252         11
   253         22
   254          5
   263          2
   264          2
   265         12
   266          3
   267         11
   268          1
   279         31
   280         26
   281         37
   282         11
   283          1
   324         71
   325         21
   326          6
   327          0
   338          5
   352          6
   353        253
   354         46
   355         20
   356          3