##TITLE=Library Entry 21071
##JCAMP-DX=Revision 4.10 
##DATA TYPE=MASS SPECTRUM
##SAMPLE DESCRIPTION=D.HENNEBERG, MAX-PLANCK INSTITUTE, MULHEIM, WEST GERMAN
Y
##NAMES=HP
##CAS NAME=Cyclopropanemethanol, 2,2,3,3-tetramethyl-
##MOLFORM=C8H16O
##CAS REGISTRY NO=2415-96-5
##MP= -300
##BP= -300
##MW= 128
##$RETENTION INDEX=0
##$CONDENSED SPECTRUM=NO
##NPOINTS= 75
##XYDATA=(XY..XY) 1 
    27        230
    28        232
    29        168
    30          6
    31         56
    32          3
    36          2
    37          5
    38         15
    39        289
    40         53
    41        624
    42         42
    43        245
    44          9
    45         14
    46          1
    48          1
    49          2
    50         19
    51         35
    52         16
    53        126
    54         27
    55        999
    56         63
    57        194
    58         10
    59         39
    60          1
    61          1
    62          3
    63          6
    64          2
    65         32
    66         12
    67        284
    68         44
    69        263
    70         34
    71         53
    72          9
    73          2
    75          1
    77         32
    78          8
    79         43
    80         18
    81         57
    82         12
    83         19
    84         21
    85        186
    86         14
    87          1
    89          1
    91         16
    92          2
    93         31
    94          5
    95        295
    96         39
    97        745
    98         52
    99          1
   103          1
   105          2
   107          2
   109          3
   110         52
   111         13
   112          2
   113         17
   114          1
   128          7