##TITLE=Library Entry 22020
##JCAMP-DX=Revision 4.10 
##DATA TYPE=MASS SPECTRUM
##SAMPLE DESCRIPTION=D.HENNEBERG, MAX-PLANCK INSTITUTE, MULHEIM, WEST GERMAN
Y
##NAMES=HP
##CAS NAME=Cyclopropane, propyl-
##MOLFORM=C6H12
##CAS REGISTRY NO=2415-72-7
##MP= -300
##BP= -300
##MW= 84
##$RETENTION INDEX=609
##$CONDENSED SPECTRUM=NO
##NPOINTS= 20
##XYDATA=(XY..XY) 1 
    26         12
    27        332
    28        144
    29        241
    38         12
    39        314
    40         51
    41        869
    42        406
    43        268
    50          2
    51         12
    53         50
    54         34
    55        498
    56        999
    57         31
    63          0
    69        186
    84         40