##TITLE=Library Entry 94655
##JCAMP-DX=Revision 4.10 
##DATA TYPE=MASS SPECTRUM
##SAMPLE DESCRIPTION=NIST Mass Spectrometry Data Center
##NAMES=HP
##CAS NAME=Benzene, 2,2-dichlorocyclopropyl-
##MOLFORM=C9H8Cl2
##CAS REGISTRY NO=2415-80-7
##MP= -300
##BP= -300
##MW= 186
##$RETENTION INDEX=1261
##$CONDENSED SPECTRUM=NO
##NPOINTS= 91
##XYDATA=(XY..XY) 1 
    12          1
    13          1
    14          2
    15          2
    18          1
    26         22
    27         31
    28          2
    35          7
    36          5
    37         21
    38         42
    39        111
    40          7
    41          4
    43          2
    44          3
    45          1
    47         10
    48          3
    49         20
    50         84
    51        114
    52         20
    53          3
    55          3
    56          6
    57         55
    60          6
    61         30
    62         58
    63        119
    64         20
    65         39
    66          2
    72          3
    73         27
    74         40
    75         47
    76         22
    77         41
    78         29
    79          1
    82          9
    83          4
    84          8
    85         13
    86         19
    87         28
    88         13
    89         93
    90         17
    91         22
    92          2
    96          3
    97          4
    98          5
    99         10
   100          2
   101          6
   102         13
   103         18
   104          9
   105          1
   107          1
   108          1
   109          7
   110          2
   111          5
   113         16
   115        999
   116        148
   117          9
   121          1
   123          3
   125         11
   126          1
   127          3
   136          1
   149         43
   150         27
   151        233
   152         29
   153         71
   154          6
   159          1
   186         55
   187          7
   188         35
   189          4
   190          5