##TITLE=Library Entry 19262
##JCAMP-DX=Revision 4.10 
##DATA TYPE=MASS SPECTRUM
##SAMPLE DESCRIPTION=J. Klune, Insect Chem. Ecol. Lab., USDA, Beltsville, MD
 20705
##NAMES=HP
##CAS NAME=Hexadecenoic acid, Z-11-
##MOLFORM=C16H30O2
##CAS REGISTRY NO=2416-20-8
##MP= -300
##BP= -300
##MW= 254
##$RETENTION INDEX=1953
##$CONDENSED SPECTRUM=NO
##NPOINTS= 137
##XYDATA=(XY..XY) 1 
    41        709
    42        150
    43        335
    44          8
    45         99
    47          6
    51         12
    52         12
    53         92
    54        186
    55        999
    56        269
    57        155
    58         12
    59         38
    60        184
    61         13
    65         24
    66         19
    67        204
    68        142
    69        493
    70        187
    71         57
    72          4
    73        144
    74         14
    75         11
    77         23
    78          9
    79         46
    80         21
    81        109
    82        101
    83        300
    84        210
    85         44
    86          9
    87         33
    88          5
    89          5
    91         12
    92          5
    93         16
    94         23
    95         76
    96        145
    97        227
    98        115
    99         24
   100         36
   101         50
   102         10
   103          2
   105         10
   106          8
   107         12
   108         16
   109         43
   110         74
   111        108
   112         37
   113         20
   114         57
   115         20
   116          3
   117          5
   119         17
   120         11
   121         15
   122         12
   123         45
   124         50
   125         35
   126         15
   127         27
   128          8
   129         14
   130          3
   133         12
   134         15
   135          7
   136         13
   137         30
   138         33
   139         21
   140          9
   141         10
   143          8
   144          2
   147         14
   148          9
   150          7
   151         20
   152         36
   153         13
   154          6
   155         12
   157          5
   158          8
   159          2
   161          7
   162          2
   163          4
   164          2
   165         15
   166         14
   167          6
   168          5
   169          8
   171          2
   173          2
   175          8
   176          2
   177          6
   179          9
   180          7
   182          3
   185          5
   189          8
   191          3
   192         28
   193         16
   194         21
   195          8
   207          7
   208         15
   209          3
   218          3
   220          3
   221          5
   222          3
   232          2
   236         38
   237         12
   254         20
   255         10