##TITLE=Library Entry 78714
##JCAMP-DX=Revision 4.10 
##DATA TYPE=MASS SPECTRUM
##SAMPLE DESCRIPTION=A.A.Kutin, Moscow, Russia
##NAMES=HP
##CAS NAME=1,2,4-Triazine-3,5(2H,4H)-dione, 6-benzoylthio-
##MOLFORM=C10H7N3O3S
##CAS REGISTRY NO=24168-34-1
##MP= -300
##BP= -300
##MW= 249
##$RETENTION INDEX=0
##$CONDENSED SPECTRUM=NO
##NPOINTS= 96
##XYDATA=(XY..XY) 1 
    33          4
    34          0
    35          0
    36          0
    37         10
    38         26
    39         40
    40          7
    41         22
    42         22
    43        106
    44        125
    45        136
    46         12
    47          9
    48          2
    49         14
    50        200
    51        508
    52         28
    53         14
    54         13
    55          2
    56          5
    57          2
    58         57
    59         18
    60          7
    61          6
    62          8
    63          7
    64          1
    65          7
    66          2
    68          1
    69         14
    70         28
    72         47
    73        102
    74         78
    75         41
    76         56
    77        854
    78         58
    79          2
    80          0
    81          1
    82          3
    83          0
    84          1
    85          1
    86          2
    87          0
    88          0
    89          0
    90          0
    91          2
    92          1
    93          3
    94          1
    95          1
    97          0
    98          0
   100          0
   101          6
   102          3
   103          2
   105        999
   106         76
   107          5
   108          2
   109          4
   110          0
   115          0
   116          3
   117          0
   118          0
   120          1
   121         10
   122          5
   123          1
   126          0
   128          0
   134          0
   135          0
   140          0
   142          0
   144          6
   145          5
   146          0
   150          0
   156          0
   162          0
   178          0
   207          0
   249          0