##TITLE=Library Entry 68459
##JCAMP-DX=Revision 4.10 
##DATA TYPE=MASS SPECTRUM
##SAMPLE DESCRIPTION=J.VOTH UNIV. OF CALIFORNIA, DAVIS, CALIFORNIA, 95616, U
SA
##NAMES=HP
##CAS NAME=2,4-Hexadiene, 3,4-dimethyl-, (E,Z)-
##MOLFORM=C8H14
##CAS REGISTRY NO=2417-88-1
##MP= -300
##BP= -300
##MW= 110
##$RETENTION INDEX=0
##$CONDENSED SPECTRUM=NO
##NPOINTS= 75
##XYDATA=(XY..XY) 1 
     2          8
    12          1
    13          2
    14         10
    15        137
    16         33
    18          0
    25          2
    26         67
    27        594
    28        108
    29        264
    30         58
    31          0
    37         12
    38         38
    39        501
    40         80
    41        526
    42         31
    43         78
    44          3
    45          4
    46          2
    49          6
    50         72
    51        152
    52         65
    53        326
    54         84
    55        539
    56        155
    57         15
    61          5
    62         15
    63         38
    64          9
    65         88
    66         39
    67        722
    68         98
    69         40
    70         13
    71          1
    73          1
    74          7
    75          6
    76          3
    77        136
    78         31
    79        136
    80         61
    81        218
    82         25
    83         14
    84          1
    85          1
    86          1
    87          0
    89          3
    91         66
    92         14
    93        106
    94         38
    95        999
    96         76
    97          3
   103          0
   105          2
   107          5
   108          3
   109         19
   110        728
   111         64
   112          3