##TITLE=Library Entry 57915
##JCAMP-DX=Revision 4.10 
##DATA TYPE=MASS SPECTRUM
##SAMPLE DESCRIPTION=A.A.Kutin, Moscow, Russia
##NAMES=HP
##CAS NAME=Morpholine, 4-[[(dimethylamino)thioxomethyl]thio]-
##MOLFORM=C7H14N2OS2
##CAS REGISTRY NO=24171-17-3
##MP= -300
##BP= -300
##MW= 206
##$RETENTION INDEX=0
##$CONDENSED SPECTRUM=NO
##NPOINTS= 53
##XYDATA=(XY..XY) 1 
    33          9
    34          2
    35          0
    38          0
    40         18
    41         16
    42         91
    43         17
    44         74
    45         14
    46          6
    47         20
    49          0
    52          0
    54         10
    55         11
    56         93
    57         13
    58          8
    59          6
    60         20
    61         11
    62          1
    63          0
    64          5
    65          0
    66          0
    70          1
    71          0
    72         18
    73         52
    74          6
    75          4
    76         12
    77         30
    78          1
    79          2
    86        443
    88        999
    90         86
    91          2
   100          2
   105          0
   106          0
   118          5
   120         28
   121         21
   122          3
   123          1
   152          0
   206         19
   207          1
   208          1