##TITLE=Library Entry 91258
##JCAMP-DX=Revision 4.10 
##DATA TYPE=MASS SPECTRUM
##SAMPLE DESCRIPTION=NIST Mass Spectrometry Data Center, 1994
##NAMES=HP
##CAS NAME=Tris(2-thienyl)phosphine
##MOLFORM=C12H9PS3
##CAS REGISTRY NO=24171-89-9
##MP= -300
##BP= -300
##MW= 280
##$RETENTION INDEX=0
##$CONDENSED SPECTRUM=NO
##NPOINTS= 140
##XYDATA=(XY..XY) 1 
    18          8
    26          3
    37         16
    38         67
    39        373
    40         12
    45        266
    46          8
    47         15
    49          4
    50         32
    51         49
    52          4
    56         23
    57        118
    58         53
    60          3
    61          5
    63        421
    64         16
    65         24
    68         30
    69        145
    70         49
    71         42
    72          2
    75         15
    76         11
    77         31
    78          5
    79          4
    80         24
    81         77
    82         58
    83         23
    84         14
    85          4
    86          4
    87         50
    88        154
    89         76
    90         49
    91          5
    92         10
    93         22
    94          9
    95         31
    96         10
    97         12
    98          3
    99          3
   100          5
   101          5
   102         38
   103          4
   104          6
   105          6
   106          4
   107         19
   108         90
   109         25
   110          5
   111         15
   112          7
   113          3
   114        999
   115         71
   116         42
   117          6
   119          5
   120         15
   121         91
   122         22
   123          6
   126         14
   127         34
   128          5
   129          4
   132         10
   133         25
   134        200
   135         20
   136         12
   137          2
   138          7
   139         30
   140         24
   141          4
   145          6
   146          2
   151          8
   152         64
   153         78
   154         11
   155          4
   158         10
   163         16
   164          7
   165         72
   166        221
   167         27
   168         19
   169          3
   170          4
   171         28
   172          6
   173          9
   177          5
   178         28
   179          7
   180          3
   183         10
   184         74
   185         13
   186          3
   189          3
   190          6
   195         64
   196         92
   197         81
   198         15
   199          7
   203          4
   208          2
   215          6
   216         33
   217         46
   218          8
   219          4
   221          2
   235          3
   245          7
   247         43
   248         17
   249          5
   280        653
   281        108
   282         91
   283         12
   284          4