##TITLE=Library Entry 18804
##JCAMP-DX=Revision 4.10 
##DATA TYPE=MASS SPECTRUM
##SAMPLE DESCRIPTION=NIST Mass Spectrometry Data Center, 1998.
##NAMES=HP
##CAS NAME=Propanenitrile, 3-bromo-
##MOLFORM=C3H4BrN
##CAS REGISTRY NO=2417-90-5
##MP= -300
##BP= -300
##MW= 133
##$RETENTION INDEX=0
##$CONDENSED SPECTRUM=NO
##NPOINTS= 50
##XYDATA=(XY..XY) 1 
    12          1
    13          1
    14          4
    15          1
    24          4
    25         17
    26        116
    27        141
    28        158
    29          3
    36          6
    37         20
    38         33
    39         28
    40         24
    41          2
    50         16
    51        143
    52        296
    53        248
    54        999
    55         37
    56          1
    79         55
    80         14
    81         56
    82         14
    83          2
    91         10
    92         10
    93        243
    94         13
    95        230
    96          2
   103          1
   104          5
   105         12
   106         14
   107         11
   108          9
   109          1
   117          1
   118          1
   129          1
   130          1
   131          2
   133        484
   134         22
   135        467
   136         18