##TITLE=Library Entry 12069
##JCAMP-DX=Revision 4.10 
##DATA TYPE=MASS SPECTRUM
##SAMPLE DESCRIPTION=Humboldt-Universitat zu Berlin, Department of Chemistry
, Analytical Group
##NAMES=HP
##CAS NAME=1-Phenyl-2-acetoxy-prop-1-en
##MOLFORM=C11H12O2
##CAS REGISTRY NO=24175-87-9
##MP= -300
##BP= -300
##MW= 176
##$RETENTION INDEX=0
##$CONDENSED SPECTRUM=NO
##NPOINTS= 94
##XYDATA=(XY..XY) 1 
    12          2
    13          3
    14         23
    15        158
    16          3
    17          7
    18         28
    26          6
    27         49
    28         25
    29          9
    31          2
    37          4
    38         18
    39         85
    40         11
    41         11
    43        999
    44         25
    45          5
    49          1
    50         34
    51         78
    52         13
    53         10
    54          1
    55         24
    56          2
    57          7
    60          1
    61          5
    62         26
    63         73
    64         23
    65         39
    66          4
    67          1
    69          1
    70          1
    71          1
    73          1
    74          8
    75          8
    76          7
    77         90
    78         25
    79         54
    80          4
    85          2
    86          5
    87          6
    88          3
    89        102
    90         95
    91        415
    92         55
    93          3
    94          1
    98          1
   101          1
   102          7
   103         33
   104          6
   105         82
   106         10
   107         34
   108          4
   113          2
   114          2
   115         72
   116         58
   117         17
   118         30
   119         83
   120          8
   121          1
   122          1
   128          1
   129          2
   130          2
   131          7
   132          3
   133         52
   134        775
   135         81
   136          5
   148          7
   149         15
   150          3
   161         10
   162          1
   176         55
   177          8
   178          1