##TITLE=Library Entry 51072
##JCAMP-DX=Revision 4.10 
##DATA TYPE=MASS SPECTRUM
##SAMPLE DESCRIPTION=Exported from NIST MS Search
##NAMES=HP
##CAS NAME=6-Azabicyclo[3.2.1]octane, 6-methyl-
##MOLFORM=C8H15N
##CAS REGISTRY NO=24173-54-4
##MP= -300
##BP= -300
##MW= 125
##$RETENTION INDEX=0
##$CONDENSED SPECTRUM=NO
##NPOINTS= 21
##XYDATA=(XY..XY) 1 
    39         95
    41         95
    42        177
    43         20
    44         52
    53         29
    54         31
    55         41
    56         27
    67         31
    68         20
    70         20
    80         14
    81         12
    82        999
    83         66
    94         33
    96         93
    97         20
   125         97
   126         33