##TITLE=Library Entry 7276
##JCAMP-DX=Revision 4.10 
##DATA TYPE=MASS SPECTRUM
##SAMPLE DESCRIPTION=LAC, NIDDK, NIH, Bethesda, MD 20892
##NAMES=HP
##CAS NAME=Ergosta-5,7,22-trien-3-ol, acetate, (3.beta.,22E)-
##MOLFORM=C30H46O2
##CAS REGISTRY NO=2418-45-3
##MP= -300
##BP= -300
##MW= 438
##$RETENTION INDEX=3237
##$CONDENSED SPECTRUM=NO
##NPOINTS= 231
##XYDATA=(XY..XY) 1 
    41        234
    43        999
    44         18
    45         59
    49         20
    51         21
    53         53
    55        425
    57        140
    58          7
    59         58
    60          8
    61         14
    65         22
    67        180
    69        338
    71        120
    72          6
    73         18
    74         28
    77         62
    79        120
    81        253
    82         39
    83        132
    84          5
    85         60
    86         13
    87         23
    91        132
    93        164
    95        202
    96         20
    97         66
    98         20
    99         45
   101          9
   103         17
   105        147
   107        165
   108         13
   109        115
   110         13
   111         41
   113         26
   115         44
   116          5
   117         68
   118         21
   119         87
   121        102
   122         13
   123         64
   124         26
   125         41
   127         18
   128         44
   129         54
   131        102
   133         94
   134         16
   135         60
   136         10
   137         36
   138          3
   139         19
   141         47
   142         16
   143         84
   145        133
   146          9
   147         94
   148          6
   149         39
   150         13
   151         18
   152         16
   153         21
   154          4
   155         60
   156         17
   157         89
   158         21
   159         88
   161         75
   162         10
   163         24
   164          8
   165         25
   166          7
   167         27
   168          4
   169         51
   171         59
   172         11
   173         46
   174          9
   175         32
   176          9
   177         16
   178         15
   179         21
   180          3
   181         31
   182          4
   183         49
   184          5
   185         48
   186         10
   187         34
   188         11
   189         19
   191         19
   192          6
   193         14
   195         33
   196          4
   197         60
   198          6
   199         46
   200          7
   201         27
   202          4
   203         17
   205          9
   207         17
   209         35
   211         75
   213         62
   214          4
   215         28
   217         12
   218          7
   219         12
   221         13
   223         25
   224         11
   225         25
   226         15
   227         35
   228         16
   229         36
   231          5
   233          9
   235         18
   236          6
   237         28
   238          4
   239         27
   240          5
   241         27
   243         20
   245         10
   247          5
   249         21
   250          8
   251         40
   252          4
   253         98
   254          6
   255         60
   256         13
   257         13
   259         19
   260          5
   261          6
   263          8
   265         17
   267         21
   268          6
   269         23
   270         10
   271         14
   272         13
   273         18
   274          6
   275         11
   279         16
   281         13
   283         16
   284          8
   285         33
   286         16
   287         23
   288         24
   289         12
   290          6
   293          6
   295          7
   297         19
   298          8
   299         23
   300          8
   301         21
   302         10
   303         13
   304          7
   309         10
   311        179
   312         48
   313         78
   314         25
   315         22
   316          9
   325         19
   326          7
   327         30
   328         17
   329         36
   330         12
   335          6
   337          6
   339         13
   340          7
   341         17
   342         16
   343         16
   344          6
   345          6
   351          9
   353          8
   356          9
   363         18
   365         12
   379         11
   395          6
   410          6
   437         14
   438        106
   439         32
   440          4