##TITLE=Library Entry 22003
##JCAMP-DX=Revision 4.10 
##DATA TYPE=MASS SPECTRUM
##SAMPLE DESCRIPTION=Japan AIST/NIMC Database- Spectrum MS-IW-6987
##NAMES=HP
##CAS NAME=N-.epsilon.-t-boc-L-Lysine
##MOLFORM=C11H22N2O4
##CAS REGISTRY NO=2418-95-3
##MP= -300
##BP= -300
##MW= 246
##$RETENTION INDEX=0
##$CONDENSED SPECTRUM=NO
##NPOINTS= 134
##XYDATA=(XY..XY) 1 
    14          4
    15         30
    16         33
    17         28
    18         90
    19          1
    25          5
    26         48
    27        187
    28        419
    29        210
    30        570
    31         74
    32          3
    33          1
    34          3
    36          3
    37         19
    38         41
    39        350
    40         89
    41        934
    42        162
    43        317
    44        746
    45         45
    46         22
    47          1
    48          2
    49         11
    50         48
    51         53
    52         42
    53         79
    54        110
    55        358
    56        999
    57        493
    58         52
    59        265
    60         10
    61          1
    62          4
    63          2
    64          2
    65         11
    66         14
    67         67
    68         36
    69         33
    70        103
    71         81
    72        307
    73         30
    74        142
    75         31
    76          3
    77          4
    78          8
    79         23
    80         22
    81         28
    82        218
    83        347
    84        630
    85         52
    86          9
    87          9
    88         15
    89         19
    90          2
    91          6
    92          5
    93          9
    94          5
    95          7
    96          5
    97          7
    98         27
    99         66
   100         92
   101         16
   102          5
   103          7
   104          4
   105          1
   106          1
   107          4
   108          5
   109         15
   110         53
   111         79
   112         13
   113          5
   114          2
   115          2
   116         12
   117         19
   118          2
   122          1
   123          1
   124          2
   125          3
   126          9
   127        186
   128        226
   129         47
   130         27
   131          3
   136          1
   137          1
   138          1
   139          1
   142          1
   143          2
   144          1
   145         48
   146         53
   147          8
   148          1
   152          1
   153          1
   154         12
   155          3
   156          1
   172          3
   173         46
   174          4
   187          1
   189          1
   190          2
   191          5
   201         16
   202          2