##TITLE=Library Entry 27783
##JCAMP-DX=Revision 4.10 
##DATA TYPE=MASS SPECTRUM
##SAMPLE DESCRIPTION=M. RYSKA, MS LAB., PHARM. BIOCHEM. RES. INST., PRAGUE,
 CZECH.
##NAMES=HP
##CAS NAME=4-(2-Dimethylaminoethoxy)benzonitrile
##MOLFORM=C11H14N2O
##CAS REGISTRY NO=24197-95-3
##MP= -300
##BP= -300
##MW= 190
##$RETENTION INDEX=0
##$CONDENSED SPECTRUM=NO
##NPOINTS= 20
##XYDATA=(XY..XY) 1 
    39         20
    41         20
    42        110
    43         40
    44         30
    54         30
    56         20
    57         20
    58        999
    59         30
    64         10
    65         10
    70         10
    71         20
    72         10
    75         10
    90         10
    98         10
   102         20
   190          5