##TITLE=Library Entry 60569
##JCAMP-DX=Revision 4.10 
##DATA TYPE=MASS SPECTRUM
##SAMPLE DESCRIPTION=Exported from NIST MS Search
##NAMES=HP
##CAS NAME=Nonanoic acid, 9-phenyl-, methyl ester
##MOLFORM=C16H24O2
##CAS REGISTRY NO=24197-55-5
##MP= -300
##BP= -300
##MW= 248
##$RETENTION INDEX=0
##$CONDENSED SPECTRUM=NO
##NPOINTS= 79
##XYDATA=(XY..XY) 1 
    31        190
    32        130
    39         50
    40         10
    41        120
    42         10
    43         50
    44        100
    45         10
    50         10
    51         30
    53         10
    54         10
    55        160
    56         20
    59         60
    63         20
    65         60
    67         20
    69         40
    73         20
    74        420
    75         50
    77         50
    78         50
    79         40
    81         20
    83         60
    84         20
    87        210
    88         10
    89         10
    91        999
    92        560
    93         50
    94         10
    95         10
    97         50
    98         40
   101         20
   103         30
   104        150
   105        170
   106         30
   107         10
   111         10
   112         30
   115         20
   116         10
   117         80
   118         40
   119         50
   120         10
   121         20
   125         60
   129         20
   130         10
   131         30
   132         10
   133         60
   134         20
   143         10
   147         10
   157         20
   160         10
   172         10
   173         10
   174         10
   179         10
   180         10
   188         10
   192         10
   195         10
   198         10
   216        100
   217         80
   218         10
   248        170
   249         30