##TITLE=Library Entry 12162
##JCAMP-DX=Revision 4.10 
##DATA TYPE=MASS SPECTRUM
##SAMPLE DESCRIPTION=NIST Mass Spectrometry Data Center, 2010
##NAMES=HP
##CAS NAME=Benzoic acid, 4-(acetylthio)-
##MOLFORM=C9H8O3S
##CAS REGISTRY NO=24197-62-4
##MP= -300
##BP= -300
##MW= 196
##$RETENTION INDEX=1748
##$CONDENSED SPECTRUM=NO
##NPOINTS= 111
##XYDATA=(XY..XY) 1 
    15         26
    25          1
    26          1
    27          5
    29          2
    31          1
    36          1
    37          6
    38         14
    39         43
    40          3
    41          4
    42         21
    43        999
    44         25
    45         64
    46          2
    47          3
    49          3
    50         35
    51         30
    52          4
    53         27
    54          5
    55          4
    57         14
    58         24
    59         10
    60          5
    61         12
    62         22
    63         69
    64         13
    65         98
    66         28
    67          3
    68          2
    69         86
    70          7
    71          9
    72          1
    73          5
    74         19
    75         16
    76         11
    77         13
    78          3
    79          2
    80          2
    81         32
    82         46
    83         10
    84         12
    85          5
    86          1
    89          1
    90          1
    91          2
    92          9
    93          7
    94          2
    95          3
    96          2
    97         25
    98          2
    99          1
   100          1
   103          1
   104          2
   105         10
   106          5
   107         17
   108         80
   109         89
   110         44
   111          7
   112          2
   119          3
   120          2
   121          5
   122          5
   123          3
   124          2
   125         53
   126          8
   127          3
   128          1
   135         12
   136        556
   137        204
   138         43
   139          9
   140          1
   147          1
   149          1
   150          1
   151          3
   152          1
   153         55
   154        285
   155         27
   156         15
   157          1
   165          1
   179          4
   180          1
   181          1
   195          1
   196         44
   197          5
   198          3