##TITLE=Library Entry 7253
##JCAMP-DX=Revision 4.10 
##DATA TYPE=MASS SPECTRUM
##SAMPLE DESCRIPTION=NIST Mass Spectrometry Data Center, 1994
##NAMES=HP
##CAS NAME=6-Methyl-5-octen-2-one
##MOLFORM=C9H16O
##CAS REGISTRY NO=24199-46-0
##MP= -300
##BP= -300
##MW= 140
##$RETENTION INDEX=0
##$CONDENSED SPECTRUM=NO
##NPOINTS= 70
##XYDATA=(XY..XY) 1 
    12          1
    13          1
    14         13
    15        116
    16          0
    17          1
    18          2
    19          1
    26         21
    27        190
    28         38
    29        117
    30          4
    37          3
    39        233
    40         42
    41        319
    42          3
    43        999
    44         21
    45         12
    46          0
    50         18
    51         34
    52         16
    53         88
    54          0
    55        527
    56         30
    57         22
    58         55
    59          7
    61          1
    62          4
    63          9
    65         24
    67        340
    68         25
    69         47
    70         53
    71         66
    72          4
    77         20
    79         32
    81         67
    82        264
    83         69
    84          6
    85          2
    91         13
    92          9
    93         31
    94          5
    95          8
    96          5
    97         21
    98          3
   105          3
   107         35
   108          3
   109          3
   110          3
   111         75
   112          6
   122        116
   123         14
   125         16
   126          1
   140         11
   141          1