##TITLE=Library Entry 65733
##JCAMP-DX=Revision 4.10 
##DATA TYPE=MASS SPECTRUM
##SAMPLE DESCRIPTION=Japan AIST/NIMC Database- Spectrum MS-IW-4923
##NAMES=HP
##CAS NAME=2-Butanol, 1,4-dichloro-
##MOLFORM=C4H8Cl2O
##CAS REGISTRY NO=2419-74-1
##MP= -300
##BP= -300
##MW= 142
##$RETENTION INDEX=0
##$CONDENSED SPECTRUM=NO
##NPOINTS= 80
##XYDATA=(XY..XY) 1 
    14          5
    15         39
    18          1
    25          1
    26         18
    27        105
    28         68
    29        414
    30         10
    31         89
    32          1
    35          3
    36         16
    37          6
    38          8
    39         32
    40          4
    41         41
    42         27
    43        203
    44         18
    45          4
    47          3
    48          5
    49         64
    50         33
    51         24
    52          9
    53         24
    54          2
    55         15
    56          2
    57        145
    58          9
    59          1
    60          2
    61          9
    62         10
    63         32
    64          5
    65         28
    66          1
    67          6
    69          2
    70          8
    71         24
    72          1
    73          2
    75         20
    76         28
    77         76
    78         50
    79        360
    80         20
    81        108
    82          2
    83          2
    85          1
    87          2
    88          8
    89         11
    90          3
    91          6
    92          4
    93        999
    94         38
    95        362
    96         11
    97          1
   105          2
   106         16
   107          5
   108          5
   109          1
   124          3
   125          1
   126          1
   141          2
   142          1
   143          1