##TITLE=Library Entry 4197
##JCAMP-DX=Revision 4.10 
##DATA TYPE=MASS SPECTRUM
##SAMPLE DESCRIPTION=R.T. LOEFFLER,LONG ASHTON RES. STN.,LONG ASHTON,BRISTOL
,U.K.
##NAMES=HP
##CAS NAME=Dichlozoline
##MOLFORM=C11H9Cl2NO3
##CAS REGISTRY NO=24201-58-9
##MP= -300
##BP= -300
##MW= 273
##$RETENTION INDEX=0
##$CONDENSED SPECTRUM=NO
##NPOINTS= 196
##XYDATA=(XY..XY) 1 
    33          0
    34          0
    35          4
    36         27
    37         11
    38         43
    39        320
    40        125
    41        999
    42        500
    43        795
    44         61
    45         16
    46          0
    47          2
    49         24
    50         18
    51         27
    52          9
    53          8
    54          3
    55         12
    56         14
    57         20
    58         19
    59          7
    60          9
    61         14
    62         42
    63         53
    64         38
    65         18
    66          5
    68         10
    69        244
    70        100
    71          9
    72          7
    73         78
    74         47
    75         57
    76         13
    77         38
    78          9
    79          5
    80          4
    81          2
    82          1
    83          7
    84         13
    85         13
    86          6
    87         10
    88         56
    89         21
    90         18
    91         13
    92         17
    93         16
    94          5
    96         88
    98         29
    99         31
   100         13
   101          4
   102          2
   103          7
   104          2
   105          3
   107         31
   108         77
   109         60
   110         24
   111         21
   112          8
   113          2
   114          1
   115          2
   116          5
   117          1
   118          0
   119          1
   120          0
   121          0
   122          1
   123         11
   124        318
   125         33
   126        100
   127         10
   128          1
   129          1
   130         14
   131         30
   132          8
   133         10
   134          4
   135          7
   136          5
   137          1
   138          1
   139          1
   140          1
   141          1
   142          0
   143          0
   144          2
   145        101
   146          9
   147         63
   148          4
   149         18
   150         37
   151         18
   152          9
   153          8
   154          3
   155          1
   156          0
   158          9
   159         68
   160         11
   161         45
   162          5
   163          8
   164          2
   165          2
   166          6
   167          4
   168          2
   169          1
   170          3
   171         12
   172          6
   173          8
   174          3
   175          1
   176          1
   177          0
   178          0
   179          1
   180          0
   181          0
   182          0
   183          0
   186        898
   187        401
   188        566
   189        241
   190         97
   191         35
   192          2
   193          0
   194          5
   195          0
   196          1
   197          0
   198          0
   201        539
   202         62
   203        326
   204         33
   205         49
   206          4
   207          0
   210          0
   212          0
   213          0
   214          1
   215          0
   216          0
   220          4
   221          1
   222          4
   223          1
   224          0
   225          0
   228          0
   229          0
   230          0
   232          0
   235          3
   236          0
   237          2
   238          0
   239          1
   240          0
   241          0
   269          0
   270          0
   273        227
   274         31
   275        136
   276         16
   277         21
   278          1