##TITLE=Library Entry 17026
##JCAMP-DX=Revision 4.10 
##DATA TYPE=MASS SPECTRUM
##SAMPLE DESCRIPTION=D.HENNEBERG, MAX-PLANCK INSTITUTE, MULHEIM, WEST GERMAN
Y
##NAMES=HP
##CAS NAME=Methane, tert-butoxymethoxy-
##MOLFORM=C6H14O2
##CAS REGISTRY NO=24209-75-4
##MP= -300
##BP= -300
##MW= 118
##$RETENTION INDEX=0
##$CONDENSED SPECTRUM=NO
##NPOINTS= 48
##XYDATA=(XY..XY) 1 
    25          0
    26          8
    27         31
    28        132
    29        175
    30         25
    31         57
    32         26
    33          9
    35          0
    36          0
    37          4
    38          9
    39         88
    40         18
    41        274
    42         19
    43         34
    44         10
    45        999
    46         24
    47          2
    48          0
    49          1
    50          7
    51          8
    52          2
    53          8
    54          3
    55         28
    56         74
    57        367
    58         18
    59          4
    60          0
    61         14
    62          0
    67          0
    72          0
    73         77
    74          3
    75          0
    87          9
    88          0
   103        168
   104          9
   105          0
   117          1