##TITLE=Library Entry 6000
##JCAMP-DX=Revision 4.10 
##DATA TYPE=MASS SPECTRUM
##SAMPLE DESCRIPTION=Exported from NIST MS Search
##NAMES=HP
##CAS NAME=Octadecanoic acid, 2-hydroxy-, methyl ester
##MOLFORM=C19H38O3
##CAS REGISTRY NO=2420-35-1
##MP= -300
##BP= -300
##MW= 314
##$RETENTION INDEX=0
##$CONDENSED SPECTRUM=NO
##NPOINTS= 122
##XYDATA=(XY..XY) 1 
    41        752
    42        127
    43        999
    44         76
    45         38
    47         15
    49          9
    51          3
    52          3
    53         44
    54         82
    55        723
    56        139
    57        587
    58         47
    59         57
    60          6
    61         25
    65          9
    66         15
    67        196
    68         92
    69        542
    70         76
    71        269
    72         19
    73         54
    74         28
    75         41
    76         15
    77         15
    80         19
    81        174
    82        107
    83        431
    84         57
    85        127
    86         19
    87         57
    88          6
    89         25
    90        301
    91         19
    93          6
    94          3
    95        139
    96         54
    97        387
    98         50
    99         44
   100         15
   101          6
   103         95
   104          6
   109         79
   110         25
   111        196
   112         19
   113         60
   114         22
   117         19
   120          3
   121          3
   122          3
   123         25
   124         19
   125         82
   126         19
   127         79
   128          9
   129         12
   130          3
   131          9
   132         15
   137          6
   138         19
   139         28
   140          3
   141         22
   142          3
   143          6
   145         69
   146          9
   147          9
   152          9
   153         25
   154          3
   156         19
   157          6
   159         22
   166          6
   167         12
   168          6
   169          6
   170          6
   171          6
   177          6
   179          6
   180          6
   181          9
   183          3
   185          3
   187          3
   191          3
   208          3
   210          9
   211          6
   213          6
   236         22
   237          6
   241          3
   253         12
   254          6
   255        184
   257          6
   269          9
   282          6
   285          3
   313          9
   314        101
   315         22
   316          3