##TITLE=Library Entry 53560
##JCAMP-DX=Revision 4.10 
##DATA TYPE=MASS SPECTRUM
##SAMPLE DESCRIPTION=Chemical Concepts
##NAMES=HP
##CAS NAME=1-Butanamine, N-methyl-N-2-propenyl-
##MOLFORM=C8H17N
##CAS REGISTRY NO=24209-62-9
##MP= -300
##BP= -300
##MW= 127
##$RETENTION INDEX=0
##$CONDENSED SPECTRUM=NO
##NPOINTS= 60
##XYDATA=(XY..XY) 1 
    26          5
    27         29
    28         12
    29         28
    30          6
    37          1
    38          3
    39         38
    40          4
    41        167
    42        168
    43         15
    44         43
    45          1
    49          0
    50          0
    51          1
    52          1
    53          2
    54          4
    55          8
    56          7
    57         12
    58         29
    59          1
    65          0
    66          1
    67          3
    68          8
    69          2
    70         21
    71          3
    72          1
    77          0
    78          0
    79          0
    80          1
    81          1
    82         30
    83          3
    84        999
    85         53
    86          2
    87          0
    91          0
    94          1
    95          0
    96          2
    97          0
    98          4
    99          0
   100         10
   101          0
   108          0
   110          0
   112          3
   124          0
   126          6
   127         34
   128          3