##TITLE=Library Entry 70581
##JCAMP-DX=Revision 4.10 
##DATA TYPE=MASS SPECTRUM
##SAMPLE DESCRIPTION=Exported from NIST MS Search
##NAMES=HP
##CAS NAME=5.alpha.-Cardanolide, 2.alpha.,3.beta.,14-trihydroxy-
##MOLFORM=C23H36O5
##CAS REGISTRY NO=24211-69-6
##MP= -300
##BP= -300
##MW= 392
##$RETENTION INDEX=0
##$CONDENSED SPECTRUM=NO
##NPOINTS= 199
##XYDATA=(XY..XY) 1 
    17        132
    28          5
    29        217
    31        105
    32          1
    39        110
    41        582
    42         85
    43        417
    44        132
    45         95
    53        217
    54        107
    55        605
    56         87
    57        176
    65         87
    66         69
    67        594
    68        155
    69        391
    70        132
    71        176
    77        239
    78         67
    79        587
    80        176
    81        693
    82        160
    83        217
    84        176
    85        590
    86         87
    91        498
    92        132
    93        693
    94        434
    95        714
    96        176
    97        999
    98        262
   105        516
   106        260
   107        605
   108        280
   109        495
   110        260
   111        176
   112         66
   113        128
   117        178
   118        176
   119        435
   120        321
   121        498
   122        437
   123        478
   124        176
   125        108
   126        153
   127         87
   128        239
   129        132
   131        283
   132        132
   133        369
   134        176
   135        432
   136        264
   137        198
   138         69
   139         69
   141         67
   142         67
   143        155
   144         62
   145        430
   146        132
   147        475
   148        198
   149        260
   150        107
   151        105
   152         67
   153        105
   155         87
   157        132
   158         90
   159        283
   160        132
   161        264
   162        107
   163        368
   164        128
   165        237
   166        176
   167        110
   169         85
   171        112
   172         90
   173        178
   174        240
   175        240
   176        155
   178        283
   179        217
   180        110
   181        219
   182        990
   183        264
   184         87
   185         87
   187         69
   189         87
   190        156
   191         87
   192        176
   193        219
   194         87
   195         87
   196        110
   197        323
   198         69
   199         69
   201        323
   202         87
   203         87
   209         89
   210        110
   211        102
   212         44
   213         67
   215         67
   217         44
   218         67
   219        219
   220         67
   221         46
   229         44
   231         69
   232         46
   233         79
   234         46
   235         46
   236         46
   237         71
   238         71
   247         69
   248         44
   249         42
   251         69
   253         59
   262        132
   263         69
   264         57
   265        176
   266        219
   267         90
   271         87
   280         79
   284         54
   285         54
   286         69
   287         69
   288         77
   289        178
   290         89
   291         56
   302        155
   303         69
   304        155
   305         77
   323         69
   341        110
   342         44
   343         44
   344         44
   345         52
   346        110
   347         44
   348        110
   349         44
   356        260
   357        110
   358         44
   359        132
   360         44
   361         44
   362         69
   363         69
   374        389
   375        132
   377        110
   378         44
   388         67
   390         52
   392        534
   393        151
   394         44