##TITLE=Library Entry 23447
##JCAMP-DX=Revision 4.10 
##DATA TYPE=MASS SPECTRUM
##SAMPLE DESCRIPTION=M.ANTENUS UNIV. OF GENT, KRIJGSLAAN, GENT, BELGIUM
##NAMES=HP
##CAS NAME=Valeric acid, 2,3-epoxy-3,4-dimethyl-, tert-butyl ester, cis-
##MOLFORM=C11H20O3
##CAS REGISTRY NO=24222-06-8
##MP= -300
##BP= -300
##MW= 200
##$RETENTION INDEX=0
##$CONDENSED SPECTRUM=NO
##NPOINTS= 43
##XYDATA=(XY..XY) 1 
    41        480
    42         68
    43        400
    44         42
    45         28
    51         10
    53         40
    54         12
    55        210
    56         57
    57        999
    58         55
    59        180
    60         15
    67         22
    68         63
    69        210
    70        320
    71         77
    73          6
    74         13
    76         53
    81         36
    83         36
    85        220
    86         15
    87        260
    88         15
    97         15
    98         12
    99         24
   100         28
   101        140
   102          8
   109         12
   111         13
   126          7
   127         60
   128          8
   129         50
   130          4
   144        370
   145         25