##TITLE=Library Entry 71840
##JCAMP-DX=Revision 4.10 
##DATA TYPE=MASS SPECTRUM
##SAMPLE DESCRIPTION=A.A.Kutin, Moscow, Russia
##NAMES=HP
##CAS NAME=Valeric acid, 2,3-epoxy-3,4-dimethyl-, ethyl ester, cis-
##MOLFORM=C9H16O3
##CAS REGISTRY NO=24222-05-7
##MP= -300
##BP= -300
##MW= 172
##$RETENTION INDEX=0
##$CONDENSED SPECTRUM=NO
##NPOINTS= 88
##XYDATA=(XY..XY) 1 
    36          0
    37          1
    38          7
    39        143
    40         33
    41        584
    42        181
    43        737
    44         26
    45        151
    46          4
    47          6
    49          4
    50          7
    51         16
    52          6
    53         78
    54          1
    55        544
    56         31
    57         59
    58         19
    59         29
    60         56
    61         38
    62          1
    63          1
    65          9
    66          4
    67         98
    68         85
    69        537
    70        429
    71        106
    72          7
    73         42
    74          3
    75         37
    76        176
    77         21
    78          2
    79         23
    80          2
    81         76
    82         12
    83         41
    84         13
    85        288
    86         26
    87        494
    88         75
    89          4
    95          4
    96          0
    97         40
    98          2
    99        999
   100         70
   101        154
   102          9
   103         12
   104         54
   105         19
   108          2
   109          4
   110          3
   111         28
   112          1
   113          6
   115        538
   116         43
   117          2
   125         10
   126         26
   127         33
   129        226
   130         14
   131          2
   139          3
   141          2
   143          2
   144         15
   153          4
   154          3
   155          9
   156          4
   157         20
   158          1