##TITLE=Library Entry 13140
##JCAMP-DX=Revision 4.10 
##DATA TYPE=MASS SPECTRUM
##SAMPLE DESCRIPTION=Humboldt-Universitat zu Berlin, Department of Chemistry
, Analytical Group
##NAMES=HP
##CAS NAME=Ethanone, 1,1'-(2,6-dimethyl-3,5-pyridinediyl)bis-
##MOLFORM=C11H13NO2
##CAS REGISTRY NO=24234-61-5
##MP= -300
##BP= -300
##MW= 191
##$RETENTION INDEX=0
##$CONDENSED SPECTRUM=NO
##NPOINTS= 117
##XYDATA=(XY..XY) 1 
    12          0
    13          0
    14          9
    15         94
    16          3
    17         21
    18         81
    19          0
    26          6
    27         30
    28         18
    29          7
    30          1
    31          2
    32          1
    37          5
    38         21
    39         67
    40          8
    41         14
    42         52
    43        999
    44         24
    45          3
    46          0
    49          1
    50         28
    51         60
    52         34
    53         27
    54          8
    55          5
    56          1
    57          2
    59          1
    61          7
    62         28
    63         81
    64         46
    65         26
    66          9
    67          6
    68          1
    69          1
    70          0
    71          0
    73          1
    74          8
    75          8
    76          7
    77         58
    78         23
    79         37
    80          5
    82          1
    83          1
    84          1
    85          1
    86          2
    87          2
    88          2
    89          6
    90          5
    91         21
    92          8
    93         12
    94          2
    95          0
    96          0
    97          0
    98          0
    99          0
   100          0
   101          0
   102          2
   103          3
   104         20
   105         24
   106        361
   107         33
   108          1
   111          0
   112          0
   115          0
   116          1
   117          2
   118          5
   119          4
   120         20
   121          3
   130          1
   131          1
   132          9
   133          7
   134         22
   135          2
   144          0
   146          1
   147          3
   148         18
   149          8
   150          0
   158          0
   160          0
   162          1
   163          0
   171          0
   174          1
   176        437
   177         51
   178          4
   179          0
   189          0
   191        215
   192         29
   193          2
   194          0