##TITLE=Library Entry 62459
##JCAMP-DX=Revision 4.10 
##DATA TYPE=MASS SPECTRUM
##SAMPLE DESCRIPTION=A.A.Kutin, Moscow, Russia
##NAMES=HP
##CAS NAME=2-Amino-6-benzyl-3-cyano-4,5,6,7-tetrahydrothieno[2,3-c]pyridine
##MOLFORM=C15H15N3S
##CAS REGISTRY NO=24237-37-4
##MP= -300
##BP= -300
##MW= 269
##$RETENTION INDEX=0
##$CONDENSED SPECTRUM=NO
##NPOINTS= 168
##XYDATA=(XY..XY) 1 
    33          0
    34          1
    37          3
    38         13
    39        105
    40         21
    41         54
    42        120
    43          8
    44          5
    45         27
    47          5
    49          0
    50         24
    51         70
    52         28
    53         13
    54         10
    55          3
    56          1
    57          6
    58         17
    59         12
    60         47
    61          4
    62         13
    63         50
    64         35
    65        258
    66         31
    67          7
    68          3
    69         16
    70         12
    71          8
    72          4
    73          1
    74          4
    75          8
    76         22
    77         34
    78         30
    79         15
    80         12
    81          4
    82          7
    83          8
    84          9
    85          4
    86          2
    87          1
    88          3
    89         39
    91        999
    92        112
    93         12
    94         11
    95         11
    96         22
    97         14
    98          2
    99          1
   100          0
   101          0
   102          3
   103          7
   104          9
   105         44
   106         24
   107         11
   108          4
   109          6
   110          6
   111          1
   112          1
   113          0
   115          1
   116          6
   117         18
   118         40
   119         12
   120        188
   121         21
   122         27
   123         30
   124         14
   125          3
   126          1
   127          0
   128          1
   129          3
   130          5
   131          3
   132         12
   133          3
   134         10
   135          6
   136          6
   137          9
   138          4
   139          1
   140          0
   143          1
   144          5
   145          4
   146          2
   147          2
   148          4
   149         42
   150        714
   151        114
   152         41
   153          6
   154          0
   157          1
   158          0
   159          0
   160          4
   161         22
   162          4
   163         14
   164          3
   165          1
   166          0
   167          0
   170          1
   171          1
   172          0
   174          1
   175          2
   176         33
   177         22
   178        118
   179         13
   180          6
   181          0
   190          2
   191          5
   192         11
   193          1
   194          0
   197          0
   207          0
   208          0
   209          2
   210          0
   217          0
   223          0
   224          0
   225          0
   226          0
   227          0
   236          1
   237          0
   239          0
   240          1
   241          3
   242          0
   251         33
   252          7
   253          3
   254          0
   266          0
   268        178
   269        252
   270         49
   271         13
   272          1