##TITLE=Library Entry 89324
##JCAMP-DX=Revision 4.10 
##DATA TYPE=MASS SPECTRUM
##SAMPLE DESCRIPTION=Exported from NIST MS Search
##NAMES=HP
##CAS NAME=Pyrazine, 1,4-dioxide
##MOLFORM=C4H4N2O2
##CAS REGISTRY NO=2423-84-9
##MP= -300
##BP= -300
##MW= 112
##$RETENTION INDEX=0
##$CONDENSED SPECTRUM=NO
##NPOINTS= 24
##XYDATA=(XY..XY) 1 
    37         20
    38         33
    39         60
    40         93
    41         80
    42         33
    43         33
    44         33
    50         26
    51         33
    52        140
    53         66
    54         33
    55         26
    56         60
    66         20
    67         20
    68         20
    80         53
    85         26
    95         20
    96         80
   112        999
   113         60