##TITLE=Library Entry 19258
##JCAMP-DX=Revision 4.10 
##DATA TYPE=MASS SPECTRUM
##SAMPLE DESCRIPTION=R.T.HOLMAN,UNIVERSITY OF MINNESOTA
##NAMES=HP
##CAS NAME=9-Octadecenal, (Z)-
##MOLFORM=C18H34O
##CAS REGISTRY NO=2423-10-1
##MP= -300
##BP= -300
##MW= 266
##$RETENTION INDEX=2010
##$CONDENSED SPECTRUM=NO
##NPOINTS= 96
##XYDATA=(XY..XY) 1 
    39        162
    40         29
    41        879
    42        146
    43        638
    44         84
    45         16
    51         10
    52          8
    53        108
    54        329
    55        999
    56        333
    57        489
    58         44
    59         12
    65         27
    66         44
    67        554
    68        309
    69        662
    70        377
    71        180
    72         48
    73          6
    77         30
    78         15
    79        160
    80        144
    81        461
    82        413
    83        530
    84        265
    85        104
    86         18
    91         20
    92          7
    93        132
    94        116
    95        361
    96        317
    97        349
    98        397
    99         50
   100         10
   105          6
   107         84
   108         78
   109        164
   110        116
   111        208
   112        140
   113         20
   114          6
   121        160
   122         68
   123         76
   124         68
   125         68
   126         34
   127         10
   135         96
   136         44
   137         40
   138         48
   139         24
   140         20
   141          7
   149         37
   150         15
   151         15
   152         31
   153         14
   154         13
   163         15
   164          7
   165         10
   166         26
   167         10
   168          8
   177          7
   179          7
   180         12
   181          7
   182         28
   194          7
   195          7
   196          6
   209          6
   210          6
   222          9
   223         10
   248         60
   249         12
   266         33
   267          7