##TITLE=Library Entry 3518
##JCAMP-DX=Revision 4.10 
##DATA TYPE=MASS SPECTRUM
##SAMPLE DESCRIPTION=NIST Mass Spectrometry Data Center, 1990.
##NAMES=HP
##CAS NAME=2-Propen-1-amine, N-ethyl-
##MOLFORM=C5H11N
##CAS REGISTRY NO=2424-02-4
##MP= -300
##BP= -300
##MW= 85
##$RETENTION INDEX=640
##$CONDENSED SPECTRUM=NO
##NPOINTS= 43
##XYDATA=(XY..XY) 1 
    13          9
    14         19
    15         86
    16          3
    17          8
    18         32
    25         11
    26         96
    27        314
    28        764
    29        223
    30        564
    31         12
    34         16
    35          9
    36          3
    37         20
    38         61
    39        300
    40          3
    41        999
    42        309
    43        174
    44         83
    45          6
    51         10
    52         27
    53         12
    54         48
    55         19
    56        173
    57         64
    58        370
    59         20
    67         27
    68         73
    70        766
    71         44
    80          7
    82         10
    84        100
    85        232
    86         16