##TITLE=Library Entry 71213
##JCAMP-DX=Revision 4.10 
##DATA TYPE=MASS SPECTRUM
##SAMPLE DESCRIPTION=Japan AIST/NIMC Database- Spectrum MS-NW-8111
##NAMES=HP
##CAS NAME=Eicosanedioic acid
##MOLFORM=C20H38O4
##CAS REGISTRY NO=2424-92-2
##MP= -300
##BP= -300
##MW= 342
##$RETENTION INDEX=0
##$CONDENSED SPECTRUM=NO
##NPOINTS= 245
##XYDATA=(XY..XY) 1 
    15          1
    17          9
    18         48
    26          2
    27         33
    28         25
    29         92
    30          3
    31          7
    32          2
    39         30
    40          7
    41        284
    42         62
    43        302
    44         15
    45         40
    46          1
    47          1
    51          2
    52          2
    53         16
    54         31
    55        436
    56         80
    57        192
    58         37
    59         36
    60        165
    61         31
    62          1
    65          4
    66          5
    67         74
    68         57
    69        260
    70         58
    71        115
    72          9
    73        191
    74         18
    75          2
    77          4
    78          3
    79         21
    80         39
    81         85
    82         68
    83        199
    84        453
    85         81
    86          8
    87         37
    88          5
    89          1
    91          5
    92          3
    93         25
    94         52
    95         76
    96         72
    97        164
    98        999
    99        109
   100         13
   101         25
   102          5
   103          1
   104          1
   105          4
   106          3
   107         23
   108         49
   109         46
   110         37
   111         94
   112        322
   113         45
   114         12
   115         23
   116         11
   117          2
   119          7
   120          5
   121         47
   122         32
   123         30
   124         21
   125         54
   126        101
   127         22
   128          5
   129         47
   130         73
   131          9
   132          2
   133          8
   134          7
   135         40
   136         17
   137         18
   138         17
   139         25
   140         55
   141         11
   142          3
   143         22
   144         25
   145          3
   147          6
   148          6
   149         21
   150         11
   151         12
   152         15
   153         18
   154         63
   155         10
   156          3
   157         13
   158          8
   159          1
   160          2
   161          4
   162          2
   163         10
   164          8
   165          9
   166         10
   167         14
   168         49
   169          9
   170          2
   171         13
   172          9
   173          2
   175          3
   176          1
   177          7
   178          5
   179          6
   180          8
   181         10
   182         38
   183          9
   184          2
   185         18
   186          9
   187          2
   189          2
   190          1
   191          5
   192          4
   193          5
   194          7
   195          9
   196         27
   197         12
   198          2
   199         16
   200          7
   201          1
   203          1
   204          1
   205          3
   206          3
   207          4
   208          9
   209         12
   210         22
   211          6
   212          2
   213          9
   214          4
   215          1
   219          3
   220          3
   221          4
   222         14
   223         12
   224         16
   225          5
   226          4
   227          7
   228          6
   229          1
   233          2
   234          2
   235          4
   236          5
   237          8
   238          9
   239          3
   240          5
   241          8
   242          9
   243          1
   245          1
   246          2
   247          5
   248          1
   249          4
   250          8
   251          5
   252          5
   253          1
   255         14
   256          3
   260          2
   261          1
   262          3
   263          7
   264         16
   265         21
   266          4
   267          1
   268          9
   269          5
   270          2
   277          3
   278         27
   279          6
   280          7
   281          3
   282          4
   283          4
   284          1
   287          1
   288          8
   289          3
   296          1
   298         99
   299         20
   300          2
   304          1
   305          6
   306         86
   307         19
   308          2
   323          2
   324         76
   325         25
   326          4
   342          3
   343          1