##TITLE=Library Entry 46757
##JCAMP-DX=Revision 4.10 
##DATA TYPE=MASS SPECTRUM
##SAMPLE DESCRIPTION=Chemical Concepts
##NAMES=HP
##CAS NAME=1,1,2,2-Cyclopropane-tetracarbonitrile
##MOLFORM=C7H2N4
##CAS REGISTRY NO=2424-32-0
##MP= -300
##BP= -300
##MW= 142
##$RETENTION INDEX=0
##$CONDENSED SPECTRUM=NO
##NPOINTS= 72
##XYDATA=(XY..XY) 1 
    27         68
    28        301
    29          5
    30          0
    31          1
    35          0
    36         54
    37        125
    38        518
    39        109
    40        104
    41          6
    42          1
    43          1
    44          3
    45          2
    48         13
    49         10
    50         68
    51        438
    52        344
    53         32
    54          0
    55          0
    56          0
    57          0
    58          0
    60          2
    61          1
    62        140
    63        148
    64        379
    65         80
    66        979
    67         38
    68          1
    69          0
    74          7
    75          8
    76         77
    77        999
    78        135
    79          7
    86          0
    87          1
    88        261
    89         68
    90        120
    91        114
    92          6
    93          1
    94          0
   100          2
   101          1
   102          9
   103          1
   104          2
   105          0
   109          0
   113          0
   114         15
   115        793
   116         71
   117          4
   123          0
   127          0
   128          0
   140          0
   141          5
   142        238
   143         23
   144          1