##TITLE=Library Entry 46758
##JCAMP-DX=Revision 4.10 
##DATA TYPE=MASS SPECTRUM
##SAMPLE DESCRIPTION=V.A.Korolev, Moscow, Russia
##NAMES=HP
##CAS NAME=Methyl 2-(5-oxo-1-phenyl-4H-pyrazol-3-yl)acetate
##MOLFORM=C12H12N2O3
##CAS REGISTRY NO=24246-07-9
##MP= -300
##BP= -300
##MW= 232
##$RETENTION INDEX=0
##$CONDENSED SPECTRUM=NO
##NPOINTS= 88
##XYDATA=(XY..XY) 1 
    33         35
    36          3
    37         56
    38        141
    39        252
    40        229
    41         77
    42        158
    43         25
    44          9
    45         24
    49         13
    50        168
    51        512
    52         81
    53         31
    54         20
    55         14
    56          3
    57          7
    59        238
    60          6
    61         15
    62         30
    63        121
    64        197
    65         94
    66         44
    67        660
    68         62
    69         11
    71         17
    72          3
    73         11
    74         54
    75         38
    76         70
    77        999
    78        142
    79          9
    82          2
    83          1
    84          2
    85          3
    86         10
    87          4
    88          5
    89          5
    90         21
    91        338
    92         43
    93         15
    95          5
    98          3
    99         14
   100          3
   102          7
   103         32
   104         35
   105        409
   106         92
   107         17
   110          2
   112          1
   115         37
   116         13
   117          4
   118          5
   119          9
   127          2
   129          1
   130          2
   131          2
   132          2
   143          2
   144          3
   145          5
   146          9
   160          1
   171          5
   172        396
   173        119
   174         18
   200         11
   201         10
   232        189
   233         26
   234          3