##TITLE=Library Entry 48694
##JCAMP-DX=Revision 4.10 
##DATA TYPE=MASS SPECTRUM
##SAMPLE DESCRIPTION=D.HENNEBERG, MAX-PLANCK INSTITUTE, MULHEIM, WEST GERMAN
Y
##NAMES=HP
##CAS NAME=1,4,8-Dodecatriene, (E,E,E)-
##MOLFORM=C12H18
##CAS REGISTRY NO=24252-85-5
##MP= -300
##BP= -300
##MW= 162
##$RETENTION INDEX=0
##$CONDENSED SPECTRUM=NO
##NPOINTS= 100
##XYDATA=(XY..XY) 1 
    25          1
    26          6
    27        144
    28         23
    29         71
    30          0
    33          0
    34          0
    35          0
    37          4
    38          8
    39        265
    40         40
    41        414
    42         22
    43         15
    44          0
    45          0
    46          0
    47          1
    48          0
    49          0
    50         13
    51         53
    52         34
    53        144
    54        142
    55        117
    56          6
    58          4
    59          3
    60          0
    61          0
    62          4
    63         19
    64          8
    65        111
    66        165
    67        615
    68         59
    69         13
    70          2
    71          1
    72          0
    73          0
    74          3
    75         15
    76          4
    77        248
    78        115
    79        999
    80        510
    81        154
    82         16
    83          5
    84          0
    85          0
    87          2
    88          1
    89         11
    90          5
    91        331
    92        114
    93        545
    94        185
    95        262
    96         50
    97          3
   101          0
   102          1
   103          8
   104          5
   105        105
   106         53
   107         60
   108         69
   109          7
   111          0
   115          7
   116          2
   117         10
   118          8
   119        172
   120        106
   121        100
   122          7
   128          1
   129          1
   131          3
   132          2
   133        172
   134        105
   135         10
   145          0
   147         26
   148          2
   160          1
   161          8
   162         51
   163          6