##TITLE=Library Entry 48879
##JCAMP-DX=Revision 4.10 
##DATA TYPE=MASS SPECTRUM
##SAMPLE DESCRIPTION=ACCUSTANDARD Chemicals / NIST MS Data Center.
##NAMES=HP
##CAS NAME=Captafol
##MOLFORM=C10H9Cl4NO2S
##CAS REGISTRY NO=2425-06-1
##MP= -300
##BP= -300
##MW= 347
##$RETENTION INDEX=2381
##$CONDENSED SPECTRUM=NO
##NPOINTS= 220
##XYDATA=(XY..XY) 1 
    15          1
    17          1
    18          0
    25          5
    26         15
    27         84
    28         70
    29          4
    30          2
    32         19
    35         13
    36          8
    37          8
    38         17
    39         99
    40         16
    41         30
    42          5
    43          4
    44         13
    45         13
    46         24
    47         10
    48         11
    49          8
    50         33
    51         61
    52         47
    53         54
    54         31
    55         15
    56         19
    57         26
    58          3
    59          7
    60         20
    61          3
    62          7
    63         11
    64          5
    65         27
    66         14
    67         24
    68          7
    69          7
    70         63
    71          5
    72         30
    73          2
    74         21
    75         10
    76         50
    77        228
    78        199
    79        999
    80        259
    81         41
    82         15
    83         39
    84          5
    85         24
    86          5
    87          6
    90          9
    91         13
    92         43
    93         11
    94         29
    95         30
    96         10
    97         16
    98          7
    99          7
   101          3
   102          5
   103          2
   104         37
   105         71
   106         45
   107        118
   108         23
   109          9
   110          4
   111         25
   112          5
   113          2
   114         60
   115         14
   116         19
   117         11
   119          7
   121         31
   122         27
   123          4
   124          5
   125          8
   126          6
   127         22
   128          9
   129         28
   130         65
   131         17
   132         37
   133          8
   134         64
   135          5
   136         11
   137          4
   138          4
   140          4
   142         46
   143          8
   144         17
   145          3
   147          3
   148         32
   149         85
   150        112
   151         14
   152          3
   153          3
   154         19
   155          7
   156         23
   158          9
   161         15
   162         31
   163         22
   164         37
   165         52
   166         16
   167         61
   168         11
   169         56
   170          9
   171         31
   172          6
   173          7
   174          4
   178         11
   179         57
   180         14
   181         14
   182         83
   183        107
   184         22
   185          8
   186          4
   189          2
   194          5
   196          3
   197          0
   198          3
   199          2
   200          3
   201          2
   202          4
   204         10
   206          9
   207          0
   208          3
   213          9
   215          5
   217          3
   232          3
   236         26
   237          3
   238         21
   239          5
   240          9
   242         20
   243          3
   244          9
   248          7
   250          6
   256          2
   258          4
   260         21
   261          4
   262         15
   263          2
   264         51
   265          8
   266         36
   267          6
   268          6
   272          1
   273          6
   274          4
   275          1
   276         53
   277         47
   278         38
   279         26
   280         11
   281          2
   282          4
   283          6
   285          6
   287          3
   301          0
   307          3
   308          4
   309          0
   311        122
   312         84
   313        141
   314         79
   315         56
   316         30
   317         13
   318          7
   343          4
   345          7
   347         46
   349         60
   350         10
   351         34
   352          5
   353          6