##TITLE=Library Entry 24056
##JCAMP-DX=Revision 4.10 
##DATA TYPE=MASS SPECTRUM
##SAMPLE DESCRIPTION=Exported from NIST MS Search
##NAMES=HP
##CAS NAME=Dodecane, 5,8-diethyl-
##MOLFORM=C16H34
##CAS REGISTRY NO=24251-86-3
##MP= -300
##BP= -300
##MW= 226
##$RETENTION INDEX=1572
##$CONDENSED SPECTRUM=NO
##NPOINTS= 192
##XYDATA=(XY..XY) 1 
    37          2
    38          3
    39        108
    40         18
    41        520
    42        101
    43        579
    44         20
    45          1
    46          1
    47          1
    48          1
    49          1
    50          2
    51          5
    52          4
    53         37
    54         23
    55        253
    56        117
    57        999
    58         49
    59          1
    60          1
    61          1
    62          1
    63          1
    64          1
    65          6
    66          3
    67         24
    68         11
    69         93
    70         93
    71        375
    72         21
    73          1
    74          1
    75          1
    76          1
    77          5
    78          1
    79          5
    80          1
    81          8
    82          4
    83         30
    84         18
    85        238
    86         17
    87          1
    88          1
    89          1
    90          1
    91          2
    92          1
    93          1
    94          1
    95          3
    96          3
    97         16
    98        117
    99         80
   100          6
   101          1
   102          1
   103          1
   104          1
   105          1
   106          1
   107          1
   108          1
   109          1
   110          2
   111          7
   112         22
   113         50
   114          5
   115          1
   116          1
   117          1
   118          1
   119          1
   120          1
   121          1
   122          1
   123          1
   124          1
   125          4
   126          8
   127         33
   128          3
   129          1
   130          1
   131          1
   132          1
   133          1
   134          1
   135          1
   136          1
   137          1
   138          1
   139          5
   140          2
   141         16
   142          2
   143          1
   144          1
   145          1
   146          1
   147          1
   148          1
   149          1
   150          1
   151          1
   152          1
   153          1
   154          3
   155          9
   156          1
   157          1
   158          1
   159          1
   160          1
   161          1
   162          1
   163          1
   164          1
   165          1
   166          1
   167          2
   168         14
   169         53
   170          7
   171          1
   172          1
   173          1
   174          1
   175          1
   176          1
   177          1
   178          1
   179          1
   180          1
   181          1
   182          1
   183          2
   184          1
   185          1
   186          1
   187          1
   188          1
   189          1
   190          1
   191          1
   192          1
   193          1
   194          1
   195          1
   196         23
   197        109
   198         17
   199          1
   200          1
   201          1
   202          1
   203          1
   204          1
   205          1
   206          1
   207          1
   208          1
   209          1
   210          1
   211          1
   212          1
   213          1
   214          1
   215          1
   216          1
   217          1
   218          1
   219          1
   220          1
   221          1
   222          1
   223          1
   224          1
   225          1
   226          1
   227          1
   228          1