##TITLE=Library Entry 16745
##JCAMP-DX=Revision 4.10 
##DATA TYPE=MASS SPECTRUM
##SAMPLE DESCRIPTION=Chemical Concepts
##NAMES=HP
##CAS NAME=Propane, 1-chloro-3-(2-methoxyethoxy)-
##MOLFORM=C6H13ClO2
##CAS REGISTRY NO=24255-59-2
##MP= -300
##BP= -300
##MW= 152
##$RETENTION INDEX=0
##$CONDENSED SPECTRUM=NO
##NPOINTS= 82
##XYDATA=(XY..XY) 1 
    24          1
    26         40
    27        195
    29        203
    30         14
    31        378
    33         29
    36         11
    37          8
    38          8
    39        122
    40         10
    41        742
    42         80
    43        139
    44         41
    45        999
    46         24
    47          5
    48          1
    49         62
    50          0
    51         16
    52          0
    53          1
    54          1
    55          8
    56          2
    57         24
    58         45
    59        265
    60        366
    61         19
    62          2
    63          5
    64          1
    65          3
    66          2
    67          1
    71         62
    72          3
    73          3
    74          4
    75         10
    76         11
    77        307
    78         16
    79        108
    80          4
    81          0
    83          1
    84          1
    85         21
    86          2
    87          2
    89        103
    90          5
    91         22
    92          7
    93         17
    94          4
    95          6
    96          1
    97          0
   104          1
   105          2
   106          1
   107        259
   108         12
   109         91
   110          4
   115          1
   116          1
   117          0
   120         10
   121          0
   122          4
   131          0
   134          0
   152          6
   153          0
   154          1