##TITLE=Library Entry 50585
##JCAMP-DX=Revision 4.10 
##DATA TYPE=MASS SPECTRUM
##SAMPLE DESCRIPTION=J. M. PECHINE
##NAMES=HP
##CAS NAME=Cyclohexanol, 2-bromo-, trans-
##MOLFORM=C6H11BrO
##CAS REGISTRY NO=2425-33-4
##MP= -300
##BP= -300
##MW= 178
##$RETENTION INDEX=0
##$CONDENSED SPECTRUM=NO
##NPOINTS= 36
##XYDATA=(XY..XY) 1 
    27        131
    28         42
    29        141
    31         63
    39        133
    40         22
    41        222
    42         68
    43        135
    44        117
    53         57
    54         22
    55        157
    57        685
    58         28
    65         11
    66         19
    67         31
    69         52
    70         36
    71         41
    72         16
    77         17
    79         62
    80         28
    81        999
    82         72
    83         11
    98         13
    99        696
   100         34
   132         40
   134         40
   135         12
   178         69
   180         67