##TITLE=Library Entry 24720
##JCAMP-DX=Revision 4.10 
##DATA TYPE=MASS SPECTRUM
##SAMPLE DESCRIPTION=NIST Mass Spectrometry Data Center, 1990.
##NAMES=HP
##CAS NAME=1-Decanol, 2-hexyl-
##MOLFORM=C16H34O
##CAS REGISTRY NO=2425-77-6
##MP= -300
##BP= -300
##MW= 242
##$RETENTION INDEX=1504
##$CONDENSED SPECTRUM=NO
##NPOINTS= 62
##XYDATA=(XY..XY) 1 
    27         95
    28         21
    29        211
    30         21
    31         55
    39         93
    41        642
    42        133
    43        716
    44         33
    45         10
    53         67
    54        107
    55        802
    56        431
    57        999
    58         49
    65         18
    66         25
    67        164
    68        130
    69        599
    70        346
    71        583
    72         33
    77         18
    79         29
    80         13
    81        108
    82        151
    83        452
    84        197
    85        362
    86         25
    91          7
    95         48
    96         79
    97        337
    98        149
    99         85
   109         18
   110         71
   111        262
   112         97
   113         44
   124         20
   125         84
   126         70
   127         37
   128         13
   138         24
   139         53
   140         35
   141         12
   152          8
   153         13
   154         20
   155         13
   167          7
   168          8
   196         18
   224         41