##TITLE=Library Entry 28127
##JCAMP-DX=Revision 4.10 
##DATA TYPE=MASS SPECTRUM
##SAMPLE DESCRIPTION=Japan AIST/NIMC Database- Spectrum MS-NW-6060
##NAMES=HP
##CAS NAME=Formamide, N-(1,1-dimethylethyl)-
##MOLFORM=C5H11NO
##CAS REGISTRY NO=2425-74-3
##MP= -300
##BP= -300
##MW= 101
##$RETENTION INDEX=915
##$CONDENSED SPECTRUM=NO
##NPOINTS= 47
##XYDATA=(XY..XY) 1 
    14          5
    15         63
    16          3
    17          2
    18          9
    25          1
    26         12
    27         69
    28         65
    29        105
    30         69
    31          2
    37          6
    38         11
    39         97
    40         25
    41        331
    42        173
    43         40
    44         17
    45         13
    46        536
    47          9
    48          1
    49          1
    50          7
    51          8
    52          6
    53          9
    54          9
    55         41
    56        164
    57        109
    58        999
    59         49
    60          1
    70          4
    71          1
    72          2
    84          4
    85          2
    86        417
    87         21
    88          1
   100          1
   101        113
   102          8