##TITLE=Library Entry 567
##JCAMP-DX=Revision 4.10 
##DATA TYPE=MASS SPECTRUM
##SAMPLE DESCRIPTION=CARL DJERASSI DEPT OF CHEM STANFORD UNIV STANFORD CALIF
 94305
##NAMES=HP
##CAS NAME=5-Hexen-3-one
##MOLFORM=C6H10O
##CAS REGISTRY NO=24253-30-3
##MP= -300
##BP= -300
##MW= 98
##$RETENTION INDEX=0
##$CONDENSED SPECTRUM=NO
##NPOINTS= 14
##XYDATA=(XY..XY) 1 
    27        170
    28         60
    29        999
    30         20
    39        200
    40         30
    41        370
    42         40
    57        999
    58         40
    69        340
    70         20
    98        140
    99         10