##TITLE=Library Entry 44843
##JCAMP-DX=Revision 4.10 
##DATA TYPE=MASS SPECTRUM
##SAMPLE DESCRIPTION=D.J.PASTO DEPT. OF CHEM., UNIV. OF NOTRE DAME, INDIANA,
 USA
##NAMES=HP
##CAS NAME=1,3-Oxathiolane, 4-methyl-
##MOLFORM=C4H8OS
##CAS REGISTRY NO=24254-54-4
##MP= -300
##BP= -300
##MW= 104
##$RETENTION INDEX=0
##$CONDENSED SPECTRUM=NO
##NPOINTS= 12
##XYDATA=(XY..XY) 1 
    29         80
    30        120
    39        300
    41        270
    42         80
    44        120
    45        580
    46        140
    58         80
    73         50
    74        999
   104        730