##TITLE=Library Entry 76834
##JCAMP-DX=Revision 4.10 
##DATA TYPE=MASS SPECTRUM
##SAMPLE DESCRIPTION=D.J.PASTO DEPT. OF CHEM., UNIV. OF NOTRE DAME, INDIANA,
 USA
##NAMES=HP
##CAS NAME=1,3-Oxathiolane, 5-methyl-
##MOLFORM=C4H8OS
##CAS REGISTRY NO=24254-53-3
##MP= -300
##BP= -300
##MW= 104
##$RETENTION INDEX=0
##$CONDENSED SPECTRUM=NO
##NPOINTS= 13
##XYDATA=(XY..XY) 1 
    29        200
    30         10
    39        250
    41        730
    42        120
    43        180
    44         20
    45        370
    46        230
    59        300
    60        840
    74        570
   104        999