##TITLE=Library Entry 38755
##JCAMP-DX=Revision 4.10 
##DATA TYPE=MASS SPECTRUM
##SAMPLE DESCRIPTION=Japan AIST/NIMC Database- Spectrum MS-NW-3841
##NAMES=HP
##CAS NAME=Oxirane, 2,2'-[1,4-butanediylbis(oxymethylene)]bis-
##MOLFORM=C10H18O4
##CAS REGISTRY NO=2425-79-8
##MP= -300
##BP= -300
##MW= 202
##$RETENTION INDEX=0
##$CONDENSED SPECTRUM=NO
##NPOINTS= 94
##XYDATA=(XY..XY) 1 
    14          8
    15         66
    16          1
    17          2
    18          7
    26         18
    27        224
    28         56
    29        724
    30         26
    31        683
    32         10
    33          1
    37          1
    38          3
    39         59
    40         17
    41        182
    42        121
    43        340
    44         78
    45        205
    46          8
    47          5
    50          1
    51          2
    52          1
    53         14
    54         15
    55        315
    56         45
    57        864
    58         70
    59         24
    60          2
    61          4
    65          2
    66          1
    67          9
    68          6
    69         29
    70         63
    71        999
    72         53
    73         50
    74         11
    75         16
    77          2
    78          1
    79          3
    80          1
    81          8
    82          3
    83         11
    84         13
    85         17
    86          3
    87         52
    88          3
    89         10
    90          1
    91          5
    92          1
    93          1
    95          2
    97          7
    98          4
    99          5
   100        243
   101         17
   102          2
   103          5
   105          1
   107          2
   108          4
   109          1
   110          2
   111          2
   113         20
   114          5
   115          3
   116          2
   117          1
   119          4
   121          1
   126          3
   127          7
   128          2
   129        103
   130          8
   131          1
   143          1
   145         16
   146          1