##TITLE=Library Entry 83620
##JCAMP-DX=Revision 4.10 
##DATA TYPE=MASS SPECTRUM
##SAMPLE DESCRIPTION=Exported from NIST MS Search
##NAMES=HP
##CAS NAME=Benzenemethanol, .alpha.-(bromomethyl)-
##MOLFORM=C8H9BrO
##CAS REGISTRY NO=2425-28-7
##MP= -300
##BP= -300
##MW= 200
##$RETENTION INDEX=0
##$CONDENSED SPECTRUM=NO
##NPOINTS= 114
##XYDATA=(XY..XY) 1 
    14          1
    15          5
    16          1
    17          2
    18          9
    25          1
    26         19
    27         10
    28          6
    29          7
    30          1
    31          1
    32          1
    36          1
    37          3
    38          8
    39         31
    40          3
    41          4
    42          3
    43         26
    44          3
    45          3
    46          1
    47          1
    49          3
    50         38
    51         93
    52         20
    53          8
    54          1
    55          2
    59          1
    60          2
    61          3
    62          8
    63         19
    64          4
    65         20
    66          2
    67          1
    68          1
    73          2
    74         13
    75         10
    76         11
    77        188
    78         53
    79        338
    80         23
    81          2
    82          1
    83          1
    84          1
    85          1
    86          1
    87          1
    88          1
    89         10
    90          6
    91         51
    92          9
    93          8
    94          1
    95          7
    96          1
    97          1
    98          1
    99          1
   100          1
   101          2
   102         10
   103         57
   104         68
   105         54
   106          7
   107        999
   108         78
   109          4
   110          1
   115          1
   117          1
   118          1
   119          3
   120        125
   121        128
   122          2
   123          6
   124          1
   125          4
   126          2
   127          1
   128          1
   129          1
   135          2
   148          2
   149          4
   154          1
   155          1
   156          1
   158          1
   169          1
   171          1
   182          1
   183         43
   184          5
   185         42
   186          4
   199          1
   200         48
   201          4
   202         47
   203          3
   204          1