##TITLE=Library Entry 59764
##JCAMP-DX=Revision 4.10 
##DATA TYPE=MASS SPECTRUM
##SAMPLE DESCRIPTION=K. Kirk, LC, NIDDK, NIH, Bethesda, MD 20892
##NAMES=HP
##CAS NAME=Benzaldehyde, 4-benzyloxy-5-methoxy-2-nitro-
##MOLFORM=C15H13NO5
##CAS REGISTRY NO=2426-84-8
##MP= -300
##BP= -300
##MW= 287
##$RETENTION INDEX=0
##$CONDENSED SPECTRUM=NO
##NPOINTS= 136
##XYDATA=(XY..XY) 1 
    41          9
    42          0
    43          2
    44          2
    45          1
    46          0
    47          0
    48          0
    49          6
    50         25
    51         59
    52          9
    53          8
    54          1
    55          1
    56          0
    57          0
    59          0
    61          2
    62         11
    63         28
    64         10
    65        124
    66          8
    67          1
    68          1
    69          5
    70          0
    71          0
    73          0
    74          3
    75          6
    76          5
    77         14
    78          8
    79         21
    80          2
    81          1
    82          1
    83          0
    84          4
    85          0
    86          3
    87          0
    88          0
    89         25
    90          5
    91        999
    92        122
    93         11
    94          3
    95          5
    96          0
    97          0
   100          0
   102          0
   103          0
   104          0
   105          2
   106          1
   107          8
   108          2
   109          0
   110          2
   111          0
   115          2
   116          0
   118          0
   119          1
   120          2
   121          3
   122          1
   123          9
   124          0
   125          0
   126          0
   127          0
   128          0
   129          0
   131          0
   135          2
   136          0
   137          0
   138          0
   139          2
   140          0
   141          2
   142          0
   148          0
   149          0
   150          0
   151          1
   152          2
   153          1
   154          0
   155          0
   165          0
   166          0
   167          0
   168          2
   169          1
   170          0
   179          0
   180          0
   181          1
   182          0
   183          0
   195          0
   196          3
   197          0
   198          0
   210          0
   211          0
   212          0
   224          0
   225          1
   226          0
   239          0
   240          0
   242          0
   243          1
   244          0
   246          0
   257          0
   258          0
   259         47
   260          7
   261          0
   262          0
   270         23
   271          4
   272          0
   286          3
   287         75
   288         13
   289          2