##TITLE=Library Entry 67817
##JCAMP-DX=Revision 4.10 
##DATA TYPE=MASS SPECTRUM
##SAMPLE DESCRIPTION=LAC, NIDDK, NIH, Bethesda, MD 20892
##NAMES=HP
##CAS NAME=N-Acetylpseudosolasodine
##MOLFORM=C29H45NO3
##CAS REGISTRY NO=24261-59-4
##MP= -300
##BP= -300
##MW= 455
##$RETENTION INDEX=0
##$CONDENSED SPECTRUM=NO
##NPOINTS= 232
##XYDATA=(XY..XY) 1 
    41        441
    43        965
    44         96
    45         40
    46          2
    47         16
    48          5
    49          8
    51          3
    53        113
    54          7
    55        527
    56         26
    57        266
    58        133
    60        165
    61          2
    65         75
    67        409
    68         45
    69        199
    70        235
    71         32
    72        275
    73        100
    74         18
    77        172
    79        427
    81        403
    82         57
    83         80
    84         26
    86         17
    87          9
    88          3
    91        445
    93        385
    95        999
    96        160
    97         62
    98         37
    99         16
   100         51
   101        136
   102          3
   103         39
   105        441
   106         77
   107        262
   108        249
   109        855
   110        110
   112        199
   114        814
   115         90
   116         27
   117        131
   118         46
   119        216
   121        336
   122        136
   123        136
   124         41
   125          9
   126        210
   127         46
   128         77
   129         91
   130         49
   131        159
   132         14
   133        212
   134         12
   135        117
   136         20
   137         43
   138         51
   139         34
   140         29
   141         31
   142         40
   143        111
   144         28
   145        210
   146         28
   147        134
   149        205
   150        106
   151         64
   152         23
   153         10
   154         10
   155         41
   156         49
   157        100
   158         51
   159        109
   160         29
   161         73
   162        286
   163        495
   164        106
   165         80
   166         60
   167         22
   168         57
   169         27
   170         15
   171         47
   172         13
   173         59
   174         12
   175         38
   176         22
   177         34
   178         10
   179          5
   180         62
   181         16
   182         23
   183         26
   184         16
   185         62
   186         29
   187         17
   188          8
   189         14
   190          8
   191          3
   192          6
   193          1
   194          3
   195         10
   196          6
   197         55
   198         65
   199         93
   200         18
   201         13
   202          3
   203         13
   204          7
   205          5
   206          9
   207          2
   208         15
   209         25
   210         60
   211         38
   212         30
   213         68
   214        259
   215        207
   216         40
   217         14
   218          2
   221         20
   222         80
   223         65
   224         55
   225         34
   226         14
   227          8
   228         15
   229          9
   230          5
   231          8
   232         24
   233          6
   235          9
   236          9
   237         30
   238          5
   239         14
   240        118
   241         22
   242          2
   243          6
   248          6
   249          2
   250          6
   251         15
   252        149
   253        100
   254         17
   255          4
   256          6
   257          4
   258         35
   259          5
   267          4
   268          2
   269         15
   270         25
   271         38
   272          6
   275          5
   276         11
   277          2
   281        100
   282         23
   283          2
   287          4
   291          2
   299          7
   309         24
   310          5
   323         13
   324          5
   327          9
   328          1
   337          8
   341          8
   342          4
   355          3
   362          2
   365          3
   378          8
   380          7
   394         11
   395          8
   396          3
   404         10
   405          4
   422         33
   423          9
   437         37
   438         12
   440          4
   455        155
   456         49
   457         12