##TITLE=Library Entry 2287
##JCAMP-DX=Revision 4.10 
##DATA TYPE=MASS SPECTRUM
##SAMPLE DESCRIPTION=Chuck Anderson, Aldrich Chemical Co.
##NAMES=HP
##CAS NAME=Oxirane, 2,2'-(1,4-butanediyl)bis-
##MOLFORM=C8H14O2
##CAS REGISTRY NO=2426-07-5
##MP= -300
##BP= -300
##MW= 142
##$RETENTION INDEX=0
##$CONDENSED SPECTRUM=NO
##NPOINTS= 76
##XYDATA=(XY..XY) 1 
    14          9
    15         96
    16          2
    17          1
    18          1
    19          2
    25          1
    26         30
    27        368
    28        117
    29        434
    30         27
    31        340
    32          6
    33          3
    37          5
    38         20
    39        527
    40        118
    41        999
    42        563
    43        348
    44         85
    45         87
    46          2
    49          0
    50         16
    51         33
    52         20
    53        208
    54        304
    55        483
    56        149
    57        296
    58        134
    59         13
    60          2
    61          7
    62          2
    63          4
    65         39
    66         47
    67        392
    68        318
    69        324
    70        168
    71        299
    72         16
    73          4
    74          3
    77         63
    78          3
    79        370
    80         43
    81        271
    82         25
    83        157
    84        189
    85         23
    86          1
    87          3
    91         28
    92          3
    93         32
    94          4
    95         23
    96          4
    97         52
    98          5
    99          1
   109         13
   111         29
   112          2
   113          1
   123          4
   124          0