##TITLE=Library Entry 90163
##JCAMP-DX=Revision 4.10 
##DATA TYPE=MASS SPECTRUM
##SAMPLE DESCRIPTION=Exported from NIST MS Search
##NAMES=HP
##CAS NAME=Isothiazole, 3,5-dimethyl-
##MOLFORM=C5H7NS
##CAS REGISTRY NO=24260-24-0
##MP= -300
##BP= -300
##MW= 113
##$RETENTION INDEX=0
##$CONDENSED SPECTRUM=NO
##NPOINTS= 12
##XYDATA=(XY..XY) 1 
    39         40
    43        100
    45        100
    58         50
    59         40
    71        287
    72        170
    73        186
    80         70
    98        115
   112        210
   113        999