##TITLE=Library Entry 78897
##JCAMP-DX=Revision 4.10 
##DATA TYPE=MASS SPECTRUM
##SAMPLE DESCRIPTION=NIST Mass Spectrometry Data Center, 1994
##NAMES=HP
##CAS NAME=D-.alpha.-Methylbenzyl isothiocyanate
##MOLFORM=C9H9NS
##CAS REGISTRY NO=24277-44-9
##MP= -300
##BP= -300
##MW= 163
##$RETENTION INDEX=0
##$CONDENSED SPECTRUM=NO
##NPOINTS= 74
##XYDATA=(XY..XY) 1 
     4          2
    14          0
    15          6
    26         10
    27         59
    28         13
    32         11
    37          4
    38         14
    39         66
    40          6
    41          2
    42          1
    44          6
    45         13
    50         64
    51        128
    52         29
    53         14
    54          1
    57          3
    58         21
    59         15
    60         11
    61          7
    62         17
    63         44
    64         12
    65         18
    66          3
    67          2
    68          1
    69          3
    70          4
    71          3
    72          2
    74         20
    75         16
    76         24
    77        215
    78         64
    79        193
    80         17
    82          7
    84          6
    85          4
    86          9
    87          4
    88          2
    89         31
    90          6
    91          5
    98          2
   101          3
   102         17
   103        118
   104          2
   105        999
   106         89
   107          3
   116         14
   117          2
   120          3
   121         26
   122          4
   123          1
   128          4
   130          3
   131          2
   148         21
   149          3
   163         55
   164          6
   165          2