##TITLE=Library Entry 66571
##JCAMP-DX=Revision 4.10 
##DATA TYPE=MASS SPECTRUM
##SAMPLE DESCRIPTION=Chemical Concepts
##NAMES=HP
##CAS NAME=Bicyclo[5.2.0]nonane, 2-methylene-4,8,8-trimethyl-4-vinyl-
##MOLFORM=C15H24
##CAS REGISTRY NO=242794-76-9
##MP= -300
##BP= -300
##MW= 204
##$RETENTION INDEX=0
##$CONDENSED SPECTRUM=NO
##NPOINTS= 144
##XYDATA=(XY..XY) 1 
    26          4
    27        131
    28         52
    29        122
    30          3
    31          0
    38          2
    39        144
    40         31
    41        492
    42         25
    43         76
    44          4
    45          1
    50          6
    51         32
    52         22
    53        132
    54         14
    55        225
    56         31
    57         31
    58          6
    59          2
    60          0
    62          1
    63          8
    64          2
    65         82
    66         26
    67        232
    68         54
    69        519
    70         34
    71         13
    72          1
    74          1
    75          2
    76          2
    77        246
    78         66
    79        548
    80        179
    81        400
    82         93
    83         37
    84          4
    85          3
    87          1
    89          4
    90          1
    91        631
    92        287
    93        999
    94        193
    95        196
    96         35
    97         11
    98          2
    99          1
   101          0
   102          3
   103         32
   104         19
   105        616
   106        330
   107        499
   108        116
   109        104
   110         17
   111         13
   112          2
   113          1
   115         40
   116         13
   117         51
   118         15
   119        374
   120        246
   121        262
   122        102
   123         64
   124          9
   125          2
   126          1
   127          4
   128         11
   129         13
   130          4
   131         34
   132         12
   133        702
   134        182
   135        177
   136         79
   137         17
   138          3
   139          1
   141          1
   142          3
   143          2
   144          2
   145         17
   146          9
   147        170
   148        185
   149         66
   150         15
   151          3
   152          1
   153          0
   155          1
   157          1
   158          0
   159          9
   160          8
   161        314
   162         78
   163         32
   164          4
   165          1
   167          0
   169          0
   173          1
   174          2
   175         92
   176         42
   177          6
   178          1
   181          1
   183          0
   187          2
   188          1
   189        172
   190         23
   191          3
   192          0
   199          0
   201          0
   202          0
   203          1
   204         39
   205          5
   206          1