##TITLE=Library Entry 78896
##JCAMP-DX=Revision 4.10 
##DATA TYPE=MASS SPECTRUM
##SAMPLE DESCRIPTION=NIST Mass Spectrometry Data Center, 1994
##NAMES=HP
##CAS NAME=L-.alpha.-Methylbenzyl isothiocyanate
##MOLFORM=C9H9NS
##CAS REGISTRY NO=24277-43-8
##MP= -300
##BP= -300
##MW= 163
##$RETENTION INDEX=0
##$CONDENSED SPECTRUM=NO
##NPOINTS= 76
##XYDATA=(XY..XY) 1 
    14          2
    15          8
    26          8
    27         67
    28         13
    29          1
    32         15
    37          6
    38         15
    39         63
    40          6
    41          3
    42          2
    44          7
    45         15
    46          0
    49          5
    50         65
    51        136
    52         29
    53         14
    54          1
    57          3
    58         23
    59         16
    60         10
    61          7
    62         19
    63         45
    64         11
    65         16
    66          2
    67          1
    69          3
    70          6
    71          2
    72          2
    74         22
    75         17
    76         26
    77        217
    78         73
    79        203
    80         15
    82          7
    83          1
    84          6
    85          3
    86         11
    87          3
    88          3
    89         27
    90          7
    91          6
    94          1
    98          1
   101          3
   102         18
   103        124
   104          1
   105        999
   106         85
   107          3
   116         16
   117          1
   120          3
   121         26
   122          2
   128          4
   130          3
   131          3
   148         22
   149          2
   163         46
   164          4
   165          2