##TITLE=Library Entry 44866
##JCAMP-DX=Revision 4.10 
##DATA TYPE=MASS SPECTRUM
##SAMPLE DESCRIPTION=TNO Volatile Compounds in Food - Chemical Concepts
##NAMES=HP
##CAS NAME=Sulfide, butyl propenyl
##MOLFORM=C7H14S
##CAS REGISTRY NO=24298-51-9
##MP= -300
##BP= -300
##MW= 130
##$RETENTION INDEX=0
##$CONDENSED SPECTRUM=NO
##NPOINTS= 60
##XYDATA=(XY..XY) 1 
    26         12
    27        102
    29        167
    30          4
    31          0
    33          0
    35          3
    37          4
    38         11
    39        152
    41        368
    42         20
    43          7
    44          2
    45        289
    46         41
    47         78
    48          4
    49          3
    50          2
    51          4
    53         41
    54         10
    55         62
    56         32
    57         93
    58         20
    59         60
    60         13
    61         25
    65          2
    67         14
    68          2
    69         12
    70          2
    71         40
    72         40
    73        135
    74        999
    75         91
    76         49
    77          5
    81         17
    82          1
    85         17
    87        171
    88         18
    89         16
    90          2
    96          1
    97          1
    99          2
   101         79
   102          6
   103          6
   115          2
   129          1
   130        409
   131         37
   132         21