##TITLE=Library Entry 60019
##JCAMP-DX=Revision 4.10 
##DATA TYPE=MASS SPECTRUM
##SAMPLE DESCRIPTION=Chemical Concepts
##NAMES=HP
##CAS NAME=1,5-Pentanediol, bis(4-methylbenzenesulfonate)
##MOLFORM=C19H24O6S2
##CAS REGISTRY NO=24293-28-5
##MP= -300
##BP= -300
##MW= 412
##$RETENTION INDEX=0
##$CONDENSED SPECTRUM=NO
##NPOINTS= 211
##XYDATA=(XY..XY) 1 
    26          2
    27         13
    29         24
    30          1
    31          2
    35          0
    36          0
    37          0
    38          2
    39         34
    40         13
    41         97
    42          9
    43         13
    44          1
    45          2
    48          1
    49          0
    50          4
    51         12
    52          5
    53         14
    54          4
    55         52
    56          9
    57         13
    58          1
    59          0
    60          0
    61          1
    62          4
    63         22
    64          7
    65        161
    66         13
    67         65
    68        123
    69        941
    70         64
    71          8
    72          0
    73          1
    74          2
    75          2
    76          3
    77         32
    78          9
    79         28
    80          7
    81          2
    82          1
    83          2
    84          2
    85         99
    86          5
    87          8
    88          1
    89         56
    90        170
    91        999
    92        116
    93         15
    94          2
    95          1
    96          0
    97          0
    98          1
    99          0
   100          0
   101          0
   102          1
   103          1
   104          1
   105          4
   106          3
   107        142
   108         49
   109          6
   110          1
   111          4
   112          1
   113          0
   114          0
   115          2
   116          2
   117          3
   118          2
   119          1
   120          3
   121         20
   122          4
   123          1
   124          2
   125          0
   126          0
   127          1
   128          1
   129          1
   130          2
   131          3
   132          1
   133          5
   134          3
   135          1
   136          0
   137          1
   138          1
   139         31
   140          4
   141          2
   142          0
   143          1
   144          0
   145          1
   146          0
   147         15
   148          3
   149          1
   150          0
   151          1
   152          1
   153          1
   154         64
   155        377
   156         44
   157         27
   158          3
   159          1
   160          0
   161          4
   162          1
   163          0
   164          1
   165          4
   166          2
   167          2
   168          1
   169          1
   170          1
   171         22
   172        107
   173        172
   174         17
   175         10
   176         42
   177          7
   178          1
   179          1
   180          1
   181          5
   182          2
   183          1
   184          1
   185          1
   186          0
   187          1
   189          0
   190          0
   191          1
   193          0
   194          0
   196          0
   197          1
   198          1
   199          1
   200          0
   201          0
   203          0
   206          1
   207          1
   210          1
   211          3
   212          1
   213          1
   216          0
   217          1
   219          0
   221          0
   223          0
   227          1
   233          0
   240         70
   241         91
   242         14
   243          7
   244          1
   245          0
   247          0
   248          0
   249          0
   260          0
   261          2
   262          4
   263          1
   264          1
   265          0
   273          0
   285          0
   309          0
   310          0
   326          1
   327          1
   328          0
   344          1
   345          0
   367          0
   412         36
   413          9
   414          4
   415          1
   416          0