##TITLE=Library Entry 10657
##JCAMP-DX=Revision 4.10 
##DATA TYPE=MASS SPECTRUM
##SAMPLE DESCRIPTION=Chuck Anderson, Aldrich Chemical Co.
##NAMES=HP
##CAS NAME=2-Acetylthiazole
##MOLFORM=C5H5NOS
##CAS REGISTRY NO=24295-03-2
##MP= -300
##BP= -300
##MW= 127
##$RETENTION INDEX=1022
##$CONDENSED SPECTRUM=NO
##NPOINTS= 56
##XYDATA=(XY..XY) 1 
    13          3
    14         15
    15         72
    25          6
    26         28
    27          9
    28         12
    29          4
    32         22
    33          7
    34          0
    35          1
    36          3
    37         12
    38         24
    39         24
    40         39
    41         14
    42         79
    43        999
    44         38
    45         99
    46          7
    47          5
    49          0
    50          4
    51         17
    52         22
    53          3
    54         21
    56         15
    57        185
    58        300
    59         60
    60         15
    61          2
    68          2
    69          5
    70         10
    71          4
    72          7
    82         13
    83         34
    84        122
    85        159
    86         34
    87          7
    99        384
   100         20
   101         17
   112        219
   113         12
   114         11
   127        342
   128         24
   129         18