##TITLE=Library Entry 18431
##JCAMP-DX=Revision 4.10 
##DATA TYPE=MASS SPECTRUM
##SAMPLE DESCRIPTION=A.A.Kutin, Moscow, Russia
##NAMES=HP
##CAS NAME=Furazano[3,4-b]pyrazine-5,6(4H,7H)-dione
##MOLFORM=C4H2N4O3
##CAS REGISTRY NO=24294-89-1
##MP= -300
##BP= -300
##MW= 154
##$RETENTION INDEX=0
##$CONDENSED SPECTRUM=NO
##NPOINTS= 42
##XYDATA=(XY..XY) 1 
    33         26
    34          9
    35          2
    36         17
    38         69
    39         41
    40        191
    41        321
    42         93
    43        279
    44        455
    45         10
    46          2
    50          2
    53        999
    54        161
    55         62
    56         14
    58        145
    60          2
    64          0
    65          0
    67         37
    68         82
    69        431
    70         18
    71          5
    73          1
    77          1
    79          0
    80          4
    81          4
    83         24
    84          9
    85          5
    91          1
    96        169
    97          8
   122          0
   126         18
   154        302
   155         13