##TITLE=Library Entry 40113
##JCAMP-DX=Revision 4.10 
##DATA TYPE=MASS SPECTRUM
##SAMPLE DESCRIPTION=NIST Mass Spectrometry Data Center
##NAMES=HP
##CAS NAME=Valpromide
##MOLFORM=C8H17NO
##CAS REGISTRY NO=2430-27-5
##MP= -300
##BP= -300
##MW= 143
##$RETENTION INDEX=0
##$CONDENSED SPECTRUM=NO
##NPOINTS= 64
##XYDATA=(XY..XY) 1 
    15          3
    16          1
    17          1
    18          3
    26          6
    27        110
    29        115
    30         10
    37          1
    38          4
    39         91
    40         13
    41        255
    42         50
    43        194
    44        191
    45          8
    46          7
    50          3
    51          8
    52          4
    53         28
    54         28
    55        170
    56         39
    57        226
    58         14
    59         10
    63          1
    65          4
    66          1
    67          8
    68          5
    69         22
    70         10
    71         15
    72        999
    73         51
    74          3
    77          1
    79          2
    80          1
    81          3
    82          6
    83         42
    84          8
    85          6
    86          9
    87          2
    96          2
    97          5
    98          5
    99          6
   100        139
   101        439
   102         27
   103          1
   114        120
   115          9
   127          2
   128          4
   142          1
   143          1
   144          2