##TITLE=Library Entry 19929
##JCAMP-DX=Revision 4.10 
##DATA TYPE=MASS SPECTRUM
##SAMPLE DESCRIPTION=Exported from NIST MS Search
##NAMES=HP
##CAS NAME=8-Heptadecene, 9-octyl-
##MOLFORM=C25H50
##CAS REGISTRY NO=24306-18-1
##MP= -300
##BP= -300
##MW= 350
##$RETENTION INDEX=0
##$CONDENSED SPECTRUM=NO
##NPOINTS= 177
##XYDATA=(XY..XY) 1 
    17          5
    18         18
    25          3
    26         15
    27        180
    28         43
    29        461
    30         11
    31          1
    32          5
    36          1
    37          3
    38          4
    39         75
    40         19
    41        624
    42         95
    43        921
    44         32
    45          1
    50          3
    51          4
    52          4
    53         57
    54        100
    55        999
    56        669
    57        965
    58         43
    59          1
    61          1
    62          1
    63          1
    65         14
    66         15
    67        307
    68        237
    69        877
    70        205
    71        339
    72         19
    73          1
    74          1
    75          1
    76          1
    77         25
    78          8
    79         71
    80         25
    81        240
    82        110
    83        781
    84        132
    85        228
    86         16
    87          1
    89          1
    91         22
    92          5
    93         25
    94         12
    95        146
    96        100
    97        565
    98        239
    99         76
   100          5
   101          1
   102          1
   103          2
   104          2
   105          7
   106          3
   107          7
   108          4
   109         61
   110         56
   111        331
   112         84
   113         36
   114          3
   115          1
   116          1
   117          2
   118          1
   119          2
   120          1
   121          3
   122          1
   123         20
   124         17
   125        108
   126        154
   127         29
   128          3
   129          1
   130          1
   131          1
   132          1
   133          1
   134          1
   135          1
   136          1
   137         13
   138         90
   139        393
   140         97
   141         19
   142          2
   143          1
   145          1
   146          1
   147          1
   149          1
   150          1
   151         11
   152         16
   153         31
   154        422
   155        144
   156         15
   157          1
   163          1
   164          1
   165          6
   166          5
   167         19
   168         13
   169          7
   170          1
   177          1
   178          1
   179          5
   180          4
   181         14
   182          7
   183          5
   184          1
   191          1
   192          1
   193          4
   194          2
   195          5
   196          5
   197          3
   198          1
   199          1
   200          1
   201          1
   202          1
   207          1
   208          1
   209          2
   210          5
   211          2
   221          1
   222          1
   223          1
   224         16
   225          3
   226          1
   235          4
   236         12
   237         31
   238         16
   239          3
   249          1
   250          1
   251          1
   252         75
   253         30
   254          5
   255          1
   263          3
   264          1
   265          1
   266          1