##TITLE=Library Entry 66101
##JCAMP-DX=Revision 4.10 
##DATA TYPE=MASS SPECTRUM
##SAMPLE DESCRIPTION=D.HENNEBERG, MAX-PLANCK INSTITUTE, MULHEIM, WEST GERMAN
Y
##NAMES=HP
##CAS NAME=Spiro[2.4]heptane, 4-methylene-
##MOLFORM=C8H12
##CAS REGISTRY NO=24308-54-1
##MP= -300
##BP= -300
##MW= 108
##$RETENTION INDEX=0
##$CONDENSED SPECTRUM=NO
##NPOINTS= 53
##XYDATA=(XY..XY) 1 
    26         16
    28         37
    29         58
    31          7
    32          9
    38          6
    39        247
    40         69
    41        210
    42         13
    43          7
    44          2
    45          2
    50         18
    51         75
    52         96
    53        127
    54         65
    55         28
    56          5
    57          2
    58          1
    62          2
    63         10
    64          7
    65        140
    66         90
    67        180
    68         22
    69          4
    73         18
    75          3
    76          2
    77        520
    78        117
    79        868
    80        391
    81         54
    82          4
    83          1
    89          5
    91        439
    92         42
    93        999
    94         81
    95          5
   103         10
   104          1
   105         27
   106          6
   107         77
   108        431
   109         36