##TITLE=Library Entry 19320
##JCAMP-DX=Revision 4.10 
##DATA TYPE=MASS SPECTRUM
##SAMPLE DESCRIPTION=NIST Mass Spectrometry Data Center
##NAMES=HP
##CAS NAME=cis-5-Dodecenoic acid
##MOLFORM=C12H22O2
##CAS REGISTRY NO=2430-94-6
##MP= -300
##BP= -300
##MW= 198
##$RETENTION INDEX=1561
##$CONDENSED SPECTRUM=NO
##NPOINTS= 135
##XYDATA=(XY..XY) 1 
    15          1
    26          5
    27        115
    28         30
    29        173
    30          5
    31          7
    37          1
    38          5
    39        213
    40         37
    41        688
    42        163
    43        462
    44         18
    45         96
    46          3
    47          3
    50          7
    51         28
    52         20
    53        170
    54        460
    55        999
    56        335
    57        184
    58         29
    59         23
    60        203
    61         19
    62          2
    63          6
    64          2
    65         69
    66         43
    67        461
    68        354
    69        474
    70        169
    71        105
    72          9
    73        135
    74         17
    75          2
    76          1
    77         53
    78         14
    79        153
    80         69
    81        414
    82        254
    83        321
    84        290
    85        112
    86         16
    87         63
    88          8
    89          3
    91         25
    92          7
    93         29
    94         38
    95        200
    96        378
    97        277
    98        176
    99         54
   100         71
   101         68
   102         15
   103          2
   105          9
   106          5
   107         17
   108         15
   109        137
   110        210
   111         87
   112         34
   113         42
   114         98
   115         34
   116         12
   117          2
   118          2
   119         27
   120         10
   121          9
   122          7
   123        113
   124         55
   125         27
   126         13
   127         46
   128         11
   129          9
   130         27
   131          3
   132          2
   133         30
   134         10
   135          3
   136         75
   137         80
   138        157
   139         27
   140          3
   141          7
   142          2
   143          1
   145          3
   147          5
   148          2
   149          2
   150          1
   151         40
   152         17
   153          2
   154          1
   155         10
   156          1
   157          1
   161          2
   162         42
   163         10
   164          1
   165          4
   166          1
   169          4
   179          2
   180         74
   181         11
   182          2
   198         18
   199          3