##TITLE=Library Entry 60840
##JCAMP-DX=Revision 4.10 
##DATA TYPE=MASS SPECTRUM
##SAMPLE DESCRIPTION=NIST Mass Spectrometry Data Center, 1994
##NAMES=HP
##CAS NAME=6-Phenyl-n-hexanol
##MOLFORM=C12H18O
##CAS REGISTRY NO=2430-16-2
##MP= -300
##BP= -300
##MW= 178
##$RETENTION INDEX=0
##$CONDENSED SPECTRUM=NO
##NPOINTS= 106
##XYDATA=(XY..XY) 1 
     7          0
    15          9
    17          1
    18          1
    19          8
    21          0
    23          0
    25          0
    26          7
    27        101
    28          0
    29         93
    30          0
    31        269
    33          0
    37          2
    38          9
    39        145
    40         16
    41        235
    42         15
    43         42
    44         11
    45          9
    48          0
    49          0
    50         25
    51         78
    52         24
    53         23
    54          9
    55         30
    56          5
    57         29
    58          1
    61          0
    62          7
    63         37
    64         12
    65        202
    66         16
    67         29
    68         11
    69         70
    70          4
    71          2
    72          0
    75          6
    76          9
    77         87
    78         70
    79         55
    80          5
    81          4
    82         16
    83          1
    84          0
    85          3
    86          1
    87          3
    89         32
    91        999
    92        318
    93         25
    94          4
    95          1
    97          1
    98          3
    99          0
   101          1
   102         10
   104        706
   105        126
   106          8
   107          4
   113          0
   115         36
   117        260
   118         59
   119          8
   120          1
   121          0
   126          0
   127          2
   128          5
   129          8
   130          8
   131         33
   132         13
   133          3
   134          1
   135          0
   143          1
   144          0
   145          5
   146          0
   147          0
   148          1
   158          1
   160         74
   161         10
   162          1
   176          3
   178         51
   179          7
   180          0