##TITLE=Library Entry 88279
##JCAMP-DX=Revision 4.10 
##DATA TYPE=MASS SPECTRUM
##SAMPLE DESCRIPTION=NIST Mass Spectrometry Data Center
##NAMES=HP
##CAS NAME=(Z)-6-Methyl-2-(tricos-14-en-1-yl)-2H-pyran-4(3H)-one
##MOLFORM=C29H52O2
##CAS REGISTRY NO=243118-20-9
##MP= -300
##BP= -300
##MW= 432
##$RETENTION INDEX=3354
##$CONDENSED SPECTRUM=NO
##NPOINTS= 109
##XYDATA=(XY..XY) 1 
    27          3
    29          9
    39          6
    40          2
    41         50
    42          9
    43         81
    44          2
    53          6
    54         24
    55        104
    56         19
    57         28
    58          2
    65          2
    66          2
    67         48
    68         19
    69         74
    70         12
    71         15
    72          1
    77          2
    78          1
    79         10
    80          7
    81         35
    82         17
    83         32
    84          9
    85        143
    86          6
    87          1
    91          2
    93          5
    94          4
    95         25
    96         11
    97         19
    98          4
    99          1
   100          8
   101          2
   105          2
   107          4
   108          2
   109         13
   110          5
   111        999
   112         71
   113         15
   114          1
   119          1
   121          5
   122          2
   123          6
   124          4
   125          8
   126          2
   127          1
   133          1
   134          1
   135          4
   136          1
   137          5
   138          2
   139          8
   140          1
   149          2
   150          1
   151          1
   152          1
   153          2
   163          1
   165          1
   167          1
   181          1
   195          1
   209          2
   223          3
   224          1
   235          1
   237          3
   238          1
   251          3
   263          1
   265          3
   277          1
   279          4
   291          1
   293          2
   305          1
   307          1
   319          2
   320          1
   321          1
   333          3
   334          1
   347          2
   348          1
   361          1
   375          1
   389          1
   403          1
   417          1
   431          4
   432         27
   433          8
   434          1