##TITLE=Library Entry 88278
##JCAMP-DX=Revision 4.10 
##DATA TYPE=MASS SPECTRUM
##SAMPLE DESCRIPTION=NIST Mass Spectrometry Data Center
##NAMES=HP
##CAS NAME=(Z)-2-(henicos-12-en-1-yl)-6-methyl-2H-pyran-4(3H)-one
##MOLFORM=C27H48O2
##CAS REGISTRY NO=243118-19-6
##MP= -300
##BP= -300
##MW= 404
##$RETENTION INDEX=3146
##$CONDENSED SPECTRUM=NO
##NPOINTS= 108
##XYDATA=(XY..XY) 1 
    27          3
    29         11
    39          8
    40          2
    41         61
    42         10
    43         88
    44          2
    53          7
    54         27
    55        112
    56         18
    57         28
    58          2
    65          3
    66          3
    67         56
    68         22
    69         73
    70         12
    71         18
    72          1
    77          3
    79         12
    80          9
    81         39
    82         18
    83         31
    84          8
    85        154
    86          7
    87          1
    91          3
    92          1
    93          5
    94          5
    95         27
    96         12
    97         17
    98          4
    99          2
   100          9
   101          2
   105          2
   107          4
   108          3
   109         14
   110          6
   111        999
   112         75
   113         16
   114          2
   121          6
   122          2
   123          7
   124          4
   125         10
   126          2
   127          2
   133          2
   134          1
   135          5
   136          2
   137          5
   138          2
   139          9
   140          1
   147          1
   149          2
   151          2
   153          2
   163          1
   164          2
   165          5
   166          1
   167          2
   181          1
   195          2
   209          4
   223          4
   237          4
   247          1
   249          1
   251          4
   252          1
   263          1
   265          3
   277          1
   279          1
   291          3
   292          1
   293          1
   305          5
   306          1
   307          1
   319          3
   320          1
   333          2
   334          1
   347          1
   361          1
   375          1
   389          1
   402          1
   403          4
   404         25
   405          8
   406          2