##TITLE=Library Entry 23378
##JCAMP-DX=Revision 4.10 
##DATA TYPE=MASS SPECTRUM
##SAMPLE DESCRIPTION=TNO Volatile Compounds in Food - Chemical Concepts
##NAMES=HP
##CAS NAME=Acetic acid, [(1,1-dimethylethyl)thio]-
##MOLFORM=C6H12O2S
##CAS REGISTRY NO=24310-22-3
##MP= -300
##BP= -300
##MW= 148
##$RETENTION INDEX=0
##$CONDENSED SPECTRUM=NO
##NPOINTS= 22
##XYDATA=(XY..XY) 1 
    26          6
    28         15
    29          2
    30          3
    39         39
    40          5
    41        207
    42          9
    45         29
    46         14
    47         18
    49          4
    53          5
    55         18
    56         34
    57        999
    58         21
    59         15
    74          3
    75          4
    87         15
   133          3