##TITLE=Library Entry 10748
##JCAMP-DX=Revision 4.10 
##DATA TYPE=MASS SPECTRUM
##SAMPLE DESCRIPTION=Japan AIST/NIMC Database- Spectrum MS-NW-5159
##NAMES=HP
##CAS NAME=Heptanoic acid, 2-acetyl-, ethyl ester
##MOLFORM=C11H20O3
##CAS REGISTRY NO=24317-94-0
##MP= -300
##BP= -300
##MW= 200
##$RETENTION INDEX=0
##$CONDENSED SPECTRUM=NO
##NPOINTS= 125
##XYDATA=(XY..XY) 1 
    14          4
    15         50
    16          1
    17          2
    18          7
    26         14
    27        158
    28         21
    29        228
    30          5
    31         53
    32          2
    37          1
    38          3
    39         66
    40         13
    41        157
    42         31
    43        999
    44         25
    45         54
    46          9
    47          2
    50          2
    51          6
    52          3
    53         19
    54          9
    55        185
    56         33
    57         20
    58         51
    59         13
    60         21
    61         16
    62          1
    63          1
    65          3
    66          2
    67         13
    68         74
    69         62
    70         28
    71         69
    72          9
    73        487
    74         27
    75          6
    77          4
    79          5
    80          1
    81         11
    82          5
    83         50
    84        106
    85         72
    86         20
    87         63
    88         41
    89         10
    90          1
    91          2
    93          6
    94          8
    95          7
    96          3
    97         68
    98          8
    99         25
   100          4
   101        739
   102        137
   103         28
   104          2
   105          1
   107          3
   108          2
   109          5
   110          3
   111         54
   112         39
   113         58
   114          6
   115        267
   116         25
   117          5
   118          1
   121          2
   123          2
   124          1
   125          8
   126         26
   127          5
   128          5
   129         75
   130        424
   131         43
   132          4
   136          2
   137          1
   139          9
   140          1
   141          2
   143         67
   144          9
   145          1
   146          1
   153          3
   154          5
   155         92
   156         11
   157         15
   158        289
   159         30
   160          3
   171         12
   172          5
   173          2
   174          7
   185          4
   186          1
   197          1
   199          1
   200          9
   201          2