##TITLE=Library Entry 63724
##JCAMP-DX=Revision 4.10 
##DATA TYPE=MASS SPECTRUM
##SAMPLE DESCRIPTION=R.I.REED CHEMISTRY DEPT., GLASGOW UNIVERSITY, GLASGOW,
 UK
##NAMES=HP
##CAS NAME=Phenol, o-(benzylthio)-
##MOLFORM=C13H12OS
##CAS REGISTRY NO=24312-63-8
##MP= -300
##BP= -300
##MW= 216
##$RETENTION INDEX=0
##$CONDENSED SPECTRUM=NO
##NPOINTS= 34
##XYDATA=(XY..XY) 1 
    40          8
    41         11
    44         10
    45         24
    50         14
    51         24
    52         10
    53         20
    62          9
    63         31
    64         11
    65        117
    66         20
    69         11
    70         10
    71          6
    77          9
    78          6
    89         18
    90          8
    91        999
    92         90
    93          5
    94         42
    95          7
    96          7
    97         31
    98          5
   121          6
   125         11
   126         10
   216        210
   217         34
   218         13