##TITLE=Library Entry 877
##JCAMP-DX=Revision 4.10 
##DATA TYPE=MASS SPECTRUM
##SAMPLE DESCRIPTION=A.E.FONTAINE DYESTUFFS DIV., I.C.I., MANCHESTER
##NAMES=HP
##CAS NAME=Hexanenitrile, 6-amino-
##MOLFORM=C6H12N2
##CAS REGISTRY NO=2432-74-8
##MP= -300
##BP= -300
##MW= 112
##$RETENTION INDEX=0
##$CONDENSED SPECTRUM=NO
##NPOINTS= 58
##XYDATA=(XY..XY) 1 
    26          5
    27          3
    28         80
    29         19
    30        999
    31         19
    32          1
    36          0
    37          1
    38          2
    39         32
    40          8
    41         60
    42         31
    43         21
    44         13
    45         16
    46          0
    50          1
    51          3
    52          6
    53          0
    54         32
    55         27
    56         18
    57          3
    58          3
    59          1
    63          0
    64          1
    65          2
    66          2
    67         12
    68          7
    69          8
    70          3
    72         13
    73          0
    77          8
    78          0
    79          0
    80          1
    81          0
    82          4
    83          1
    84          1
    85          2
    86          0
    93          0
    94          3
    95          0
    96          1
    97          1
   110          0
   111          0
   112          9
   113          5
   114          0