##TITLE=Library Entry 109736
##JCAMP-DX=Revision 4.10 
##DATA TYPE=MASS SPECTRUM
##SAMPLE DESCRIPTION=Japan AIST/NIMC Database- Spectrum MS-IW-7903
##NAMES=HP
##CAS NAME=6-(2-Formyloctyl)-1,2-dihydro-3-hydroxy-2-oxopyridine
##MOLFORM=C14H21NO3
##CAS REGISTRY NO=24322-09-6
##MP= -300
##BP= -300
##MW= 251
##$RETENTION INDEX=0
##$CONDENSED SPECTRUM=NO
##NPOINTS= 182
##XYDATA=(XY..XY) 1 
    17          5
    18          2
    26          2
    27         21
    28         38
    29         25
    30          4
    31          1
    38          2
    39         25
    40          8
    41         65
    42         13
    43         28
    44          6
    45          1
    50          2
    51          9
    52          8
    53         18
    54          8
    55         39
    56          9
    57         19
    58          1
    62          1
    63          4
    64          2
    65         17
    66          9
    67         35
    68         17
    69         20
    70          9
    71          3
    74          1
    75          1
    76          2
    77         16
    78         17
    79         20
    80         16
    81         12
    82         10
    83          9
    84          5
    85          2
    89          3
    90          3
    91         12
    92          9
    93         10
    94         12
    95         12
    96         49
    97          9
    98          2
    99          1
   102          1
   103          3
   104          5
   105          6
   106         15
   107          8
   108          9
   109         24
   110          6
   111         29
   112         36
   113          3
   115          3
   116          6
   117          5
   118          9
   119          4
   120         14
   121          4
   122          6
   123          6
   124        271
   125        999
   126         76
   127          8
   128          3
   129          3
   130          3
   131          2
   132          7
   133          5
   134         11
   135          5
   136         64
   137         10
   138        352
   139        145
   140         12
   141          2
   142          1
   143          1
   144          4
   145          4
   146         10
   147          4
   148         42
   149         30
   150         31
   151          6
   152        198
   153         30
   154          5
   155          1
   158          2
   159          2
   160          3
   161          4
   162        152
   163         22
   164         12
   165          3
   166         41
   167         51
   168          6
   169          1
   170          1
   171          1
   172          2
   173          1
   174          3
   175          4
   176         12
   177          3
   178          6
   179          2
   180        150
   181         26
   182          3
   183          1
   184          1
   185          1
   186          2
   188          3
   189          1
   190          9
   191          2
   192          2
   193          1
   194         19
   195          4
   196          1
   198          1
   200          1
   202          1
   204          5
   205          5
   206         18
   207          3
   208          9
   209          2
   211          1
   213          1
   215          1
   216          1
   217          2
   218          3
   219          1
   220         23
   221          5
   222        119
   223        125
   224         17
   225          2
   231          2
   232         13
   233         56
   234         12
   235          3
   236          2
   249          3
   250          9
   251         95
   252         34
   253          5