##TITLE=Library Entry 25859
##JCAMP-DX=Revision 4.10 
##DATA TYPE=MASS SPECTRUM
##SAMPLE DESCRIPTION=W. UTILIZATION R & D DIV., U.S. DEPT. OF AGRIC., ALBANY
, CAL.
##NAMES=HP
##CAS NAME=Butanethioic acid, 3-methyl-, S-(1-methylpropyl) ester
##MOLFORM=C9H18OS
##CAS REGISTRY NO=2432-91-9
##MP= -300
##BP= -300
##MW= 174
##$RETENTION INDEX=0
##$CONDENSED SPECTRUM=NO
##NPOINTS= 42
##XYDATA=(XY..XY) 1 
    29        110
    35          4
    39         57
    40          7
    41        317
    42         27
    43         93
    44          2
    45         12
    47         14
    53         12
    54          4
    55         60
    56         66
    57        999
    58         52
    59         27
    60         22
    61         56
    69         31
    70          2
    71         36
    73          5
    75          7
    76         18
    77          9
    84          7
    85        871
    86         48
    87          5
    88         11
    89         16
    90         19
    91         12
   103         11
   105          3
   117         24
   118          7
   119         51
   174        161
   175         12
   176          7