##TITLE=Library Entry 11250
##JCAMP-DX=Revision 4.10 
##DATA TYPE=MASS SPECTRUM
##SAMPLE DESCRIPTION=W. UTILIZATION R & D DIV., U.S. DEPT. OF AGRIC., ALBANY
, CAL.
##NAMES=HP
##CAS NAME=Heptanethioic acid, S-methyl ester
##MOLFORM=C8H16OS
##CAS REGISTRY NO=2432-82-8
##MP= -300
##BP= -300
##MW= 160
##$RETENTION INDEX=1666
##$CONDENSED SPECTRUM=NO
##NPOINTS= 34
##XYDATA=(XY..XY) 1 
    29         62
    35          3
    39         43
    40          6
    41        286
    42         40
    43        999
    44         23
    45         22
    46          7
    47         51
    48          9
    49          6
    53         12
    55        106
    56         33
    57        231
    58          8
    61         14
    67         11
    68         10
    69         29
    70          6
    71          4
    75         64
    83          9
    84         18
    85        404
    86         17
    90         21
    95         35
   113        517
   145        185
   160          4