##TITLE=Library Entry 38370
##JCAMP-DX=Revision 4.10 
##DATA TYPE=MASS SPECTRUM
##SAMPLE DESCRIPTION=W. UTILIZATION R & D DIV., U.S. DEPT. OF AGRIC., ALBANY
, CAL.
##NAMES=HP
##CAS NAME=Butyric acid, thio-, S-hexyl ester
##MOLFORM=C10H20OS
##CAS REGISTRY NO=2432-54-4
##MP= -300
##BP= -300
##MW= 188
##$RETENTION INDEX=0
##$CONDENSED SPECTRUM=NO
##NPOINTS= 46
##XYDATA=(XY..XY) 1 
    28         14
    29         31
    39         26
    40          5
    41         43
    42         29
    43        551
    44         16
    45         10
    46          6
    47         17
    53          8
    54          4
    55         72
    56         26
    57         11
    58          3
    59          7
    60          8
    61         13
    67          7
    69         10
    70         19
    71        999
    72         50
    73          7
    76          5
    83         11
    84         19
    85         15
    86          4
    87          9
    88         15
    89          4
    99          5
   100         11
   103          4
   104          7
   105         41
   114         10
   116         23
   117         27
   128         24
   145         11
   170          1
   188         47