##TITLE=Library Entry 26650
##JCAMP-DX=Revision 4.10 
##DATA TYPE=MASS SPECTRUM
##SAMPLE DESCRIPTION=W. UTILIZATION R & D DIV., U.S. DEPT. OF AGRIC., ALBANY
, CAL.
##NAMES=HP
##CAS NAME=Octanethioic acid, S-methyl ester
##MOLFORM=C9H18OS
##CAS REGISTRY NO=2432-83-9
##MP= -300
##BP= -300
##MW= 174
##$RETENTION INDEX=1293
##$CONDENSED SPECTRUM=NO
##NPOINTS= 36
##XYDATA=(XY..XY) 1 
    29         65
    35          1
    39         30
    40          4
    41        271
    42         43
    43        311
    44          6
    45         13
    46          4
    47         35
    48          6
    49          4
    53         10
    55        174
    56         21
    57        999
    58         34
    59          8
    61         10
    67         42
    69         18
    70          9
    71         12
    75         49
    81          6
    83         19
    84         12
    85          4
    90         21
    97          5
    98          9
   109         45
   127        430
   159         85
   174          3