##TITLE=Library Entry 13329
##JCAMP-DX=Revision 4.10 
##DATA TYPE=MASS SPECTRUM
##SAMPLE DESCRIPTION=W. UTILIZATION R & D DIV., U.S. DEPT. OF AGRIC., ALBANY
, CAL.
##NAMES=HP
##CAS NAME=Acetic acid, thio-, S-undecyl ester
##MOLFORM=C13H26OS
##CAS REGISTRY NO=2432-35-1
##MP= -300
##BP= -300
##MW= 230
##$RETENTION INDEX=0
##$CONDENSED SPECTRUM=NO
##NPOINTS= 79
##XYDATA=(XY..XY) 1 
    27         13
    28         17
    29         40
    39         17
    40          6
    41        153
    42         29
    43        999
    44         31
    45         17
    46          5
    47         26
    53         11
    54         14
    55        197
    56         53
    57         98
    58         19
    59         21
    60         15
    61         27
    67         29
    68         24
    69        137
    70         51
    71         71
    72         24
    73          7
    74          6
    75          5
    76         38
    77         41
    79          8
    81         23
    82         38
    83         92
    84         39
    85         54
    86         18
    87         45
    88          8
    89         16
    94          7
    95         14
    96         40
    97         94
    98         30
    99         13
   100         19
   101         20
   103         10
   109          6
   110         20
   111         43
   112         19
   113         14
   114         24
   115          7
   118         19
   125         20
   126         14
   127         17
   128         18
   129          9
   141          6
   142          9
   143          9
   145          8
   154        102
   155         19
   170         88
   179          7
   187        256
   188         24
   189         11
   212         10
   230         47
   231          4
   232          2