##TITLE=Library Entry 109735
##JCAMP-DX=Revision 4.10 
##DATA TYPE=MASS SPECTRUM
##SAMPLE DESCRIPTION=Japan AIST/NIMC Database- Spectrum MS-IW-7901
##NAMES=HP
##CAS NAME=6-(2-Formylheptyl)-1,2-dihydro-3-hydroxy-2-oxopyridine
##MOLFORM=C13H19NO3
##CAS REGISTRY NO=24322-08-5
##MP= -300
##BP= -300
##MW= 237
##$RETENTION INDEX=0
##$CONDENSED SPECTRUM=NO
##NPOINTS= 148
##XYDATA=(XY..XY) 1 
    15          1
    17          9
    18          1
    26          2
    27         24
    28         52
    29         28
    30          6
    31          3
    38          1
    39         29
    40          8
    41         72
    42          9
    43         21
    44          5
    45          2
    50          2
    51         10
    52          9
    53         21
    54          8
    55         35
    56          6
    57         19
    58          1
    63          3
    64          2
    65         18
    66          9
    67         28
    68         18
    69         18
    70          5
    71          4
    74          3
    75          1
    77         13
    78         17
    79         15
    80         14
    81          9
    82          9
    83          9
    84          2
    85          1
    89          1
    90          1
    91          7
    92          9
    93          8
    94         13
    95         16
    96         60
    97          9
    98          1
    99          1
   103          1
   104          3
   105          3
   106         14
   107          7
   108          7
   109          8
   110          5
   111         33
   112         37
   113          2
   115          1
   116          4
   117          2
   118          9
   119          3
   120         15
   121          4
   122          5
   123          5
   124        296
   125        999
   126         75
   127          7
   128          1
   130          1
   132          5
   133          2
   134         10
   135          4
   136         62
   137          9
   138        359
   139        147
   140         12
   141          1
   144          2
   146          4
   147          1
   148         24
   149         28
   150         26
   151          5
   152        213
   153         37
   154          4
   160          1
   161          2
   162         71
   163         10
   164          8
   165          2
   166         44
   167         49
   168          6
   174          1
   176          9
   177          2
   178          4
   179          1
   180        140
   181         16
   182          1
   188          1
   190          6
   191          6
   192         17
   193          2
   194          9
   195          3
   202          1
   203          1
   204          2
   205          1
   206         19
   207          4
   208        116
   209        134
   210         17
   211          2
   218          4
   219          8
   220          4
   221          2
   222          2
   223          1
   235          2
   236          8
   237        133
   238         40
   239          5