##TITLE=Library Entry 38272
##JCAMP-DX=Revision 4.10 
##DATA TYPE=MASS SPECTRUM
##SAMPLE DESCRIPTION=W. UTILIZATION R & D DIV., U.S. DEPT. OF AGRIC., ALBANY
, CAL.
##NAMES=HP
##CAS NAME=Butanethioic acid, S-butyl ester
##MOLFORM=C8H16OS
##CAS REGISTRY NO=2432-52-2
##MP= -300
##BP= -300
##MW= 160
##$RETENTION INDEX=1129
##$CONDENSED SPECTRUM=NO
##NPOINTS= 37
##XYDATA=(XY..XY) 1 
    28         12
    29         53
    39         44
    40          4
    41        202
    42         29
    43        621
    44         21
    45         17
    46         11
    47         37
    53          7
    54          4
    55         53
    56         33
    57         39
    58          6
    59         10
    60          8
    61         15
    69          2
    70         16
    71        999
    72         51
    73          7
    75          4
    76          6
    88          6
    89          7
    90          4
   100         21
   103          8
   105         53
   117         25
   160        146
   161         11
   162          6