##TITLE=Library Entry 25848
##JCAMP-DX=Revision 4.10 
##DATA TYPE=MASS SPECTRUM
##SAMPLE DESCRIPTION=W. UTILIZATION R & D DIV., U.S. DEPT. OF AGRIC., ALBANY
, CAL.
##NAMES=HP
##CAS NAME=Butanethioic acid, 3-methyl-, S-ethyl ester
##MOLFORM=C7H14OS
##CAS REGISTRY NO=2432-57-7
##MP= -300
##BP= -300
##MW= 146
##$RETENTION INDEX=0
##$CONDENSED SPECTRUM=NO
##NPOINTS= 41
##XYDATA=(XY..XY) 1 
    27         76
    28         31
    29        205
    30          6
    35         24
    39         83
    40         12
    41        407
    42         45
    43        159
    44          4
    45         21
    46         16
    47         27
    53         11
    55         32
    56         53
    57        999
    58         53
    59         21
    60         12
    61         47
    62         24
    63          8
    69         40
    70          2
    71          5
    75          9
    76         23
    85        630
    86         36
    89         57
   103          6
   104          6
   117         30
   118          5
   119          5
   131          5
   146        161
   147          9
   148          7