##TITLE=Library Entry 44722
##JCAMP-DX=Revision 4.10 
##DATA TYPE=MASS SPECTRUM
##SAMPLE DESCRIPTION=NIST Mass Spectrometry Data Center, 1990.
##NAMES=HP
##CAS NAME=Undecanoic acid, 2-methyl-
##MOLFORM=C12H24O2
##CAS REGISTRY NO=24323-25-9
##MP= -300
##BP= -300
##MW= 200
##$RETENTION INDEX=0
##$CONDENSED SPECTRUM=NO
##NPOINTS= 53
##XYDATA=(XY..XY) 1 
    16          2
    18         11
    26          9
    27        116
    28         30
    29        176
    30         12
    31         13
    39         84
    40         26
    41        331
    42         83
    43        260
    44         17
    45         69
    53         27
    54         24
    55        236
    56         69
    57        104
    58          8
    59         35
    67         22
    68         12
    69         98
    70         19
    71         39
    72          8
    73        104
    74        999
    75         42
    76          5
    81         10
    82          7
    83         32
    84          8
    85         15
    86          5
    87        417
    88         25
    97         26
    98         24
   101         49
   111         10
   112          6
   115         22
   129         75
   130          8
   143        109
   144          9
   157         43
   171          7
   200         20