##TITLE=Library Entry 6216
##JCAMP-DX=Revision 4.10 
##DATA TYPE=MASS SPECTRUM
##SAMPLE DESCRIPTION=W. UTILIZATION R & D DIV., U.S. DEPT. OF AGRIC., ALBANY
, CAL.
##NAMES=HP
##CAS NAME=Butanethioic acid, S-methyl ester
##MOLFORM=C5H10OS
##CAS REGISTRY NO=2432-51-1
##MP= -300
##BP= -300
##MW= 118
##$RETENTION INDEX=874
##$CONDENSED SPECTRUM=NO
##NPOINTS= 35
##XYDATA=(XY..XY) 1 
    27        180
    28         19
    29         14
    35          5
    39         79
    40          9
    41        364
    42         51
    43        999
    44         26
    45         50
    46         21
    47         75
    48         34
    49         11
    55         40
    56          3
    57          3
    58          5
    59          4
    60          2
    61         16
    69          4
    70          7
    71        364
    72         12
    75         54
    76          2
    77          3
   103         83
   104          3
   105          4
   118        153
   119          5
   120          5