##TITLE=Library Entry 23167
##JCAMP-DX=Revision 4.10 
##DATA TYPE=MASS SPECTRUM
##SAMPLE DESCRIPTION=W. UTILIZATION R & D DIV., U.S. DEPT. OF AGRIC., ALBANY
, CAL.
##NAMES=HP
##CAS NAME=Propanethioic acid, S-butyl ester
##MOLFORM=C7H14OS
##CAS REGISTRY NO=2432-44-2
##MP= -300
##BP= -300
##MW= 146
##$RETENTION INDEX=1043
##$CONDENSED SPECTRUM=NO
##NPOINTS= 35
##XYDATA=(XY..XY) 1 
    27         59
    28         10
    29        266
    30          7
    35          4
    39         27
    40          2
    41         85
    42          9
    43         15
    45         21
    46         13
    47         36
    53          7
    54          4
    55         36
    56         60
    57        999
    58         41
    59         12
    60          9
    61         14
    71          2
    72          6
    73          4
    75          5
    86         27
    88          9
    89          7
    90         13
    91         49
   117         30
   146        112
   147          7
   148          5