##TITLE=Library Entry 9060
##JCAMP-DX=Revision 4.10 
##DATA TYPE=MASS SPECTRUM
##SAMPLE DESCRIPTION=W. UTILIZATION R & D DIV., U.S. DEPT. OF AGRIC., ALBANY
, CAL.
##NAMES=HP
##CAS NAME=Propanethioic acid, 2-methyl-, S-ethyl ester
##MOLFORM=C6H12OS
##CAS REGISTRY NO=2432-50-0
##MP= -300
##BP= -300
##MW= 132
##$RETENTION INDEX=0
##$CONDENSED SPECTRUM=NO
##NPOINTS= 37
##XYDATA=(XY..XY) 1 
    27        129
    28         31
    29        100
    35         30
    39         74
    40         14
    41        259
    42         49
    43        999
    44         41
    45         30
    46         31
    47         49
    53          5
    55         24
    56          6
    57         85
    58         15
    59         33
    60         17
    61         76
    62         98
    63         19
    64          5
    69          5
    70         17
    71        492
    72         23
    75         13
    89         63
    90          5
    91          5
   100          4
   103          6
   132        298
   133         14
   134         12