##TITLE=Library Entry 25850
##JCAMP-DX=Revision 4.10 
##DATA TYPE=MASS SPECTRUM
##SAMPLE DESCRIPTION=W. UTILIZATION R & D DIV., U.S. DEPT. OF AGRIC., ALBANY
, CAL.
##NAMES=HP
##CAS NAME=Butyric acid, 3-methylthio-, S-propyl ester
##MOLFORM=C8H16OS
##CAS REGISTRY NO=2432-58-8
##MP= -300
##BP= -300
##MW= 160
##$RETENTION INDEX=0
##$CONDENSED SPECTRUM=NO
##NPOINTS= 38
##XYDATA=(XY..XY) 1 
    28          5
    29         84
    39         77
    40         10
    41        393
    42         54
    43        226
    44          6
    45         21
    46         14
    47         45
    53          8
    55         28
    56         49
    57        999
    58         54
    59         10
    60          5
    61         15
    69         39
    70          2
    71          2
    73          3
    74          8
    75         10
    76         31
    77         10
    85        910
    86         50
    87          4
   103         26
   117         75
   118          7
   119          5
   145          3
   160        185
   161         12
   162          7