##TITLE=Library Entry 8705
##JCAMP-DX=Revision 4.10 
##DATA TYPE=MASS SPECTRUM
##SAMPLE DESCRIPTION=W. UTILIZATION R & D DIV., U.S. DEPT. OF AGRIC., ALBANY
, CAL.
##NAMES=HP
##CAS NAME=Ethanethioic acid, S-(3-methylbutyl) ester
##MOLFORM=C7H14OS
##CAS REGISTRY NO=2432-38-4
##MP= -300
##BP= -300
##MW= 146
##$RETENTION INDEX=0
##$CONDENSED SPECTRUM=NO
##NPOINTS= 40
##XYDATA=(XY..XY) 1 
    27         41
    29         41
    35          5
    39         50
    40          6
    41        183
    42         54
    43        999
    44         27
    45         29
    46         17
    47         49
    53         19
    54          7
    55        180
    56         24
    57         42
    58         11
    59         23
    60         16
    61         80
    67          8
    68          9
    69        144
    70        415
    71         56
    72          8
    76         30
    77         21
    86        365
    87         25
    89         29
    90          7
   102         10
   103         56
   104          7
   131          4
   146         44
   147          3
   148          2