##TITLE=Library Entry 23168
##JCAMP-DX=Revision 4.10 
##DATA TYPE=MASS SPECTRUM
##SAMPLE DESCRIPTION=W. UTILIZATION R & D DIV., U.S. DEPT. OF AGRIC., ALBANY
, CAL.
##NAMES=HP
##CAS NAME=Propanethioic acid, S-(2-methylpropyl) ester
##MOLFORM=C7H14OS
##CAS REGISTRY NO=2432-48-6
##MP= -300
##BP= -300
##MW= 146
##$RETENTION INDEX=1002
##$CONDENSED SPECTRUM=NO
##NPOINTS= 37
##XYDATA=(XY..XY) 1 
    26          3
    27         47
    28         21
    29        215
    30          5
    39         38
    40          5
    41        104
    42         12
    43         43
    45         20
    46         11
    47         23
    48          5
    53          7
    54          3
    55         35
    56         55
    57        999
    58         43
    59          9
    60          4
    61          9
    71          5
    72          6
    73          7
    74          5
    75          7
    88          4
    89          6
    90         12
    91         18
   113         31
   131          4
   146        146
   147          8
   148          5