##TITLE=Library Entry 23137
##JCAMP-DX=Revision 4.10 
##DATA TYPE=MASS SPECTRUM
##SAMPLE DESCRIPTION=W. UTILIZATION R & D DIV., U.S. DEPT. OF AGRIC., ALBANY
, CAL.
##NAMES=HP
##CAS NAME=Propionic acid, thio-, S-isopentyl ester
##MOLFORM=C8H16OS
##CAS REGISTRY NO=2432-49-7
##MP= -300
##BP= -300
##MW= 160
##$RETENTION INDEX=0
##$CONDENSED SPECTRUM=NO
##NPOINTS= 45
##XYDATA=(XY..XY) 1 
    27         48
    28         23
    29        199
    30          6
    39         24
    40          3
    41        109
    42         20
    43        110
    44          2
    45         15
    46          9
    47         27
    53         11
    54          4
    55         61
    56         38
    57        999
    58         40
    59         12
    60         11
    61         33
    67          5
    68          6
    69         65
    70        169
    71         41
    72          6
    73          5
    74          3
    75          6
    87          5
    89          5
    90         18
    91         12
   100         25
   101          7
   102         10
   103         19
   117          5
   131         12
   145          3
   160         34
   161          3
   162          2