##TITLE=Library Entry 96403
##JCAMP-DX=Revision 4.10 
##DATA TYPE=MASS SPECTRUM
##SAMPLE DESCRIPTION=V.A.Korolev, Moscow, Russia
##NAMES=HP
##CAS NAME=1H-Pyrrolo[2,3-c]pyridine-2-carboxylic acid
##MOLFORM=C8H6N2O2
##CAS REGISTRY NO=24334-20-1
##MP= -300
##BP= -300
##MW= 162
##$RETENTION INDEX=0
##$CONDENSED SPECTRUM=NO
##NPOINTS= 85
##XYDATA=(XY..XY) 1 
    35          2
    36         35
    37        242
    38        404
    39        280
    40        193
    41        114
    42         15
    43         25
    44        262
    45        273
    46          6
    48          7
    49         73
    50        285
    51        284
    52        303
    53        140
    54         17
    55         15
    56          2
    57         10
    58        101
    60         29
    61        275
    62        789
    63        965
    64        362
    65        211
    66         81
    67         70
    68          7
    69          9
    70          1
    71          6
    72        166
    73         25
    74         13
    75         59
    76        133
    77         65
    78        103
    79         36
    80          7
    81         33
    82          1
    83          2
    85          3
    86         16
    87         55
    88        237
    89        891
    90        435
    91         57
    92          6
    93          1
    95          1
    97          2
    98          2
    99          1
   100          1
   103          1
   104          2
   105         22
   106         21
   107          4
   114          1
   115         35
   116        999
   117        182
   118         13
   119          2
   129          1
   131          2
   133         21
   134          6
   143         22
   144        959
   145        163
   146         11
   160          1
   161          6
   162        868
   163         92
   164          6