##TITLE=Library Entry 33275
##JCAMP-DX=Revision 4.10 
##DATA TYPE=MASS SPECTRUM
##SAMPLE DESCRIPTION=Institute of Organic Chemistry, Novosibirsk, USSR 1988
##NAMES=HP
##CAS NAME=2-Methyl-4,5-tetramethylene-5-ethyl-2-oxazoline
##MOLFORM=C10H17NO
##CAS REGISTRY NO=24337-58-4
##MP= -300
##BP= -300
##MW= 167
##$RETENTION INDEX=0
##$CONDENSED SPECTRUM=NO
##NPOINTS= 127
##XYDATA=(XY..XY) 1 
    12         17
    13          9
    14         33
    15        128
    16         39
    17         44
    18        222
    19          1
    24          4
    25         12
    26         85
    27        387
    28        378
    29        508
    30        128
    31         37
    32         11
    33          2
    34          2
    36          1
    37          6
    38         24
    39        314
    40         74
    41        919
    42        629
    43        870
    44        290
    45        169
    46         12
    47          6
    50         17
    51         38
    52         29
    53        116
    54        124
    55        540
    56        217
    57        548
    58         38
    59         16
    60         18
    61          3
    63          9
    64          3
    65         56
    66         27
    67        201
    68        999
    69        758
    70         96
    71        117
    72         75
    73         45
    74          9
    75          7
    76         17
    77         70
    78         48
    79        225
    80         55
    81        114
    82        128
    83        145
    84         93
    85        161
    86         70
    87         27
    88          8
    89          4
    90          5
    91         69
    92         12
    93         90
    94         49
    95         74
    96        160
    97        790
    98         87
    99         24
   100          9
   101         33
   102          5
   103          8
   104         13
   105         27
   106         14
   107         25
   108        177
   109         58
   110        306
   111        161
   112         37
   113         20
   114         40
   115         19
   116          4
   117         11
   118          6
   119         16
   120          7
   121         19
   122         14
   123         21
   124        185
   125        145
   126         93
   127         17
   128         25
   129         15
   130          4
   131          8
   132          3
   135         10
   136         12
   137         16
   138        548
   139         70
   140         15
   151          9
   152         85
   153         12
   154          4
   166         11
   167        193
   168         30
   169          1