##TITLE=Library Entry 14820
##JCAMP-DX=Revision 4.10 
##DATA TYPE=MASS SPECTRUM
##SAMPLE DESCRIPTION=NIST Mass Spectrometry Data Center, 1994
##NAMES=HP
##CAS NAME=Tricosanoic acid
##MOLFORM=C23H46O2
##CAS REGISTRY NO=2433-96-7
##MP= -300
##BP= -300
##MW= 354
##$RETENTION INDEX=2668
##$CONDENSED SPECTRUM=NO
##NPOINTS= 93
##XYDATA=(XY..XY) 1 
    27         25
    29        164
    39         87
    40         34
    41        688
    42        184
    43        999
    44         42
    45         11
    53         38
    54         64
    55        708
    56        190
    57        675
    58         38
    59         11
    60        632
    61        204
    67         78
    68         63
    69        378
    70        112
    71        369
    72         38
    73        622
    74         33
    79         28
    81         62
    82         65
    83        288
    84        118
    85        218
    86         25
    87        234
    88         37
    95         50
    96         60
    97        258
    98        120
    99         92
   100         25
   101         85
   102         41
   109         32
   110         31
   111        115
   112         38
   113         48
   114         31
   115        134
   116        112
   121         21
   123         23
   124         24
   125         58
   126         21
   127         39
   128         21
   129        354
   130         60
   135         17
   139         40
   141         28
   143        112
   144         29
   153         19
   155         22
   157         77
   158         32
   171        110
   172         49
   185        237
   186         47
   199        117
   200         27
   211         19
   213         79
   227         80
   228         21
   241        107
   242         27
   255        177
   256         29
   269         78
   270         17
   283         42
   297         76
   311        219
   312         48
   354        752
   355        190
   356         23
   357          1