##TITLE=Library Entry 51444
##JCAMP-DX=Revision 4.10 
##DATA TYPE=MASS SPECTRUM
##SAMPLE DESCRIPTION=Exported from NIST MS Search
##NAMES=HP
##CAS NAME=[1,1'-Bicyclohexyl]-4-ol
##MOLFORM=C12H22O
##CAS REGISTRY NO=2433-14-9
##MP= -300
##BP= -300
##MW= 182
##$RETENTION INDEX=0
##$CONDENSED SPECTRUM=NO
##NPOINTS= 105
##XYDATA=(XY..XY) 1 
    36          1
    38          2
    39         94
    40         16
    41        328
    42         28
    43         98
    44         30
    45         15
    46          2
    47          2
    49          2
    50          2
    51         13
    52          8
    53         73
    54        147
    55        558
    56         41
    57        106
    58         11
    59          8
    62          1
    63          6
    64          1
    65         24
    66         31
    67        512
    68         97
    69        141
    70         34
    71         11
    72          4
    73          1
    74          1
    75          1
    76          1
    77         41
    78         14
    79        143
    80        317
    81        949
    82        999
    83        607
    84         39
    85          5
    89          1
    91         36
    92          8
    93         53
    94         67
    95         91
    96        195
    97        173
    98         20
    99         14
   100          3
   101          2
   102          1
   103          5
   104         22
   105          2
   106          2
   107         60
   109         92
   110         15
   111          4
   115          6
   116          2
   117         11
   118          8
   119          3
   120          3
   121         89
   122         99
   123         41
   124          8
   125         11
   126          1
   127          1
   128          3
   129          7
   130          9
   131          2
   132          1
   133          2
   134          2
   135         93
   136         33
   137          3
   138          5
   139          1
   143         11
   144          2
   149         55
   150          7
   151          2
   153          2
   156          2
   163         10
   164        745
   165        104
   166          8
   181          2
   182          4