##TITLE=Library Entry 62574
##JCAMP-DX=Revision 4.10 
##DATA TYPE=MASS SPECTRUM
##SAMPLE DESCRIPTION=Chemical Concepts
##NAMES=HP
##CAS NAME=2-Hydroxymethyl-1-butanol bis(4-methylphenylsulfonate)
##MOLFORM=C19H24O6S2
##CAS REGISTRY NO=24330-55-0
##MP= -300
##BP= -300
##MW= 412
##$RETENTION INDEX=0
##$CONDENSED SPECTRUM=NO
##NPOINTS= 173
##XYDATA=(XY..XY) 1 
    38          1
    39         52
    40          7
    41        143
    42         10
    43         36
    44          3
    45          4
    48          2
    50          5
    51         15
    52          6
    53         14
    54          8
    55         85
    56         32
    57         35
    58          2
    59          3
    60          1
    61          0
    62          2
    63         20
    64         10
    65        177
    66         12
    67         38
    68         92
    69        604
    70         36
    71          6
    72          2
    73          1
    74          1
    75          3
    76          2
    77         31
    78          9
    79         27
    80          6
    81          3
    82          1
    83          5
    84          3
    85        245
    86         14
    87          5
    88          2
    89         43
    90        139
    91        999
    92        153
    93         16
    94          2
    95          2
    96          1
    97          3
    98          0
    99          1
   100          0
   101          0
   103          0
   104          1
   105          6
   106          4
   107        151
   108         44
   109          7
   110          1
   111          4
   112          0
   113          1
   115          1
   116          1
   117          2
   118          0
   119          2
   120          1
   121          4
   122          1
   123          2
   124          1
   125          1
   126          0
   127          0
   128          1
   129          1
   130          1
   131          2
   132          0
   133          1
   134          1
   135          0
   137          0
   138          1
   139         30
   140          7
   141          4
   142          1
   143          1
   144          0
   145          1
   146          0
   147          3
   148          1
   149          0
   151          0
   152          2
   153          2
   154         90
   155        673
   156         72
   157         44
   158          4
   159          6
   160          1
   161          1
   164          0
   165          4
   166          2
   167          2
   168          0
   169          1
   170          0
   171         19
   172         55
   173        183
   174         18
   175         10
   176         16
   177          2
   178          0
   179          1
   180          1
   181          3
   182          2
   183          1
   184          1
   185          1
   195          0
   197          1
   198          0
   199          4
   206          0
   211          1
   212          3
   213          3
   214          0
   225          0
   227          1
   238          0
   239          1
   240        121
   241        132
   242         24
   243          7
   244          1
   257          2
   261          2
   262         11
   263          2
   264          0
   325          0
   326          4
   327          2
   328          0
   344          2
   345          0
   384          0
   412         61
   413         15
   414          7
   415          1