##TITLE=Library Entry 45147
##JCAMP-DX=Revision 4.10 
##DATA TYPE=MASS SPECTRUM
##SAMPLE DESCRIPTION=Japan AIST/NIMC Database- Spectrum MS-NW-1065
##NAMES=HP
##CAS NAME=Ethane, 1,1,2-trimethoxy-
##MOLFORM=C5H12O3
##CAS REGISTRY NO=24332-20-5
##MP= -300
##BP= -300
##MW= 120
##$RETENTION INDEX=0
##$CONDENSED SPECTRUM=NO
##NPOINTS= 34
##XYDATA=(XY..XY) 1 
    14          6
    15         92
    16          2
    18          1
    26          3
    27         15
    28         26
    29         87
    30          9
    31        167
    32          8
    33          4
    41          3
    42         13
    43         78
    44          6
    45        150
    46          3
    47        193
    48          4
    57          2
    58         19
    59        171
    60          6
    61          1
    73         28
    74         13
    75        999
    76         33
    77          4
    88         33
    89        157
    90          7
   119          2