##TITLE=Library Entry 45620
##JCAMP-DX=Revision 4.10 
##DATA TYPE=MASS SPECTRUM
##SAMPLE DESCRIPTION=NIST Mass Spectrometry Data Center
##NAMES=HP
##CAS NAME=10-Undecenoic acid, TMS derivative
##MOLFORM=C14H28O2Si
##CAS REGISTRY NO=24338-09-8
##MP= -300
##BP= -300
##MW= 256
##$RETENTION INDEX=1542
##$CONDENSED SPECTRUM=NO
##NPOINTS= 176
##XYDATA=(XY..XY) 1 
    15          1
    26          2
    27         25
    28         11
    29         44
    30          1
    31          2
    39         78
    40         15
    41        235
    42         61
    43         62
    44         17
    45        103
    46          8
    47         60
    48          3
    49          2
    50          1
    51          5
    52          4
    53         43
    54         49
    55        347
    56         35
    57         19
    58         27
    59         38
    60         12
    61         78
    62          6
    63          4
    64          1
    65          8
    66          6
    67         92
    68         32
    69         72
    70         13
    71         13
    72         57
    73        972
    74        123
    75        999
    76         78
    77         54
    78          6
    79         43
    80         18
    81        100
    82         50
    83         63
    84         85
    85         25
    86         17
    87         10
    88         11
    89         23
    90          5
    91         17
    92          6
    93         34
    94         19
    95         62
    96        104
    97         67
    98         85
    99         33
   100          3
   101         23
   102          4
   103          6
   105         36
   106          9
   107         34
   108         10
   109         28
   110         26
   111         23
   112          7
   113          4
   114          2
   115         10
   116         92
   117        979
   118        105
   119         63
   120          8
   121          6
   122         31
   123         50
   124        115
   125         27
   126          2
   127          4
   129        564
   130         79
   131        212
   132        235
   133         49
   134         11
   135          4
   137         35
   138         31
   139          6
   140          1
   141          6
   142          7
   143         33
   144          6
   145        221
   146         32
   147         16
   148         25
   149          6
   150          1
   151          7
   152          1
   153          2
   155         22
   156          7
   157         18
   158          6
   159         28
   160          7
   161          2
   165          2
   166         54
   167          9
   168          3
   169          8
   170          5
   171         23
   172          7
   173         17
   174         11
   175          2
   181          4
   182          1
   183          8
   184          2
   185         25
   186          8
   187          8
   188          9
   189          2
   190          1
   195          1
   197          9
   198          2
   199         38
   200          9
   201          9
   202          1
   203          1
   205          1
   211          4
   212          2
   213         17
   214          5
   215          6
   216          1
   223          4
   224          1
   225          4
   226          1
   227          6
   228          1
   241        788
   242        162
   243         44
   244          5
   255          1
   256          4
   257          3
   258          1