##TITLE=Library Entry 90980
##JCAMP-DX=Revision 4.10 
##DATA TYPE=MASS SPECTRUM
##SAMPLE DESCRIPTION=James Little,Eastman Chem.Co.,Kingsport,TN
##NAMES=HP
##CAS NAME=N,N-Dimethylpivalamide
##MOLFORM=C7H15NO
##CAS REGISTRY NO=24331-71-3
##MP= -300
##BP= -300
##MW= 129
##$RETENTION INDEX=1023
##$CONDENSED SPECTRUM=NO
##NPOINTS= 37
##XYDATA=(XY..XY) 1 
    26         18
    27        130
    29         64
    30        119
    39         74
    41        162
    42        202
    43        161
    44        217
    45         19
    54         18
    55         16
    56         89
    57         16
    58         54
    68         18
    69         11
    70        123
    71         35
    72        903
    73         49
    83          4
    84         50
    85         10
    86         79
    87          5
    98         17
    99          9
   100          5
   112          7
   113          6
   114        999
   115        111
   116          4
   128         20
   129        290
   130         29