##TITLE=Library Entry 62643
##JCAMP-DX=Revision 4.10 
##DATA TYPE=MASS SPECTRUM
##SAMPLE DESCRIPTION=Chemical Concepts
##NAMES=HP
##CAS NAME=N-Cyclohexylbis(4-methylphenylsulfonyl)imide
##MOLFORM=C20H25NO4S2
##CAS REGISTRY NO=24332-43-2
##MP= -300
##BP= -300
##MW= 407
##$RETENTION INDEX=0
##$CONDENSED SPECTRUM=NO
##NPOINTS= 261
##XYDATA=(XY..XY) 1 
    26          1
    27         19
    28         15
    29         24
    30          9
    31          3
    36          2
    37          0
    38          3
    39         80
    40         10
    41        136
    42         35
    43         19
    44          5
    45          9
    46          1
    47          1
    48          2
    49          0
    50          8
    51         26
    52          9
    53         18
    54         29
    55        102
    56         16
    57         10
    58          1
    59          1
    60          1
    61          1
    62          6
    63         36
    64         15
    65        272
    66         20
    67         40
    68         22
    69         35
    70         12
    71          6
    72          0
    73          1
    74          3
    75          3
    76          3
    77         41
    78         16
    79         30
    80         10
    81         77
    82         22
    83         12
    84          2
    85          3
    86          0
    87          2
    88          1
    89         48
    90         38
    91        999
    92        150
    93         12
    94          3
    95          6
    96         65
    97         32
    98         16
    99          2
   100          0
   101          0
   102          1
   103          2
   104          5
   105         33
   106         41
   107         27
   108         29
   109          3
   110          1
   111         10
   112          9
   113          2
   114          1
   115          3
   116          1
   117          5
   118         16
   119          4
   120          4
   121          3
   122          3
   123         11
   124          3
   125          2
   126          1
   127          1
   128          2
   129          2
   130          2
   131          6
   132         56
   133         24
   134          3
   135          1
   136          1
   137          1
   138          3
   139        153
   140         23
   141          9
   142          2
   143          2
   144          7
   145          6
   146          4
   147          1
   148          1
   149          9
   150          1
   151          1
   152          3
   153          2
   154         55
   155        829
   156         86
   157         71
   158          7
   159          3
   160          2
   161         23
   162          3
   163          1
   164          1
   165          6
   166          4
   167          5
   168          3
   169          1
   170          1
   171          2
   172         62
   173          6
   174          4
   175          1
   176          1
   177          1
   178          1
   179          1
   180          2
   181          6
   182          3
   183          1
   184         38
   185          4
   186          5
   187         16
   188        246
   189         40
   190          3
   191          1
   193          1
   194          1
   195          1
   196          4
   197          4
   198         18
   199          2
   200          1
   201          0
   202          1
   203          1
   204          3
   205          1
   206          1
   210         18
   211          2
   212          3
   213          1
   214          1
   217          1
   218          1
   219          1
   220          1
   221          0
   222          1
   223          8
   224          3
   225         31
   226          4
   227          2
   228          1
   235          3
   236        164
   237         26
   238         10
   239          1
   244          0
   245          1
   246          0
   247          1
   250          1
   251          2
   252        597
   253        104
   254         39
   255          5
   256          1
   261         12
   262          2
   263          1
   264          0
   266          1
   267          0
   268          0
   269          0
   279          5
   280          1
   286          1
   287         70
   288         14
   289          5
   290          1
   291          1
   292          0
   293          0
   294          1
   300         30
   301          6
   302          2
   308         49
   309          9
   310          5
   311          1
   324          0
   325          0
   326         37
   327          7
   328          4
   329          0
   338          2
   339          0
   340          0
   343         90
   344         22
   345          7
   346          1
   351          3
   352          1
   364         14
   365          3
   366          2
   367          1
   368          0
   405          0
   406          0
   407         79
   408         20
   409          9
   410          1