##TITLE=Library Entry 44746
##JCAMP-DX=Revision 4.10 
##DATA TYPE=MASS SPECTRUM
##SAMPLE DESCRIPTION=NIST Mass Spectrometry Data Center
##NAMES=HP
##CAS NAME=Tricosanoic acid, methyl ester
##MOLFORM=C24H48O2
##CAS REGISTRY NO=2433-97-8
##MP= -300
##BP= -300
##MW= 368
##$RETENTION INDEX=2628
##$CONDENSED SPECTRUM=NO
##NPOINTS= 180
##XYDATA=(XY..XY) 1 
    15          4
    26          1
    27         16
    28          6
    29         58
    30          2
    31          2
    33          1
    38          1
    39         19
    40          5
    41        199
    42         47
    43        415
    44         15
    45          8
    51          1
    52          1
    53         12
    54         21
    55        302
    56         65
    57        291
    58         18
    59         70
    60          4
    61          3
    65          2
    66          2
    67         39
    68         21
    69        187
    70         38
    71        121
    72          8
    73         24
    74        999
    75        327
    76         14
    77          3
    78          1
    79         10
    80          4
    81         38
    82         18
    83        134
    84         44
    85         67
    87        775
    88         63
    89          5
    91          2
    92          1
    93          9
    94          3
    95         34
    96         16
    97        115
    98         44
    99         14
   100          3
   101         69
   102          7
   103          1
   105          1
   107          9
   108          2
   109         19
   110          8
   111         49
   112         12
   113          8
   114          2
   115         28
   116         15
   117          1
   119          1
   121         13
   122          2
   123         11
   124          4
   125         24
   126          4
   127          4
   129         88
   130         25
   131          2
   133          1
   135         12
   136          2
   137          5
   138          3
   139         13
   140          3
   141          3
   143        264
   144         25
   145          2
   149          8
   150          1
   151          2
   152          2
   153          7
   154          2
   155          1
   157         24
   158          4
   163          5
   164          1
   165          1
   166          1
   167          4
   168          1
   169          1
   171         14
   172          4
   177          2
   180          1
   181          3
   182          1
   183          1
   185         34
   186          7
   187          1
   191          2
   194          1
   195          2
   196          1
   199         48
   200          7
   201          1
   205          1
   209          1
   210          1
   213         16
   214          3
   219          1
   223          1
   224          1
   227         12
   228          3
   233          1
   237          1
   238          1
   241         12
   242          3
   251          1
   255         15
   256          4
   257          1
   265          1
   269         37
   270          7
   271          1
   283         21
   284          4
   285          1
   292          1
   293          1
   294          1
   297          7
   298          2
   311         14
   312          4
   313          1
   319          1
   325         90
   326         21
   327          3
   334          1
   335          1
   336          1
   337         22
   338          5
   339         14
   340          4
   368        179
   369         47
   370          7
   371          1