##TITLE=Library Entry 6627
##JCAMP-DX=Revision 4.10 
##DATA TYPE=MASS SPECTRUM
##SAMPLE DESCRIPTION=Div. of Experiment Therapeutics WRAIR, WRAMC, Washingto
n DC 20307
##NAMES=HP
##CAS NAME=Di-isopropyl thionophosphoraziridine
##MOLFORM=C8H18NO2PS
##CAS REGISTRY NO=2433-83-2
##MP= -300
##BP= -300
##MW= 223
##$RETENTION INDEX=0
##$CONDENSED SPECTRUM=NO
##NPOINTS= 119
##XYDATA=(XY..XY) 1 
    42        665
    43        999
    44        192
    46         75
    47         74
    48         13
    49          7
    50          0
    51          0
    53          0
    54          1
    55          2
    56          5
    57          4
    59         50
    61         15
    63         57
    65         94
    67          0
    68          2
    70         21
    72          4
    73          8
    74         64
    75        262
    77         43
    79         23
    80         14
    81          6
    83          8
    84         38
    85          7
    86          0
    87          1
    88          6
    90        282
    91          4
    93         18
    94          5
    95          8
    97         97
    98         73
    99          4
   100          1
   101          0
   104         25
   106         89
   107         38
   108          3
   110         13
   112         27
   114          8
   115         16
   117         10
   118          0
   120          2
   121          3
   122        251
   123         40
   124         16
   126          6
   128          0
   130          0
   132         78
   134          0
   136          1
   138          8
   139        266
   140        433
   142         24
   144          1
   146          0
   148         46
   149          5
   150          0
   152          5
   153          1
   154          5
   157          4
   158          1
   160          2
   162          1
   164         47
   166         40
   167          2
   168          2
   169          0
   176          1
   178          1
   180          9
   181         31
   182         98
   183          3
   184          4
   185          2
   186          1
   188          0
   190          2
   192          0
   194          5
   196          0
   198          0
   199          0
   200          0
   202          1
   203          0
   204          0
   208          3
   211          0
   213          0
   216          0
   217          0
   220          3
   221          1
   222          1
   223        247
   224         75
   225         15
   226          3