##TITLE=Library Entry 27617
##JCAMP-DX=Revision 4.10 
##DATA TYPE=MASS SPECTRUM
##SAMPLE DESCRIPTION=NIST Mass Spectrometry Data Center
##NAMES=HP
##CAS NAME=Methyl 2-hydroxy-tetracosanoate
##MOLFORM=C25H50O3
##CAS REGISTRY NO=2433-95-6
##MP= -300
##BP= -300
##MW= 398
##$RETENTION INDEX=2868
##$CONDENSED SPECTRUM=NO
##NPOINTS= 175
##XYDATA=(XY..XY) 1 
    27         12
    29         72
    30          3
    31          8
    33         32
    39         28
    40          5
    41        357
    42         78
    43        718
    44         66
    45         26
    53         26
    54         59
    55        683
    56        134
    57        999
    58         61
    59         46
    60          6
    61         27
    65          6
    66         29
    67        304
    68        168
    69        780
    70        127
    71        662
    72         37
    73         13
    74         34
    75         12
    76         22
    79         33
    80         21
    81        323
    82        299
    83        769
    84         96
    85        389
    86         33
    87         82
    88         21
    89         27
    90        515
    91         21
    92          7
    93         25
    94         18
    95        348
    96        234
    97        860
    98        134
    99        134
   100         30
   101         31
   102          7
   103        214
   107         13
   108         12
   109        218
   110         98
   111        561
   112         63
   113        236
   114         58
   115         17
   116          6
   121         10
   122         10
   123        115
   124         63
   125        257
   126         37
   127        283
   128         30
   129         18
   130          5
   131          8
   132         32
   133          9
   137         55
   138         66
   139        101
   140         16
   141         81
   142         17
   143         20
   145        152
   146         18
   147          8
   151         26
   152         24
   153         52
   154          9
   155         25
   156         43
   157         14
   159         62
   165         10
   166          7
   167         28
   168          7
   169         20
   170         19
   179          6
   180          8
   181         19
   185          6
   195         12
   196          4
   197          6
   199          8
   211          8
   212          5
   213          6
   222         11
   223          7
   225          7
   226          6
   227          6
   236          8
   237          5
   238         10
   239         10
   241          5
   250          5
   251          8
   252         11
   255          8
   264          9
   265          6
   267          5
   269          5
   278          9
   283          6
   284          8
   291          4
   292         14
   293          5
   294         27
   295          9
   297         10
   305          5
   307          5
   308          3
   309          4
   319          4
   320         97
   321         28
   322         12
   323          5
   324          3
   325          9
   326          5
   337         13
   338         10
   339        686
   340        175
   341         20
   348          9
   349          2
   351          2
   353         41
   354         10
   366         49
   367         15
   368         13
   369          5
   380          9
   381          3
   398        936
   399        238
   400         36
   401          4