##TITLE=Library Entry 11987
##JCAMP-DX=Revision 4.10 
##DATA TYPE=MASS SPECTRUM
##SAMPLE DESCRIPTION=Chemical Concepts
##NAMES=HP
##CAS NAME=2-Acetyltridecanoic acid, ethyl ester
##MOLFORM=C17H32O3
##CAS REGISTRY NO=24346-55-2
##MP= -300
##BP= -300
##MW= 284
##$RETENTION INDEX=0
##$CONDENSED SPECTRUM=NO
##NPOINTS= 195
##XYDATA=(XY..XY) 1 
    25          1
    26          7
    27         93
    28         21
    29        253
    30          6
    31          8
    32          1
    37          0
    38          1
    39         39
    40          9
    41        263
    42         46
    43        999
    44         27
    45         29
    46          1
    47          1
    50          1
    51          3
    52          2
    53         20
    54         22
    55        271
    56         41
    57        112
    58         59
    59         23
    60         17
    61         18
    62          0
    63          0
    64          0
    65          4
    66          3
    67         36
    68         22
    69         93
    70         39
    71         96
    72          7
    73        271
    74         17
    75          3
    76          0
    77          6
    78          4
    79         14
    80          8
    81         32
    82         18
    83         62
    84         67
    85         68
    86         20
    87         29
    88        118
    89         20
    90          1
    91          3
    92          1
    93          9
    94          5
    95         25
    96         15
    97        109
    98         72
    99         18
   100          5
   101        485
   102        136
   103         26
   104          2
   105          2
   106          1
   107          8
   108          4
   109         12
   110          9
   111         32
   112         19
   113         15
   114          8
   115         83
   116         10
   117          2
   118          0
   119          1
   120          0
   121          9
   122          6
   123          6
   124          5
   125         14
   126         22
   127          6
   128          2
   129         18
   130        794
   131        149
   132         15
   133          3
   134          0
   135          5
   136          1
   137          3
   138          1
   139         11
   140         20
   141          4
   142          5
   143        257
   144         30
   145          4
   147          1
   149          4
   150          2
   151          2
   152          5
   153          6
   154          8
   155          4
   156          8
   157        121
   158         14
   159          1
   160          0
   161          0
   162          0
   163          2
   164          1
   165          1
   166          0
   167          3
   168          6
   169          3
   170          1
   171         22
   172          8
   173          1
   175          0
   177          8
   178          2
   179          2
   180          0
   181          1
   182          1
   183          0
   184          0
   185         19
   186         12
   187          1
   188          0
   191          1
   192          2
   193          4
   194          2
   195          7
   196          8
   197         17
   198          2
   199         82
   200         15
   201          1
   203          1
   205          1
   207          0
   209          1
   210          1
   211          1
   212          1
   213         30
   214          4
   215          0
   219          0
   220          1
   221          1
   223          2
   228          1
   237          1
   238          3
   239         35
   240          6
   241          8
   242        197
   243         35
   244          3
   266          1
   269          2
   270          0
   283          0
   284         11
   285          8
   286          1