##TITLE=Library Entry 16854
##JCAMP-DX=Revision 4.10 
##DATA TYPE=MASS SPECTRUM
##SAMPLE DESCRIPTION=Japan AIST/NIMC Database- Spectrum MS-NW-6416
##NAMES=HP
##CAS NAME=2,3-Butanediol, [R-(R*,R*)]-
##MOLFORM=C4H10O2
##CAS REGISTRY NO=24347-58-8
##MP= -300
##BP= -300
##MW= 90
##$RETENTION INDEX=1556
##$CONDENSED SPECTRUM=NO
##NPOINTS= 44
##XYDATA=(XY..XY) 1 
    13          1
    14          8
    15         35
    16          2
    17          2
    18          8
    25          1
    26         11
    27         82
    28         46
    29         71
    30          4
    31         21
    37          1
    38          2
    39         10
    40          1
    41         15
    42         13
    43        104
    44         45
    45        999
    46         34
    47         51
    48          1
    49          1
    50          2
    51          1
    53          3
    54          1
    55         20
    56          4
    57         89
    58          4
    59          1
    60          2
    71          5
    72          9
    73          4
    74          1
    75         28
    76          1
    89          1
    90          9