##TITLE=Library Entry 90990
##JCAMP-DX=Revision 4.10 
##DATA TYPE=MASS SPECTRUM
##SAMPLE DESCRIPTION=NIST Mass Spectrometry Data Center
##NAMES=HP
##CAS NAME=5-Isothiazolamine, 3-methyl-
##MOLFORM=C4H6N2S
##CAS REGISTRY NO=24340-76-9
##MP= -300
##BP= -300
##MW= 114
##$RETENTION INDEX=0
##$CONDENSED SPECTRUM=NO
##NPOINTS= 73
##XYDATA=(XY..XY) 1 
    14          2
    15         10
    18          1
    25          2
    26         11
    27         23
    28         79
    29         29
    30          9
    32         14
    33          5
    34          2
    37         13
    38         35
    39         88
    40         54
    41         80
    42        103
    43         12
    44          7
    45         88
    46        222
    47         26
    48         14
    49          9
    50          5
    51         17
    52         29
    53         10
    54         40
    55         13
    56          4
    57         28
    58          8
    59         12
    60         47
    61          3
    62          3
    63          2
    64          4
    65          9
    66        124
    67         22
    68         27
    69          9
    70         14
    71         21
    72         33
    73        282
    74        134
    75         19
    76          6
    77          1
    79          2
    80          2
    81         16
    82          6
    83          8
    84          3
    85          3
    86         19
    87         59
    88          3
    89          2
    96          2
    97          7
    98          7
    99         15
   113         14
   114        999
   115         62
   116         44
   117          2