##TITLE=Library Entry 73138
##JCAMP-DX=Revision 4.10 
##DATA TYPE=MASS SPECTRUM
##SAMPLE DESCRIPTION=D.G.ROWSELL WILKINSON SWORD, SLOUGH, UK
##NAMES=HP
##CAS NAME=Thietane, hexafluoro-
##MOLFORM=C3F6S
##CAS REGISTRY NO=24345-51-5
##MP= -300
##BP= -300
##MW= 182
##$RETENTION INDEX=0
##$CONDENSED SPECTRUM=NO
##NPOINTS= 10
##XYDATA=(XY..XY) 1 
    31        140
    50         50
    63        390
    69        110
    82        150
   100        999
   113        150
   119         20
   163         80
   182        290