##TITLE=Library Entry 83071
##JCAMP-DX=Revision 4.10 
##DATA TYPE=MASS SPECTRUM
##SAMPLE DESCRIPTION=NIST Mass Spectrometry Data Center
##NAMES=HP
##CAS NAME=(Z)-sec-Butyl propenyl disulfide
##MOLFORM=C7H14S2
##CAS REGISTRY NO=24351-70-0
##MP= -300
##BP= -300
##MW= 162
##$RETENTION INDEX=1149
##$CONDENSED SPECTRUM=NO
##NPOINTS= 76
##XYDATA=(XY..XY) 1 
    26          2
    27         22
    28          3
    29         61
    30          1
    32          1
    33          1
    34          1
    35          3
    37          3
    38          8
    39        131
    40         10
    41        290
    42         14
    43          1
    44          3
    45        171
    46         11
    47         37
    48          1
    49          2
    50          3
    51          5
    52          1
    53         12
    54          2
    55         37
    56          8
    57        180
    58         37
    59         95
    60         30
    61         68
    62          3
    63          3
    64         80
    65          5
    66         12
    67          1
    68          2
    69         11
    70          2
    71         62
    72        111
    73         96
    74         18
    75          5
    76          1
    77          2
    78         92
    79          5
    80          9
    85          2
    87          5
    88          2
    89          4
    90          1
    91          2
    93          1
    99          2
   103          9
   104          2
   105         48
   106        999
   107         56
   108         96
   109          4
   110          2
   133          2
   161          1
   162        554
   163         50
   164         53
   165          4
   166          1