##TITLE=Library Entry 33145
##JCAMP-DX=Revision 4.10 
##DATA TYPE=MASS SPECTRUM
##SAMPLE DESCRIPTION=Chemical Concepts
##NAMES=HP
##CAS NAME=1,3-Cyclopentanedicarboxylic acid, dimethyl ester
##MOLFORM=C9H14O4
##CAS REGISTRY NO=2435-36-1
##MP= -300
##BP= -300
##MW= 186
##$RETENTION INDEX=0
##$CONDENSED SPECTRUM=NO
##NPOINTS= 68
##XYDATA=(XY..XY) 1 
    26         16
    27        154
    29         66
    30         14
    31         28
    33         17
    38         26
    39        258
    40         80
    41        330
    42         38
    43         31
    44         23
    45         66
    48         19
    50         10
    51         20
    52         12
    53         66
    54         17
    55        399
    56         22
    57         14
    58          7
    59        357
    60         12
    61         18
    62         10
    63         16
    64         11
    65         84
    66        426
    67        999
    68        196
    69         64
    70         10
    79         14
    81         17
    82          9
    83         18
    84         10
    85         18
    87        105
    88         10
    93         22
    94         57
    95        376
    96         49
    97         21
    98         56
    99         26
   100        278
   101        130
   102         12
   109         10
   111         91
   112         12
   113         24
   125         17
   126        615
   127        296
   128         31
   154        278
   155        392
   156         59
   157          8
   186         24
   187          2