##TITLE=Library Entry 4416
##JCAMP-DX=Revision 4.10 
##DATA TYPE=MASS SPECTRUM
##SAMPLE DESCRIPTION=Philip Morris R&D
##NAMES=HP
##CAS NAME=3-Cyano-2,5-dimethylpyrazine
##MOLFORM=C7H7N3
##CAS REGISTRY NO=2435-47-4
##MP= -300
##BP= -300
##MW= 133
##$RETENTION INDEX=0
##$CONDENSED SPECTRUM=NO
##NPOINTS= 21
##XYDATA=(XY..XY) 1 
    37        107
    38        188
    39        240
    40        192
    41         69
    42        999
    43         28
    44         49
    49         39
    51         42
    52         47
    63         28
    64         90
    65        179
    66         10
    73          5
    81        134
    84         17
   106         20
   133        215
   134         10