##TITLE=Library Entry 83072
##JCAMP-DX=Revision 4.10 
##DATA TYPE=MASS SPECTRUM
##SAMPLE DESCRIPTION=NIST Mass Spectrometry Data Center
##NAMES=HP
##CAS NAME=(E)-sec-Butyl propenyl disulfide
##MOLFORM=C7H14S2
##CAS REGISTRY NO=24351-71-1
##MP= -300
##BP= -300
##MW= 162
##$RETENTION INDEX=1182
##$CONDENSED SPECTRUM=NO
##NPOINTS= 75
##XYDATA=(XY..XY) 1 
    26          2
    27         20
    28          3
    29         59
    30          1
    32          1
    33          1
    35          3
    37          2
    38          6
    39        108
    40          8
    41        267
    42         13
    43          1
    44          2
    45        150
    46         10
    47         29
    48          1
    49          2
    50          3
    51          4
    52          1
    53         11
    54          2
    55         33
    56          7
    57        160
    58         34
    59         89
    60         28
    61         75
    62          3
    63          3
    64         82
    65          6
    66         12
    67          1
    68          2
    69         13
    70          3
    71         58
    72        100
    73         99
    74         18
    75          6
    76          1
    77          2
    78         87
    79          4
    80          8
    85          1
    87          4
    88          3
    89          5
    90          1
    91          2
    99          4
   101          1
   103          8
   104          1
   105         39
   106        999
   107         53
   108         95
   109          3
   110          2
   133          2
   161          1
   162        528
   163         48
   164         51
   165          4
   166          1