##TITLE=Library Entry 2167
##JCAMP-DX=Revision 4.10 
##DATA TYPE=MASS SPECTRUM
##SAMPLE DESCRIPTION=A.Swigar, R.Silverstein, Monoterpenes,1981
##NAMES=HP
##CAS NAME=1,6-Octadiene, 3,7-dimethyl-
##MOLFORM=C10H18
##CAS REGISTRY NO=2436-90-0
##MP= -300
##BP= -300
##MW= 138
##$RETENTION INDEX=946
##$CONDENSED SPECTRUM=NO
##NPOINTS= 46
##XYDATA=(XY..XY) 1 
    37          9
    38         34
    39        693
    40        103
    41        999
    42         74
    43         63
    44          7
    50         33
    51         94
    52         55
    53        284
    54         82
    55        396
    56         36
    57         15
    60          3
    62         15
    63         34
    64         14
    65         96
    66         43
    67        414
    68         75
    69        113
    70         14
    77         96
    78         17
    79         96
    80         15
    81        286
    82        125
    83         43
    91         55
    92         17
    93         26
    94         19
    95         77
    96         46
    97         22
   105         15
   107         19
   109         26
   110         15
   123         17
   138         17