##TITLE=Library Entry 70790
##JCAMP-DX=Revision 4.10 
##DATA TYPE=MASS SPECTRUM
##SAMPLE DESCRIPTION=V.G.Zaikin, TIPS, Russian Acad. Sci.
##NAMES=HP
##CAS NAME=1,5-Di(1-piperidinyl)pentane
##MOLFORM=C15H30N2
##CAS REGISTRY NO=24362-44-5
##MP= -300
##BP= -300
##MW= 238
##$RETENTION INDEX=0
##$CONDENSED SPECTRUM=NO
##NPOINTS= 59
##XYDATA=(XY..XY) 1 
    36         28
    38         14
    39         39
    40         28
    41        218
    42        153
    43         75
    45         84
    51          9
    53         17
    54         20
    55        138
    56         46
    57         36
    58         14
    59         12
    67         18
    68         24
    69         48
    70         32
    71         15
    72          8
    73         12
    75          6
    77          6
    79         10
    80          8
    81         12
    82         22
    83         33
    84         89
    85         28
    86         15
    94          8
    95         10
    96         51
    97         41
    98        999
    99        112
   109          5
   110         46
   111         30
   112         17
   113         17
   122          8
   123        181
   124         26
   125         10
   138         19
   140         51
   150          7
   151         10
   152         20
   153         38
   154         98
   155         11
   237          3
   238         23
   239          4