##TITLE=Library Entry 14874
##JCAMP-DX=Revision 4.10 
##DATA TYPE=MASS SPECTRUM
##SAMPLE DESCRIPTION=Japan AIST/NIMC Database- Spectrum MS-NW-2865
##NAMES=HP
##CAS NAME=Cholesterol margarate
##MOLFORM=C44H78O2
##CAS REGISTRY NO=24365-37-5
##MP= -300
##BP= -300
##MW= 638
##$RETENTION INDEX=0
##$CONDENSED SPECTRUM=NO
##NPOINTS= 339
##XYDATA=(XY..XY) 1 
    14          3
    15          9
    16          2
    17          2
    18          7
    25          2
    26         15
    27        150
    28         46
    29        291
    30          8
    31          4
    32          4
    36          1
    37          2
    38          5
    39        117
    40         26
    41        677
    42        124
    43        999
    44         33
    45         17
    49          1
    50          5
    51         15
    52          9
    53         82
    54         80
    55        772
    56        200
    57        856
    58         40
    59         15
    60        391
    61        117
    62          6
    63          6
    64          2
    65         36
    66         21
    67        334
    68        118
    69        544
    70        157
    71        449
    72         26
    73        463
    74         35
    75          5
    76          3
    77         91
    78         36
    79        232
    80         80
    81        651
    82        146
    83        430
    84        213
    85        204
    86         13
    87         71
    88          7
    89          6
    90          3
    91        294
    92         99
    93        332
    94        110
    95        456
    96        101
    97        305
    98        715
    99         81
   100          9
   101         38
   102         15
   103         21
   104         32
   105        382
   106        181
   107        425
   108        161
   109        290
   110         58
   111        204
   112        152
   113         47
   114          9
   115        103
   116         45
   117        129
   118         93
   119        211
   120        250
   121        405
   122         94
   123        134
   124         31
   125         65
   126         23
   127         30
   128         58
   129        249
   130         60
   131        207
   132         59
   133        245
   134         81
   135        256
   136         52
   137         64
   138         17
   139         27
   140         12
   141         67
   142         55
   143        209
   144         92
   145        497
   146        182
   147        567
   148        143
   149        161
   150         23
   151         45
   152         17
   153         19
   154         11
   155         39
   156         27
   157        117
   158        110
   159        255
   160        191
   161        213
   162         61
   163        111
   164         17
   165         37
   166         15
   167         15
   168          9
   169         21
   170         13
   171        113
   172         40
   173         89
   174         42
   175         63
   176         17
   177         36
   178         10
   179         24
   180         10
   181         14
   182          9
   183         20
   184         11
   185        115
   186         31
   187         42
   188         12
   189         24
   190          7
   191         40
   192         14
   193         48
   194         12
   195         17
   196          9
   197         44
   198         17
   199         86
   200         43
   201         74
   202         19
   203         14
   204          8
   205         65
   206         61
   207         32
   208         23
   209         13
   210         11
   211         44
   212         25
   213        244
   214         71
   215         60
   216         21
   217         15
   218          9
   219         32
   220         11
   221          9
   222          5
   223          6
   224          5
   225          8
   226         12
   227        122
   228         82
   229         48
   230         15
   231         16
   232          9
   233         14
   234          9
   235          9
   236          3
   237         11
   238          5
   239         13
   240          7
   241         42
   242         12
   243         11
   244          7
   245         43
   246         51
   247        389
   248         92
   249         14
   250          8
   251         10
   252          9
   253         42
   254         18
   255        292
   256         67
   257         26
   258         13
   259         36
   260        216
   261         77
   262         15
   263          4
   264          1
   265          2
   266          1
   267          4
   268          2
   269          5
   270        115
   271         27
   272          6
   273         11
   274         24
   275         22
   276          6
   277          5
   278          1
   279          2
   280          1
   281          6
   282          5
   283         28
   284         11
   285          6
   286          3
   287          7
   288          4
   289          2
   290          1
   294          1
   295          2
   296          6
   297          7
   298          5
   299          5
   300          3
   301          7
   302          2
   309          1
   310          1
   311          5
   312          4
   313          6
   314         24
   315          7
   316          3
   317          1
   324          1
   325          5
   326         23
   327          9
   328          3
   329          1
   330          1
   331          1
   333          1
   335          1
   336          1
   337          2
   338          1
   339          6
   340          6
   341          3
   342          2
   343          1
   344          2
   345          1
   346          3
   347          2
   348          6
   349          4
   350          8
   351         10
   352         11
   353        174
   354         51
   355         17
   356          5
   357          2
   358          2
   359          1
   360          3
   361          1
   362          6
   363          3
   364          8
   365          5
   366         39
   367         23
   368        863
   369        288
   370         60
   371          9
   372          1
   380          8
   381          4
   382          5
   383          2
   384          1
   386          1
   394          1
   396          3
   397          1