##TITLE=Library Entry 36081
##JCAMP-DX=Revision 4.10 
##DATA TYPE=MASS SPECTRUM
##SAMPLE DESCRIPTION=Organic Synthesis Lab, MSU, Moscow.TRC 526
##NAMES=HP
##CAS NAME=17.beta.-Hydroxy-5.alpha.-androstan-3-one oxime
##MOLFORM=C19H31NO2
##CAS REGISTRY NO=2436-48-8
##MP= -300
##BP= -300
##MW= 305
##$RETENTION INDEX=0
##$CONDENSED SPECTRUM=NO
##NPOINTS= 248
##XYDATA=(XY..XY) 1 
    27         56
    29        152
    30         51
    31         26
    33         28
    35          4
    36         31
    37          1
    38         12
    39         66
    40         24
    41        457
    42         63
    43        235
    44         21
    45         19
    46          4
    50          2
    51         10
    52          9
    53        146
    54         81
    55        384
    56         67
    57         76
    58         20
    59          5
    60          9
    61          2
    63          2
    64          1
    65         51
    66         28
    67        331
    68        112
    69        999
    70        331
    71         61
    72          8
    73         28
    74          6
    75          1
    77        136
    78         31
    79        291
    80         91
    81        341
    82         97
    83         54
    84         23
    85         18
    86         41
    87         19
    88          5
    89          2
    90          1
    91        216
    92         45
    93        277
    94        114
    95        211
    96        103
    97         47
    98         34
    99         19
   100          9
   101          5
   102          2
   103         14
   104         13
   105        172
   106         70
   107        196
   108        162
   109        159
   110         95
   111         50
   112        678
   113         66
   114         12
   115         16
   116         10
   117         43
   118         26
   119        112
   120         69
   121        153
   122        151
   123        225
   124         70
   125         51
   126         52
   127         10
   128         11
   129         21
   130         14
   131         59
   132         32
   133         82
   134         58
   135         70
   136         61
   137         35
   138         49
   139        135
   140         38
   141          9
   142          8
   143         36
   144         16
   145         62
   146         35
   147         74
   148         50
   149         45
   150         25
   151         25
   152         33
   154          4
   155          7
   156          5
   157         28
   158         21
   159         52
   160         42
   161         60
   162         89
   163         38
   164         28
   165         10
   166         23
   167          7
   168          2
   169          6
   170          4
   171         24
   172         19
   173         54
   174         42
   175         39
   176         48
   177         37
   178        136
   179         44
   180         26
   181          5
   182          2
   183          7
   184          6
   185         18
   186         18
   187         35
   188         34
   189         26
   190         26
   191         21
   192         16
   193         13
   194         22
   195         10
   196          2
   197          8
   198          6
   199         20
   200         22
   201         29
   202         28
   203         22
   204         17
   205         13
   206         10
   207          4
   208          2
   209          1
   210          1
   211          7
   212          7
   213         37
   214         28
   215         28
   216         37
   217         21
   218         28
   219         29
   220         20
   221          4
   222          1
   225          2
   226          5
   227          9
   228         39
   229         18
   230        382
   231        103
   232        172
   233         44
   234         12
   235          3
   236          4
   237          2
   238          1
   239          4
   240          3
   241          3
   242         11
   243         10
   244         67
   245         75
   246        501
   247         99
   248        127
   249         24
   250          4
   253          7
   254         12
   255          8
   256         26
   257         11
   258          9
   259          8
   260         66
   261        108
   262         34
   263          6
   264          1
   268          1
   269          2
   270         29
   271         37
   272         76
   273         18
   274        174
   275         36
   276         15
   277          9
   278          2
   285          1
   286          9
   287         50
   288        143
   289        502
   290        218
   291         34
   292          4
   303          4
   304          5
   305        601
   306        118