##TITLE=Library Entry 7145
##JCAMP-DX=Revision 4.10 
##DATA TYPE=MASS SPECTRUM
##SAMPLE DESCRIPTION=Japan AIST/NIMC Database- Spectrum MS-NW-5129
##NAMES=HP
##CAS NAME=1-Tridecene
##MOLFORM=C13H26
##CAS REGISTRY NO=2437-56-1
##MP= -300
##BP= -300
##MW= 182
##$RETENTION INDEX=1292
##$CONDENSED SPECTRUM=NO
##NPOINTS= 95
##XYDATA=(XY..XY) 1 
    14          1
    15          7
    26          8
    27        198
    28         14
    29        376
    30          8
    35          3
    36         23
    37          1
    38          8
    39        183
    40         30
    41        829
    42        238
    43        999
    44         33
    50          3
    51          9
    52          7
    53         69
    54        146
    55        912
    56        751
    57        761
    58         34
    59          1
    63          2
    64          1
    65          9
    66         16
    67        148
    68        149
    69        734
    70        712
    71        262
    72         15
    77          8
    78          3
    79         15
    80          9
    81         88
    82        184
    83        670
    84        400
    85        144
    86          9
    91          4
    92          1
    93          4
    94          5
    95         45
    96         92
    97        471
    98        243
    99         26
   100          2
   105          2
   106          1
   107          2
   108          2
   109         18
   110         40
   111        194
   112        128
   113         13
   119          1
   120          1
   121          2
   122          1
   123          6
   124         13
   125         66
   126         51
   127          8
   133          1
   135          1
   136          1
   137          3
   138          7
   139         21
   140         37
   141          5
   145          1
   149          1
   151          2
   152          4
   153          9
   154         38
   155          5
   165          1
   178          1
   180          4
   182         47
   183          6