##TITLE=Library Entry 51285
##JCAMP-DX=Revision 4.10 
##DATA TYPE=MASS SPECTRUM
##SAMPLE DESCRIPTION=C.J.W.BROOKS CHEM. DEPT., THE UNIVERSITY GLASGOW, U.K.
##NAMES=HP
##CAS NAME=Cyclohexanecarboxylic acid, 2-hydroxy-, monoanhydride with 1-buta
neboronic acid, cyclic ester, cis-
##MOLFORM=C11H19BO3
##CAS REGISTRY NO=24372-05-2
##MP= -300
##BP= -300
##MW= 210
##$RETENTION INDEX=0
##$CONDENSED SPECTRUM=NO
##NPOINTS= 72
##XYDATA=(XY..XY) 1 
    40         10
    41        180
    42         50
    43         80
    44         20
    45         10
    51         10
    52         10
    53         90
    54        190
    55        210
    56         35
    57         30
    65         15
    66         20
    67        520
    68         45
    69         50
    70         35
    71         15
    73         20
    77         30
    78         10
    79         80
    80         70
    81        500
    82        999
    83        120
    84         20
    85         25
    87          5
    93         15
    95          5
    97         25
    98         40
    99         25
   100         20
   101         15
   108         60
   109         60
   110         60
   111         20
   112         10
   113         15
   120          5
   124          5
   125         25
   126         65
   127         15
   128        120
   129        480
   130         30
   138         10
   139         25
   140         10
   141          5
   147          5
   152         30
   153        140
   154         60
   155        290
   156         15
   167         20
   168         65
   169          5
   180         10
   181         50
   182         20
   204          5
   209         10
   210         20
   211          5