##TITLE=Library Entry 77004
##JCAMP-DX=Revision 4.10 
##DATA TYPE=MASS SPECTRUM
##SAMPLE DESCRIPTION=Insect Chem. Ecol. Lab., USDA, Beltsville, MD 20705
##NAMES=HP
##CAS NAME=Phenylethyl acetoacetate
##MOLFORM=C12H14O3
##CAS REGISTRY NO=24370-84-1
##MP= -300
##BP= -300
##MW= 206
##$RETENTION INDEX=0
##$CONDENSED SPECTRUM=NO
##NPOINTS= 115
##XYDATA=(XY..XY) 1 
    42         76
    43        481
    44         14
    45          6
    47          0
    49          3
    50         33
    51         89
    52         24
    53         23
    55         11
    56          2
    57          2
    58          3
    59          3
    60          0
    61          4
    62         14
    63         50
    65        170
    66         11
    67          8
    68          0
    69         12
    70          1
    71          1
    73         11
    74          8
    75          7
    76          8
    77        124
    78         71
    79         72
    80          6
    81          1
    82          4
    83         20
    85         84
    86          5
    87          3
    89         36
    91        624
    92        336
    93         24
    94          2
    95          5
    96         14
    97          2
    98          3
    99         10
   100          1
   101          0
   102         11
   103         91
   104        999
   105        399
   106         16
   107          2
   109          6
   111          1
   112          0
   113          0
   115          2
   117          2
   118          7
   119          2
   120          2
   121          5
   122        199
   123         17
   124          7
   125         10
   126          1
   127          0
   128          0
   129          4
   131          0
   132          0
   133         17
   134         26
   135         22
   136          2
   137          0
   138          0
   139          4
   140          6
   141          2
   142          0
   143          0
   145          0
   147          0
   149          0
   150          2
   151          7
   152          0
   153          4
   154          1
   155          0
   160          0
   163          1
   164          5
   165          2
   178          0
   179          0
   180          0
   181          0
   189          0
   190          3
   191         11
   192          3
   204          0
   205          0
   206          8
   207          0
   208          0