##TITLE=Library Entry 51286
##JCAMP-DX=Revision 4.10 
##DATA TYPE=MASS SPECTRUM
##SAMPLE DESCRIPTION=C.J.W.BROOKS CHEM. DEPT., THE UNIVERSITY GLASGOW, U.K.
##NAMES=HP
##CAS NAME=Cyclohexanecarboxylic acid, 2-hydroxy-, monoanhydride with 1-buta
neboronic acid, cyclic ester, trans-
##MOLFORM=C11H19BO3
##CAS REGISTRY NO=24372-06-3
##MP= -300
##BP= -300
##MW= 210
##$RETENTION INDEX=0
##$CONDENSED SPECTRUM=NO
##NPOINTS= 79
##XYDATA=(XY..XY) 1 
    40         30
    41        240
    42         65
    43         95
    44         40
    45         15
    51         15
    52         15
    53        100
    54        220
    55        240
    56         35
    57         40
    65         20
    66         30
    67        570
    68         70
    69         90
    70         50
    71         15
    73         50
    77         50
    78         10
    79        100
    80         70
    81        540
    82        999
    83        130
    84         20
    85         20
    87         15
    91         10
    92         10
    93         40
    94          5
    95         15
    96         10
    97         30
    98         55
    99         25
   100         25
   101         20
   108         50
   109         70
   110         90
   111         25
   112         10
   113         25
   120         15
   124          5
   125         30
   126         70
   127         20
   128         80
   129        280
   130         25
   138         20
   139         80
   140         15
   141         10
   147         15
   152         40
   153        120
   154         40
   155         60
   156          5
   167         10
   168         35
   169          5
   175          5
   176          5
   180         10
   181         40
   182         80
   183         10
   204          8
   209         10
   210         30
   211          5