##TITLE=Library Entry 114823
##JCAMP-DX=Revision 4.10 
##DATA TYPE=MASS SPECTRUM
##SAMPLE DESCRIPTION=USAF ACADEMY, COLORADO SPRINGS, COLORADO 80840, J LLOYD
 PFLUG
##NAMES=HP
##CAS NAME=2-Propenoic acid, 3-(2-nitrophenyl)-, ethyl ester
##MOLFORM=C11H11NO4
##CAS REGISTRY NO=2437-05-0
##MP= -300
##BP= -300
##MW= 221
##$RETENTION INDEX=0
##$CONDENSED SPECTRUM=NO
##NPOINTS= 91
##XYDATA=(XY..XY) 1 
    14         10
    15         30
    16          8
    26         27
    27        168
    29        602
    30         63
    31         16
    37          8
    38         26
    39        153
    40         20
    41         28
    42         17
    43         40
    45         33
    46          8
    50        207
    51        393
    52        113
    53         33
    54          8
    55         12
    61         13
    62         66
    63        240
    64        117
    65        660
    66        129
    67         25
    69         50
    73         14
    74        155
    75        256
    76        373
    77        386
    78         93
    79         79
    80         16
    86         10
    87         30
    88         18
    89        279
    90        139
    91        412
    92        845
    93        180
    94         21
    98         18
    99          8
   100         10
   101        117
   102        443
   103        232
   104        178
   105        126
   106         25
   107         38
   108         12
   115         40
   116         32
   117         28
   118         94
   119        246
   120        551
   121         83
   122          8
   128         17
   129         52
   130        999
   131        120
   132        197
   133         49
   134         20
   135         14
   143         44
   144         14
   145          9
   146        124
   147        512
   148        477
   149         51
   158         40
   159         21
   164         11
   174         11
   175        426
   176        642
   177         66
   178         10
   189         23