##TITLE=Library Entry 51338
##JCAMP-DX=Revision 4.10 
##DATA TYPE=MASS SPECTRUM
##SAMPLE DESCRIPTION=C.J.W.BROOKS CHEM. DEPT., THE UNIVERSITY GLASGOW, U.K.
##NAMES=HP
##CAS NAME=1-Butaneboronic acid, cyclic 1,2-cyclohexyleneethylidene ester
##MOLFORM=C12H23BO2
##CAS REGISTRY NO=24371-97-9
##MP= -300
##BP= -300
##MW= 210
##$RETENTION INDEX=0
##$CONDENSED SPECTRUM=NO
##NPOINTS= 95
##XYDATA=(XY..XY) 1 
    39         65
    40         10
    41        170
    42         30
    43        150
    44         20
    45         50
    51          5
    52          5
    53         60
    54        105
    55        155
    56         30
    57         25
    58          5
    59          5
    65         15
    66         17
    67        480
    68         65
    69         50
    70         15
    71         10
    72         35
    73        122
    77         15
    78          5
    79         55
    80         25
    81        130
    82        999
    83        108
    84         20
    85         22
    86          5
    87          5
    91          8
    92         36
    93          8
    94         22
    95         65
    96         30
    97         10
    98          5
    99          5
   100          5
   107          5
   108         35
   109        248
   110        105
   111         80
   112         20
   113         40
   114          5
   127        112
   128         30
   129         60
   130          5
   136          1
   137         12
   138          7
   139         19
   140          6
   141          4
   142          1
   143          0
   150          0
   151         20
   152         10
   153         39
   154         11
   155          7
   156          1
   164          0
   165          4
   166         13
   167         19
   168         24
   169         30
   179          0
   180          7
   181         86
   182          7
   183          0
   192          0
   193          0
   194         13
   195         52
   196          6
   197          0
   208          1
   209         16
   210         47
   211          9
   212          0