##TITLE=Library Entry 69743
##JCAMP-DX=Revision 4.10 
##DATA TYPE=MASS SPECTRUM
##SAMPLE DESCRIPTION=Japan AIST/NIMC Database- Spectrum MS-NW-3162
##NAMES=HP
##CAS NAME=Dodecanenitrile
##MOLFORM=C12H23N
##CAS REGISTRY NO=2437-25-4
##MP= -300
##BP= -300
##MW= 181
##$RETENTION INDEX=1490
##$CONDENSED SPECTRUM=NO
##NPOINTS= 95
##XYDATA=(XY..XY) 1 
    14          1
    15          8
    26         11
    27        227
    28         30
    29        406
    30         38
    32          1
    37          1
    38          5
    39        172
    40         33
    41        825
    42        200
    43        874
    44         51
    45          2
    50          3
    51         10
    52         11
    53         62
    54        402
    55        531
    56        243
    57        633
    58         39
    59          2
    63          2
    64          2
    65          9
    66         11
    67         78
    68         98
    69        483
    70        316
    71        149
    72         12
    73          1
    77          9
    78          3
    79         51
    80         25
    81         65
    82        561
    83        558
    84        108
    85         69
    86          9
    91         11
    92          2
    93         40
    94         30
    95         43
    96        715
    97        999
    98        106
    99         18
   100          4
   105          7
   106          2
   107         21
   108         16
   109         18
   110        709
   111        372
   112         53
   113          6
   114          1
   117          1
   118          1
   120          1
   121         14
   122         17
   123          7
   124        500
   125        100
   126         23
   127          3
   135          9
   136          9
   137          2
   138        389
   139         58
   140         21
   141          2
   149          1
   150          3
   152        198
   153         28
   154          2
   166         33
   167          4
   180         24
   181          4
   182          1