##TITLE=Library Entry 84357
##JCAMP-DX=Revision 4.10 
##DATA TYPE=MASS SPECTRUM
##SAMPLE DESCRIPTION=Finnigan MAT: Toxicological Library (LIBR-TX)
##NAMES=HP
##CAS NAME=Bufexamac
##MOLFORM=C12H17NO3
##CAS REGISTRY NO=2438-72-4
##MP= -300
##BP= -300
##MW= 223
##$RETENTION INDEX=0
##$CONDENSED SPECTRUM=NO
##NPOINTS= 28
##XYDATA=(XY..XY) 1 
    41         57
    44         51
    51         25
    55         15
    57         19
    77        107
    78         48
    79         31
    89         32
    90         27
    91         10
   106         12
   107        999
   108        149
   122          3
   123          3
   133          5
   134          8
   147          1
   151         41
   152          3
   161          0
   163        271
   164         34
   171          1
   189          0
   207        183
   208         23