##TITLE=Library Entry 3753
##JCAMP-DX=Revision 4.10 
##DATA TYPE=MASS SPECTRUM
##SAMPLE DESCRIPTION=J.H.BOWIE UNIVERSITY OF ADELAIDE, ADELAIDE, AUSTRALIA
##NAMES=HP
##CAS NAME=Propanoic acid, 3-(2-propenylthio)-, 1-methylethyl ester
##MOLFORM=C9H16O2S
##CAS REGISTRY NO=24383-04-8
##MP= -300
##BP= -300
##MW= 188
##$RETENTION INDEX=0
##$CONDENSED SPECTRUM=NO
##NPOINTS= 33
##XYDATA=(XY..XY) 1 
    27        300
    28        180
    39        390
    41        999
    42         90
    43        590
    44         90
    45        180
    55        140
    57        200
    58         80
    59        180
    60         80
    61        100
    67        100
    71        120
    72        260
    73        730
    74        180
    75         60
    87        140
    89        810
    90         80
   100        100
   101        320
   105        580
   128        100
   129        390
   145        350
   146        400
   147         90
   188        660
   189         60