##TITLE=Library Entry 2526
##JCAMP-DX=Revision 4.10 
##DATA TYPE=MASS SPECTRUM
##SAMPLE DESCRIPTION=J.H.BOWIE UNIVERSITY OF ADELAIDE, ADELAIDE, AUSTRALIA
##NAMES=HP
##CAS NAME=Propionic acid, 3-(allylthio)-, propyl ester
##MOLFORM=C9H16O2S
##CAS REGISTRY NO=24382-58-9
##MP= -300
##BP= -300
##MW= 188
##$RETENTION INDEX=0
##$CONDENSED SPECTRUM=NO
##NPOINTS= 31
##XYDATA=(XY..XY) 1 
    27        370
    28        180
    29        120
    39        360
    41        999
    42         80
    43        850
    45        430
    46        100
    47        120
    55        120
    57        140
    59        130
    67         80
    71         80
    72        380
    73        610
    74        290
    75         90
    87        150
    89        770
    90         70
   100        200
   101        220
   105        520
   128        170
   129        320
   145         60
   146         60
   147        150
   188        340