##TITLE=Library Entry 15000
##JCAMP-DX=Revision 4.10 
##DATA TYPE=MASS SPECTRUM
##SAMPLE DESCRIPTION=R.W.A.OLIVER UNIV. OF SALFORD, SALFORD, LANCASHIRE, UK
##NAMES=HP
##CAS NAME=5,12-Naphthacenedione, 6,8,10,11-tetrakis(acetyloxy)-8-[(acetylox
y)acetyl]-7,8,9,10-tetrahydro-1-methoxy-, (8S-cis)-
##MOLFORM=C31H28O14
##CAS REGISTRY NO=24385-09-9
##MP= -300
##BP= -300
##MW= 624
##$RETENTION INDEX=0
##$CONDENSED SPECTRUM=NO
##NPOINTS= 33
##XYDATA=(XY..XY) 1 
    18        220
    28        270
    43        999
    60        150
    73         20
   163         30
   176         30
   189         30
   217         50
   233         30
   245         40
   263         30
   273         40
   291         60
   301         50
   319        140
   337         80
   347        330
   362         70
   378        370
   389         20
   402         30
   420        670
   438        120
   447         20
   462        420
   480        300
   498        130
   504         60
   522        130
   540        600
   582        130
   624         20