##TITLE=Library Entry 30976
##JCAMP-DX=Revision 4.10 
##DATA TYPE=MASS SPECTRUM
##SAMPLE DESCRIPTION=Japan AIST/NIMC Database- Spectrum MS-NW-1784
##NAMES=HP
##CAS NAME=L-Galactose, 6-deoxy-
##MOLFORM=C6H12O5
##CAS REGISTRY NO=2438-80-4
##MP= -300
##BP= -300
##MW= 164
##$RETENTION INDEX=0
##$CONDENSED SPECTRUM=NO
##NPOINTS= 108
##XYDATA=(XY..XY) 1 
    12          1
    13          4
    14         22
    15         94
    16          4
    17         17
    18         73
    19         22
    24          1
    25          4
    26         25
    27        133
    28         55
    29        238
    30         39
    31        217
    32         26
    33          3
    37          4
    38          5
    39         51
    40         11
    41         90
    42        124
    43        299
    44         64
    45        303
    46          8
    47         35
    49          2
    50          2
    51          4
    52          2
    53         22
    54         16
    55         51
    56         66
    57        154
    58        137
    59         31
    60        999
    61        117
    62          7
    63          2
    65          2
    66          1
    67          6
    68          4
    69         22
    70         14
    71        400
    72         55
    73        603
    74         55
    75         49
    76          3
    77          4
    79          3
    80          1
    81          8
    82          9
    83         12
    84          7
    85         17
    86          7
    87         16
    88          5
    89         21
    90          5
    91         17
    92          1
    93          2
    94          2
    95          4
    96          3
    97          6
    98          3
    99          9
   100         29
   101         14
   102         52
   103          4
   104         26
   105          4
   106          4
   107          1
   109          2
   110          3
   111          3
   112          1
   113          2
   115          3
   116          1
   117         20
   118          2
   119          5
   120          2
   121          1
   123          1
   125          1
   128          5
   129          2
   131          2
   133          3
   137          1
   146          2
   147          1
   149          1