##TITLE=Library Entry 97986
##JCAMP-DX=Revision 4.10 
##DATA TYPE=MASS SPECTRUM
##SAMPLE DESCRIPTION=A.S.Moskovkin,I.M.Karnaukh, Russian Center on Disaster
 Medicine
##NAMES=HP
##CAS NAME=2-Phenyl-l-p-toluenesulfonylaziridine
##MOLFORM=C15H15NO2S
##CAS REGISTRY NO=24395-14-0
##MP= -300
##BP= -300
##MW= 273
##$RETENTION INDEX=0
##$CONDENSED SPECTRUM=NO
##NPOINTS= 138
##XYDATA=(XY..XY) 1 
    39         67
    40         30
    41         68
    42         74
    43         43
    44         12
    45          8
    46          2
    48          9
    49          1
    50         15
    51         58
    52         15
    53          6
    54          3
    55         22
    56          9
    57         30
    58          4
    59          1
    60          5
    61          2
    62          8
    63         47
    64         39
    65        200
    66         15
    67         12
    68          4
    69         21
    70         31
    71         20
    72          2
    73          5
    74          3
    75          5
    76          9
    77         70
    78         26
    79          8
    80          2
    81          8
    82          6
    83         11
    84          5
    85         13
    86          2
    87          3
    88          4
    89         89
    90         82
    91        890
    92        100
    93          7
    94          2
    95         10
    96          5
    97         10
    98          3
    99          5
   101          2
   102          3
   103         15
   104         18
   105         20
   106          4
   107          5
   108          3
   109          9
   110          5
   111          7
   112          3
   113          4
   115          3
   116         12
   117         89
   118        999
   119        130
   120          6
   121          3
   122          2
   123          5
   124          7
   125          7
   126          3
   127          3
   128          1
   129          2
   130          1
   131          2
   133          2
   134          1
   135          2
   136          1
   137          2
   138          1
   139         26
   140          4
   141          9
   142          1
   143          1
   145          1
   149         17
   150          2
   151          2
   152          2
   153          2
   155         15
   156          2
   157          2
   158          1
   163          1
   164          1
   165          6
   166          3
   167          4
   169          2
   170          6
   178          2
   179          2
   180          1
   181          4
   182          1
   183          2
   184          3
   185          1
   193          2
   194          1
   195          1
   197          6
   198          1
   207          1
   208          2
   209          1
   223          1
   239          1
   273          6
   274          1