##TITLE=Library Entry 11609
##JCAMP-DX=Revision 4.10 
##DATA TYPE=MASS SPECTRUM
##SAMPLE DESCRIPTION=Exported from NIST MS Search
##NAMES=HP
##CAS NAME=2,4-Pentadienoic acid, 5-(8-hydroxy-1,5-dimethyl-3-oxo-6-oxabicyc
lo[3.2.1]oct-8-yl)-3-methyl-, [1R-[1.alpha.,5.alpha.,8S*(2Z,4E)]]-
##MOLFORM=C15H20O5
##CAS REGISTRY NO=24394-14-7
##MP= -300
##BP= -300
##MW= 280
##$RETENTION INDEX=2094
##$CONDENSED SPECTRUM=NO
##NPOINTS= 134
##XYDATA=(XY..XY) 1 
    39        223
    40          5
    41        407
    42         25
    43        999
    44         31
    45         29
    50         13
    51         45
    52         22
    53        111
    54         25
    55        364
    56         29
    57         36
    58         34
    59         11
    60          6
    61          6
    63         20
    64         11
    65        159
    66         68
    67        113
    68         25
    69        307
    70         25
    71         45
    77        113
    78         27
    79         95
    81         47
    82        134
    83        293
    84         27
    85        186
    86         11
    87          6
    91        161
    92         27
    93        138
    94         25
    95        216
    96         91
    97        118
    98         29
    99         22
   100         43
   103         25
   105         66
   106         22
   107        113
   108         66
   109        218
   111        216
   112         79
   113         66
   115         29
   116         20
   117         34
   119         43
   121        453
   122        387
   123         91
   124         27
   125        410
   126         45
   127         56
   128         22
   129         15
   131         20
   132         13
   133         68
   134         72
   135        223
   136         56
   137         41
   138         25
   139        314
   140        148
   141         43
   142         13
   143         11
   145         43
   146         18
   147         43
   148         66
   149         91
   150         25
   151         22
   152         22
   153         20
   157         11
   158         22
   159         88
   160         41
   161         91
   162         91
   163        168
   164         59
   165         41
   167        164
   176         93
   177        113
   180         52
   181         75
   186         20
   187          6
   188         22
   189         34
   195         22
   201         20
   202         29
   203         20
   204         56
   205         68
   206         15
   207         20
   216          6
   217         70
   218         13
   219         68
   220         45
   221         29
   222         27
   223         11
   232         22
   244         50
   245          6
   247         11
   262        161
   263         34
   280         56
   281         11