##TITLE=Library Entry 76205
##JCAMP-DX=Revision 4.10 
##DATA TYPE=MASS SPECTRUM
##SAMPLE DESCRIPTION=USAF ACADEMY, COLORADO SPRINGS, COLORADO 80840, J LLOYD
 PFLUG
##NAMES=HP
##CAS NAME=2-Propenoic acid, 3-(3-bromophenyl)-, ethyl ester
##MOLFORM=C11H11BrO2
##CAS REGISTRY NO=24398-80-9
##MP= -300
##BP= -300
##MW= 254
##$RETENTION INDEX=0
##$CONDENSED SPECTRUM=NO
##NPOINTS= 94
##XYDATA=(XY..XY) 1 
    15         16
    26         20
    27         93
    29        140
    30         18
    37          6
    38         18
    39         31
    42          6
    43         26
    45         32
    50        176
    51        233
    52         43
    53         13
    61         11
    62         35
    63         76
    64         10
    65         20
    69         22
    71          6
    73         12
    74        141
    75        285
    76        262
    77         59
    78          7
    79          8
    81          7
    86          6
    87         12
    89         20
    91         70
    98         25
    99         20
   100         12
   101        178
   102        999
   103        164
   104         31
   105         28
   115         10
   116         13
   117          8
   118         19
   119         18
   128          8
   129        190
   130        179
   131        161
   132         16
   133          5
   146          9
   147        125
   148         15
   155         27
   156          8
   157         52
   158          9
   169          9
   171          9
   175         13
   180         36
   181        227
   182        147
   183        227
   184        110
   185         18
   187          7
   197          6
   198          8
   199          6
   200          5
   208         23
   209        873
   210        111
   211        849
   212         91
   213         10
   225        128
   226        270
   227        147
   228        260
   229         28
   236          7
   238          7
   239          7
   241          5
   253         31
   254        295
   255         72
   256        344
   257         42