##TITLE=Library Entry 28365
##JCAMP-DX=Revision 4.10 
##DATA TYPE=MASS SPECTRUM
##SAMPLE DESCRIPTION=NIST Mass Spectrometry Data Center, 1998.
##NAMES=HP
##CAS NAME=2-Propenoic acid, 2-(dimethylamino)ethyl ester
##MOLFORM=C7H13NO2
##CAS REGISTRY NO=2439-35-2
##MP= -300
##BP= -300
##MW= 143
##$RETENTION INDEX=0
##$CONDENSED SPECTRUM=NO
##NPOINTS= 36
##XYDATA=(XY..XY) 1 
    15          7
    25          1
    26          9
    27         42
    28          8
    29         11
    30         31
    31          2
    39          2
    40          3
    41         11
    42        110
    43         29
    44         28
    45          6
    52          1
    53          3
    54          5
    55         93
    56         44
    57         26
    58        999
    59         37
    60          1
    68          1
    70         13
    71        112
    72         25
    73          2
    84          1
    86          3
    87          1
    88          6
    99         12
   100          1
   143          3