##TITLE=Library Entry 68186
##JCAMP-DX=Revision 4.10 
##DATA TYPE=MASS SPECTRUM
##SAMPLE DESCRIPTION=G.VON BUNAU MAX-PLANCK-INST., MULHEIM-RHUR, GERMANY, FR
G
##NAMES=HP
##CAS NAME=Cyclohexane, 1-methyl-3-(1-methylethenyl)-, cis-
##MOLFORM=C10H18
##CAS REGISTRY NO=24399-15-3
##MP= -300
##BP= -300
##MW= 138
##$RETENTION INDEX=0
##$CONDENSED SPECTRUM=NO
##NPOINTS= 49
##XYDATA=(XY..XY) 1 
    27        114
    28         14
    29         92
    39        163
    40         44
    41        300
    42         44
    43         63
    51         34
    52         26
    53        105
    54         73
    55        313
    56         41
    57         24
    63         14
    65         41
    66         31
    67        361
    68        229
    69        122
    70         24
    77         73
    78         24
    79         92
    80         46
    81        464
    82        435
    83         63
    91         92
    92         34
    93        124
    94         61
    95        999
    96        242
    97         31
   105         24
   107         24
   109         92
   110         34
   119        134
   120         12
   121         70
   123         83
   134         24
   136         63
   137         12
   138        281
   139         36