##TITLE=Library Entry 15368
##JCAMP-DX=Revision 4.10 
##DATA TYPE=MASS SPECTRUM
##SAMPLE DESCRIPTION=Japan AIST/NIMC Database- Spectrum MS-IW-3874
##NAMES=HP
##CAS NAME=1-Octadecanamine, N-methyl-
##MOLFORM=C19H41N
##CAS REGISTRY NO=2439-55-6
##MP= -300
##BP= -300
##MW= 283
##$RETENTION INDEX=2088
##$CONDENSED SPECTRUM=NO
##NPOINTS= 64
##XYDATA=(XY..XY) 1 
    15          1
    27          9
    28          7
    29         33
    30         19
    31          5
    39          5
    40          1
    41         64
    42         23
    43         98
    44        999
    45         42
    53          2
    54          3
    55         56
    56         15
    57         54
    58         75
    59         14
    67          4
    68          3
    69         25
    70         17
    71         12
    72          4
    73          4
    81          2
    82          2
    83         12
    84          6
    85          5
    86          9
    87          2
    95          1
    96          1
    97          6
    98          3
    99          1
   100         11
   101          1
   111          2
   112          1
   114          8
   115          1
   126          1
   128          5
   129          1
   142          4
   156          3
   169          1
   170          3
   184          2
   198          2
   212          2
   226          2
   240          2
   254          3
   268          5
   269          1
   282         17
   283         46
   284         16
   285          2