##TITLE=Library Entry 71169
##JCAMP-DX=Revision 4.10 
##DATA TYPE=MASS SPECTRUM
##SAMPLE DESCRIPTION=Chemical Concepts
##NAMES=HP
##CAS NAME=Triacontanedioic acid, dimethyl ester
##MOLFORM=C32H62O4
##CAS REGISTRY NO=24397-43-1
##MP= -300
##BP= -300
##MW= 510
##$RETENTION INDEX=0
##$CONDENSED SPECTRUM=NO
##NPOINTS= 341
##XYDATA=(XY..XY) 1 
    26          4
    27         33
    28         26
    29        113
    30          2
    31         13
    33          2
    36          0
    38          0
    39         26
    40         76
    41        277
    42         63
    43        453
    44         18
    45         21
    50          0
    51          1
    53         14
    54         42
    55        670
    56        110
    57        452
    58         32
    59        118
    60          7
    61          4
    65          2
    66          4
    67        113
    68         68
    69        429
    70         76
    71        176
    72         15
    73         42
    74        700
    75        116
    76          6
    77          3
    78          2
    79         21
    80         40
    81        117
    82         77
    83        286
    84        296
    85        115
    86          9
    87        435
    88         47
    89          5
    91          6
    92          3
    93         28
    94         43
    95        119
    96         80
    97        240
    98        999
    99         82
   100         13
   101         48
   102          5
   103          1
   104          0
   105          4
   106          2
   107         28
   108         31
   109         78
   110         41
   111        121
   112        249
   113         35
   114         14
   115         31
   116         16
   117          4
   118          2
   119          5
   120          3
   121         48
   122         20
   123         45
   124         22
   125         79
   126         72
   127         18
   128         10
   129         35
   130         18
   131          3
   133          5
   134          4
   135         47
   136         13
   137         23
   138         18
   139         38
   140         49
   141         14
   142          6
   143         43
   144         25
   145          3
   147          4
   148          3
   149         26
   150          9
   151         12
   152         13
   153         22
   154         75
   155         12
   156          5
   157         16
   158         30
   159          3
   161          2
   162          1
   163         14
   164          5
   165          8
   166          8
   167         17
   168         40
   169          9
   170          3
   171         16
   172         20
   173          3
   175          2
   177          8
   178          4
   179          5
   180          5
   181         12
   182         30
   183          7
   184          3
   185         12
   186          8
   187          1
   189          1
   191          5
   192          3
   193          3
   194          5
   195         10
   196         30
   197          6
   198          1
   199         11
   200          7
   201          0
   205          4
   206          3
   207          3
   208          5
   209         11
   210         30
   211          6
   212          1
   213          7
   214          7
   215          0
   219          3
   220          3
   221          3
   222          5
   223         10
   224         26
   225          5
   226          1
   227          7
   228          6
   229          0
   233          3
   234          3
   235          3
   236          5
   237          9
   238         21
   239          4
   240          1
   241          8
   242          7
   243          0
   247          2
   248          3
   249          4
   250          5
   251          9
   252         18
   253          4
   254          0
   255          7
   256          6
   257          0
   261          2
   262          3
   263          3
   264          5
   265          8
   266         17
   267          4
   268          1
   269          6
   270          6
   271          0
   275          1
   276          2
   277          4
   278          4
   279          8
   280         16
   281          4
   282          0
   283          6
   284          6
   285          0
   289          1
   290          2
   291          4
   292          4
   293          7
   294         13
   295          3
   296          0
   297          6
   298          6
   299          0
   303          1
   304          2
   305          3
   306          3
   307          6
   308         12
   309          3
   311          5
   312          6
   313          1
   317          0
   318          1
   319          3
   320          4
   321          6
   322         12
   323          3
   325          5
   326          5
   327          0
   331          1
   332          1
   333          3
   334          2
   335          5
   336          9
   337          3
   339          5
   340          4
   341          0
   345          1
   346          1
   347          3
   348          4
   349          8
   350         10
   351          3
   352          0
   353          3
   354          4
   355          0
   360          1
   361          2
   362          7
   363         10
   364         18
   365          5
   366          0
   367          2
   368          2
   375          2
   376          1
   377          2
   378          2
   379          0
   380          0
   381          5
   382          2
   386          1
   387          4
   388          1
   389          1
   390          2
   391          2
   392          0
   393          0
   394          1
   395          7
   396          2
   400          0
   401          0
   403          3
   404         36
   405         45
   406         12
   407          2
   409          0
   417          2
   418         15
   419          6
   420          1
   422          8
   423          3
   424         10
   425          3
   427          1
   428          4
   429          2
   436          7
   437         34
   438         11
   439          2
   445         10
   446         31
   447         18
   448          4
   450          1
   451          1
   452          0
   460          2
   461          0
   477          3
   478         51
   479         78
   480         27
   481          4
   510          8
   511          3