##TITLE=Library Entry 15559
##JCAMP-DX=Revision 4.10 
##DATA TYPE=MASS SPECTRUM
##SAMPLE DESCRIPTION=LDDRD, NCI, NIH-FCRDC, Frederick, MD 21702
##NAMES=HP
##CAS NAME=Actinobolin
##MOLFORM=C13H20N2O6
##CAS REGISTRY NO=24397-89-5
##MP= -300
##BP= -300
##MW= 300
##$RETENTION INDEX=0
##$CONDENSED SPECTRUM=NO
##NPOINTS= 157
##XYDATA=(XY..XY) 1 
    41         30
    42         36
    43         73
    44        999
    45         41
    46          2
    48          2
    49          0
    50          1
    51          6
    52          5
    53         16
    54         10
    55         39
    56         32
    57         85
    58         15
    59          2
    60         11
    61          2
    63          2
    64          5
    65         13
    66          7
    67         10
    68          8
    69         14
    70          8
    71         13
    72          3
    73          4
    74          6
    75          0
    76          0
    77         11
    78          7
    79          7
    80          6
    81         11
    82         11
    83         15
    84          8
    85          7
    86          2
    89         22
    90          1
    91          5
    92          3
    93          6
    94          7
    95         10
    96          6
    97          7
    98          4
    99          5
   100          1
   103          2
   104          1
   105          3
   106          3
   107          5
   108          4
   109          6
   110         10
   111         24
   112          4
   113          2
   115          0
   117          0
   118          0
   119          2
   120          6
   121         12
   122          5
   123          6
   124          5
   125          4
   126          2
   127          0
   128          0
   129          7
   130          1
   131          1
   132          1
   133          1
   134          2
   135          3
   136          7
   137         10
   138          6
   139          6
   140          1
   146          2
   147          2
   148          5
   149          6
   150          7
   151          3
   152          3
   153          5
   154          8
   155          4
   156          0
   158          0
   159          2
   160          3
   161          0
   162          3
   163          1
   164          3
   165          5
   166          3
   167          0
   174          0
   175          2
   176          5
   177          7
   178          3
   179          0
   180          4
   181          0
   183          0
   184          0
   188          0
   190          0
   191          0
   192          1
   193          1
   194          3
   195          0
   196          1
   197          2
   201          2
   202          0
   203          0
   204          1
   211          1
   212          6
   213         14
   214          1
   219          2
   220          1
   221          2
   237          0
   239          5
   240          1
   255          1
   256          6
   257          5
   258          1
   263          0
   282          4
   284          0
   285          0
   299          1
   300         25
   301          4