##TITLE=Library Entry 76203
##JCAMP-DX=Revision 4.10 
##DATA TYPE=MASS SPECTRUM
##SAMPLE DESCRIPTION=Chuck Anderson, Aldrich Chemical Co.
##NAMES=HP
##CAS NAME=2-Propenoic acid, 3-(4-bromophenyl)-, ethyl ester, (E)-
##MOLFORM=C11H11BrO2
##CAS REGISTRY NO=24393-53-1
##MP= -300
##BP= -300
##MW= 254
##$RETENTION INDEX=0
##$CONDENSED SPECTRUM=NO
##NPOINTS= 70
##XYDATA=(XY..XY) 1 
    15         22
    26         23
    27         90
    28         38
    29        141
    30         13
    38         13
    39         23
    43         17
    44          6
    45         25
    50        134
    51        207
    52         40
    53         10
    62         27
    63         58
    65         16
    69         26
    74         99
    75        237
    76        210
    77         54
    87          8
    89         19
    90         21
    91         65
    98         24
    99         16
   100          7
   101        192
   102        999
   103        154
   104         40
   105         28
   116         14
   118         16
   119         11
   129        115
   130        153
   131        109
   132          8
   147         41
   155         13
   157         46
   169          2
   175         12
   180         37
   181        137
   182        153
   183        149
   184        112
   185         18
   208          6
   209        623
   210         67
   211        587
   212         56
   213         11
   225         48
   226        165
   227         64
   228        170
   229         16
   239          2
   253         11
   254        219
   255         33
   256        216
   257         24