##TITLE=Library Entry 14022
##JCAMP-DX=Revision 4.10 
##DATA TYPE=MASS SPECTRUM
##SAMPLE DESCRIPTION=A.A.Kutin, Moscow, Russia
##NAMES=HP
##CAS NAME=Guanidine, 1,2-diacetyl-3-(4,6-dimethylquinazolin-2-yl)-
##MOLFORM=C15H17N5O2
##CAS REGISTRY NO=244052-83-3
##MP= -300
##BP= -300
##MW= 299
##$RETENTION INDEX=0
##$CONDENSED SPECTRUM=NO
##NPOINTS= 204
##XYDATA=(XY..XY) 1 
    33         20
    34          6
    35          7
    36         10
    37          2
    38         12
    39         44
    40         50
    41         30
    43        999
    45         32
    46          8
    47          7
    48          6
    50         23
    51         49
    52         26
    53         19
    54          6
    55          8
    56          3
    57          6
    58          2
    59          7
    60         13
    61         16
    63        134
    64         24
    65         32
    66          8
    67         14
    68         10
    69         29
    70          4
    71          2
    73          2
    74          7
    75         20
    76         36
    77        145
    78         89
    79         15
    80          5
    81          0
    82          1
    83          2
    84          3
    85         14
    86          6
    87         10
    89        141
    90         57
    91         28
    92          7
    93          2
    94          1
    95          1
    96          0
    97          2
    98          3
   100         12
   101         19
   102         52
   103        101
   104         97
   105         23
   106         12
   107          2
   108          1
   109          2
   110          1
   111          5
   112          2
   113          5
   114         19
   115         54
   116         78
   117         49
   118         23
   119          8
   120          4
   121          2
   123          1
   125         13
   127         16
   128         32
   129         48
   130        147
   131        135
   132         82
   133         81
   134          6
   135          0
   136          0
   137          0
   138          0
   139          0
   140          2
   141         11
   142         40
   143         24
   145         85
   146         66
   147          7
   148          1
   149          0
   150          0
   151          0
   152          1
   153          2
   155         56
   156         78
   157        378
   158        119
   159         25
   160          2
   161          0
   164          0
   165          0
   167          1
   168          2
   169          4
   170         15
   172        238
   173        668
   174        143
   175         19
   176          1
   180          0
   181          1
   183         36
   184          7
   185          4
   186         18
   187          4
   188          1
   194          0
   195          1
   198        330
   199        559
   200        166
   201         17
   202          1
   204          0
   207          1
   208          0
   209          0
   210          0
   212         15
   213         13
   214         69
   215         19
   216          3
   224          0
   225         10
   226          2
   227          0
   228          4
   229          2
   232          0
   233          1
   234          1
   235          0
   236          0
   237          1
   238          9
   239          4
   240         15
   242        735
   243         98
   244          8
   245          1
   250          0
   251          0
   253          0
   254          2
   256        152
   257         71
   258         11
   259          1
   261          1
   263          0
   265          0
   267          0
   268          2
   269          0
   270          1
   271          5
   272          0
   276          1
   278          1
   279          0
   281          1
   282          4
   284        205
   285         33
   286          3
   293          0
   296          1
   297          2
   299        504
   300         78
   301          9
   302          0