##TITLE=Library Entry 81386
##JCAMP-DX=Revision 4.10 
##DATA TYPE=MASS SPECTRUM
##SAMPLE DESCRIPTION=Chemical Concepts
##NAMES=HP
##CAS NAME=Naphthalene, 1,2,4a,5,6,8a-hexahydro-4,7-dimethyl-1-(1-methylethy
l)-, [1S-(1.alpha.,4a.beta.,8a.alpha.)]-
##MOLFORM=C15H24
##CAS REGISTRY NO=24406-05-1
##MP= -300
##BP= -300
##MW= 204
##$RETENTION INDEX=1538
##$CONDENSED SPECTRUM=NO
##NPOINTS= 122
##XYDATA=(XY..XY) 1 
    26          1
    27         70
    29         59
    30          0
    38          1
    39         87
    40         14
    41        217
    42         12
    43        120
    44          5
    50          3
    51         24
    52         15
    53         73
    54          8
    55        115
    56         13
    57         23
    58          3
    59          2
    62          0
    63         12
    64          8
    65         52
    66          7
    67         48
    68          9
    69         63
    70          8
    71          4
    74          1
    75          3
    76          4
    77        112
    78         26
    79        111
    80         27
    81        245
    82         21
    83          8
    84          2
    85          0
    87          1
    89          5
    90          1
    91        188
    92         51
    93        247
    94        171
    95         57
    96          5
    97          3
   101          0
   102          4
   103         20
   104         25
   105        999
   106        145
   107         95
   108         27
   109         12
   110          4
   111          0
   112          0
   115         48
   116         16
   117         53
   118         24
   119        164
   120         41
   121         81
   122         23
   123        127
   124         12
   125          1
   126          1
   127         11
   128         30
   129         23
   130         15
   131         42
   132         11
   133         96
   134         98
   135         34
   136         20
   137          2
   138          0
   139          1
   141          9
   142          5
   143          5
   144          2
   145         43
   146         17
   147         64
   148         46
   149         79
   150         15
   151          0
   152          2
   153          0
   157          1
   159         13
   160         73
   161        684
   162        126
   163         13
   164          0
   175         38
   176         10
   187          0
   188          0
   189        138
   190         18
   191          0
   203          2
   204        315
   205         52
   206          1
   207          0