##TITLE=Library Entry 78221
##JCAMP-DX=Revision 4.10 
##DATA TYPE=MASS SPECTRUM
##SAMPLE DESCRIPTION=Exported from NIST MS Search
##NAMES=HP
##CAS NAME=Acetamide, N-[1-(1,3-dithiolan-2-yl)-2-hydroxyethyl]-
##MOLFORM=C7H13NO2S2
##CAS REGISTRY NO=24401-55-6
##MP= -300
##BP= -300
##MW= 207
##$RETENTION INDEX=0
##$CONDENSED SPECTRUM=NO
##NPOINTS= 20
##XYDATA=(XY..XY) 1 
    30         90
    31         40
    42         80
    43        430
    45        130
    53         30
    58         30
    60        839
    61        140
    74         30
    84         30
    87         30
    92         40
   102        200
   105        999
   106         60
   107         60
   120         40
   134         60
   148        839