##TITLE=Library Entry 11962
##JCAMP-DX=Revision 4.10 
##DATA TYPE=MASS SPECTRUM
##SAMPLE DESCRIPTION=ORVAL A. MAMER, ROYAL VICTORIA HOSPITAL, MONTREAL, CANA
DA
##NAMES=HP
##CAS NAME=D-Mannitol, 2,4-di-O-methyl-, tetraacetate
##MOLFORM=C16H26O10
##CAS REGISTRY NO=24406-90-4
##MP= -300
##BP= -300
##MW= 378
##$RETENTION INDEX=0
##$CONDENSED SPECTRUM=NO
##NPOINTS= 92
##XYDATA=(XY..XY) 1 
    14          5
    15         43
    18         11
    26          4
    27         14
    28         43
    29         24
    30          3
    31         12
    32          4
    33          8
    39         11
    40          3
    41         46
    42         23
    43        999
    44         30
    45         58
    53          7
    55         22
    56         15
    57         28
    58         41
    59         26
    60          5
    61          7
    67          6
    68          5
    69         25
    70         13
    71         50
    72          5
    73         20
    74         44
    75         24
    77          4
    79          4
    81         11
    82          4
    83         10
    84          5
    85         43
    86          7
    87        236
    88         20
    89         12
    91          4
    95          7
    97         22
    98          5
    99         88
   100         16
   101         63
   102          5
   103         13
   105          6
   109          4
   111         18
   112          4
   113         23
   114          4
   115         15
   116          7
   117        325
   118         20
   119          6
   125         11
   127         41
   129        436
   130         42
   131         17
   139         31
   140          6
   141         10
   142          5
   143         14
   145         11
   147          8
   149          5
   153          4
   157          9
   159         21
   171          4
   173         16
   185          4
   189        144
   190         14
   201         19
   231          9
   233         36
   234          4
   245          5