##TITLE=Library Entry 56215
##JCAMP-DX=Revision 4.10 
##DATA TYPE=MASS SPECTRUM
##SAMPLE DESCRIPTION=Exported from NIST MS Search
##NAMES=HP
##CAS NAME=Cyclic(D-alloisoleucyl-L-.alpha.-hydroxyisovaleryl-L-isoleucyl-L-
.alpha.-hydroxyisovaleryl)
##MOLFORM=C22H38N2O6
##CAS REGISTRY NO=2441-03-4
##MP= -300
##BP= -300
##MW= 426
##$RETENTION INDEX=0
##$CONDENSED SPECTRUM=NO
##NPOINTS= 99
##XYDATA=(XY..XY) 1 
    53         43
    54         77
    67         15
    68         25
    69        876
    70        154
    71         30
    72         67
    73        123
    74         30
    82         30
    83        159
    84        144
    85        103
    86        999
    87         51
    98         82
    99         20
   100         20
   101         15
   110         15
   111         20
   112        149
   113         20
   114         12
   124         10
   125         10
   126         30
   127         12
   128         43
   129         12
   130         10
   132         20
   138         12
   139         30
   140         30
   141        128
   142         51
   143         10
   152         25
   153         20
   154        190
   155         46
   156         10
   157         12
   166         10
   167        373
   168        139
   169        373
   170         77
   171         10
   172         10
   182        530
   183         95
   184         51
   185         51
   186        180
   187         20
   196         25
   197        608
   198        144
   199         51
   200         64
   201         30
   202         77
   204         20
   212         12
   213         10
   214         30
   215         10
   232          7
   241         43
   254         15
   257         12
   268         20
   269         15
   281         12
   282        402
   283         92
   284         15
   297        327
   298         59
   299         20
   311         25
   312         15
   325         10
   326         20
   353         20
   355         20
   367        257
   368        123
   369         30
   370         30
   382        798
   383        201
   384         30
   397         10
   411         10
   426         10