##TITLE=Library Entry 78584
##JCAMP-DX=Revision 4.10 
##DATA TYPE=MASS SPECTRUM
##SAMPLE DESCRIPTION=ASES Database, Dalian Institute, P.R. China
##NAMES=HP
##CAS NAME=Propane-1,3-dione, 1,3-diphenyl-2-(phenylimino)-
##MOLFORM=C21H15NO2
##CAS REGISTRY NO=24416-28-2
##MP= -300
##BP= -300
##MW= 313
##$RETENTION INDEX=0
##$CONDENSED SPECTRUM=NO
##NPOINTS= 19
##XYDATA=(XY..XY) 1 
    51        117
    52         22
    57         22
    74         22
    76         35
    77        428
    78         22
    79         11
    93         22
   103         22
   104         34
   105        999
   132         22
   152         34
   208        104
   210         23
   211         57
   313         80
   314         23