##TITLE=Library Entry 50273
##JCAMP-DX=Revision 4.10 
##DATA TYPE=MASS SPECTRUM
##SAMPLE DESCRIPTION=T.A.BLAZER DU PONT, GIBBSTOWN, N.J., USA
##NAMES=HP
##CAS NAME=Cyclohexene, 3-chloro-
##MOLFORM=C6H9Cl
##CAS REGISTRY NO=2441-97-6
##MP= -300
##BP= -300
##MW= 116
##$RETENTION INDEX=872
##$CONDENSED SPECTRUM=NO
##NPOINTS= 84
##XYDATA=(XY..XY) 1 
    12          2
    13          2
    14          5
    15         40
    16          1
    24          0
    25          4
    26         51
    27        199
    28         24
    29         21
    30          0
    31          3
    35         12
    36         31
    37         29
    38         55
    39        240
    40         32
    41        152
    42          9
    43          2
    47          1
    48          2
    49         21
    50         81
    51        106
    52         66
    53        197
    54         97
    55         32
    56          3
    57         12
    58          1
    59          9
    60          2
    61          9
    62         12
    63         22
    64          5
    65         58
    66         32
    67         41
    68          4
    69          0
    70          0
    72          0
    73          9
    74         12
    75         57
    76          8
    77        125
    78         42
    79        325
    80        314
    81        999
    82         70
    83          2
    85          0
    86          1
    87          2
    88         97
    89          6
    90         32
    91          2
    93          0
    96          0
    97          0
    98          0
    99          2
   100          1
   101         12
   102          1
   103          3
   104          0
   105          0
   112          0
   113          0
   114          0
   115          4
   116        148
   117         13
   118         52
   119          3