##TITLE=Library Entry 56888
##JCAMP-DX=Revision 4.10 
##DATA TYPE=MASS SPECTRUM
##SAMPLE DESCRIPTION=Div. of Experiment Therapeutics WRAIR, WRAMC, Washingto
n DC 20307
##NAMES=HP
##CAS NAME=11-[[2-[Diethylamino]ethyl]amino]-2,3-dihydro-1H-cyclopenta[4,5]p
yrimido[1,2-a]benzimidazole
##MOLFORM=C19H25N5
##CAS REGISTRY NO=24415-65-4
##MP= -300
##BP= -300
##MW= 323
##$RETENTION INDEX=0
##$CONDENSED SPECTRUM=NO
##NPOINTS= 125
##XYDATA=(XY..XY) 1 
    41         11
    42         49
    43         12
    44         27
    45          0
    47          0
    49          4
    50          2
    51          7
    52          5
    53          8
    54          5
    55          2
    56         39
    57          9
    58        108
    59          3
    62          1
    63          6
    64          7
    65         16
    66          4
    67          1
    68          1
    69          0
    70          7
    71          6
    72          6
    73          1
    75          2
    76          3
    77          6
    78          4
    79          1
    80          2
    84         13
    86        999
    87         76
    88          1
    89          2
    90         19
    91          8
    92          5
    93          1
    94          0
    98          2
    99          5
   100         11
   102         15
   103          6
   104          2
   105          4
   106          0
   114          0
   115          1
   116          2
   117          3
   118         30
   119          3
   127          1
   128          1
   129          6
   130          1
   131          1
   132          1
   133          7
   134          0
   140          1
   141          1
   142          2
   143          2
   144          2
   145          0
   146          0
   152          0
   153          2
   154          3
   155          3
   156          2
   157          0
   162          0
   167          2
   168         10
   169          3
   170          2
   179          1
   180          4
   181          4
   182          2
   183          0
   193          0
   194          2
   195          5
   196          9
   197          1
   206          4
   207          6
   208         23
   209          5
   210          1
   211          1
   212          0
   220          0
   221          6
   222         13
   223          9
   224          3
   225          1
   233          1
   234          0
   235         14
   236          3
   237        213
   238         35
   239          2
   247          1
   249          4
   250          1
   251          7
   252          1
   283          0
   323         77
   324         16
   325          7
   326          0