##TITLE=Library Entry 3437
##JCAMP-DX=Revision 4.10 
##DATA TYPE=MASS SPECTRUM
##SAMPLE DESCRIPTION=V.G. Zaikin, TIPS RAS, Moscow, Russia
##NAMES=HP
##CAS NAME=Heptafluorobutyramide, N-allyl
##MOLFORM=C7H6F7NO
##CAS REGISTRY NO=24429-61-6
##MP= -300
##BP= -300
##MW= 253
##$RETENTION INDEX=0
##$CONDENSED SPECTRUM=NO
##NPOINTS= 81
##XYDATA=(XY..XY) 1 
    26         29
    27         75
    28        180
    29         65
    30         18
    31         61
    33          6
    35          6
    36         15
    37          9
    38         28
    39        259
    40         41
    41        999
    42         57
    43         23
    44         45
    45         75
    46          3
    47          6
    50         39
    51         49
    52         17
    53          7
    54         69
    55         44
    56        133
    57         71
    58         23
    59         22
    62          6
    63          4
    64          4
    65          4
    66         12
    67          8
    68          4
    69        405
    70         11
    71          9
    77         11
    78         21
    79          8
    81         15
    82          8
    83          4
    84        301
    85         18
    86         26
    87          4
    90          4
    91          6
    93          9
    95          6
    96          6
    97          4
   100         85
   101          7
   105          5
   108          9
   109         29
   114          6
   116          4
   119         45
   128          9
   131          9
   133          4
   134         11
   150          6
   167          4
   169         82
   170          5
   178         11
   214          5
   226         19
   227          2
   238         41
   239          4
   252          9
   253         89
   254          9