##TITLE=Library Entry 53635
##JCAMP-DX=Revision 4.10 
##DATA TYPE=MASS SPECTRUM
##SAMPLE DESCRIPTION=Chemical Concepts
##NAMES=HP
##CAS NAME=1-Allylpyrrolidine
##MOLFORM=C7H13N
##CAS REGISTRY NO=24420-11-9
##MP= -300
##BP= -300
##MW= 111
##$RETENTION INDEX=0
##$CONDENSED SPECTRUM=NO
##NPOINTS= 49
##XYDATA=(XY..XY) 1 
    26         28
    27        169
    28        188
    29         58
    30         50
    37          9
    38         33
    39        365
    40         47
    41        569
    42        766
    43        115
    44         17
    50          8
    51         15
    52         19
    53         39
    54        128
    55        302
    56         90
    57         30
    65          6
    66          6
    67         37
    68        258
    69         45
    70        184
    71         10
    77          8
    78          3
    79          9
    80         36
    81         31
    82        231
    83        140
    84        999
    85         70
    91          5
    93          6
    94         13
    95          6
    96        491
    97         33
   108         36
   109         13
   110        763
   111        492
   112         46
   113          8