##TITLE=Library Entry 23256
##JCAMP-DX=Revision 4.10 
##DATA TYPE=MASS SPECTRUM
##SAMPLE DESCRIPTION=Chemical Concepts
##NAMES=HP
##CAS NAME=di-tert-Butyl dicarbonate
##MOLFORM=C10H18O5
##CAS REGISTRY NO=24424-99-5
##MP= -300
##BP= -300
##MW= 218
##$RETENTION INDEX=0
##$CONDENSED SPECTRUM=NO
##NPOINTS= 33
##XYDATA=(XY..XY) 1 
    26          1
    27         17
    28          2
    29         69
    30          1
    31          6
    33          0
    37          0
    38          0
    39         22
    40          5
    41        133
    42          8
    43         46
    44         12
    45          3
    50          0
    51          0
    53          1
    54          0
    55          9
    56         64
    57        999
    58         44
    59         35
    60          1
    68          0
    70          0
    94          3
   105          0
   112          1
   113          0
   119          4