##TITLE=Library Entry 10591
##JCAMP-DX=Revision 4.10 
##DATA TYPE=MASS SPECTRUM
##SAMPLE DESCRIPTION=NIST Mass Spectrometry Data Center
##NAMES=HP
##CAS NAME=1-Octen-3-yl-acetate
##MOLFORM=C10H18O2
##CAS REGISTRY NO=2442-10-6
##MP= -300
##BP= -300
##MW= 170
##$RETENTION INDEX=1111
##$CONDENSED SPECTRUM=NO
##NPOINTS= 74
##XYDATA=(XY..XY) 1 
    14          1
    15         11
    26          5
    27         81
    28         21
    29         88
    30          2
    31          5
    37          1
    38          3
    39         91
    40         13
    41        170
    42         29
    43        999
    44         28
    45          4
    50          4
    51         11
    52          7
    53         46
    54        225
    55        133
    56         27
    57         99
    58         46
    59          9
    61         15
    62          1
    63          2
    65         16
    66         18
    67        140
    68        111
    69        105
    71         55
    72        139
    73         25
    74          1
    77         10
    78          2
    79         26
    80          8
    81        137
    82         71
    83         12
    84          9
    85         46
    86         45
    87          2
    91          3
    93          3
    94          1
    95         51
    96          5
    97          2
    99        455
   100         64
   101          6
   109         12
   110         55
   111         10
   112          2
   113         16
   114         37
   115          6
   126          1
   127         27
   128        134
   129         13
   130          1
   141          5
   142          1
   155          2