##TITLE=Library Entry 34763
##JCAMP-DX=Revision 4.10 
##DATA TYPE=MASS SPECTRUM
##SAMPLE DESCRIPTION=NIST Mass Spectrometry Data Center
##NAMES=HP
##CAS NAME=3-Methyl-1-dodecyn-3-ol
##MOLFORM=C13H24O
##CAS REGISTRY NO=24424-78-0
##MP= -300
##BP= -300
##MW= 196
##$RETENTION INDEX=0
##$CONDENSED SPECTRUM=NO
##NPOINTS= 75
##XYDATA=(XY..XY) 1 
    15          9
    18          2
    26          4
    27         78
    28         24
    29        124
    30          3
    31          3
    38          3
    39         74
    40         22
    41        213
    42         50
    43        357
    44          8
    45          5
    50          3
    51         14
    52          6
    53         44
    54         13
    55        102
    56         22
    57         45
    58         12
    59          5
    63          2
    64          1
    65         12
    66         11
    67         38
    68         68
    69        999
    70         73
    71         43
    72          4
    77         19
    78          4
    79         38
    80          7
    81         35
    82         20
    83         22
    84        270
    85         26
    86          1
    91         13
    92          2
    93         36
    94          7
    95         19
    96         11
    97         52
    98         10
    99          1
   105          3
   107         13
   108          4
   109          6
   110          5
   111         15
   112          4
   113          2
   121          8
   122          1
   123          1
   125          3
   126          2
   135          3
   136          1
   139          1
   149          1
   153          1
   181         21
   182          3