##TITLE=Library Entry 44755
##JCAMP-DX=Revision 4.10 
##DATA TYPE=MASS SPECTRUM
##SAMPLE DESCRIPTION=J-C.WILHELM FACULTY OF SCIENCE, UNIV. METZ, METZ, FRANC
E
##NAMES=HP
##CAS NAME=Tetracosanoic acid, methyl ester
##MOLFORM=C25H50O2
##CAS REGISTRY NO=2442-49-1
##MP= -300
##BP= -300
##MW= 382
##$RETENTION INDEX=2728
##$CONDENSED SPECTRUM=NO
##NPOINTS= 151
##XYDATA=(XY..XY) 1 
    15         12
    16          2
    17         13
    18         62
    20          9
    25          2
    26          9
    27         21
    28         36
    29         72
    30          2
    31          6
    32          7
    39         17
    40          6
    41        162
    42         41
    43        390
    44         16
    45         10
    50          3
    51          2
    53          7
    54         19
    55        250
    56         62
    57        294
    58         19
    59         45
    60          4
    61          4
    65          2
    66          3
    67         40
    68         23
    69        169
    70         37
    71        129
    72          8
    73         21
    74        999
    75        346
    76         15
    77          4
    79          8
    80          4
    81         35
    82         22
    83        118
    84         39
    85         66
    86          5
    87        618
    88         59
    89          5
    91          2
    93          9
    94          4
    95         32
    96         17
    97         90
    98         40
    99         14
   100          2
   101         54
   102          7
   105          2
   107          7
   108          3
   109         17
   110          7
   111         40
   112         12
   113          7
   114          3
   115         23
   116         13
   117          3
   119          2
   121          8
   122          2
   123         10
   124          5
   125         21
   126          5
   127          5
   128          2
   129         59
   130         19
   131          3
   133          2
   135          9
   136          2
   137          6
   138          3
   139         12
   140          3
   141          3
   143        162
   144         18
   145          2
   149          7
   151          3
   152          2
   153          8
   154          2
   155          2
   157         12
   158          3
   163          4
   165          2
   167          6
   168          2
   169          2
   171          9
   172          3
   177          2
   181          4
   185         21
   186          5
   191          2
   195          2
   199         29
   200          5
   213          6
   227         10
   228          3
   241         10
   242          3
   255          7
   256          2
   269          4
   270          2
   283         18
   284          5
   297         10
   298          3
   311          3
   325          6
   326          3
   339         46
   340         13
   341          2
   351         15
   352          5
   353          9
   354          3
   368          2
   382        150
   383         42
   384          6