##TITLE=Library Entry 38744
##JCAMP-DX=Revision 4.10 
##DATA TYPE=MASS SPECTRUM
##SAMPLE DESCRIPTION=Chemical Concepts
##NAMES=HP
##CAS NAME=1-Hepten-3-ol, 3-methyl
##MOLFORM=C8H16O
##CAS REGISTRY NO=24424-68-8
##MP= -300
##BP= -300
##MW= 128
##$RETENTION INDEX=0
##$CONDENSED SPECTRUM=NO
##NPOINTS= 62
##XYDATA=(XY..XY) 1 
    26         16
    27        181
    28         32
    29        114
    30          7
    31        328
    33         31
    37          4
    38         11
    39         88
    40         22
    41        445
    42        158
    43        520
    44         25
    45         65
    46          3
    50          5
    51          8
    52          3
    53         37
    54          7
    55        134
    56        563
    57         85
    58         46
    59         28
    65          3
    66          2
    67         25
    68         28
    69         29
    70         12
    71        999
    72         50
    73         25
    74          5
    77          3
    79          5
    80          1
    81         17
    82          3
    83         16
    84          4
    85         28
    86         17
    87          6
    91          2
    93          3
    95         25
    96          2
    97          2
    99          5
   100          3
   101         49
   102          3
   109          1
   110          6
   111          2
   113         71
   114          4
   128          1