##TITLE=Library Entry 55680
##JCAMP-DX=Revision 4.10 
##DATA TYPE=MASS SPECTRUM
##SAMPLE DESCRIPTION=RADIAN CORP
##NAMES=HP
##CAS NAME=1,2-Ethanediamine, N'-(2-aminoethyl)-N,N-diethyl-
##MOLFORM=C8H21N3
##CAS REGISTRY NO=24426-16-2
##MP= -300
##BP= -300
##MW= 159
##$RETENTION INDEX=0
##$CONDENSED SPECTRUM=NO
##NPOINTS= 52
##XYDATA=(XY..XY) 1 
    15          6
    16          2
    17          4
    18         19
    26          5
    27         29
    28         87
    29         67
    30        226
    31          5
    32         11
    39          1
    40          5
    41         22
    42         86
    43         29
    44        137
    45          8
    51          2
    52          2
    53          4
    54         13
    55         10
    56         84
    57         24
    58        226
    59         11
    68          6
    69          5
    70         24
    71         13
    72         88
    73         37
    74          3
    80          5
    81          3
    82          4
    83          4
    84          9
    85         21
    86        999
    87         84
    88          3
    97          4
    98          3
    99         67
   100         19
   101          5
   113          6
   127          1
   129          7
   142          3