##TITLE=Library Entry 20487
##JCAMP-DX=Revision 4.10 
##DATA TYPE=MASS SPECTRUM
##SAMPLE DESCRIPTION=A.A.Kutin, Moscow, Russia
##NAMES=HP
##CAS NAME=Dicyclohexanol, 1,1'-ethenediyl-1,1'-diyl-
##MOLFORM=C14H24O2
##CAS REGISTRY NO=24434-23-9
##MP= -300
##BP= -300
##MW= 224
##$RETENTION INDEX=0
##$CONDENSED SPECTRUM=NO
##NPOINTS= 121
##XYDATA=(XY..XY) 1 
    42         35
    44         67
    47          7
    50         25
    51        126
    52         94
    53        389
    54        204
    55        999
    56        249
    57        209
    58        123
    59         41
    60          9
    61          3
    63         22
    64         14
    65        241
    66        243
    67        591
    68        232
    69        685
    70        256
    71         93
    72         12
    73         21
    75         10
    76        299
    77        149
    78        645
    79        261
    80        779
    81        468
    82        465
    83         70
    84         67
    89          8
    90          6
    91        479
    92         81
    93        552
    94        497
    95        626
    96        363
    97        372
    98        207
    99        109
   100         25
   101          7
   103         85
   104         18
   105        209
   106         61
   107        707
   108        251
   109        233
   110        296
   111        395
   112         78
   113         16
   114         35
   116         26
   117        141
   118          4
   119        123
   120         43
   121        358
   122        128
   123         88
   124         35
   125        220
   126         26
   128          7
   129          6
   130         16
   131         77
   132         45
   133         37
   134         36
   135        575
   136        251
   137         84
   141          4
   143          9
   144          7
   145        214
   146         41
   147         36
   148        475
   149        154
   150         62
   151         12
   152          9
   160         12
   161         15
   162         17
   163        708
   164        400
   165         31
   166          7
   167         14
   168         20
   169          6
   173         19
   174          6
   177        208
   178         95
   179         20
   180          3
   181         21
   187          8
   188         37
   189         14
   190          5
   191         74
   205         26
   206        218
   207         51
   208          9
   224        297
   225         28