##TITLE=Library Entry 60161
##JCAMP-DX=Revision 4.10 
##DATA TYPE=MASS SPECTRUM
##SAMPLE DESCRIPTION=F. TURECEK,HEYROVSKY INST PHYS CHEM & ELECTROCHEM,PRAGU
E,CZECH
##NAMES=HP
##CAS NAME=1H-Tetrazole, 5-(ethylamino)-1-phenyl-
##MOLFORM=C9H11N5
##CAS REGISTRY NO=24433-72-5
##MP= -300
##BP= -300
##MW= 189
##$RETENTION INDEX=0
##$CONDENSED SPECTRUM=NO
##NPOINTS= 59
##XYDATA=(XY..XY) 1 
    26         41
    27        205
    29        253
    30         20
    37         26
    38         37
    39        211
    40         39
    41        115
    42         46
    43         57
    44         76
    50        113
    51        390
    52         76
    53         18
    55         48
    56         23
    57         36
    58         16
    62         25
    63        133
    64        322
    65        253
    66         32
    67         18
    69         22
    71         15
    74         18
    75         16
    76         55
    77        947
    78        115
    79         24
    90         32
    91        999
    92        113
    93         60
    94         16
   103         25
   104        340
   105        129
   106         57
   107         14
   117        207
   118        241
   119        154
   120         12
   121         11
   131         11
   132         97
   133        384
   134         34
   146        232
   147         38
   160        333
   161         46
   189        216
   190         28