##TITLE=Library Entry 16697
##JCAMP-DX=Revision 4.10 
##DATA TYPE=MASS SPECTRUM
##SAMPLE DESCRIPTION=Chemical Concepts
##NAMES=HP
##CAS NAME=3-Methyloxirane-2-carboxylic acid
##MOLFORM=C4H6O3
##CAS REGISTRY NO=2443-40-5
##MP= -300
##BP= -300
##MW= 102
##$RETENTION INDEX=0
##$CONDENSED SPECTRUM=NO
##NPOINTS= 42
##XYDATA=(XY..XY) 1 
    25         11
    26        109
    27        435
    28         43
    29        617
    30        103
    31        114
    36          6
    37         22
    38         37
    39        121
    40         46
    41         65
    42         67
    43        273
    44        455
    45        999
    46        103
    47         12
    53         18
    55         59
    56         30
    57        340
    58        445
    59         37
    60         13
    67          6
    68         19
    69         40
    70          6
    71          7
    72          5
    73         17
    74         13
    76         11
    77          7
    83          7
    84         21
    85         10
    86         46
    87         47
    88          6