##TITLE=Library Entry 65185
##JCAMP-DX=Revision 4.10 
##DATA TYPE=MASS SPECTRUM
##SAMPLE DESCRIPTION=D.HENNEBERG, MAX-PLANCK INSTITUTE, MULHEIM, WEST GERMAN
Y
##NAMES=HP
##CAS NAME=4,6-Etheno-1H-cycloprop[f]isobenzofuran-1,3(3aH)-dione, 4,4a,5,5a
,6,6a-hexahydro-
##MOLFORM=C11H10O3
##CAS REGISTRY NO=24447-28-7
##MP= -300
##BP= -300
##MW= 190
##$RETENTION INDEX=0
##$CONDENSED SPECTRUM=NO
##NPOINTS= 121
##XYDATA=(XY..XY) 1 
    26        114
    27        103
    28        125
    29         30
    30          8
    31         20
    36          0
    37         10
    38         31
    39        200
    40         27
    41         29
    42          7
    43         17
    44          3
    45         15
    46          6
    47          0
    48          1
    49          5
    50         44
    51         89
    52         40
    53         22
    54         21
    55         22
    56          4
    57         18
    58          8
    59          3
    60          4
    61          6
    62         27
    63         62
    64         14
    65        104
    66         37
    67          4
    68          6
    69          2
    70          2
    72          1
    73          5
    74          6
    75          7
    76         10
    77         51
    78         58
    79         11
    80          1
    81          4
    82          1
    83          2
    84          1
    85          1
    86          2
    87          5
    88         30
    89         26
    90         25
    91        504
    92        999
    93         82
    94          5
    95          1
    96          1
    97          1
    98          4
    99          5
   100          0
   101          1
   102          9
   103         31
   104          7
   105          6
   106          4
   107          1
   108          1
   110          0
   111          0
   112          1
   113          2
   114          2
   115         65
   116         27
   117        282
   118        114
   119         12
   120          1
   122          1
   123          1
   127          2
   128          3
   129          2
   130          0
   131          6
   132          1
   133          1
   134          3
   135          0
   139          0
   143          1
   144          2
   145          7
   146          3
   147          1
   149         15
   150          1
   156          0
   159          0
   161          0
   162          4
   163          1
   164          0
   167          0
   179          0
   184          1
   190         47
   191          5
   192          1
   193          0