##TITLE=Library Entry 80355
##JCAMP-DX=Revision 4.10 
##DATA TYPE=MASS SPECTRUM
##SAMPLE DESCRIPTION=A.A.Kutin, Moscow, Russia
##NAMES=HP
##CAS NAME=Phenol, p-(benzyloxy)-, benzoate
##MOLFORM=C20H16O3
##CAS REGISTRY NO=2444-21-5
##MP= -300
##BP= -300
##MW= 304
##$RETENTION INDEX=0
##$CONDENSED SPECTRUM=NO
##NPOINTS= 70
##XYDATA=(XY..XY) 1 
    36          3
    37          6
    38         11
    39         64
    40         16
    41         25
    43         25
    44         41
    45          3
    46          1
    47          0
    48          1
    50         31
    51        189
    52         21
    53         13
    54         21
    55         10
    56          4
    57          9
    58          2
    59          1
    63         55
    64          2
    65        164
    66          2
    68          2
    69          5
    70          3
    71          2
    72          1
    73          2
    74         10
    75          9
    77        428
    78         25
    79          5
    80          5
    81          6
    82          8
    83          3
    84          1
    85          2
    86          1
    87          1
    90         28
    91        826
    92         48
    93          7
    94          2
   105        999
   106         60
   107          6
   108          3
   120          2
   121         11
   122          2
   123          1
   184          1
   185          2
   198          0
   199          1
   200          1
   201          0
   214          0
   215          0
   304        135
   305         30
   306          4
   307          0