##TITLE=Library Entry 34575
##JCAMP-DX=Revision 4.10 
##DATA TYPE=MASS SPECTRUM
##SAMPLE DESCRIPTION=NIST Mass Spectrometry Data Center, 1990.
##NAMES=HP
##CAS NAME=Butane, 1,3-dibromo-3-methyl-
##MOLFORM=C5H10Br2
##CAS REGISTRY NO=24443-15-0
##MP= -300
##BP= -300
##MW= 228
##$RETENTION INDEX=0
##$CONDENSED SPECTRUM=NO
##NPOINTS= 38
##XYDATA=(XY..XY) 1 
    14         15
    26         29
    27        158
    29         59
    37         18
    38         51
    39        300
    40         78
    41        826
    42         57
    43        151
    50         45
    51         63
    52         23
    53        169
    54         26
    55        113
    56         10
    65         17
    67         78
    69        999
    70         50
    79         35
    80         43
    81         36
    82         37
    93         28
    95         27
   107         58
   109         47
   121         19
   123         20
   133         13
   135         13
   149        512
   150         50
   151        488
   152         25