##TITLE=Library Entry 3563
##JCAMP-DX=Revision 4.10 
##DATA TYPE=MASS SPECTRUM
##SAMPLE DESCRIPTION=J. MADSEN,DEP. ORG. CHEM.,TECH. UNIV. DENMARK,LYNGBY,DE
NMARK
##NAMES=HP
##CAS NAME=Tetrasulfide, di-2-propenyl
##MOLFORM=C6H10S4
##CAS REGISTRY NO=2444-49-7
##MP= -300
##BP= -300
##MW= 210
##$RETENTION INDEX=1538
##$CONDENSED SPECTRUM=NO
##NPOINTS= 54
##XYDATA=(XY..XY) 1 
    37         12
    38         23
    39        309
    40        152
    41        999
    42         33
    43          7
    44         11
    45        187
    46         19
    47         39
    53          4
    55          6
    57         10
    58          9
    59         16
    61         21
    62          5
    64        152
    65          8
    66         14
    67          8
    69         15
    71         45
    72         34
    73        369
    74         29
    75         16
    78          6
    79         11
    80          8
    81         55
    82          5
    85         13
    87          5
    91          5
    99          8
   100          4
   103         26
   104         54
   105        151
   106         31
   107         15
   113         27
   114          9
   136         10
   138          4
   146        271
   147         23
   148         27
   169          8
   210         55
   211          5
   212         10