##TITLE=Library Entry 64563
##JCAMP-DX=Revision 4.10 
##DATA TYPE=MASS SPECTRUM
##SAMPLE DESCRIPTION=Chemical Concepts
##NAMES=HP
##CAS NAME=Phosphine oxide, phenylbis(phenylmethyl)-
##MOLFORM=C20H19OP
##CAS REGISTRY NO=24442-45-3
##MP= -300
##BP= -300
##MW= 306
##$RETENTION INDEX=0
##$CONDENSED SPECTRUM=NO
##NPOINTS= 114
##XYDATA=(XY..XY) 1 
    26          0
    27          2
    28          1
    29          0
    38          1
    39         21
    40         10
    41          8
    42          0
    43          1
    44          3
    45          0
    47          9
    50          3
    51         14
    52          2
    53          0
    55          0
    56          0
    57          1
    61          0
    62          1
    63         10
    64          2
    65         83
    66          4
    67          0
    69          1
    70          0
    71          0
    74          0
    75          0
    76          1
    77         16
    78          2
    79          0
    81          0
    82          0
    83          1
    85          0
    87          0
    89         10
    90          4
    91        999
    92         74
    93          2
    95          1
    96          1
    97          0
   102          0
   103          0
   104          0
   105          1
   106          0
   107          6
   108          5
   109          5
   110          0
   115          1
   120          0
   121          4
   122          0
   124          4
   125          2
   126          0
   127          0
   128          0
   133          0
   136          0
   137          3
   138          0
   139          2
   140          0
   141          1
   151          0
   152          6
   153          1
   163          0
   164          0
   165         19
   166          7
   167         22
   168          4
   169          0
   170          0
   171          0
   178          1
   179          1
   180          0
   181          1
   182          0
   183          1
   194          0
   195          1
   196          1
   197         29
   198          4
   199          1
   201          1
   202          0
   209          0
   213          0
   215        143
   216         22
   217          1
   228          0
   229          1
   279          0
   291          0
   305        211
   306        292
   307         62
   308          7
   309          0