##TITLE=Library Entry 3044
##JCAMP-DX=Revision 4.10 
##DATA TYPE=MASS SPECTRUM
##SAMPLE DESCRIPTION=R.W.A.OLIVER UNIV. OF SALFORD, SALFORD, LANCASHIRE, UK
##NAMES=HP
##CAS NAME=3,5-Cyclohexadiene-1,2-dione, 4,6-bis(1,1-dimethylethyl)-3-nitro-
##MOLFORM=C14H19NO4
##CAS REGISTRY NO=24457-00-9
##MP= -300
##BP= -300
##MW= 265
##$RETENTION INDEX=0
##$CONDENSED SPECTRUM=NO
##NPOINTS= 54
##XYDATA=(XY..XY) 1 
    41        999
    42         90
    43        230
    44        800
    50         60
    51        120
    52         50
    53        130
    55        210
    56        300
    57        850
    58         60
    65        100
    66         50
    67        180
    77        130
    78         50
    79        100
    91        110
    93         60
    96        150
   105         70
   106         60
   107         60
   108         60
   120        140
   121         60
   122        100
   134        120
   135         50
   146         50
   147         60
   148         60
   149         70
   150         50
   161         50
   162        230
   163         60
   175         50
   177         50
   189         50
   190        220
   191         60
   192         70
   205        210
   206         60
   207         60
   219         60
   220         50
   250        360
   251         60
   265        250
   266         40
   267         10