##TITLE=Library Entry 8987
##JCAMP-DX=Revision 4.10 
##DATA TYPE=MASS SPECTRUM
##SAMPLE DESCRIPTION=V.G.Zaikin, Petrochem. Synth. Inst., Moscow
##NAMES=HP
##CAS NAME=Propanoic acid, 2-methyl-, pentyl ester
##MOLFORM=C9H18O2
##CAS REGISTRY NO=2445-72-9
##MP= -300
##BP= -300
##MW= 158
##$RETENTION INDEX=1056
##$CONDENSED SPECTRUM=NO
##NPOINTS= 39
##XYDATA=(XY..XY) 1 
    26         13
    27        122
    28         33
    29         53
    31          3
    36         16
    37          8
    38         28
    39        102
    40         22
    41        257
    42        175
    43        999
    44         38
    45         22
    51         14
    52          5
    53          8
    54          5
    55        136
    56         21
    57         21
    60         17
    69         39
    70        332
    71        741
    72         38
    73         49
    85         11
    87          6
    88         32
    89        397
    90         22
    91          4
   101         19
   102          2
   115         11
   116          2
   158          2