##TITLE=Library Entry 71009
##JCAMP-DX=Revision 4.10 
##DATA TYPE=MASS SPECTRUM
##SAMPLE DESCRIPTION=Japan AIST/NIMC Database- Spectrum MS-IW-8019
##NAMES=HP
##CAS NAME=2,12-Dibromocyclododecanone
##MOLFORM=C12H20Br2O
##CAS REGISTRY NO=24459-40-3
##MP= -300
##BP= -300
##MW= 338
##$RETENTION INDEX=0
##$CONDENSED SPECTRUM=NO
##NPOINTS= 162
##XYDATA=(XY..XY) 1 
    26          2
    27         48
    28         12
    29         36
    39         47
    40         10
    41        168
    42         32
    43         47
    44          3
    45          1
    47          1
    48          1
    51          4
    52          2
    53         33
    54         40
    55        332
    56         39
    57         26
    58          3
    59          3
    60          4
    61         12
    65          8
    66          6
    67        118
    68         45
    69        168
    70         44
    71         18
    72          1
    77          8
    78          3
    79         37
    80         28
    81        158
    82         42
    83        158
    84        152
    85         18
    86          1
    91         15
    92          3
    93         31
    94         16
    95        103
    96         21
    97        120
    98        999
    99         79
   100          5
   105         13
   106          5
   107         20
   108          9
   109         35
   110         11
   111        106
   112        209
   113         16
   114          1
   117          1
   119         15
   120          5
   121         26
   122          8
   123         19
   124          5
   125         15
   126         10
   127          1
   131          1
   132          2
   133         14
   134          6
   135         36
   136          7
   137         26
   138          4
   139          5
   145          1
   146          1
   147          4
   148          9
   149          9
   150          8
   151          9
   152          7
   153          2
   159          4
   160          2
   161        151
   162         23
   163         11
   164          8
   165          6
   173          5
   174          1
   175         13
   176         12
   177         13
   178         14
   179        158
   180         28
   181         16
   182          2
   185          1
   187          4
   188          1
   189          8
   190          6
   191          7
   192          5
   193          1
   199          3
   201          4
   202          1
   203          3
   204          3
   205          2
   206          2
   214          1
   215          3
   216          2
   217          5
   218          1
   219          2
   229          1
   231          2
   232          1
   233          1
   234          1
   241         38
   242          5
   243         36
   244          5
   245          1
   247          1
   254          1
   256          1
   258          4
   259        130
   260         25
   261        130
   262         19
   263          2
   266          1
   268          2
   270          1
   294          4
   295          1
   296          9
   297          2
   298          5
   299          1
   338         17
   339          3
   340         34
   341          6
   342         16
   343          3