##TITLE=Library Entry 24811
##JCAMP-DX=Revision 4.10 
##DATA TYPE=MASS SPECTRUM
##SAMPLE DESCRIPTION=Japan AIST/NIMC Database- Spectrum MS-NW-5861
##NAMES=HP
##CAS NAME=Propanoic acid, hexyl ester
##MOLFORM=C9H18O2
##CAS REGISTRY NO=2445-76-3
##MP= -300
##BP= -300
##MW= 158
##$RETENTION INDEX=1108
##$CONDENSED SPECTRUM=NO
##NPOINTS= 66
##XYDATA=(XY..XY) 1 
    14          1
    15          6
    18          5
    26         11
    27        125
    28         48
    29        399
    30         10
    31         22
    32          2
    37          1
    38          2
    39         48
    40          9
    41        173
    42        178
    43        394
    44         13
    45          6
    50          1
    51          2
    52          1
    53          9
    54         16
    55        215
    56        444
    57        999
    58         35
    59          6
    61          1
    65          1
    67          9
    68          6
    69        150
    70         20
    71         16
    72         20
    73          6
    74         19
    75        398
    76         13
    77          3
    79          1
    81          2
    82          8
    83         43
    84        239
    85         33
    86          4
    87         61
    88          4
    89          2
    97          2
    98          6
    99         19
   100          3
   101         21
   102          3
   111          3
   112          3
   113          1
   114          2
   115          9
   116          2
   129          9
   130          2