##TITLE=Library Entry 58221
##JCAMP-DX=Revision 4.10 
##DATA TYPE=MASS SPECTRUM
##SAMPLE DESCRIPTION=CATALOGUE OF MASS SPECTRA OF PESTICIDES, APRIL, 1975; J
. FREUDENTHAL & L. G. GRAMBERG, NAT'L INST. OF PUBLIC HEALTH, THE NETHERLAND
S
##NAMES=HP
##CAS NAME=Urbacid
##MOLFORM=C7H15AsN2S4
##CAS REGISTRY NO=2445-07-0
##MP= -300
##BP= -300
##MW= 330
##$RETENTION INDEX=0
##$CONDENSED SPECTRUM=NO
##NPOINTS= 21
##XYDATA=(XY..XY) 1 
    15         17
    42         61
    44         45
    47         22
    61         11
    64         23
    72         33
    73         87
    76         10
    77         34
    88        999
    89         42
    90         44
   107         53
   120         13
   121         30
   195         16
   210        556
   211         34
   212         52
   315         47