##TITLE=Library Entry 37451
##JCAMP-DX=Revision 4.10 
##DATA TYPE=MASS SPECTRUM
##SAMPLE DESCRIPTION=Exported from NIST MS Search
##NAMES=HP
##CAS NAME=Butanoic acid, 2-methyl-, 2-methylbutyl ester
##MOLFORM=C10H20O2
##CAS REGISTRY NO=2445-78-5
##MP= -300
##BP= -300
##MW= 172
##$RETENTION INDEX=1105
##$CONDENSED SPECTRUM=NO
##NPOINTS= 35
##XYDATA=(XY..XY) 1 
    26         11
    27        109
    28         57
    29        311
    30         13
    31         16
    39         89
    40         12
    41        348
    42        123
    43        427
    44         19
    45         34
    53         16
    54         11
    55        227
    56         93
    57        818
    58         38
    69         25
    70        999
    71        224
    72         14
    73         11
    74        109
    84          9
    85        705
    86         38
    87         46
   101          9
   102         33
   103        133
   115         44
   144         42
   172          2