##TITLE=Library Entry 37624
##JCAMP-DX=Revision 4.10 
##DATA TYPE=MASS SPECTRUM
##SAMPLE DESCRIPTION=Exported from NIST MS Search
##NAMES=HP
##CAS NAME=Butanoic acid, 3-methyl-, 2-methylbutyl ester
##MOLFORM=C10H20O2
##CAS REGISTRY NO=2445-77-4
##MP= -300
##BP= -300
##MW= 172
##$RETENTION INDEX=1107
##$CONDENSED SPECTRUM=NO
##NPOINTS= 49
##XYDATA=(XY..XY) 1 
    15          7
    17         11
    18         71
    20          7
    27         49
    28         16
    29        145
    30          7
    31          9
    32         19
    39         47
    40         10
    41        270
    42        118
    43        461
    44         23
    45         29
    53         13
    54          9
    55        172
    56         64
    57        556
    58         34
    59         16
    60         84
    61         28
    69         34
    70        999
    71        292
    72         18
    74         17
    83          6
    84         13
    85        802
    86         44
    87         66
    89         15
    98          9
   101         15
   102         38
   103         76
   114          9
   115         42
   116          5
   130         18
   142         10
   143          4
   144          6
   172          6