##TITLE=Library Entry 38491
##JCAMP-DX=Revision 4.10 
##DATA TYPE=MASS SPECTRUM
##SAMPLE DESCRIPTION=N.W. Davies, Centr. Sci. Lab., Univ. Tasmania, Hobart,
 Australia
##NAMES=HP
##CAS NAME=Propanoic acid, 2-methyl-, 2-methylbutyl ester
##MOLFORM=C9H18O2
##CAS REGISTRY NO=2445-69-4
##MP= -300
##BP= -300
##MW= 158
##$RETENTION INDEX=1016
##$CONDENSED SPECTRUM=NO
##NPOINTS= 66
##XYDATA=(XY..XY) 1 
    25          1
    26          7
    27        129
    29        108
    30          2
    31         15
    37          1
    38          3
    39         75
    41        244
    42        110
    43        926
    44          4
    45         23
    50          2
    51          4
    52          3
    53         19
    54          5
    55        179
    56         27
    57         73
    58          7
    59          5
    60          1
    63          1
    65          4
    66          3
    67         23
    68         53
    69         42
    70        533
    71        999
    72         45
    73         13
    74          1
    77          7
    78          2
    79         11
    80          5
    81          5
    82          1
    84          4
    85         41
    86          3
    87         11
    88         12
    89         69
    90          3
    91          7
    92          7
    93         48
    94          9
    95          3
   100          2
   101         35
   102          5
   103          2
   105          2
   107          9
   108          2
   115          3
   121          6
   128          1
   129          3
   136          3