##TITLE=Library Entry 57207
##JCAMP-DX=Revision 4.10 
##DATA TYPE=MASS SPECTRUM
##SAMPLE DESCRIPTION=LAC, NIDDK, NIH, Bethesda, MD 20892
##NAMES=HP
##CAS NAME=4,6-Di-O-methyl-.alpha.-d-galactose
##MOLFORM=C8H16O6
##CAS REGISTRY NO=24462-98-4
##MP= -300
##BP= -300
##MW= 208
##$RETENTION INDEX=0
##$CONDENSED SPECTRUM=NO
##NPOINTS= 101
##XYDATA=(XY..XY) 1 
    41        169
    43        161
    44         22
    45        597
    46          6
    47         28
    53         22
    54         12
    55         43
    56         25
    57         71
    58         63
    59        119
    60        214
    61         41
    63          6
    65          4
    67          5
    68         13
    69         71
    71        517
    73        144
    74        409
    75        127
    77         23
    78         25
    79          5
    81         18
    82         10
    83          4
    84         68
    85        123
    87        999
    88          6
    89         77
    91         15
    93          3
    94          1
    95          6
    96          1
    97         21
    99         47
   101        261
   102         92
   103         19
   104          2
   105         50
   106         15
   107          3
   109          4
   111         40
   112         31
   114         86
   115         42
   117         18
   118          5
   119         31
   121          3
   122          4
   124         18
   125          3
   127          6
   128          0
   129         11
   131         24
   133         25
   134          6
   135          1
   136          0
   137          1
   139          0
   141         58
   143          7
   144         86
   145         50
   147         10
   149         23
   150          2
   151          0
   152          0
   154          2
   155          0
   157          1
   158          9
   159          8
   161         37
   163          9
   167          3
   173         11
   174          1
   175          0
   176          0
   177          2
   181          0
   185          0
   189          0
   190          5
   191          9
   192          0
   208          3
   209          1