##TITLE=Library Entry 4453
##JCAMP-DX=Revision 4.10 
##DATA TYPE=MASS SPECTRUM
##SAMPLE DESCRIPTION=A.Pleshkova, Nesmeyanov Inst.Org.Elem.Cpds, Moscow
##NAMES=HP
##CAS NAME=3-Methyl-3-isopropyldiaziridine
##MOLFORM=C5H12N2
##CAS REGISTRY NO=24476-95-7
##MP= -300
##BP= -300
##MW= 100
##$RETENTION INDEX=0
##$CONDENSED SPECTRUM=NO
##NPOINTS= 24
##XYDATA=(XY..XY) 1 
    29        140
    30        100
    31         38
    32         65
    39        160
    40         30
    41        390
    42        999
    43        180
    44        150
    45         13
    53         40
    55        350
    56         30
    57        130
    58         43
    68        135
    69         38
    70        100
    72        200
    73         15
    85        175
    86         23
   100          3