##TITLE=Library Entry 63260
##JCAMP-DX=Revision 4.10 
##DATA TYPE=MASS SPECTRUM
##SAMPLE DESCRIPTION=Asinex Ltd, Moscow, Russia
##NAMES=HP
##CAS NAME=4-Piperidinecarbonitrile, 1-[(4-methylphenyl)sulfonyl]-4-phenyl-
##MOLFORM=C19H20N2O2S
##CAS REGISTRY NO=24476-55-9
##MP= -300
##BP= -300
##MW= 340
##$RETENTION INDEX=0
##$CONDENSED SPECTRUM=NO
##NPOINTS= 146
##XYDATA=(XY..XY) 1 
    33          4
    34          2
    35          0
    36          3
    37          2
    38         13
    39        113
    40         37
    41         70
    42        310
    43         21
    44          7
    45          6
    48          4
    49         15
    50         36
    51         77
    52         24
    53         32
    54         50
    55         90
    56        397
    57         18
    58          0
    59          0
    61          4
    62         22
    63         93
    64         34
    65        290
    66         15
    67          8
    68          3
    69          4
    70          2
    71          2
    74         10
    75         17
    76         27
    77         86
    78         38
    79         18
    80         28
    81          3
    82          1
    83          1
    85          1
    86          2
    87          5
    88          9
    89        104
    91        999
    92        116
    93          8
    94          0
    95          1
    97          0
   100          1
   101         11
   102         46
   103         73
   104         21
   105         26
   106         18
   107         28
   108          5
   109          1
   110          1
   111          4
   112          0
   113          2
   114          7
   115         68
   116         34
   117         19
   118         17
   119         15
   120          1
   121          3
   122          1
   123          2
   124          1
   126          3
   127         19
   128         65
   129        100
   130         45
   131         53
   132         10
   133          1
   139         29
   140         17
   141         10
   142          9
   143         14
   144         10
   145          2
   146          9
   147          2
   149          0
   152          2
   155        307
   156         51
   157         25
   158         50
   159          7
   160          1
   161          3
   165          0
   166          0
   167          1
   168          2
   169          2
   170          0
   171          2
   178          0
   181          0
   183         23
   185        555
   186         72
   187          3
   198          0
   201          0
   210         18
   211          2
   212          0
   233          1
   245          0
   246         48
   247          5
   248         16
   249          5
   261          3
   262         39
   263          6
   264          1
   275         11
   276          7
   277          0
   299          0
   337          0
   339         48
   340        192
   341         41
   342         11
   343          1