##TITLE=Library Entry 49473
##JCAMP-DX=Revision 4.10 
##DATA TYPE=MASS SPECTRUM
##SAMPLE DESCRIPTION=H. Luftmann, Org. Chem. Inst., Westfalisch Wilhelms Uni
v., Munster, Germany
##NAMES=HP
##CAS NAME=3-Cyclohexene-1-acetaldehyde
##MOLFORM=C8H12O
##CAS REGISTRY NO=24480-99-7
##MP= -300
##BP= -300
##MW= 124
##$RETENTION INDEX=0
##$CONDENSED SPECTRUM=NO
##NPOINTS= 28
##XYDATA=(XY..XY) 1 
    38         10
    39        190
    40         30
    41        160
    42         20
    50         20
    51         40
    52         20
    53         70
    54        150
    55         90
    65         30
    66         10
    67         90
    68         10
    70         20
    77         70
    78        100
    79        450
    80        999
    81        150
    82         10
    91         50
    93         10
    95         30
   105         10
   106         10
   124         30