##TITLE=Library Entry 4363
##JCAMP-DX=Revision 4.10 
##DATA TYPE=MASS SPECTRUM
##SAMPLE DESCRIPTION=K.WAKABAYASHI MITSUBISHI CHEM. INDUST., KANAGAWA, JAPAN
.
##NAMES=HP
##CAS NAME=1,3,5-Triazine, 2-[(2-methylpropyl)thio]-4,6-bis(trichloromethyl)
-
##MOLFORM=C9H9Cl6N3S
##CAS REGISTRY NO=24481-69-4
##MP= -300
##BP= -300
##MW= 401
##$RETENTION INDEX=0
##$CONDENSED SPECTRUM=NO
##NPOINTS= 357
##XYDATA=(XY..XY) 1 
    15         16
    26         19
    27        340
    28         25
    29        559
    30         19
    35         39
    36        175
    37         13
    38         57
    39        291
    40         43
    41        999
    42         95
    43        251
    44         39
    45        203
    46        247
    47        191
    48         19
    49         59
    50         11
    51         23
    52         11
    53         71
    54         19
    55        815
    56        435
    57        423
    58         55
    59         67
    60         59
    61         31
    62         27
    63          8
    64         11
    65          4
    67          8
    68          8
    69          8
    70         63
    71         31
    72        271
    73        147
    74         35
    75         39
    76         16
    77         11
    78          8
    79         59
    81         27
    82        299
    83         23
    84        177
    85         91
    86         35
    87         59
    88         19
    89         31
    90          4
    91         55
    92          4
    93         19
    94         19
    95          4
    96         27
    97         11
    98         23
    99         19
   100         43
   101         16
   102         11
   103          8
   104          4
   105         16
   106         11
   107          4
   108        645
   109        151
   110        387
   111        103
   112         63
   113         23
   114         39
   115          8
   116          4
   117        299
   118         11
   119        281
   120         27
   121         91
   122        119
   123         19
   124         71
   125         16
   126         35
   127          8
   128         23
   129         31
   130          8
   131         47
   132          8
   133         31
   134        163
   135        103
   136        111
   137         43
   138         27
   139         20
   140        311
   141         11
   142        155
   143         16
   144         83
   145         19
   146         67
   147         11
   148         19
   149         11
   150          8
   151         11
   152        151
   153          8
   154         83
   155         20
   156         27
   157          8
   158         19
   159         11
   160          4
   161          8
   162         11
   163         11
   164         11
   165          4
   166         16
   167         39
   168         11
   169         31
   170         23
   171         19
   172         23
   173         16
   174         11
   175          4
   178         31
   179         19
   180         31
   181         35
   182         16
   183         31
   184          4
   185         16
   186          4
   187         16
   188          8
   189         16
   190         19
   191          4
   192         31
   193         51
   194         32
   195         35
   196         23
   197         11
   198         16
   199          4
   200         11
   201         11
   202         11
   203         19
   204         11
   205         16
   206         47
   207         63
   208         35
   209         43
   210         16
   211         16
   212          4
   213         19
   214          4
   215         31
   216          4
   217         43
   218         16
   219         35
   220         11
   221         47
   222         11
   223         35
   224         11
   225         16
   226         19
   227         11
   228        131
   229         16
   230        111
   231          8
   232         35
   233          4
   234          8
   235         16
   236         16
   237         16
   238         11
   239         16
   240         47
   241         27
   242         51
   243         19
   244         23
   245         11
   246         11
   247          4
   248         11
   249          8
   250         16
   251          4
   252         11
   253         16
   254         19
   255         16
   256         11
   257          8
   258         11
   259          8
   260         19
   261         16
   262         19
   263         11
   264          8
   265          4
   274          8
   275         16
   276         39
   277         31
   278         51
   279         27
   280         31
   281         11
   282         11
   283          4
   284         11
   285          8
   286         11
   287         16
   288         87
   289         31
   290         99
   291         27
   292        107
   293         19
   294         35
   295         19
   296         31
   297         27
   298         31
   299         14
   300         11
   301          8
   302         11
   303          4
   304         16
   305          4
   306          8
   307          4
   309         55
   310         51
   311        139
   312        103
   313        131
   314        103
   315         83
   316         47
   317         27
   318         19
   319         11
   320         11
   321          4
   322         16
   323         71
   324        251
   325        103
   326        391
   327        107
   328        292
   329         83
   330        167
   331         43
   332        103
   333         55
   334         75
   335         28
   336         43
   337         10
   338         31
   339          6
   340         35
   341          8
   342         23
   343          8
   344         11
   345        319
   346        247
   347        611
   348        499
   349        547
   350        413
   351        229
   352        171
   353         73
   354         59
   355         27
   356         31
   357          8
   358         59
   359        107
   360        115
   361        209
   362        107
   363        161
   364         41
   365         84
   366        635
   367        103
   368        995
   369        111
   370        649
   371         95
   372        283
   373         31
   374         59
   375         11
   376         45
   377          8
   378         19
   379          1
   386         55
   387          8
   388        103
   389         11
   390         81
   391         11
   392         35
   393          4
   394         11
   395          2
   400          5
   401         11
   402         11
   403         23
   404          9
   405         18
   406          7
   407          8
   408          2