##TITLE=Library Entry 54937
##JCAMP-DX=Revision 4.10 
##DATA TYPE=MASS SPECTRUM
##SAMPLE DESCRIPTION=W. UTILIZATION R & D DIV., U.S. DEPT. OF AGRIC., ALBANY
, CAL.
##NAMES=HP
##CAS NAME=Valeric acid, thio-, S-sec-butyl ester
##MOLFORM=C9H18OS
##CAS REGISTRY NO=2450-11-5
##MP= -300
##BP= -300
##MW= 174
##$RETENTION INDEX=0
##$CONDENSED SPECTRUM=NO
##NPOINTS= 42
##XYDATA=(XY..XY) 1 
    28         12
    29        118
    35          4
    39         43
    40          3
    41        307
    42         19
    43         10
    44          1
    45         10
    47         13
    53         12
    54          5
    55         93
    56         69
    57        859
    58         43
    59         25
    60         19
    61         53
    67          5
    69          1
    71          2
    73          5
    75          6
    76         27
    77         10
    84         15
    85        999
    86         55
    87          4
    88          7
    89         16
    90          9
    91          3
   103          2
   117        263
   118         14
   119         48
   132         12
   145          3
   174         22