##TITLE=Library Entry 66118
##JCAMP-DX=Revision 4.10 
##DATA TYPE=MASS SPECTRUM
##SAMPLE DESCRIPTION=Chemical Concepts
##NAMES=HP
##CAS NAME=Cyclobutane, 1,2-diethylidene-
##MOLFORM=C8H12
##CAS REGISTRY NO=24517-05-3
##MP= -300
##BP= -300
##MW= 108
##$RETENTION INDEX=0
##$CONDENSED SPECTRUM=NO
##NPOINTS= 78
##XYDATA=(XY..XY) 1 
    25          7
    26         60
    27        289
    28        206
    29         74
    30          1
    31          2
    36          1
    37         12
    38         35
    39        421
    40        125
    41        191
    42         21
    43         64
    44         11
    45         11
    46          1
    47          1
    49          9
    50         82
    51        183
    52        153
    53        218
    54        116
    55         58
    56         29
    57          7
    58          1
    59          1
    60          1
    61          9
    62         20
    63         56
    64         13
    65        201
    66        410
    67        139
    68         28
    69          9
    70          3
    71          3
    73          6
    74         15
    75         21
    76          7
    77        717
    78        130
    79        926
    80        211
    81         32
    82          2
    83          5
    84          1
    85          1
    86          2
    87          1
    89          7
    90          2
    91        585
    92         74
    93        999
    94         77
    95          7
    96         12
    97         11
    98          3
    99          4
   101          0
   102          2
   103          9
   104          2
   105         48
   106         11
   107         91
   108        774
   109         74
   110          7