##TITLE=Library Entry 22530
##JCAMP-DX=Revision 4.10 
##DATA TYPE=MASS SPECTRUM
##SAMPLE DESCRIPTION=NIST Mass Spectrometry Data Center, 1998.
##NAMES=HP
##CAS NAME=Triglycidyl isocyanurate
##MOLFORM=C12H15N3O6
##CAS REGISTRY NO=2451-62-9
##MP= -300
##BP= -300
##MW= 297
##$RETENTION INDEX=0
##$CONDENSED SPECTRUM=NO
##NPOINTS= 175
##XYDATA=(XY..XY) 1 
    14          2
    15         23
    25          1
    26         13
    27        130
    28         87
    29        179
    30         28
    31        173
    32          2
    37          1
    38          3
    39         24
    40         72
    41        151
    42        206
    43        148
    44         91
    45         13
    46          1
    51          1
    52          4
    53          8
    54         66
    55        116
    56        999
    57        208
    58         40
    59          3
    66          2
    67         12
    68         63
    69        144
    70        675
    71         68
    72         32
    73          4
    74          3
    78          1
    79          1
    80          4
    81         13
    82        486
    83        142
    84         86
    85         25
    86         66
    87         53
    88          3
    93          2
    94          3
    95         23
    96         34
    97         36
    98        156
    99        378
   100         91
   101         12
   102          1
   107          1
   108          3
   109         13
   110         26
   111         96
   112         50
   113        110
   114         15
   115          5
   116          2
   117          1
   121         13
   122          3
   123         21
   124         39
   125         98
   126         34
   127         41
   128          9
   129         15
   130         41
   131          2
   135          1
   136          3
   137         11
   138         11
   139         29
   140         11
   141         34
   142         21
   143        227
   144         20
   145          2
   149          1
   150          1
   151          7
   152          6
   153         17
   154         29
   155         25
   156         78
   157         11
   158          2
   164          1
   165          2
   166          8
   167         10
   168         19
   169         52
   170         22
   171         11
   172          3
   178          2
   179          4
   180         10
   181         15
   182         14
   183         13
   184         12
   185          9
   186         11
   187          1
   192          2
   193          2
   194         10
   195          7
   196         10
   197          5
   198         13
   199         21
   200          2
   206          2
   207          6
   208          8
   209         13
   210         14
   211         10
   212         17
   213          3
   220          2
   221          1
   222          5
   223          5
   224         18
   225         17
   226         27
   227          4
   234          1
   236          9
   237         56
   238         23
   239         43
   240          8
   241          2
   242          8
   243          1
   249          1
   250         14
   251          3
   252          4
   253          2
   254         32
   255        214
   256         25
   257          3
   266         37
   267        100
   268         31
   269          7
   270          1
   280          2
   281          1
   282          1
   296          4
   297         23
   298          4