##TITLE=Library Entry 77562
##JCAMP-DX=Revision 4.10 
##DATA TYPE=MASS SPECTRUM
##SAMPLE DESCRIPTION=A.S.Moskovkin,I.M.Karnaukh, Russian Center on Disaster
 Medicine
##NAMES=HP
##CAS NAME=2,2-Dimethyl-6-phenylpiperidin-4-one
##MOLFORM=C13H17NO
##CAS REGISTRY NO=24522-15-4
##MP= -300
##BP= -300
##MW= 203
##$RETENTION INDEX=0
##$CONDENSED SPECTRUM=NO
##NPOINTS= 142
##XYDATA=(XY..XY) 1 
    37          5
    38         12
    39        100
    40         54
    41        180
    42        470
    43        230
    44         24
    45          2
    49          3
    50         39
    51        120
    52         45
    53         27
    54         16
    55         82
    56        130
    57         42
    58        400
    59         21
    60          1
    61          2
    62          9
    63         38
    64         15
    65         60
    66         11
    67          8
    68         21
    69         11
    70         40
    71         22
    72         24
    73         13
    74         15
    75         20
    76         40
    77        290
    78        210
    79        120
    80         26
    81          8
    82         17
    83         72
    84        240
    85         38
    86          5
    87          4
    88          2
    89         41
    90         32
    91        150
    92         23
    93          6
    94         18
    95          2
    96          3
    97          4
    98         10
    99          4
   100          8
   101          8
   102         60
   103        290
   104        999
   105        210
   106        400
   107         36
   108          4
   109          2
   110         22
   111          2
   112          1
   113          1
   114          2
   115         31
   116         16
   117         40
   118         78
   119         45
   120         15
   121          2
   122          2
   124          1
   125          5
   126         29
   127         10
   128         16
   129         13
   130         26
   131        780
   132         89
   133          8
   134          1
   135          1
   139          2
   140          2
   141          4
   142          3
   143         13
   144         37
   145         44
   146        390
   147         52
   148          4
   149          1
   152          1
   153          2
   154          1
   155          1
   156          3
   157          2
   158         15
   159          8
   160        250
   161         35
   162          3
   165          1
   166          1
   167          6
   168          5
   169          1
   170          2
   171          1
   172          2
   174         19
   180          1
   181          3
   182         13
   183         41
   184          8
   185          3
   186         10
   187          8
   188        500
   189         71
   190          6
   201          3
   202         24
   203        500
   204         73
   205          5