##TITLE=Library Entry 85435
##JCAMP-DX=Revision 4.10 
##DATA TYPE=MASS SPECTRUM
##SAMPLE DESCRIPTION=Exported from NIST MS Search
##NAMES=HP
##CAS NAME=Ethanone, 1-(2-furanyl)-, [1-(2-furanyl)ethylidene]hydrazone
##MOLFORM=C12H12N2O2
##CAS REGISTRY NO=24523-53-3
##MP= -300
##BP= -300
##MW= 216
##$RETENTION INDEX=0
##$CONDENSED SPECTRUM=NO
##NPOINTS= 42
##XYDATA=(XY..XY) 1 
    65        588
    66        914
    67         94
    68         51
    78         68
    79        125
    80         82
    81        151
    82         68
    91         48
    93        277
    94        411
    95        108
   107         51
   108        999
   109        108
   115          8
   116          8
   117         22
   118         80
   119         22
   120         17
   121          5
   122        137
   145        108
   146         80
   147         22
   148         25
   149         20
   159         68
   160         91
   161        114
   162         51
   188        491
   189        114
   199        108
   200         51
   201        505
   202         68
   215         45
   216        971
   217        131