##TITLE=Library Entry 44086
##JCAMP-DX=Revision 4.10 
##DATA TYPE=MASS SPECTRUM
##SAMPLE DESCRIPTION=Japan AIST/NIMC Database- Spectrum MS-IW- 343
##NAMES=HP
##CAS NAME=2,3-Bis(2-ethoxyethoxy)-5,8-quinoxalinediyl diacetate
##MOLFORM=C20H26N2O8
##CAS REGISTRY NO=2452-34-8
##MP= -300
##BP= -300
##MW= 422
##$RETENTION INDEX=0
##$CONDENSED SPECTRUM=NO
##NPOINTS= 154
##XYDATA=(XY..XY) 1 
    14          3
    15          5
    26          2
    27         13
    28         18
    29         51
    30          1
    31         20
    32          1
    39          1
    41          7
    42         16
    43        121
    44         30
    45        774
    46         17
    47          2
    52          1
    53          2
    54          3
    55          5
    56          1
    57          3
    59          8
    60          1
    64          2
    65          2
    66          2
    67          1
    69          2
    71          2
    72         15
    73        999
    74         48
    75          3
    76          1
    77          1
    78          1
    79          1
    80          3
    81          4
    82          2
    83          1
    85          1
    87          5
    91          1
    92          3
    93          3
    94          3
    95          1
    97          1
   104          2
   105          2
   106          1
   107          1
   108          3
   109          4
   110          7
   111          1
   119          1
   120          8
   121          3
   122          2
   123          1
   132          1
   133          1
   134          1
   135          3
   136          5
   137          6
   138          3
   147          1
   148          2
   149          6
   150          2
   151          2
   161          2
   163          4
   164          3
   165         14
   166          9
   167          1
   175          1
   176          3
   177          9
   178          2
   179          2
   189          1
   190          1
   191          6
   192         19
   193         44
   194        147
   195         17
   196          2
   203          1
   204          2
   205          3
   206          1
   207          2
   212          1
   219         22
   220         34
   221         24
   222         10
   223          1
   230          6
   232          4
   234          1
   235          2
   237          2
   249          1
   263          9
   264          1
   265          5
   266         83
   267         10
   268          1
   278          2
   279          1
   284          5
   286          2
   291          1
   292         13
   293          5
   294          4
   305          3
   308          8
   309          1
   310          1
   335          4
   336          2
   337          4
   338        889
   339        163
   340         24
   341          2
   350          1
   352          5
   353          1
   366          1
   372          6
   373          1
   374          2
   377          9
   378          2
   379          1
   380        165
   381         32
   382          5
   394          1
   422         13
   423          6
   424          1