##TITLE=Library Entry 40194
##JCAMP-DX=Revision 4.10 
##DATA TYPE=MASS SPECTRUM
##SAMPLE DESCRIPTION=CARL DJERASSI DEPT OF CHEM STANFORD UNIV STANFORD CALIF
 94305
##NAMES=HP
##CAS NAME=Urea, 1-butyl-3-(propylsulfonyl)-2-thio-
##MOLFORM=C8H18N2O2S2
##CAS REGISTRY NO=24539-91-1
##MP= -300
##BP= -300
##MW= 238
##$RETENTION INDEX=0
##$CONDENSED SPECTRUM=NO
##NPOINTS= 38
##XYDATA=(XY..XY) 1 
    40         20
    41        290
    42         80
    43        360
    44         60
    45         10
    55        250
    56         60
    57        120
    58         10
    59         10
    60         70
    64         20
    69         50
    70         60
    71         10
    72        999
    73         70
    76         10
    82         10
    83         10
    89         10
    90         30
    97        110
    98        100
    99         40
   111         20
   115         80
   125         20
   131        420
   132         50
   133         20
   161         20
   176         20
   196         30
   238        160
   239         20
   240         20