##TITLE=Library Entry 46728
##JCAMP-DX=Revision 4.10 
##DATA TYPE=MASS SPECTRUM
##SAMPLE DESCRIPTION=CARL DJERASSI DEPT OF CHEM STANFORD UNIV STANFORD CALIF
 94305
##NAMES=HP
##CAS NAME=Urea, 1-methyl-3-(phenylsulfonyl)-2-thio-
##MOLFORM=C8H10N2O2S2
##CAS REGISTRY NO=24539-88-6
##MP= -300
##BP= -300
##MW= 230
##$RETENTION INDEX=0
##$CONDENSED SPECTRUM=NO
##NPOINTS= 63
##XYDATA=(XY..XY) 1 
    40        100
    42         20
    44         10
    45         30
    46         10
    47         10
    48         10
    50        110
    51        320
    52         30
    53         10
    55         50
    56         30
    57        980
    58         40
    59         20
    60         70
    61         10
    62        140
    63         10
    64         10
    65         40
    66         40
    69         20
    70         10
    71         10
    72         30
    73         70
    74         60
    75         20
    77        999
    78         60
    84         10
    88         20
    89         70
    90         10
    91         20
    92         20
    93         50
    94         50
    97         20
   103         10
   106         20
   109         40
   110        590
   111         50
   112         30
   125         20
   126         20
   131         20
   141        350
   142         30
   143         20
   157         40
   165         10
   166        230
   167         30
   168         20
   196         70
   197         20
   198         20
   199         20
   230         40