##TITLE=Library Entry 107494
##JCAMP-DX=Revision 4.10 
##DATA TYPE=MASS SPECTRUM
##SAMPLE DESCRIPTION=Exported from NIST MS Search
##NAMES=HP
##CAS NAME=Kaurane-16,18-diol, (4.beta.)-
##MOLFORM=C20H34O2
##CAS REGISTRY NO=24532-72-7
##MP= -300
##BP= -300
##MW= 306
##$RETENTION INDEX=0
##$CONDENSED SPECTRUM=NO
##NPOINTS= 122
##XYDATA=(XY..XY) 1 
    55        570
    56         80
    57        190
    58        220
    59        100
    60         20
    63         20
    65        570
    67        100
    68        360
    69         50
    70        190
    72         30
    78        430
    79         40
    81        740
    82         80
    83        200
    84         90
    85         40
    90        380
    91        150
    93        570
    94        540
    95        720
    96        140
    97        290
    98         50
   104         30
   105        540
   106        240
   107        510
   108        210
   109        800
   110         90
   111        180
   112         30
   117         60
   118         50
   119        330
   120        120
   121        460
   122        130
   123        999
   124        130
   125         40
   129         30
   130         50
   131        140
   132         50
   133        190
   134        310
   135        480
   137        200
   138         30
   139         80
   140         20
   143         20
   145        100
   146         40
   147        250
   148        200
   149        200
   150         10
   151         30
   152         60
   153         50
   157         20
   159         60
   160         30
   161        240
   162         50
   163         60
   165         40
   173         50
   174         10
   175        150
   176         20
   177         20
   179         40
   185         30
   187         50
   188         20
   189         40
   190         20
   191         20
   193         20
   201         70
   202         20
   205         30
   206         10
   207         30
   215         30
   216         30
   217        220
   218         50
   219         10
   227         20
   229         60
   230         40
   231         30
   232         20
   233         30
   243         70
   244         20
   245         60
   246         30
   247         30
   248        150
   249         40
   257        999
   258        420
   259         70
   273         50
   274         10
   275        370
   276        130
   277         30
   288        230
   289         50
   306         30
   307         10