##TITLE=Library Entry 46893
##JCAMP-DX=Revision 4.10 
##DATA TYPE=MASS SPECTRUM
##SAMPLE DESCRIPTION=CARL DJERASSI DEPT OF CHEM STANFORD UNIV STANFORD CALIF
 94305
##NAMES=HP
##CAS NAME=Benzenesulfonamide, N-[(phenylamino)thioxomethyl]-
##MOLFORM=C13H12N2O2S2
##CAS REGISTRY NO=24539-87-5
##MP= -300
##BP= -300
##MW= 292
##$RETENTION INDEX=0
##$CONDENSED SPECTRUM=NO
##NPOINTS= 59
##XYDATA=(XY..XY) 1 
    41         20
    44         10
    45         10
    48         10
    49         10
    50         90
    51        270
    52         30
    53         10
    54         20
    58         10
    59         10
    61         10
    62         20
    63         30
    64         20
    65        140
    66        160
    67         20
    69         10
    73         10
    74         30
    75         20
    76         30
    77        999
    78         90
    90         10
    91         30
    92        100
    93        580
    94         50
    97         10
   103         10
   108         10
   109         30
   110        170
   111         20
   112         10
   118         70
   119        190
   120         20
   124         10
   125         10
   135        110
   136         10
   137         10
   141        510
   142         50
   143         30
   150         10
   151         20
   157         20
   199         30
   227         10
   228         40
   229         10
   258         40
   259         20
   292         10