##TITLE=Library Entry 56680
##JCAMP-DX=Revision 4.10 
##DATA TYPE=MASS SPECTRUM
##SAMPLE DESCRIPTION=CARL DJERASSI DEPT OF CHEM STANFORD UNIV STANFORD CALIF
 94305
##NAMES=HP
##CAS NAME=3-Octanamine, N,N-dimethyl-
##MOLFORM=C10H23N
##CAS REGISTRY NO=24539-82-0
##MP= -300
##BP= -300
##MW= 157
##$RETENTION INDEX=0
##$CONDENSED SPECTRUM=NO
##NPOINTS= 25
##XYDATA=(XY..XY) 1 
    41        130
    42        160
    43         60
    44         90
    45         10
    46         10
    53         10
    54         10
    55         40
    56         70
    57         20
    58         80
    68         10
    69         10
    70         50
    71        120
    72         50
    84         50
    85         20
    86        999
    87         70
    98         10
   128        640
   129         60
   157         20