##TITLE=Library Entry 49778
##JCAMP-DX=Revision 4.10 
##DATA TYPE=MASS SPECTRUM
##SAMPLE DESCRIPTION=JACSAT, 99(2) 532(1977); C. DJERASSI, STAMFORD UNIVERSI
TY, USA
##NAMES=HP
##CAS NAME=3,4-Heptadiene
##MOLFORM=C7H12
##CAS REGISTRY NO=2454-31-1
##MP= -300
##BP= -300
##MW= 96
##$RETENTION INDEX=0
##$CONDENSED SPECTRUM=NO
##NPOINTS= 33
##XYDATA=(XY..XY) 1 
    39        700
    40        120
    41        850
    42        130
    43         20
    44         10
    50        100
    51        170
    52         80
    53        510
    54        290
    55        320
    56         50
    58         15
    61         10
    62         50
    63         70
    64         10
    65        200
    66        120
    67        810
    68        110
    77        120
    78         20
    79        340
    80         40
    81        999
    82         70
    91         10
    93         10
    95         40
    96        480
    97         40