##TITLE=Library Entry 85115
##JCAMP-DX=Revision 4.10 
##DATA TYPE=MASS SPECTRUM
##SAMPLE DESCRIPTION=Exported from NIST MS Search
##NAMES=HP
##CAS NAME=Bicyclo[3.1.0]hex-3-en-2-one, 4-methyl-1-(1-methylethyl)-
##MOLFORM=C10H14O
##CAS REGISTRY NO=24545-81-1
##MP= -300
##BP= -300
##MW= 150
##$RETENTION INDEX=1171
##$CONDENSED SPECTRUM=NO
##NPOINTS= 71
##XYDATA=(XY..XY) 1 
    15         17
    26         14
    27        152
    28         58
    29         46
    38         24
    39        254
    40         47
    41        223
    42         25
    43        116
    44         14
    50         28
    51         92
    52         58
    53        108
    54         34
    55         53
    56         13
    62          8
    63         46
    64          9
    65         82
    66         36
    67         87
    68         13
    69         29
    70         22
    71          8
    74          5
    75          9
    76          9
    77        187
    78         55
    79        234
    80        173
    81         35
    82         83
    83         16
    84          7
    89          9
    90         20
    91        440
    92         66
    93         61
    94         96
    95        108
    96         42
   103         24
   105         91
   106         25
   107        762
   108        999
   109        137
   110         10
   115         27
   116         10
   117         35
   118          5
   119         14
   120         11
   121         64
   122         77
   123         16
   133         12
   134          6
   135        216
   136         20
   149         25
   150        173
   151         17