##TITLE=Library Entry 71751
##JCAMP-DX=Revision 4.10 
##DATA TYPE=MASS SPECTRUM
##SAMPLE DESCRIPTION=CARL DJERASSI DEPT OF CHEM STANFORD UNIV STANFORD CALIF
 94305
##NAMES=HP
##CAS NAME=Cholestan-3-ol, 2-(dimethylamino)-, (2.beta.,3.alpha.,5.alpha.)-
##MOLFORM=C29H53NO
##CAS REGISTRY NO=2454-45-7
##MP= -300
##BP= -300
##MW= 431
##$RETENTION INDEX=0
##$CONDENSED SPECTRUM=NO
##NPOINTS= 87
##XYDATA=(XY..XY) 1 
    41         90
    42         20
    43        160
    44        110
    45         60
    46        170
    55        130
    56         30
    57        110
    58        360
    59         10
    67         50
    68         10
    69         80
    70         50
    71        280
    72         80
    77         10
    79        100
    80         10
    81        100
    82         10
    83         30
    84        220
    85         30
    86         10
    87        140
    91        140
    93         60
    94         10
    95         90
    96         30
    97         20
    98        999
    99         70
   100        170
   101         10
   105         40
   107         50
   108         10
   109         30
   110         40
   111        120
   115        470
   116         40
   119         20
   120         10
   121         20
   122         10
   123         20
   124        200
   125         20
   129         10
   133         10
   135         10
   136         10
   137         80
   138         50
   139         20
   143         40
   147         70
   149         10
   150         10
   154         10
   155        110
   168        160
   169         50
   170         10
   183         80
   319         10
   344        440
   345        110
   346         20
   386         10
   387         20
   398         10
   400        170
   401         50
   402         10
   412         10
   413         10
   416        100
   417         30
   430        100
   431        800
   432        260
   433         40