##TITLE=Library Entry 2546
##JCAMP-DX=Revision 4.10 
##DATA TYPE=MASS SPECTRUM
##SAMPLE DESCRIPTION=NIST Mass Spectrometry Data Center, 1994
##NAMES=HP
##CAS NAME=Decyl isothiocyanate
##MOLFORM=C11H21NS
##CAS REGISTRY NO=24540-94-1
##MP= -300
##BP= -300
##MW= 199
##$RETENTION INDEX=1564
##$CONDENSED SPECTRUM=NO
##NPOINTS= 91
##XYDATA=(XY..XY) 1 
    14          6
    15         13
    27        350
    28         84
    29        512
    30         53
    32          3
    37          2
    39        263
    41        999
    42        184
    43        744
    44         48
    45         38
    46          6
    47          4
    50          3
    51         13
    52          9
    53         68
    54         66
    55        596
    56        176
    57        274
    58         35
    59         39
    60         42
    61          4
    62          8
    65         12
    67         69
    68         48
    69        200
    70        104
    71         74
    72        353
    73         31
    74         40
    75         27
    76          6
    77          7
    78          3
    79         15
    80          6
    81         39
    82         83
    83         74
    84         42
    85         38
    86         37
    87         10
    88          8
    93         20
    94          6
    95         19
    96        129
    97         34
    98         19
    99         10
   100         88
   101        108
   102         14
   103          5
   107         13
   108          5
   109          9
   110         49
   111          8
   112          7
   113          5
   114        142
   115        704
   116         50
   117         36
   118          2
   122          5
   123          6
   124         19
   126          3
   128         79
   129         70
   130         10
   131          3
   138         11
   139          2
   142         21
   156         12
   166        462
   167         55
   170          5
   198          8