##TITLE=Library Entry 1686
##JCAMP-DX=Revision 4.10 
##DATA TYPE=MASS SPECTRUM
##SAMPLE DESCRIPTION=Exported from NIST MS Search
##NAMES=HP
##CAS NAME=Cyclopropane, 1,1-dichloro-2,2,3-triethyl-
##MOLFORM=C9H16Cl2
##CAS REGISTRY NO=24551-90-4
##MP= -300
##BP= -300
##MW= 194
##$RETENTION INDEX=0
##$CONDENSED SPECTRUM=NO
##NPOINTS= 79
##XYDATA=(XY..XY) 1 
    36        420
    38        240
    39        999
    40        160
    41        930
    42        270
    43        300
    44         10
    50        170
    51        460
    52        150
    53        570
    54         50
    55        930
    56        100
    57         90
    63        280
    64         20
    65        470
    66        100
    67        430
    68         40
    69        200
    70        740
    71         70
    75        180
    76         20
    77        720
    78        160
    79        540
    80         90
    81        680
    82         70
    84         20
    89        410
    90         40
    91        620
    92        100
    93        620
    94         90
    95        220
    96         20
   101        100
   102        100
   103        120
   104         50
   105        110
   106         10
   107        460
   108         50
   109        200
   110         20
   111        130
   112         20
   115         50
   116        110
   117        130
   118         10
   119         40
   123        720
   124         70
   125        210
   126         20
   129        400
   130         40
   131        130
   132         10
   137         30
   139         20
   143        110
   144         10
   158        410
   159        140
   160        140
   161         45
   165        110
   166         10
   167         70
   194         30