##TITLE=Library Entry 59917
##JCAMP-DX=Revision 4.10 
##DATA TYPE=MASS SPECTRUM
##SAMPLE DESCRIPTION=K. Kirk, LBC, NIDDK, NIH, Bethesda, MD 20892
##NAMES=HP
##CAS NAME=Ethylene, 1-nitro-2-[3-benzyloxyphenyl]-
##MOLFORM=C15H13NO3
##CAS REGISTRY NO=24550-32-1
##MP= -300
##BP= -300
##MW= 255
##$RETENTION INDEX=0
##$CONDENSED SPECTRUM=NO
##NPOINTS= 144
##XYDATA=(XY..XY) 1 
    41         21
    42          2
    43          5
    44          2
    45          1
    46          1
    47          0
    48          0
    49          3
    50         18
    51         42
    52         13
    53          5
    54          1
    55          5
    56          1
    57          2
    58          0
    59          0
    60          0
    61          2
    62         13
    63         60
    64         26
    65        171
    66         10
    67          1
    68          1
    69          2
    70          0
    71          1
    72          0
    73          0
    74          5
    75          7
    76         13
    77         18
    78         13
    79          3
    80          1
    81          1
    82          1
    83          1
    84          4
    85          1
    86          2
    87          2
    88          2
    89         71
    90         30
    91        999
    93          5
    94          1
    95          1
    96          0
    97          1
    98          1
    99          0
   100          0
   101          1
   102          4
   103          2
   104          5
   105          5
   106          2
   107          1
   108          0
   109          0
   110          1
   111          0
   112          0
   113          0
   114          0
   115          1
   116          0
   117          0
   118          6
   119          1
   120          1
   121          1
   122          0
   123          0
   124          2
   125          0
   126          0
   127          0
   128          0
   129          0
   131          0
   132          0
   133          0
   134          0
   135          0
   136          0
   137          0
   138          1
   139          0
   140          0
   141          0
   143          0
   147          0
   148          1
   149          1
   150          0
   151          1
   152          2
   153          2
   154          0
   155          0
   163          0
   164          2
   165          3
   166          1
   167          0
   168          0
   169          0
   174          0
   176          1
   177          0
   178          3
   179          1
   180          0
   181          1
   182          0
   189          0
   194          0
   197          0
   200          0
   205          0
   207          1
   208          0
   209          1
   210          0
   211          0
   212          0
   222          0
   223          0
   225          0
   226          0
   227          0
   239          0
   255         92
   256         12
   257          2