##TITLE=Library Entry 53816
##JCAMP-DX=Revision 4.10 
##DATA TYPE=MASS SPECTRUM
##SAMPLE DESCRIPTION=Finnigan MAT: Toxicological Library (LIBR-TX)
##NAMES=HP
##CAS NAME=Levophacetoperane
##MOLFORM=C14H19NO2
##CAS REGISTRY NO=24558-01-8
##MP= -300
##BP= -300
##MW= 233
##$RETENTION INDEX=2029
##$CONDENSED SPECTRUM=NO
##NPOINTS= 31
##XYDATA=(XY..XY) 1 
    51         32
    54         29
    56        126
    67         17
    77        121
    78         30
    82         39
    84        999
    89         24
    91         97
   104         11
   105         63
   106         11
   118          7
   121         68
   128         14
   129         18
   130         33
   141          5
   149          4
   155          3
   170          9
   172         56
   173        109
   188          0
   189          7
   192          1
   200          1
   211          0
   215         35
   233          0