##TITLE=Library Entry 1697
##JCAMP-DX=Revision 4.10 
##DATA TYPE=MASS SPECTRUM
##SAMPLE DESCRIPTION=Exported from NIST MS Search
##NAMES=HP
##CAS NAME=Propane, 1-(2,2-dichloro-1,3,3-trimethylcyclopropyl)-
##MOLFORM=C9H16Cl2
##CAS REGISTRY NO=24551-93-7
##MP= -300
##BP= -300
##MW= 194
##$RETENTION INDEX=0
##$CONDENSED SPECTRUM=NO
##NPOINTS= 76
##XYDATA=(XY..XY) 1 
    36        300
    38        220
    39        999
    40        150
    41        980
    42        130
    43        220
    44         10
    50        130
    51        370
    52        120
    53        530
    54         40
    55        410
    56         90
    57         80
    63        180
    64         10
    65        280
    66         90
    67        300
    68         20
    69        200
    70         80
    75        150
    76         10
    77        620
    78        140
    79        530
    80        100
    81        700
    82         70
    84         20
    89        220
    90         20
    91        380
    92         70
    93        340
    94         90
    95        190
    96         20
   101         50
   102         40
   103        420
   104         50
   105        180
   106         20
   107        280
   108         30
   109         60
   111         30
   112         20
   115         90
   116         90
   117        520
   118         50
   119        160
   120         20
   123        680
   124        150
   125         60
   126         60
   129         60
   130         90
   137         40
   139         30
   143        160
   144         20
   151        200
   152         20
   153        150
   158        270
   159        230
   160         70
   161         70
   194         10