##TITLE=Library Entry 38331
##JCAMP-DX=Revision 4.10 
##DATA TYPE=MASS SPECTRUM
##SAMPLE DESCRIPTION=NIST Mass Spectrometry Data Center
##NAMES=HP
##CAS NAME=2-Propenoic acid, 2-methyl-, (tetrahydro-2-furanyl)methyl ester
##MOLFORM=C9H14O3
##CAS REGISTRY NO=2455-24-5
##MP= -300
##BP= -300
##MW= 170
##$RETENTION INDEX=0
##$CONDENSED SPECTRUM=NO
##NPOINTS= 47
##XYDATA=(XY..XY) 1 
    14          4
    15         30
    16          1
    18          1
    26         10
    27        100
    28         24
    29         89
    30          5
    31         20
    37          4
    38         17
    39        200
    40         43
    41        351
    42         85
    43        416
    44         19
    45          4
    50          1
    51          2
    52          1
    53         10
    54         15
    55         32
    56         28
    57         10
    58          1
    59          1
    67          5
    68          6
    69        148
    70         52
    71        999
    72         45
    73          3
    81          1
    82          2
    84        248
    85         16
    86          1
    87          2
    95          1
    99          4
   100          1
   101          2
   112          1