##TITLE=Library Entry 56522
##JCAMP-DX=Revision 4.10 
##DATA TYPE=MASS SPECTRUM
##SAMPLE DESCRIPTION=CARL DJERASSI DEPT OF CHEM STANFORD UNIV STANFORD CALIF
 94305
##NAMES=HP
##CAS NAME=Butylamine, 1-ethyl-N,N-dimethyl-
##MOLFORM=C8H19N
##CAS REGISTRY NO=24552-03-2
##MP= -300
##BP= -300
##MW= 129
##$RETENTION INDEX=0
##$CONDENSED SPECTRUM=NO
##NPOINTS= 32
##XYDATA=(XY..XY) 1 
    41        130
    42        250
    43         80
    44        140
    45         20
    46         10
    51         10
    52         10
    53         20
    54         20
    55         50
    56        110
    57         20
    58        120
    59         10
    67         10
    68         20
    69         10
    70         80
    71        210
    72         60
    82         20
    84         60
    85         30
    86        999
    87         60
    98         20
    99         10
   100        790
   128         10
   129         50
   130         10