##TITLE=Library Entry 4495
##JCAMP-DX=Revision 4.10 
##DATA TYPE=MASS SPECTRUM
##SAMPLE DESCRIPTION=Exported from NIST MS Search
##NAMES=HP
##CAS NAME=Cyclopropane, 1,1-dichloro-2,3-dipropyl-
##MOLFORM=C9H16Cl2
##CAS REGISTRY NO=24551-87-9
##MP= -300
##BP= -300
##MW= 194
##$RETENTION INDEX=0
##$CONDENSED SPECTRUM=NO
##NPOINTS= 55
##XYDATA=(XY..XY) 1 
    39        520
    40         70
    41        660
    42        999
    43        310
    51        190
    52         10
    53        180
    54         10
    55        210
    56        260
    57         60
    63         80
    65        190
    66         10
    67        110
    69        100
    70         60
    75        140
    76         10
    77        170
    78         20
    79        110
    81        130
    82         10
    83         40
    84         40
    85         40
    87         90
    89        160
    90         20
    91         80
    98        270
    99         30
   102        100
   103        160
   104         10
   105         50
   109        550
   110        130
   111        360
   112         80
   114         20
   116         20
   123        100
   124         60
   125         50
   126         20
   138        420
   139         40
   140        280
   142         45
   151         80
   153         55
   194         10