##TITLE=Library Entry 2223
##JCAMP-DX=Revision 4.10 
##DATA TYPE=MASS SPECTRUM
##SAMPLE DESCRIPTION=Exported from NIST MS Search
##NAMES=HP
##CAS NAME=Butane, 1-(2,2-dichloro-3-ethylcyclopropyl)-
##MOLFORM=C9H16Cl2
##CAS REGISTRY NO=24551-86-8
##MP= -300
##BP= -300
##MW= 194
##$RETENTION INDEX=0
##$CONDENSED SPECTRUM=NO
##NPOINTS= 55
##XYDATA=(XY..XY) 1 
    39        800
    40        110
    41        999
    42        420
    43        450
    44         20
    51        280
    52         10
    53        260
    54         10
    55        460
    56        630
    57        200
    58         10
    63        140
    65        320
    66         20
    67        150
    69        260
    70        180
    71         70
    75        200
    76         20
    77        200
    78         20
    79        130
    80         10
    81        280
    82         30
    83         60
    85         50
    87        120
    89        780
    90         80
    91        260
    92         30
    98        280
    99         30
   102         40
   103         80
   105         20
   109        390
   110         60
   111        280
   112         40
   116         40
   123        120
   124        780
   125         80
   126        480
   127         40
   137        130
   138         60
   152         60
   194         20