##TITLE=Library Entry 23375
##JCAMP-DX=Revision 4.10 
##DATA TYPE=MASS SPECTRUM
##SAMPLE DESCRIPTION=Exported from NIST MS Search
##NAMES=HP
##CAS NAME=Propane, 1-(2,2-dichloro-1-methylcyclopropyl)-2,2-dimethyl-
##MOLFORM=C9H16Cl2
##CAS REGISTRY NO=24551-84-6
##MP= -300
##BP= -300
##MW= 194
##$RETENTION INDEX=0
##$CONDENSED SPECTRUM=NO
##NPOINTS= 21
##XYDATA=(XY..XY) 1 
    39        200
    40         40
    41        360
    42         20
    43         60
    51         60
    53         50
    56         30
    57        999
    58          5
    63         20
    65         40
    67         30
    71         30
    77         40
    79         20
    89         20
    91         20
   123         40
   125         20
   194          1