##TITLE=Library Entry 51945
##JCAMP-DX=Revision 4.10 
##DATA TYPE=MASS SPECTRUM
##SAMPLE DESCRIPTION=Exported from NIST MS Search
##NAMES=HP
##CAS NAME=1,3-Cyclohexanedione, 5,5-dimethyl-2,2-dipropyl-
##MOLFORM=C14H24O2
##CAS REGISTRY NO=24551-96-0
##MP= -300
##BP= -300
##MW= 224
##$RETENTION INDEX=0
##$CONDENSED SPECTRUM=NO
##NPOINTS= 38
##XYDATA=(XY..XY) 1 
    41        457
    42         24
    43        171
    44         27
    54         27
    55        310
    56         24
    69        231
    70         36
    82         54
    83        999
    84        144
    85         27
    96         24
    97        349
    98        132
    99         18
   111        138
   112         24
   126        168
   127         30
   152         39
   153         90
   154        159
   155         15
   164         21
   165         78
   166         18
   167        337
   168         90
   169         33
   181         18
   182        313
   183         30
   195        316
   196         81
   224         90
   225         24