##TITLE=Library Entry 55856
##JCAMP-DX=Revision 4.10 
##DATA TYPE=MASS SPECTRUM
##SAMPLE DESCRIPTION=CARL DJERASSI DEPT OF CHEM STANFORD UNIV STANFORD CALIF
 94305
##NAMES=HP
##CAS NAME=Hexylamine, N-methyl-N-propyl-
##MOLFORM=C10H23N
##CAS REGISTRY NO=24552-00-9
##MP= -300
##BP= -300
##MW= 157
##$RETENTION INDEX=0
##$CONDENSED SPECTRUM=NO
##NPOINTS= 16
##XYDATA=(XY..XY) 1 
    41        250
    42        280
    43        380
    44        630
    55         50
    56         30
    57         90
    58        340
    70         40
    72         30
    84         30
    86        999
    87         80
   128        280
   129         30
   157         50