##TITLE=Library Entry 27621
##JCAMP-DX=Revision 4.10 
##DATA TYPE=MASS SPECTRUM
##SAMPLE DESCRIPTION=LAC, NIDDK, NIH, Bethesda, MD 20892
##NAMES=HP
##CAS NAME=2,5-Cyclohexadien-1-one, 4-[3,5-bis(1,1-dimethylethyl)-4-oxo-2,5-
cyclohexadien-1-ylidene]-2,6-bis(1,1-dimethylethyl)-
##MOLFORM=C28H40O2
##CAS REGISTRY NO=2455-14-3
##MP= -300
##BP= -300
##MW= 408
##$RETENTION INDEX=0
##$CONDENSED SPECTRUM=NO
##NPOINTS= 232
##XYDATA=(XY..XY) 1 
    41        424
    42         18
    43        108
    47         11
    48          5
    49          5
    51          2
    53         19
    55        101
    57        999
    58         54
    59          7
    65         10
    67         20
    69         34
    77         20
    79         18
    81         12
    83         22
    84          3
    86          2
    89          5
    91         34
    93          9
    95         13
    97         11
   103         10
   104          7
   105         24
   107         13
   108          5
   109          8
   110          5
   111          7
   115         24
   116          9
   117         13
   118          9
   119         23
   120          5
   121         12
   123          5
   125         12
   126          7
   127          9
   128         20
   129         20
   130          8
   131         16
   132         14
   133         26
   134          5
   135          9
   139         15
   140          7
   141         25
   142         14
   143         11
   144          6
   145         19
   146         27
   147         22
   148          5
   149          5
   152         16
   153         20
   154         23
   155         20
   156          7
   157         10
   158          6
   159         13
   160          8
   161         23
   162         24
   163          6
   165         35
   166         14
   167         16
   168         21
   169         16
   170          6
   171          9
   173         10
   175         14
   176          6
   177          8
   178         26
   179         28
   180         11
   181         21
   182         10
   183         15
   184          5
   185          8
   187          6
   189         22
   190         14
   191         22
   192         16
   193         19
   194         14
   195         24
   196         12
   197         16
   198          6
   199          9
   201          5
   202         20
   203         28
   204         15
   205         22
   206         13
   207         22
   208         16
   209         25
   210         13
   211         21
   212          6
   213          9
   214          5
   215         21
   216         12
   217         26
   218         12
   219         21
   220         14
   221         25
   222         19
   223         25
   224         16
   225         28
   226         12
   227         12
   228         10
   229         16
   230          9
   231         21
   232         12
   233         18
   234         13
   235         28
   236         17
   237         26
   238         18
   239         41
   240         22
   241         19
   242          6
   243          7
   244          5
   245         12
   246          8
   247         14
   248         11
   249         21
   250         12
   251         26
   252         14
   253         42
   254         14
   255         13
   256          4
   257          5
   259          7
   261         10
   262          8
   263         20
   264         12
   265         21
   266         11
   267         32
   268         10
   269         12
   275          6
   276          5
   277         18
   278         11
   279         24
   280         16
   281         48
   282         23
   283          7
   291         14
   292          6
   293         20
   294         26
   295         88
   296         40
   297         16
   305          9
   307         13
   308          7
   309        119
   310         44
   311         33
   312          7
   319          8
   321          9
   322          5
   323         47
   324         42
   325         13
   333          5
   335          9
   336         13
   337         51
   338         38
   339          9
   349          8
   350          5
   351        236
   352        139
   353         59
   354         12
   363          5
   365         39
   366        133
   367         35
   368          5
   379         17
   380         19
   391         23
   392          9
   393        131
   394         39
   395          8
   407          5
   408        564
   409        188
   410         61
   411         12