##TITLE=Library Entry 56537
##JCAMP-DX=Revision 4.10 
##DATA TYPE=MASS SPECTRUM
##SAMPLE DESCRIPTION=Chemical Concepts
##NAMES=HP
##CAS NAME=Butylamine, N-methyl-N-propyl-
##MOLFORM=C8H19N
##CAS REGISTRY NO=24551-99-3
##MP= -300
##BP= -300
##MW= 129
##$RETENTION INDEX=0
##$CONDENSED SPECTRUM=NO
##NPOINTS= 71
##XYDATA=(XY..XY) 1 
    26         23
    27         99
    28         80
    29         75
    30         29
    31          0
    37          0
    38          2
    39         33
    40          4
    41         98
    42        141
    43        106
    44        380
    45         10
    50          1
    51          2
    52          1
    53          4
    54          6
    55         17
    56         15
    57         60
    58        460
    59         16
    63          0
    65          0
    66          0
    67          1
    68          5
    69          2
    70         23
    71         10
    72         33
    73          2
    74          0
    77          0
    78          0
    79          0
    80          1
    81          0
    82          5
    83          1
    84         26
    85          4
    86        999
    87         55
    88          1
    91          0
    92          0
    94          0
    95          0
    96          1
    97          0
    98         16
    99          1
   100        495
   101         32
   102          1
   105          0
   110          0
   112          3
   113          0
   114          6
   115          0
   126          2
   127          1
   128         24
   129        194
   130         19
   131          1