##TITLE=Library Entry 32631
##JCAMP-DX=Revision 4.10 
##DATA TYPE=MASS SPECTRUM
##SAMPLE DESCRIPTION=Humboldt-Universitat zu Berlin, Department of Chemistry
, Analytical Group
##NAMES=HP
##CAS NAME=1-Cyclohexyl-3-[3,5-di(3-cyclohexylbicyclo[1.1.1]pent-1-yl)-pheny
l]-bicyclo[1.1.1]pentan
##MOLFORM=C39H54
##CAS REGISTRY NO=245508-19-4
##MP= -300
##BP= -300
##MW= 522
##$RETENTION INDEX=0
##$CONDENSED SPECTRUM=NO
##NPOINTS= 322
##XYDATA=(XY..XY) 1 
    12         10
    14          6
    15         10
    16         31
    17        112
    18        386
    26         10
    27         58
    28         72
    29        148
    30          6
    31          8
    38          4
    39         79
    41        600
    42         41
    43        199
    44        194
    45         34
    46          6
    50          4
    51         11
    52          6
    53         86
    54         53
    55        917
    56         58
    57         58
    58          5
    59          5
    60         15
    65         59
    67        999
    68         64
    69        220
    70         25
    71         23
    72          5
    73         14
    77         92
    78         21
    79        275
    80         41
    81        505
    82         55
    83        187
    84         19
    85         10
    89          4
    91        181
    92         28
    93        226
    94         26
    95        157
    96         18
    97         52
    98         10
    99          6
   103         10
   104          6
   105        117
   106         19
   107        178
   108         27
   109        832
   110         76
   111         43
   112         12
   113         11
   115         41
   116         12
   117         30
   118          7
   119         45
   120         17
   121         95
   122         15
   123         87
   124         11
   125          6
   127         17
   128         47
   129         54
   130         15
   131         43
   132          8
   133         80
   134         12
   135         51
   136          6
   137          6
   139          7
   141         62
   142         25
   143         45
   144         11
   145         30
   146          7
   147         98
   148         39
   149        218
   150         27
   151         13
   152         38
   153         46
   154         22
   155         68
   156         17
   157         39
   158          6
   159         27
   160          5
   161          8
   163          6
   164          3
   165         87
   166         40
   167         63
   168         20
   169         54
   170         16
   171         46
   172          9
   173         15
   174          3
   175          5
   176          6
   177          6
   178         55
   179         72
   180         24
   181         87
   182         24
   183         49
   184         12
   185         33
   186          7
   187          6
   189         23
   190         20
   191         40
   192         31
   193         60
   194         24
   195         77
   196         19
   197         36
   198          9
   199         11
   200          3
   201          6
   202         20
   203         32
   204         19
   205         35
   206         22
   207         98
   208         27
   209         61
   210         18
   211         21
   212          4
   213          6
   215         15
   216         12
   217         20
   218         12
   219         36
   220         16
   221         62
   222         18
   223         31
   224          7
   225          9
   226          3
   227          7
   228          5
   229         10
   230          6
   231         12
   232          8
   233         34
   234         11
   235         34
   236          9
   237         16
   238          4
   239          7
   240          2
   241          4
   242          2
   243          4
   244          2
   245          8
   246          5
   247         22
   248          8
   249         30
   250          7
   251         18
   252          5
   253          7
   254          1
   255          2
   256          1
   257          2
   258          1
   259          6
   260          3
   261         15
   262          7
   263         14
   264          6
   265          9
   266          3
   267          3
   269          1
   271          1
   272          1
   273          9
   274          4
   275         22
   276          9
   277         28
   278          8
   279         13
   280          4
   281          3
   282          1
   283          2
   285          1
   286          1
   287          7
   288          5
   289         27
   290         11
   291         39
   292         11
   293         17
   294          4
   295          1
   299          1
   300          1
   301          7
   302          3
   303         17
   304          6
   305          9
   306          2
   307          2
   309          0
   310          1
   313          1
   315         43
   316         13
   317         24
   318          9
   319          9
   321          3
   327          2
   329         17
   331          6
   332         22
   333          7
   334          4
   335          1
   336          3
   337          1
   341          2
   342          0
   344          8
   346          3
   347          1
   348          3
   349          1
   356          3
   357          2
   358          6
   359          2
   360          2
   361          1
   362          1
   370          4
   372         22
   373          7
   374         17
   375          4
   376          1
   384          5
   385          2
   386          5
   387          2
   388          1
   398          5
   399          7
   400         16
   401         14
   402         38
   403         12
   404          2
   412         12
   413          5
   414         10
   415          4
   416          1
   426          1
   427          0
   428          0
   440         87
   441         32
   442          6
   443          1
   466          0
   468          1
   480          2
   481          0
   494          0
   508         11
   509          4
   510          1
   523          3
   524          1