##TITLE=Library Entry 57477
##JCAMP-DX=Revision 4.10 
##DATA TYPE=MASS SPECTRUM
##SAMPLE DESCRIPTION=Exported from NIST MS Search
##NAMES=HP
##CAS NAME=Hexanoic acid, 2-butyl-, methyl ester
##MOLFORM=C11H22O2
##CAS REGISTRY NO=24551-95-9
##MP= -300
##BP= -300
##MW= 186
##$RETENTION INDEX=1150
##$CONDENSED SPECTRUM=NO
##NPOINTS= 48
##XYDATA=(XY..XY) 1 
    36         30
    37        174
    38         48
    39         90
    40         24
    41        433
    42         48
    43        430
    44         42
    45         78
    46         24
    52         30
    53         78
    54         30
    55        554
    56         51
    57        277
    58         45
    59        192
    60         30
    82         30
    83         57
    84         30
    85        114
    86         27
    87        999
    88        168
    89         30
    96         54
    97        114
    98         93
    99         24
   100         54
   101        512
   102         48
   128         48
   129        123
   130        873
   131        210
   132         96
   133         51
   143        295
   144         24
   155        171
   156         48
   157        123
   158         30
   186         51