##TITLE=Library Entry 2971
##JCAMP-DX=Revision 4.10 
##DATA TYPE=MASS SPECTRUM
##SAMPLE DESCRIPTION=Chuck Anderson, Aldrich Chemical Co.
##NAMES=HP
##CAS NAME=Chloromethyl octyl ether
##MOLFORM=C9H19ClO
##CAS REGISTRY NO=24566-90-3
##MP= -300
##BP= -300
##MW= 178
##$RETENTION INDEX=0
##$CONDENSED SPECTRUM=NO
##NPOINTS= 96
##XYDATA=(XY..XY) 1 
    14          1
    15         10
    16          1
    19          1
    25          0
    26         12
    27        197
    28         70
    29        399
    30         17
    31         29
    32          0
    33          0
    35          2
    36         11
    37          2
    38          9
    39        221
    40         49
    41        999
    42        572
    43        798
    44         82
    45        107
    46          3
    47         31
    48          0
    49        201
    50          8
    51         91
    52          7
    53         56
    54         83
    55        701
    56        838
    57        503
    58         49
    59          5
    61          0
    62          1
    63         11
    64          0
    65         11
    66         16
    67        131
    68        407
    69        572
    70        604
    71        435
    72         29
    73          7
    75         30
    76          3
    77          9
    78          0
    79        282
    80          0
    81        225
    82        187
    83        381
    84        399
    85         47
    86         10
    87          1
    89          2
    91         10
    92          5
    93          4
    94          1
    95         99
    96         54
    97         38
    98          4
    99         13
   100          2
   101          1
   103         57
   104          3
   105          5
   107          2
   109          6
   110         49
   111         59
   112         36
   113         16
   114          2
   117          1
   121          6
   123          2
   129          0
   130          0
   141          2
   142          0
   143         10
   144          1
   145          2