##TITLE=Library Entry 24370
##JCAMP-DX=Revision 4.10 
##DATA TYPE=MASS SPECTRUM
##SAMPLE DESCRIPTION=Japan AIST/NIMC Database- Spectrum MS-NW-5350
##NAMES=HP
##CAS NAME=Decane, 1,1'-oxybis-
##MOLFORM=C20H42O
##CAS REGISTRY NO=2456-28-2
##MP= -300
##BP= -300
##MW= 298
##$RETENTION INDEX=0
##$CONDENSED SPECTRUM=NO
##NPOINTS= 99
##XYDATA=(XY..XY) 1 
    14          1
    15          2
    18          1
    26          3
    27         75
    28         11
    29        209
    30          6
    31         11
    32          2
    33          1
    38          1
    39         48
    40         10
    41        420
    42        140
    43        793
    44         27
    45         22
    46          1
    50          1
    51          2
    52          1
    53         20
    54         39
    55        427
    56        296
    57        999
    58         47
    59          3
    60          1
    63          1
    65          4
    66          5
    67         53
    68        172
    69        356
    70        369
    71        722
    72         40
    73          8
    77          2
    79          5
    80          2
    81         28
    82        187
    83        509
    84        246
    85        704
    86         50
    87          6
    88          1
    91          3
    92          1
    93          1
    94          1
    95         13
    96         50
    97        268
    98        131
    99        170
   100         12
   101          2
   109          6
   110         19
   111        129
   112        242
   113         25
   114          1
   115          3
   117          1
   118          5
   123          1
   124          1
   125          5
   126          3
   127          2
   129          2
   138          9
   139         14
   140        175
   141        170
   142         18
   143          2
   149          6
   150          1
   155          2
   157          9
   158          1
   159          4
   169          1
   171         21
   172          3
   173          3
   185          4
   199          1
   213          3
   227          1
   255          2