##TITLE=Library Entry 53294
##JCAMP-DX=Revision 4.10 
##DATA TYPE=MASS SPECTRUM
##SAMPLE DESCRIPTION=C.E.A., C.E.N., GRENOBLE, FRANCE
##NAMES=HP
##CAS NAME=1,1':2',1''-Tercyclohexane
##MOLFORM=C18H32
##CAS REGISTRY NO=2456-43-1
##MP= -300
##BP= -300
##MW= 248
##$RETENTION INDEX=0
##$CONDENSED SPECTRUM=NO
##NPOINTS= 103
##XYDATA=(XY..XY) 1 
    17          3
    18         14
    26          2
    27         20
    28         72
    29         39
    30          1
    32          2
    37          1
    38          1
    39         31
    40          6
    41        238
    42         17
    43         29
    44          2
    50          1
    51          4
    52          3
    53         34
    54         49
    55        397
    56         23
    57          9
    59          1
    60          1
    63          1
    65         11
    66         11
    67        210
    68         35
    69        120
    70          7
    71          3
    72          9
    73          1
    75          1
    77         19
    78          7
    79         46
    80         30
    81        203
    82        235
    83        999
    84         66
    85          3
    89          1
    91         14
    92          3
    93         17
    94         12
    95        212
    96        102
    97        185
    98         14
   103          1
   104          1
   105          3
   106          1
   107         10
   108         13
   109        339
   110         32
   111          4
   115          1
   117          1
   119          1
   120          1
   121         13
   122         15
   123         61
   124          8
   125          1
   135         12
   136          4
   137          3
   138          2
   149          5
   150          2
   151          3
   152          4
   153          1
   161          1
   162          1
   163          5
   164        418
   165        624
   166         80
   167          5
   178          3
   179          4
   180          1
   189          2
   199          1
   200          1
   201          1
   202          1
   220          1
   246          2
   247          1
   248         30
   249          6
   250          1