##TITLE=Library Entry 24445
##JCAMP-DX=Revision 4.10 
##DATA TYPE=MASS SPECTRUM
##SAMPLE DESCRIPTION=Exported from NIST MS Search
##NAMES=HP
##CAS NAME=Hydrouracil, 3-tert-butyl-5,5-dichloro-6-hydroxy-6-methyl-
##MOLFORM=C9H14Cl2N2O3
##CAS REGISTRY NO=24577-78-4
##MP= -300
##BP= -300
##MW= 268
##$RETENTION INDEX=0
##$CONDENSED SPECTRUM=NO
##NPOINTS= 51
##XYDATA=(XY..XY) 1 
    15        210
    27        230
    29        580
    30         40
    36         80
    38         50
    39        160
    40         40
    41        580
    42        290
    43        780
    44        120
    55         70
    56        160
    57        999
    58         80
    60        220
    61         20
    70         50
    84        590
    85         50
    86         40
    87        450
    88         20
   126        320
   127         30
   128        250
   129         10
   130         80
   160         30
   161         60
   163         30
   168         50
   170        120
   171         10
   172         70
   174         20
   210         40
   212         70
   213        500
   214         90
   215        320
   216         40
   217         60
   233         50
   235         20
   253         60
   255         40
   257          6
   268         10
   270         10