##TITLE=Library Entry 5826
##JCAMP-DX=Revision 4.10 
##DATA TYPE=MASS SPECTRUM
##SAMPLE DESCRIPTION=Exported from NIST MS Search
##NAMES=HP
##CAS NAME=Cyclopropane, 1,1-dichloro-2,2-dimethyl-3-(2-methylpropyl)-
##MOLFORM=C9H16Cl2
##CAS REGISTRY NO=24577-81-9
##MP= -300
##BP= -300
##MW= 194
##$RETENTION INDEX=0
##$CONDENSED SPECTRUM=NO
##NPOINTS= 64
##XYDATA=(XY..XY) 1 
    36        200
    38        160
    39        780
    40        140
    41        850
    42         80
    43        999
    44         50
    50         90
    51        240
    52         80
    53        260
    54         20
    55        120
    56        260
    57        150
    58         10
    63        110
    65        250
    66         70
    67        190
    68         10
    69        110
    70         20
    75        130
    77        360
    78         80
    79        630
    80         90
    81        310
    82         30
    84         70
    89         80
    91        140
    92         20
    93         40
    95         20
   101         60
   102        300
   103        230
   104        110
   105         90
   107        120
   108         10
   109         60
   111         40
   115        120
   116        240
   117        100
   119         20
   123        230
   124        100
   125         20
   126         50
   137        250
   138         60
   139        160
   140         20
   143         60
   151         20
   158        140
   159         10
   160         50
   194          5