##TITLE=Library Entry 97190
##JCAMP-DX=Revision 4.10 
##DATA TYPE=MASS SPECTRUM
##SAMPLE DESCRIPTION=J.Yinon ET AL. Biomed. Mass Spectrom.,11,594(1984)
##NAMES=HP
##CAS NAME=Benzenemethanol, 2,4,6-trinitro-
##MOLFORM=C7H5N3O7
##CAS REGISTRY NO=24577-68-2
##MP= -300
##BP= -300
##MW= 243
##$RETENTION INDEX=0
##$CONDENSED SPECTRUM=NO
##NPOINTS= 42
##XYDATA=(XY..XY) 1 
    84        113
    85        113
    86         72
    87         84
    88         72
    89        442
    90        304
    91        194
    92         30
   101        427
   102         99
   103        110
   104         30
   105         36
   106         42
   110         18
   114         18
   117        999
   118        397
   119        340
   120         33
   131         18
   132         30
   133         18
   146         24
   147         99
   148         15
   149         24
   150         39
   163        152
   164         15
   165        125
   166         15
   176         15
   177         12
   178         30
   192         18
   207         18
   208         63
   209        137
   210         15
   225         15