##TITLE=Library Entry 100814
##JCAMP-DX=Revision 4.10 
##DATA TYPE=MASS SPECTRUM
##SAMPLE DESCRIPTION=Exported from NIST MS Search
##NAMES=HP
##CAS NAME=1,3-Dithiane, 2-(2-methoxyphenyl)-
##MOLFORM=C11H14OS2
##CAS REGISTRY NO=24588-70-3
##MP= -300
##BP= -300
##MW= 226
##$RETENTION INDEX=0
##$CONDENSED SPECTRUM=NO
##NPOINTS= 38
##XYDATA=(XY..XY) 1 
    39        150
    41        100
    45        280
    46         10
    50         60
    51        160
    63         60
    65        160
    66         10
    69        100
    73        100
    77        180
    78         80
    91        780
    92         80
   105        110
   107        180
   108        100
   109         70
   118         60
   119        999
   120        130
   121        280
   122         20
   135         70
   137        100
   147        130
   148         10
   151        310
   152        640
   153        150
   154         10
   161        240
   162         20
   226        999
   227        140
   228        100
   229         10