##TITLE=Library Entry 7397
##JCAMP-DX=Revision 4.10 
##DATA TYPE=MASS SPECTRUM
##SAMPLE DESCRIPTION=LAC, NIDDK, NIH, Bethesda, MD 20892
##NAMES=HP
##CAS NAME=Allopregnan-3.beta.,9.alpha.-diol-20-one, 3-acetate
##MOLFORM=C23H36O4
##CAS REGISTRY NO=24587-69-7
##MP= -300
##BP= -300
##MW= 376
##$RETENTION INDEX=0
##$CONDENSED SPECTRUM=NO
##NPOINTS= 167
##XYDATA=(XY..XY) 1 
    41         82
    43        999
    45         23
    47         16
    49         46
    51         16
    53         29
    55        118
    57         17
    58          2
    59          1
    61         28
    63          0
    65         12
    67         85
    68          3
    69         21
    71         33
    72          1
    77         33
    79         67
    81         74
    83         21
    84         27
    85          8
    86         15
    88          2
    91         50
    93         96
    94         19
    95         57
    96          7
    97          9
    98          2
    99          0
   103          3
   105         46
   106         25
   107         49
   108         20
   109         23
   110         42
   111          6
   112          0
   113          0
   115          4
   116          0
   117         15
   119         20
   120         17
   121         20
   122         85
   123         26
   124         54
   125          5
   127          1
   128          2
   129          5
   131         15
   132          1
   133         27
   134         12
   135         14
   136          8
   137          6
   138          1
   139          0
   141          1
   142          0
   143          7
   144          2
   145         17
   146          6
   147         19
   148          2
   149         11
   151         15
   152          1
   153          0
   155          2
   157          6
   158          2
   159          9
   161         12
   162          4
   163          4
   164          1
   165          2
   166          0
   167          1
   168          0
   169          1
   170          0
   171          2
   172          1
   173          5
   175          8
   176          5
   177          4
   178          0
   179          1
   183          2
   184          0
   185          3
   186          1
   187          2
   188          0
   189          2
   190          0
   191          2
   193         13
   194         44
   195          5
   197          2
   199          3
   200          0
   201          0
   203          1
   205          0
   207         23
   208          1
   209          1
   211          1
   213          5
   214          0
   215          1
   217          1
   220          0
   221          3
   224          2
   225          1
   227          1
   228          1
   229          0
   231          1
   239          0
   240          1
   241          0
   246          1
   250          0
   253          1
   254          0
   255          5
   256          1
   258          0
   259          0
   263          0
   265          1
   273          1
   275          1
   280          1
   281          1
   283          4
   284          1
   291          0
   297          0
   298         38
   299         11
   300          1
   315          0
   316         48
   317         11
   318          1
   358          2
   359          0
   376          3
   377          0