##TITLE=Library Entry 6012
##JCAMP-DX=Revision 4.10 
##DATA TYPE=MASS SPECTRUM
##SAMPLE DESCRIPTION=H. Luftmann, Org. Chem. Inst., Westfalisch-Wilhelms Uni
v., Munster, Germany
##NAMES=HP
##CAS NAME=Ergosta-5,22-dien-3-ol, acetate, (3.beta.,22E)-
##MOLFORM=C30H48O2
##CAS REGISTRY NO=2458-53-9
##MP= -300
##BP= -300
##MW= 440
##$RETENTION INDEX=3229
##$CONDENSED SPECTRUM=NO
##NPOINTS= 210
##XYDATA=(XY..XY) 1 
    37         12
    38         42
    39        321
    40        280
    41        996
    42        109
    43        999
    44        387
    45        112
    49         11
    50         17
    51         51
    52         32
    53        159
    54         80
    55        676
    56        189
    57        148
    58         42
    59         14
    60         14
    61         20
    63         17
    64         25
    65         94
    66         84
    67        378
    68        146
    69        351
    70        113
    71         47
    72         22
    73         74
    74         31
    75         25
    76         31
    77        155
    78        129
    79        292
    80        125
    81        316
    82        113
    83        140
    84         46
    85         42
    86         11
    87         11
    88         14
    89         34
    90         53
    91        339
    92        109
    93        211
    94         71
    95         96
    96         51
    97         31
    98         15
   101         16
   102         21
   103         63
   104         50
   105        282
   106        102
   107        177
   108         62
   109        121
   110         36
   111         24
   112         12
   113         14
   114         15
   115         69
   116         50
   117        148
   118         58
   119        134
   120         60
   121         69
   122         58
   123         31
   124         25
   125         16
   126         16
   127         34
   128         98
   129        107
   130         60
   131        150
   132         64
   133        162
   134         58
   135         87
   136         32
   137         19
   138         12
   139         13
   140         13
   141         49
   142         44
   143        145
   144         94
   145        229
   146        124
   147        144
   148         55
   149         62
   150         19
   151         14
   152         12
   153         20
   154         26
   155         28
   156         31
   157         69
   158        119
   159        186
   160         62
   161        107
   162         26
   163         18
   164         12
   165         26
   166         13
   167         15
   169         23
   170         24
   171         53
   172         25
   173         76
   174         27
   175         41
   176         15
   177         14
   181         11
   183         20
   184         17
   185         47
   186         19
   187         35
   188         16
   189         31
   190         12
   191         19
   193         13
   194         11
   195         14
   196         11
   197         27
   198         23
   199         57
   200         22
   201         31
   202         14
   203         11
   204         10
   207         63
   208         16
   209         14
   210         12
   211         52
   212         23
   213         84
   214         21
   215         14
   217         11
   225         28
   226         13
   227         33
   228         28
   229         14
   239         31
   240         16
   241         11
   250         11
   251         17
   252         14
   253        161
   254         76
   255        246
   256         49
   257         19
   259         21
   265         14
   267         43
   268         16
   269         11
   272         10
   281         74
   282         47
   283         30
   295         26
   296         17
   309         13
   326         10
   327         32
   328         11
   329         13
   337         20
   338         15
   341         20
   343         11
   355         18
   365         94
   366         26
   378         11
   379         11
   380        173
   381         55
   382         14