##TITLE=Library Entry 48727
##JCAMP-DX=Revision 4.10 
##DATA TYPE=MASS SPECTRUM
##SAMPLE DESCRIPTION=D.HENNEBERG, MAX-PLANCK INSTITUTE, MULHEIM, WEST GERMAN
Y
##NAMES=HP
##CAS NAME=1,3,5-Hexatriene, 3-methyl-, (E)-
##MOLFORM=C7H10
##CAS REGISTRY NO=24587-26-6
##MP= -300
##BP= -300
##MW= 94
##$RETENTION INDEX=0
##$CONDENSED SPECTRUM=NO
##NPOINTS= 62
##XYDATA=(XY..XY) 1 
    26         60
    27        280
    28         62
    29         31
    30          0
    31          2
    32          5
    34          0
    36          1
    37         22
    38         52
    39        422
    40         74
    41        124
    42         14
    43          2
    44          4
    45         12
    46         14
    47          7
    48          1
    49          8
    50         69
    51        142
    52         67
    53        153
    54         41
    55         29
    56          1
    60          1
    61         13
    62         26
    63         49
    64          9
    65        101
    66         58
    67         25
    68          3
    69          0
    70          0
    73          3
    74         11
    75         11
    76          4
    77        670
    78         95
    79        999
    80         64
    81          1
    82          0
    85          2
    86          2
    87          2
    88          0
    89          5
    90          2
    91        250
    92         30
    93        149
    94        414
    95         31
    96          1