##TITLE=Library Entry 49189
##JCAMP-DX=Revision 4.10 
##DATA TYPE=MASS SPECTRUM
##SAMPLE DESCRIPTION=A.ZAMOJSKI POLISH ACADEMY OF SCIENCES, WARSAW, POLAND
##NAMES=HP
##CAS NAME=2-Oxabicyclo[2.2.2]oct-5-ene-3,3-dicarboxylic acid, diethyl ester
##MOLFORM=C13H18O5
##CAS REGISTRY NO=24588-62-3
##MP= -300
##BP= -300
##MW= 254
##$RETENTION INDEX=0
##$CONDENSED SPECTRUM=NO
##NPOINTS= 32
##XYDATA=(XY..XY) 1 
    39        160
    41        130
    43        100
    44        100
    45        100
    47        150
    50         70
    51        120
    52        110
    53        110
    55         80
    65         50
    67        190
    74         70
    75         90
    77        330
    78        140
    79        999
    80        520
    81        220
    91        250
   103         50
   107        740
   108         90
   125        190
   135        450
   136         50
   153        320
   163        570
   164         70
   181        500
   182         60