##TITLE=Library Entry 53973
##JCAMP-DX=Revision 4.10 
##DATA TYPE=MASS SPECTRUM
##SAMPLE DESCRIPTION=NIST Mass Spectrometry Data Center
##NAMES=HP
##CAS NAME=L-Lysine, 3TMS derivative
##MOLFORM=C15H38N2O2Si3
##CAS REGISTRY NO=24595-69-5
##MP= -300
##BP= -300
##MW= 362
##$RETENTION INDEX=0
##$CONDENSED SPECTRUM=NO
##NPOINTS= 180
##XYDATA=(XY..XY) 1 
    27          1
    28          2
    29          2
    30          4
    31          2
    39          1
    41          2
    42          2
    43         12
    44         12
    45         52
    46          5
    47          4
    53          1
    54          2
    55          8
    56         21
    57          9
    58         13
    59         60
    60         11
    61          5
    66          3
    67          4
    68          9
    69          2
    70          8
    71          4
    72         20
    73        585
    74        114
    75         52
    76          5
    77          1
    80          2
    81          1
    82         15
    84        999
    85         71
    86         20
    87          7
    88         28
    89          7
    90          4
    91          1
    94          4
    95          1
    96          2
    97          3
    98         11
    99          6
   100         84
   101         14
   102        181
   103         29
   104         12
   105          2
   109          1
   110          3
   111          3
   112         11
   113          4
   114         32
   115         50
   116         19
   117         14
   118          4
   119          5
   120          1
   124          2
   125          1
   126          8
   127          4
   128        113
   129         23
   130         42
   131         22
   132         19
   133         35
   134          6
   135          3
   138          1
   139          2
   140         15
   141          9
   142         27
   143         15
   144         36
   145          7
   146         15
   147        105
   148         27
   149         12
   150          2
   152          1
   154         24
   155         18
   156        554
   157         90
   158         35
   159          5
   160          3
   161          1
   162         18
   163          4
   164          2
   166          3
   167         15
   168         13
   169          3
   170          3
   171          5
   172          6
   173          5
   174          7
   175          2
   176          2
   181          1
   182          2
   183         12
   184          5
   185          3
   186          2
   187          1
   188          3
   189          1
   190          1
   191          9
   192          2
   193          1
   199          1
   200          3
   201          1
   202          5
   203          2
   204          1
   214          5
   215          5
   216          4
   217          5
   218         34
   219         12
   220          4
   221          1
   228          2
   229          3
   230         80
   231         18
   232         11
   233          2
   234          1
   236          1
   240          2
   241          2
   242          2
   243          1
   244          4
   245          7
   246          3
   247          1
   255          3
   256          1
   257         21
   258         36
   259          9
   260          4
   261          1
   271          1
   272          3
   273          2
   274          1
   290          2
   291          1
   304          1
   347          1
   362         89
   363         29
   364         14
   365          3
   366          1