##TITLE=Library Entry 71754
##JCAMP-DX=Revision 4.10 
##DATA TYPE=MASS SPECTRUM
##SAMPLE DESCRIPTION=Japan AIST/NIMC Database- Spectrum MS-IW- 566
##NAMES=HP
##CAS NAME=Ethyl hydrogen fumarate
##MOLFORM=C6H8O4
##CAS REGISTRY NO=2459-05-4
##MP= -300
##BP= -300
##MW= 144
##$RETENTION INDEX=0
##$CONDENSED SPECTRUM=NO
##NPOINTS= 50
##XYDATA=(XY..XY) 1 
    14          2
    15         11
    18          2
    25          3
    26         56
    27        159
    28         45
    29        126
    30          5
    31          9
    39          2
    41          3
    42          8
    43         37
    44         11
    45        116
    46          5
    52          1
    53         75
    54         57
    55         64
    56          4
    57          1
    68          3
    69          4
    70          7
    71         54
    72         37
    73          4
    81        122
    82        139
    83          8
    86          7
    88          3
    91          1
    97          1
    98         55
    99        999
   100        131
   101         10
   102          1
   113          1
   116          2
   117         89
   118          4
   126         88
   127         25
   128          2
   129          4
   145          3