##TITLE=Library Entry 83000
##JCAMP-DX=Revision 4.10 
##DATA TYPE=MASS SPECTRUM
##SAMPLE DESCRIPTION=Japan AIST/NIMC Database- Spectrum MS-NW-3013
##NAMES=HP
##CAS NAME=4-Pyridinecarboxylic acid, methyl ester
##MOLFORM=C7H7NO2
##CAS REGISTRY NO=2459-09-8
##MP= -300
##BP= -300
##MW= 137
##$RETENTION INDEX=1125
##$CONDENSED SPECTRUM=NO
##NPOINTS= 66
##XYDATA=(XY..XY) 1 
    12          1
    13          1
    14          3
    15         76
    16          1
    17          1
    18          3
    25          4
    26         16
    27          8
    28         28
    29         16
    30          3
    31          7
    36          2
    37         10
    38         15
    39         22
    40          6
    41          2
    42          3
    43          1
    44          4
    45          3
    48          2
    49         21
    50        172
    51        437
    52         47
    53         12
    54          3
    57          1
    59         38
    60          1
    61          1
    62          2
    63          2
    64          2
    65          8
    66          9
    67          4
    74          1
    75          9
    76         14
    77         19
    78        806
    79         57
    80          5
    81          1
    82          2
    91          3
    92          9
    93         17
    94          3
   105          8
   106        999
   107         75
   108         12
   109          3
   110          1
   119         16
   120          6
   136         10
   137        847
   138         68
   139          5