##TITLE=Library Entry 23535
##JCAMP-DX=Revision 4.10 
##DATA TYPE=MASS SPECTRUM
##SAMPLE DESCRIPTION=NIST Mass Spectrometry Data Center, 1998.
##NAMES=HP
##CAS NAME=Oxirane, [[(2-ethylhexyl)oxy]methyl]-
##MOLFORM=C11H22O2
##CAS REGISTRY NO=2461-15-6
##MP= -300
##BP= -300
##MW= 186
##$RETENTION INDEX=0
##$CONDENSED SPECTRUM=NO
##NPOINTS= 85
##XYDATA=(XY..XY) 1 
    15          7
    26          6
    27        102
    29        278
    30         12
    31        163
    32          2
    33          2
    37          1
    38          2
    39         79
    40         14
    41        370
    42         71
    43        303
    44         22
    45        137
    46          3
    47          3
    50          2
    51          5
    52          3
    53         31
    54         25
    55        312
    56        303
    57        999
    58        107
    59        105
    60          4
    61          1
    63          1
    65          5
    66          2
    67         22
    68         23
    69        253
    70        272
    71        156
    72         92
    73         21
    74          8
    75         29
    76          1
    77          3
    78          1
    79          5
    80          1
    81         17
    82         34
    83        168
    84         84
    85         20
    86          4
    87         94
    88          6
    89          7
    91          1
    93          1
    95          6
    96          3
    97         24
    98         44
    99         29
   100          4
   101          1
   107          1
   109          2
   110          3
   111         30
   112        101
   113         14
   114          1
   115          1
   123          5
   124          1
   125          1
   127          4
   128          2
   129         17
   130          2
   139          1
   141          4
   145          1
   157          1