##TITLE=Library Entry 77633
##JCAMP-DX=Revision 4.10 
##DATA TYPE=MASS SPECTRUM
##SAMPLE DESCRIPTION=Chemical Concepts
##NAMES=HP
##CAS NAME=Naphth[1,2-b]oxirene, 1a,2,3,7b-tetrahydro-
##MOLFORM=C10H10O
##CAS REGISTRY NO=2461-34-9
##MP= -300
##BP= -300
##MW= 146
##$RETENTION INDEX=0
##$CONDENSED SPECTRUM=NO
##NPOINTS= 59
##XYDATA=(XY..XY) 1 
    26         21
    27         92
    28         20
    29         51
    30         23
    31         25
    38         21
    39        106
    40         12
    42         18
    44         44
    45          2
    46         86
    50         42
    51         96
    52         26
    53         16
    55         12
    56          6
    58         97
    59          3
    63         87
    64         26
    65         66
    72          8
    73         11
    74         18
    75         17
    76         16
    77         83
    78        113
    79         16
    86         12
    87         12
    89         53
    90         19
    91        136
    92         15
   102         30
   103        136
   104        999
   105        119
   115        142
   116         47
   117        274
   118         79
   119         62
   120         16
   127          9
   128         18
   129         14
   130         11
   131         33
   132          4
   144         10
   145         17
   146        474
   147         55
   148         12