##TITLE=Library Entry 86445
##JCAMP-DX=Revision 4.10 
##DATA TYPE=MASS SPECTRUM
##SAMPLE DESCRIPTION=Exported from NIST MS Search
##NAMES=HP
##CAS NAME=Pyrimidine, 4-chloro-5-ethoxy-2-methyl-
##MOLFORM=C7H9ClN2O
##CAS REGISTRY NO=24611-12-9
##MP= -300
##BP= -300
##MW= 172
##$RETENTION INDEX=0
##$CONDENSED SPECTRUM=NO
##NPOINTS= 27
##XYDATA=(XY..XY) 1 
    26         89
    27        206
    28        149
    29        183
    38          7
    39          7
    40         30
    41         30
    42        112
    43          7
    47         26
    49          7
    51         37
    52         63
    53         67
    54         93
    81          7
    82         89
    83         15
    84         67
   108        101
   109        999
   110         67
   144        509
   145         30
   146        172
   147          7