##TITLE=Library Entry 32713
##JCAMP-DX=Revision 4.10 
##DATA TYPE=MASS SPECTRUM
##SAMPLE DESCRIPTION=Chemical Concepts
##NAMES=HP
##CAS NAME=Cyclooctene, 3-chloro-
##MOLFORM=C8H13Cl
##CAS REGISTRY NO=24618-80-2
##MP= -300
##BP= -300
##MW= 144
##$RETENTION INDEX=0
##$CONDENSED SPECTRUM=NO
##NPOINTS= 95
##XYDATA=(XY..XY) 1 
    25          1
    26         29
    27        157
    28         42
    29         52
    31          2
    35          4
    36         12
    37          8
    38         25
    39        251
    40         40
    41        299
    42         33
    43         30
    44          2
    45          2
    49         14
    50         42
    51         95
    52         46
    53        156
    54        161
    55        158
    56         23
    57         22
    58          2
    60          1
    61          8
    62         16
    63         26
    64          5
    65        147
    66         68
    67        999
    68        150
    69         48
    70          9
    71          5
    73          9
    74          7
    75         63
    76          8
    77        160
    78         50
    79        360
    80        234
    81        259
    82        149
    83         27
    84          4
    85          2
    86          2
    87          4
    88        233
    89         25
    90         97
    91         79
    92         11
    93        162
    94         23
    95        109
    96         11
    97          6
    98          5
    99          2
   100          1
   101         22
   102         42
   103         15
   104         15
   105         12
   106          4
   107         26
   108         63
   109        235
   110         23
   111          3
   112          1
   113          2
   114          2
   115         11
   116        141
   117         16
   118         43
   119          5
   129          5
   130          1
   131          2
   141          1
   143          3
   144         25
   145          5
   146          9
   147          2