##TITLE=Library Entry 19273
##JCAMP-DX=Revision 4.10 
##DATA TYPE=MASS SPECTRUM
##SAMPLE DESCRIPTION=R.T.HOLMAN,UNIVERSITY OF MINNESOTA
##NAMES=HP
##CAS NAME=9-Octadecenoic acid, methyl ester
##MOLFORM=C19H36O2
##CAS REGISTRY NO=2462-84-2
##MP= -300
##BP= -300
##MW= 296
##$RETENTION INDEX=2095
##$CONDENSED SPECTRUM=NO
##NPOINTS= 238
##XYDATA=(XY..XY) 1 
    26          7
    27        140
    28         65
    29        350
    30          9
    31         13
    32          7
    33          4
    35          1
    36          3
    37          2
    38          3
    39        130
    40         26
    41        850
    42        150
    43        630
    44         24
    45         34
    46          2
    50          2
    51          7
    52          7
    53         90
    54        270
    55        999
    56        250
    57        330
    58         15
    59        210
    60          9
    61          4
    62          2
    63          2
    64          1
    65         20
    66         22
    67        360
    68        240
    69        690
    70        190
    71        120
    72         15
    73         53
    74        680
    75         95
    76          7
    77         23
    78         10
    79         70
    80         48
    81        310
    82        210
    83        510
    84        420
    85        100
    86          8
    87        450
    88         44
    89          5
    90          2
    91         21
    92          7
    93         38
    94         44
    95        210
    96        360
    97        400
    98        320
    99         46
   100         11
   101         74
   102          9
   103          2
   104          2
   105         13
   106          7
   107         28
   108         31
   109        120
   110        200
   111        200
   112         73
   113         34
   114         49
   115         80
   116         13
   117          3
   118          3
   119         25
   120         18
   121         35
   122         18
   123        150
   124        100
   125        100
   126         24
   127         33
   128         54
   129         49
   130         13
   131          3
   132          2
   133         24
   134         20
   135         34
   136         12
   137         82
   138         80
   139         61
   140         13
   141         61
   142         17
   143         45
   144          7
   145          3
   146          2
   147         21
   148         16
   149         20
   150          9
   151         51
   152         61
   153         37
   154          8
   155         18
   156          5
   157         18
   158          5
   159          2
   160          1
   161         12
   162          6
   163         11
   164         10
   165         33
   166         48
   167         23
   168          6
   169         25
   170          5
   171         13
   172          3
   173          1
   175          9
   176          3
   177          6
   178          5
   179         19
   180        110
   181         28
   182          5
   183         14
   184          4
   185         10
   186          5
   187          2
   188          1
   189          6
   190          2
   191          3
   192          3
   193         15
   194         20
   195          7
   196          3
   197          4
   198          2
   199         12
   200          6
   201          1
   203          3
   204          2
   205          2
   206          2
   207         15
   208         12
   209          6
   210          4
   211          3
   212          1
   213         11
   214          6
   215          2
   217          2
   218          2
   219          1
   220         44
   221         31
   222        160
   223         32
   224          4
   225          2
   226          1
   227          4
   228          4
   229          2
   230          1
   231          1
   233          1
   234          1
   235         20
   236         21
   237          5
   238          1
   239          2
   240          1
   241          2
   242          1
   245          2
   246         16
   247         10
   248          2
   249          3
   250          2
   251          1
   253          9
   254          2
   255          2
   256          1
   263          5
   264        310
   265        190
   266         30
   267          6
   268          2
   269          1
   278          3
   279          1
   280          1
   281          1
   282          1
   294          2
   295          1
   296         59
   297         13
   298          4
   299          1