##TITLE=Library Entry 32778
##JCAMP-DX=Revision 4.10 
##DATA TYPE=MASS SPECTRUM
##SAMPLE DESCRIPTION=R.T.HOLMAN,UNIVERSITY OF MINNESOTA
##NAMES=HP
##CAS NAME=9,12-Hexadecadienoic acid, methyl ester
##MOLFORM=C17H30O2
##CAS REGISTRY NO=2462-80-8
##MP= -300
##BP= -300
##MW= 266
##$RETENTION INDEX=0
##$CONDENSED SPECTRUM=NO
##NPOINTS= 238
##XYDATA=(XY..XY) 1 
    26          9
    27        149
    28        117
    29        215
    30          8
    31         14
    32         10
    33          3
    35          1
    36          5
    37          2
    38          5
    39        160
    40         29
    41        682
    42         74
    43        223
    44         39
    45         33
    46          2
    50          5
    51         18
    52         17
    53        129
    54        447
    55        623
    56         58
    57         70
    58          8
    59        168
    60         11
    61          4
    62          1
    63          6
    64          3
    65         62
    66         54
    67        999
    68        380
    69        274
    70         29
    71         39
    72          5
    73         30
    74        125
    75         19
    76          4
    77        109
    78         38
    79        278
    80        164
    81        729
    82        435
    83        149
    84         40
    85         44
    86          4
    87         86
    88          9
    89          8
    90          2
    91         86
    92         19
    93        129
    94        109
    95        407
    96        313
    97         94
    98         29
    99         18
   100          5
   101         22
   102          3
   103          5
   104          4
   105         29
   106         16
   107         78
   108         78
   109        223
   110        137
   111         47
   112          9
   113         11
   114          5
   115         27
   116          5
   117          8
   118          4
   119         19
   120         17
   121         74
   122         62
   123        105
   124         54
   125         22
   126          6
   127         11
   128          6
   129         18
   130          4
   131         12
   132          5
   133         22
   134         10
   135         66
   136         70
   137         47
   138         28
   139         15
   140         10
   141         14
   142          3
   143         12
   144          3
   145          9
   146          5
   147         13
   148          5
   149         47
   150         74
   151         36
   152         14
   153         12
   154         10
   155          6
   156          1
   157          4
   158          1
   159          9
   160          3
   161          7
   162          3
   163         28
   164         39
   165         16
   166          6
   167          8
   168         10
   169          3
   170          1
   171          3
   172          1
   173         10
   174          2
   175          4
   176          1
   177         14
   178         17
   179          7
   180          4
   181          7
   182          7
   183          2
   184          1
   185          5
   186          1
   187          7
   188          2
   189          2
   190          6
   191         10
   192         35
   193         10
   194          5
   195          6
   196          7
   197          2
   198          1
   199          3
   200          1
   201          1
   202          1
   203          1
   204          1
   205          9
   206         13
   207          5
   208          2
   209          6
   210          5
   211          2
   212          1
   213          1
   214          1
   215          1
   216          1
   217          3
   218          1
   219          1
   220          1
   221          1
   222          1
   223          5
   224          4
   225          2
   226          1
   227          1
   228          1
   229          1
   231          1
   232          1
   233          2
   234         54
   235         90
   236         18
   237          7
   238          2
   239          2
   240          1
   241          1
   242          1
   243          1
   247          1
   248          1
   249          1
   250          1
   251          1
   252          1
   253          1
   254          1
   255          1
   256          1
   257          1
   258          1
   259          1
   260          1
   261          1
   262          1
   263          1
   264          3
   265          3
   266        137
   267         29
   268          4
   269          1
   270          2
   271          1