##TITLE=Library Entry 16883
##JCAMP-DX=Revision 4.10 
##DATA TYPE=MASS SPECTRUM
##SAMPLE DESCRIPTION=Japan AIST/NIMC Database- Spectrum MS-NW-6427
##NAMES=HP
##CAS NAME=1,3-Butanediol, (S)-
##MOLFORM=C4H10O2
##CAS REGISTRY NO=24621-61-2
##MP= -300
##BP= -300
##MW= 90
##$RETENTION INDEX=0
##$CONDENSED SPECTRUM=NO
##NPOINTS= 61
##XYDATA=(XY..XY) 1 
    13          2
    14         10
    15         61
    16          3
    17          5
    18         17
    19          2
    25          3
    26         26
    27        169
    28        239
    29        161
    30         17
    31        256
    32          4
    33          2
    34          3
    36          2
    37          9
    38         13
    39         80
    40         22
    41        130
    42        169
    43        917
    44        233
    45        999
    46         64
    47         21
    48          1
    49          7
    50          7
    51          6
    52          2
    53         16
    54         23
    55         71
    56         13
    57        285
    58         16
    59          9
    60          2
    61          4
    62         10
    63          7
    67          3
    68          1
    69          4
    70          8
    71         30
    72        315
    73         19
    74          3
    75        117
    76          5
    85          1
    86          1
    87          1
    88          1
    89          4
    90          2