##TITLE=Library Entry 24141
##JCAMP-DX=Revision 4.10 
##DATA TYPE=MASS SPECTRUM
##SAMPLE DESCRIPTION=Zaikin V.G., TIPS RAS, Moscow, Russia
##NAMES=HP
##CAS NAME=2- Bromopropionic acid, octyl ester
##MOLFORM=C11H21BrO2
##CAS REGISTRY NO=24625-82-9
##MP= -300
##BP= -300
##MW= 264
##$RETENTION INDEX=1420
##$CONDENSED SPECTRUM=NO
##NPOINTS= 69
##XYDATA=(XY..XY) 1 
    25          4
    26         46
    27        346
    28          2
    29        340
    30          8
    31         22
    35          4
    36         25
    37          3
    38         15
    39        142
    40         38
    41        731
    42        368
    43        991
    44         59
    45         21
    50          4
    51          7
    52          6
    53         48
    54         69
    55        709
    56        841
    57        999
    58         41
    65          6
    66          5
    67         64
    68        136
    69        484
    70        653
    71        543
    72         28
    73         35
    74         47
    75         21
    77          4
    79         15
    80         19
    81         24
    82        128
    83        448
    84        532
    85         42
    95          9
    97         51
    98          4
   100          3
   106          5
   107        188
   108         12
   109        177
   110         12
   111         51
   112        349
   113         29
   129          8
   134          4
   135         83
   136          7
   137         81
   152          4
   153        117
   154          8
   155        110
   157         22
   193          3