##TITLE=Library Entry 89629
##JCAMP-DX=Revision 4.10 
##DATA TYPE=MASS SPECTRUM
##SAMPLE DESCRIPTION=Darrick Lee, Cayman Chemical, Ann Arbor, MI
##NAMES=HP
##CAS NAME=MDPBP
##MOLFORM=C15H19NO3
##CAS REGISTRY NO=24622-60-4
##MP= -300
##BP= -300
##MW= 261
##$RETENTION INDEX=0
##$CONDENSED SPECTRUM=NO
##NPOINTS= 110
##XYDATA=(XY..XY) 1 
    41         29
    42         22
    43          8
    44          1
    50          1
    51          3
    52          1
    53          6
    54         11
    55         31
    56          9
    57          1
    58          7
    61          1
    62          6
    63         21
    64          3
    65         33
    66          3
    67          2
    68         10
    69         11
    70         41
    71          3
    74          1
    75          1
    76          1
    77          3
    78          1
    79          2
    80          3
    81          1
    82          5
    83          2
    84          4
    87          1
    89          1
    91         12
    92          2
    93          2
    94          3
    95          2
    96         21
    97         11
    98          1
   102          1
   103          2
   104          1
   105          2
   106          1
   108          5
   110         39
   112        999
   113         80
   114          3
   115          1
   117          2
   118          1
   119          4
   120          3
   121         28
   122          3
   123          1
   128          1
   131          1
   132          1
   133          1
   134          1
   135          4
   136          1
   144          1
   145          1
   146          1
   147          3
   149         41
   150          4
   151          1
   159          1
   160          1
   161          1
   162          1
   163          1
   164          1
   172          1
   173          1
   174          1
   175          2
   176          1
   177          1
   178          1
   187          1
   188          1
   189          1
   190          2
   191          1
   192          1
   200          1
   202          1
   203          1
   204          1
   215          1
   216          1
   230          1
   231          1
   232          3
   233          1
   257          1
   259          2
   260          1
   261          1