##TITLE=Library Entry 32714
##JCAMP-DX=Revision 4.10 
##DATA TYPE=MASS SPECTRUM
##SAMPLE DESCRIPTION=R.T.HOLMAN,UNIVERSITY OF MINNESOTA
##NAMES=HP
##CAS NAME=5,8,11-Eicosatrienoic acid, methyl ester
##MOLFORM=C21H36O2
##CAS REGISTRY NO=2463-03-8
##MP= -300
##BP= -300
##MW= 320
##$RETENTION INDEX=0
##$CONDENSED SPECTRUM=NO
##NPOINTS= 257
##XYDATA=(XY..XY) 1 
    26          9
    27        184
    28        192
    29        383
    30          9
    31         94
    33          3
    34          3
    38          3
    39        163
    40         33
    41        869
    42         56
    43        589
    44         33
    45         46
    46          1
    50          4
    51         25
    52         22
    53        142
    54        211
    55        603
    56         69
    57        301
    58         19
    59        184
    60          9
    61          4
    62          1
    63          8
    64          6
    65        115
    66        150
    67        999
    68        170
    69        362
    70         33
    71        157
    72         12
    73         28
    74        253
    75         24
    76          4
    77        321
    78        211
    79        905
    80        842
    81        630
    82        232
    83        184
    84         44
    85        130
    86         11
    87        197
    88         56
    89          8
    90          8
    91        561
    92        170
    93        725
    94        377
    95        383
    96        163
    97        136
    98         27
    99         30
   100         22
   101         32
   102         12
   103         35
   104         78
   105        253
   106        507
   107        321
   108        102
   109        211
   110         65
   111         32
   112          8
   113          8
   114          4
   115         46
   116         38
   117        102
   118         30
   119        191
   120        157
   121        184
   122         64
   123        115
   124         49
   125         12
   126          4
   127         20
   128         17
   129         27
   130         40
   131        115
   132         19
   133        142
   134         67
   135        218
   136         91
   137         72
   138         53
   139          8
   140         25
   141         56
   142         12
   143         20
   144         16
   145         56
   146         11
   147        142
   148         81
   149         81
   150         41
   151         19
   152         24
   153          8
   154         22
   155         14
   156          4
   157         25
   158          8
   159         16
   160         19
   161        253
   162         56
   163         35
   164         19
   165         17
   166         25
   167         24
   168         24
   169         32
   170          1
   171         16
   172          6
   173          8
   174          3
   175         75
   176         20
   177         27
   178         32
   179         36
   180        211
   181         61
   182          9
   183          3
   184          1
   185          6
   186          3
   187          4
   188          3
   189         35
   190          9
   191         24
   192        142
   193         46
   194         41
   195         11
   196          3
   197          1
   198          1
   199          3
   200          1
   201          1
   202          1
   203          9
   204          9
   205        260
   206         48
   207         36
   208         41
   209          9
   210          3
   212          1
   213          3
   215          1
   217          4
   218          3
   219         48
   220         46
   221         48
   222         17
   223          3
   224          1
   225          1
   227          1
   229          3
   230          1
   231         12
   232          6
   233         11
   234          6
   235         14
   236          6
   237          1
   238          3
   239          1
   240          1
   241          3
   242          1
   243         11
   244          4
   245          3
   246         24
   247          8
   248          3
   249          6
   250          1
   251          1
   252          4
   253          1
   254          1
   255          3
   257          1
   259          3
   260          4
   261          1
   262          1
   263          3
   264          1
   266         11
   267          3
   269          4
   270          3
   271         25
   272          6
   273          1
   277          1
   278          3
   279          6
   280          3
   281          8
   282          1
   283          1
   284          1
   286          1
   287          1
   288          8
   289          9
   290          4
   291          3
   292          3
   293          3
   300          1
   310          1
   317          1
   318          3
   319          3
   320        133
   321         28
   322          6
   323          1