##TITLE=Library Entry 67550
##JCAMP-DX=Revision 4.10 
##DATA TYPE=MASS SPECTRUM
##SAMPLE DESCRIPTION=Japan AIST/NIMC Database- Spectrum MS-IW- 536
##NAMES=HP
##CAS NAME=Phenyl palmitate
##MOLFORM=C22H36O2
##CAS REGISTRY NO=24632-92-6
##MP= -300
##BP= -300
##MW= 332
##$RETENTION INDEX=0
##$CONDENSED SPECTRUM=NO
##NPOINTS= 184
##XYDATA=(XY..XY) 1 
    26          1
    27         17
    28          8
    29         57
    30          1
    38          2
    39         25
    40          7
    41        161
    42         33
    43        337
    44         12
    45          2
    47          1
    50          2
    51          6
    52          1
    53          8
    54         12
    55        223
    56         45
    57        630
    58         33
    59         32
    60         28
    61          9
    62          1
    63          3
    64          2
    65         27
    66         15
    67         74
    68         16
    69        173
    70         34
    71        430
    72         30
    73         34
    74          5
    76          1
    77         23
    78          6
    79         11
    80          4
    81        147
    82         22
    83        230
    84         48
    85        273
    86         19
    87         11
    88          6
    89          1
    91         16
    92         16
    93         16
    94        999
    95        329
    96         33
    97        163
    98        168
    99         84
   100          7
   101          8
   102          3
   103          1
   104          2
   105          8
   106          1
   107         12
   108          4
   109        163
   110         19
   111         80
   112         43
   113         37
   114          4
   115          9
   116          4
   117          1
   118          1
   119          2
   120          1
   121         11
   122          2
   123        107
   124         12
   125         53
   126          9
   127         19
   128          5
   129         21
   130          3
   131          1
   133          2
   134          1
   135          8
   136         31
   137         71
   138          9
   139         27
   140          5
   141         11
   142          2
   143          8
   144          2
   145          1
   147          1
   149         11
   150          2
   151         28
   152          5
   153          6
   154          2
   155          7
   156          1
   157         10
   158          2
   163          2
   165         18
   166          3
   167          4
   168          1
   169          3
   170          1
   171          9
   172          2
   177          1
   179          6
   180          1
   181          1
   182          1
   183         10
   184          2
   185         10
   186          1
   191          1
   193          3
   194          2
   195          1
   196          1
   197          1
   199          5
   200          1
   205          1
   209          1
   210          1
   211         99
   212         15
   213          9
   214          1
   219          2
   220          1
   221         21
   222          4
   223          1
   225          4
   226          1
   227          3
   228          3
   229          1
   237          4
   238          4
   239        929
   240        164
   241         15
   242          1
   249          4
   250          1
   253          1
   255          1
   256         17
   257          4
   267        103
   268         20
   269          2
   276          1
   284          2
   288          1
   304         10
   305          3
   332         72
   333         21
   334          3