##TITLE=Library Entry 58049
##JCAMP-DX=Revision 4.10 
##DATA TYPE=MASS SPECTRUM
##SAMPLE DESCRIPTION=Japan AIST/NIMC Database- Spectrum MS-NW-2052
##NAMES=HP
##CAS NAME=Ethyl tetracosanoate
##MOLFORM=C26H52O2
##CAS REGISTRY NO=24634-95-5
##MP= -300
##BP= -300
##MW= 396
##$RETENTION INDEX=2788
##$CONDENSED SPECTRUM=NO
##NPOINTS= 187
##XYDATA=(XY..XY) 1 
    15          2
    17          3
    18         10
    26          2
    27         34
    28         14
    29        137
    30          4
    31          5
    39         16
    40          5
    41        205
    42         44
    43        409
    44         12
    45         28
    53          9
    54         18
    55        209
    56         55
    57        282
    58         15
    59          9
    60         45
    61         58
    62          2
    65          1
    66          1
    67         38
    68         17
    69        142
    70         62
    71        142
    72          8
    73         74
    74          9
    75          3
    77          1
    79          6
    80          3
    81         32
    82         16
    83        100
    84         31
    85         75
    86          5
    87         12
    88        999
    89        375
    90         20
    91          3
    93          6
    94          3
    95         32
    96         12
    97         74
    98         37
    99         16
   100          2
   101        522
   102         45
   103          4
   107          6
   108          2
   109         20
   110          7
   111         43
   112          9
   113         10
   114          2
   115         56
   116          8
   121          9
   122          1
   123         11
   124          4
   125         24
   126          5
   127          7
   128          1
   129         24
   130         16
   131          1
   133          1
   135         10
   136          2
   137          7
   138          2
   139         15
   140          4
   141          5
   142          1
   143         66
   144         27
   145          2
   149          7
   150          1
   151          3
   152          2
   153         10
   154          3
   155          3
   157        215
   158         25
   159          3
   163          5
   164          1
   165          2
   166          1
   167          6
   168          2
   169          2
   171         15
   172          4
   177          4
   179          1
   181          5
   182          2
   183          2
   185         11
   186          5
   187          1
   191          2
   195          4
   196          1
   199         30
   200          8
   205          1
   209          3
   210          2
   211          1
   213         34
   214          7
   219          1
   223          3
   224          2
   225          1
   227          8
   228          3
   233          1
   236          1
   237          2
   238          1
   241          9
   242          4
   243          1
   251          2
   252          1
   255          9
   256          3
   264          1
   265          1
   266          1
   269          9
   270          2
   279          1
   283          5
   284          3
   297         18
   298          5
   299          1
   306          1
   308          2
   311         10
   312          3
   325          6
   326          1
   331          1
   332          1
   339          5
   340          2
   348          4
   349          4
   350          4
   351         32
   352         10
   353         40
   354          9
   355          1
   367          8
   368          5
   369          1
   394          1
   395          3
   396        422
   397        116
   398         18