##TITLE=Library Entry 37050
##JCAMP-DX=Revision 4.10 
##DATA TYPE=MASS SPECTRUM
##SAMPLE DESCRIPTION=Exported from NIST MS Search
##NAMES=HP
##CAS NAME=2-Undecenal
##MOLFORM=C11H20O
##CAS REGISTRY NO=2463-77-6
##MP= -300
##BP= -300
##MW= 168
##$RETENTION INDEX=1367
##$CONDENSED SPECTRUM=NO
##NPOINTS= 76
##XYDATA=(XY..XY) 1 
    15         20
    18         91
    19          8
    26         31
    27        387
    29        724
    30         19
    37          7
    38         11
    39        305
    40         41
    41        937
    42        218
    43        821
    50         10
    51         17
    52         14
    53        102
    54        178
    55        802
    56        290
    57        892
    58         37
    60          8
    63          6
    65         21
    66         29
    67        231
    68        184
    69        470
    70        999
    71        131
    72         21
    73         10
    75          6
    77         20
    78         12
    79         97
    80         57
    81        185
    82        299
    83        573
    84        257
    85         41
    86         71
    87          7
    91         15
    92          5
    93         64
    94         42
    95        108
    96         68
    97        179
    98        158
    99         14
   100         62
   107         39
   108         32
   109         29
   110         12
   111        115
   112         91
   113         17
   121         96
   122         23
   123          6
   124         86
   125         26
   126          9
   135         19
   137         19
   138          5
   139         11
   150         30
   151          5
   168          7