##TITLE=Library Entry 32410
##JCAMP-DX=Revision 4.10 
##DATA TYPE=MASS SPECTRUM
##SAMPLE DESCRIPTION=SERL
##NAMES=HP
##CAS NAME=11,14-Eicosadienoic acid, methyl ester
##MOLFORM=C21H38O2
##CAS REGISTRY NO=2463-02-7
##MP= -300
##BP= -300
##MW= 322
##$RETENTION INDEX=2276
##$CONDENSED SPECTRUM=NO
##NPOINTS= 70
##XYDATA=(XY..XY) 1 
    39        130
    40         40
    41        820
    42        100
    43        410
    44         20
    45         40
    53        100
    54        420
    55        790
    56         60
    57         70
    59        150
    65         40
    66         70
    67        999
    68        410
    69        350
    70         30
    71         30
    73         20
    74        120
    77         80
    78         30
    79        260
    80        190
    81        670
    82        490
    83        190
    84         20
    85         30
    87         70
    91         60
    93         90
    94        100
    95        500
    96        390
    97        120
    98         20
    99         10
   101         10
   105         10
   107         50
   108         40
   109        230
   110        180
   111         50
   115         20
   121         50
   122         30
   123        100
   124         60
   125         30
   129         10
   135         40
   136         40
   137         40
   138         30
   139         10
   149         30
   150         50
   151         20
   152         20
   163         20
   164         20
   165         10
   178         10
   192         10
   291         20
   322         10