##TITLE=Library Entry 92477
##JCAMP-DX=Revision 4.10 
##DATA TYPE=MASS SPECTRUM
##SAMPLE DESCRIPTION=Dennis Rohrbaugh, CBDCOM/ERDEC, Edgewood, MD
##NAMES=HP
##CAS NAME=O,O'O''-Triphenylphosphorothioate
##MOLFORM=C9H21O3PS
##CAS REGISTRY NO=2464-03-1
##MP= -300
##BP= -300
##MW= 240
##$RETENTION INDEX=0
##$CONDENSED SPECTRUM=NO
##NPOINTS= 38
##XYDATA=(XY..XY) 1 
    45        332
    47         72
    58         36
    59        467
    60         26
    65        169
    81         70
    82         79
    83         17
    96         33
    97        240
    98         46
   107         55
   113         37
   114        426
   115        999
   116         25
   117         50
   123         36
   133         24
   139        156
   140         33
   141         94
   142          9
   143          6
   149         10
   155         70
   156         56
   157        266
   158          9
   159         13
   165         40
   167          7
   183         33
   197         67
   198         31
   199        112
   225         12