##TITLE=Library Entry 41235
##JCAMP-DX=Revision 4.10 
##DATA TYPE=MASS SPECTRUM
##SAMPLE DESCRIPTION=Japan AIST/NIMC Database- Spectrum MS-IW-4227
##NAMES=HP
##CAS NAME=1,1-Diethyl-4-phenylsemicarbazide
##MOLFORM=C11H17N3O
##CAS REGISTRY NO=24648-06-4
##MP= -300
##BP= -300
##MW= 207
##$RETENTION INDEX=0
##$CONDENSED SPECTRUM=NO
##NPOINTS= 116
##XYDATA=(XY..XY) 1 
    14          1
    15         15
    16          1
    17          6
    26          6
    27         45
    28         95
    29        181
    30         46
    31         96
    32          1
    37          4
    38         10
    39         44
    40         11
    41         22
    42        130
    43         41
    44        114
    45         64
    46          5
    50         10
    51         43
    52         12
    53          3
    54          7
    55          4
    56        144
    57         39
    58         47
    59        339
    60         17
    61          2
    62          5
    63         19
    64         33
    65         95
    66         63
    67          7
    68          2
    69          2
    70         15
    71        195
    72        920
    73        999
    74         55
    75          3
    76          8
    77        145
    78         15
    79          2
    80          1
    82          3
    83          1
    84          1
    85          7
    86          9
    87        845
    88        322
    89         15
    90          4
    91         70
    92         69
    93        518
    94         81
    95          5
    96          5
    97          1
    99         49
   100          2
   103          4
   104         16
   105          3
   106          5
   107          1
   113         23
   114         22
   115          9
   117          9
   118         46
   119        146
   120         38
   121          3
   122          1
   130          1
   131          1
   132          5
   133          2
   134          2
   135         73
   136        185
   137        333
   138         27
   139          1
   146          8
   147          1
   149          2
   160          1
   161          1
   162          2
   163          2
   164          2
   174         19
   175          2
   177          1
   178          2
   188          1
   189         62
   190          9
   191          1
   192         13
   193          2
   206          2
   207        300
   208         61
   209          6