##TITLE=Library Entry 18164
##JCAMP-DX=Revision 4.10 
##DATA TYPE=MASS SPECTRUM
##SAMPLE DESCRIPTION=A.A.Kutin, Moscow, Russia
##NAMES=HP
##CAS NAME=Pyrazole-5-carbonitrile, 1,3-diphenyl-
##MOLFORM=C16H11N3
##CAS REGISTRY NO=24652-31-1
##MP= -300
##BP= -300
##MW= 245
##$RETENTION INDEX=0
##$CONDENSED SPECTRUM=NO
##NPOINTS= 158
##XYDATA=(XY..XY) 1 
    33         10
    34         11
    35          9
    36         26
    37         38
    38        116
    39        341
    40        161
    41         62
    42         17
    43         22
    44         64
    47          4
    48          3
    50        317
    51        999
    52        109
    53         30
    54          7
    55         17
    56          9
    57         18
    58          1
    59          4
    60          5
    61         27
    62         77
    63        239
    64        181
    65        107
    66         27
    67          7
    68         13
    69         11
    70         11
    71          9
    73         13
    74         76
    75         95
    76        145
    77        997
    78         68
    79          6
    80          2
    81          8
    82          6
    83         11
    84          9
    85          9
    86         20
    87         58
    88         61
    89        124
    90         80
    91        139
    92         13
    93          3
    94          5
    95         12
    96         10
    97          4
    98          3
    99         10
   100          9
   101         11
   102         75
   103         75
   104        189
   105         21
   106          3
   107          1
   109         10
   110          9
   111         15
   112         15
   113         52
   114         85
   115        122
   116         60
   117         23
   118          6
   119          4
   120          3
   123         70
   124          2
   125          1
   126          2
   127          6
   128          6
   129          8
   130          2
   132          0
   134          2
   135          5
   136          0
   138          5
   139         12
   140         45
   141         56
   142        267
   143         35
   144          2
   147          4
   149          3
   150          0
   151          4
   152          6
   153          6
   154          5
   155          3
   156          1
   157          0
   158          0
   163          3
   164          6
   165         23
   166          6
   167         16
   168         28
   169          3
   171          2
   172          0
   175          2
   176          1
   177          4
   178          6
   179          2
   180          4
   181          0
   182          2
   184          2
   186          0
   187          1
   188          2
   189         19
   190         27
   191         12
   192         10
   193          7
   194          6
   195          0
   202          0
   204          0
   205          3
   218          3
   219         37
   220          2
   229          3
   230         10
   231          0
   240          0
   243         36
   244        241
   245        618
   246        122
   247         39
   248         11
   250          4