##TITLE=Library Entry 18816
##JCAMP-DX=Revision 4.10 
##DATA TYPE=MASS SPECTRUM
##SAMPLE DESCRIPTION=Japan AIST/NIMC Database- Spectrum MS-NW-6124
##NAMES=HP
##CAS NAME=1,2,3-Tris-(2-cyanoethoxy)-propane
##MOLFORM=C12H17N3O3
##CAS REGISTRY NO=2465-93-2
##MP= -300
##BP= -300
##MW= 251
##$RETENTION INDEX=0
##$CONDENSED SPECTRUM=NO
##NPOINTS= 118
##XYDATA=(XY..XY) 1 
    13          1
    14          5
    15         49
    16          1
    25          2
    26         44
    27        111
    28        163
    29         64
    30         13
    31        179
    32          2
    37          1
    38          3
    39         21
    40         14
    41         69
    42         52
    43        118
    44         54
    45        154
    46          6
    50          2
    51         11
    52         42
    53         43
    54        999
    55        118
    56         41
    57        103
    58         50
    59          9
    60          6
    61         36
    62          1
    66          2
    67          2
    68         31
    69         16
    70         14
    71         19
    72         24
    73         74
    74          3
    75          3
    80          6
    81          7
    82          8
    83          9
    84        253
    85         96
    86        130
    87         13
    88          4
    90          1
    94          4
    95          5
    96         23
    97        195
    98         77
    99          9
   100          6
   101          1
   102          3
   103          1
   107         54
   108          6
   109          9
   110        125
   111         54
   112         24
   113        170
   114        140
   115          9
   116          1
   121          1
   122          5
   123          2
   124          5
   125          2
   126         26
   127          4
   128          9
   129          1
   132          1
   137         14
   138          3
   139         11
   140          9
   141          1
   149          1
   150         12
   151          5
   152          3
   153          9
   154          4
   155          1
   164          1
   165          2
   166         46
   167        649
   168         64
   169          7
   170          1
   179          4
   180          6
   181         23
   182         18
   183          2
   185          1
   197          3
   211          2
   221          6
   222          1
   224          5
   234          1
   251          9
   252          6