##TITLE=Library Entry 20323
##JCAMP-DX=Revision 4.10 
##DATA TYPE=MASS SPECTRUM
##SAMPLE DESCRIPTION=Chemical Concepts
##NAMES=HP
##CAS NAME=9-Octadecenoic acid (Z)-, 2-hydroxy-1,3-propanediyl ester
##MOLFORM=C39H72O5
##CAS REGISTRY NO=2465-32-9
##MP= -300
##BP= -300
##MW= 620
##$RETENTION INDEX=0
##$CONDENSED SPECTRUM=NO
##NPOINTS= 338
##XYDATA=(XY..XY) 1 
    27        117
    28         82
    29        266
    30          8
    31         38
    32         15
    37          4
    38          3
    39         79
    40         16
    41        582
    42        108
    43        580
    44         26
    45         31
    46          2
    47          1
    49          1
    50          3
    51          4
    52          3
    53         47
    54        211
    55        999
    56        207
    57        455
    58         23
    59         11
    60         18
    61         10
    62          1
    63          1
    65         13
    66         21
    67        444
    68        174
    69        738
    70        144
    71        142
    72          8
    73         40
    74         18
    75         20
    77         17
    78          9
    79         85
    80         60
    81        424
    82        188
    83        543
    84        151
    85         80
    86          8
    87         16
    88          3
    89          2
    90          2
    91         32
    92          9
    93         73
    94         45
    95        311
    96        167
    97        329
    98        316
    99         52
   100          8
   101         20
   102          4
   103          3
   105         17
   106          7
   107         55
   108         44
   109        188
   110         88
   111        139
   112        108
   113         23
   114         10
   115         14
   116         60
   117         26
   118          5
   119         22
   120         10
   121         89
   122         25
   123        108
   124         56
   125         56
   126         28
   127         23
   128          7
   129        178
   130         25
   131         15
   132          3
   133         25
   134         19
   135         85
   136         21
   137         92
   138         42
   139         27
   140          8
   141         11
   142          3
   143         18
   144          3
   145          3
   146          1
   147         23
   148         15
   149         43
   150         14
   151         73
   152         51
   153         23
   154          6
   155         14
   156          4
   157         11
   158          6
   159          4
   161         10
   162          5
   163         20
   164         11
   165         44
   166         37
   167         12
   168          4
   169         12
   170          2
   171         21
   172         18
   173          5
   174          2
   175          7
   176          4
   177          9
   178          8
   179         18
   180         19
   181         13
   182          3
   183         10
   184          2
   185         62
   186         12
   187          2
   188          1
   189          5
   190          3
   191          6
   192          4
   193         12
   194          8
   195          5
   196          4
   197          4
   199         13
   200          3
   203          4
   204          1
   205          3
   206          3
   207         18
   208          8
   209          9
   210          2
   211          6
   213         11
   214          5
   215          1
   218          2
   219          2
   220         17
   221         27
   222         13
   223          3
   225          5
   226          2
   227         12
   228          5
   229          1
   230          2
   231          3
   232          2
   233          3
   234          4
   235         12
   236          9
   237          4
   238          1
   239         13
   240          6
   241         16
   242         13
   243          5
   244          1
   245         12
   246         23
   247         41
   248          7
   249          6
   250          1
   253         13
   254          3
   255          6
   256         13
   257          5
   258          2
   259          1
   260          2
   261          6
   262         60
   263         50
   264        291
   265        355
   266         72
   267         12
   268          2
   269          3
   270          3
   274          1
   277          1
   278          2
   279          5
   280          3
   281          6
   282          4
   283          3
   284          1
   295         11
   296          4
   297          3
   307          4
   309          6
   311          1
   313          2
   320          1
   321          1
   322          1
   323          4
   325         38
   326          9
   327          1
   330          1
   331          1
   332          1
   333          2
   334          2
   335          4
   336         13
   337         39
   338        233
   339        721
   340        166
   341         35
   342          7
   343          1
   351          1
   353          3
   354          2
   355          3
   356          5
   357         12
   358          3
   367          1
   380          3
   381          3
   393         30
   394          7
   403          2
   406          1
   421          1
   423          1
   424          1
   425          2
   427          1
   431          2
   434          2
   436          2
   447          3
   448          3
   449         18
   450          5
   451          2
   462          2
   463          3
   464          1
   475          2
   476          3
   477          3
   479          1
   489          1
   490          2
   491          2
   492          2
   503          5
   504          5
   505          4
   506          7
   507          2
   508          2
   517          4
   518          2
   519          2
   520          8
   521          4
   522          1
   529          5
   530          3
   531          1
   546          1
   547          1
   559          2
   573          2
   585          1
   589          4
   590          2
   593          1
   598          2
   599          3
   600          8
   601         21
   602        190
   603        184
   604         67
   605         20
   606          6
   618          1
   619          3
   620          9
   621          5
   622          1