##TITLE=Library Entry 34991
##JCAMP-DX=Revision 4.10 
##DATA TYPE=MASS SPECTRUM
##SAMPLE DESCRIPTION=DR GLENN PATTERSON
##NAMES=HP
##CAS NAME=Ergosta-7,22-dien-3-ol, (3.beta.,5.alpha.,22E)-
##MOLFORM=C28H46O
##CAS REGISTRY NO=2465-11-4
##MP= -300
##BP= -300
##MW= 398
##$RETENTION INDEX=3202
##$CONDENSED SPECTRUM=NO
##NPOINTS= 125
##XYDATA=(XY..XY) 1 
    39         80
    41        490
    42         40
    43        509
    53        100
    55        929
    56         60
    57        260
    65         50
    67        450
    68        100
    69        999
    70         90
    71        120
    77        160
    79        490
    80         60
    81        859
    82        220
    83        320
    91        450
    92        100
    93        440
    94        160
    95        529
    96         90
    97         80
   105        509
   106        110
   107        619
   108        150
   109        400
   110         50
   117        160
   118         60
   119        340
   120        100
   121        290
   122         60
   123        210
   124         60
   125        230
   128         40
   129         80
   130         40
   131        230
   132         70
   133        320
   134        100
   135        280
   137         90
   143        110
   144         40
   145        300
   146        100
   147        430
   148         70
   149        180
   150         50
   151         70
   152         40
   157        100
   158         40
   159        240
   160         60
   161        310
   162         40
   163         60
   164         40
   171         70
   173        160
   174         50
   175        120
   185         70
   187        100
   189         50
   197         40
   199         90
   201        100
   203         40
   211         40
   213        220
   214         40
   215         70
   217         40
   227         60
   228         90
   229        310
   230         70
   231        140
   232         40
   239         40
   241         40
   244         80
   245         50
   246        230
   247         80
   253        170
   255        490
   256        120
   257         50
   258         40
   269        330
   270        110
   271        749
   272        220
   273        310
   283         40
   285         40
   298         80
   299         90
   300        140
   301         40
   337         40
   353         30
   355         70
   365         50
   380         70
   381         40
   383        130
   384         30
   396         70
   397         30
   398        320
   399         90