##TITLE=Library Entry 33341
##JCAMP-DX=Revision 4.10 
##DATA TYPE=MASS SPECTRUM
##SAMPLE DESCRIPTION=NIST Mass Spectrometry Data Center, 2010
##NAMES=HP
##CAS NAME=1H-Imidazole, 1-acetyl-
##MOLFORM=C5H6N2O
##CAS REGISTRY NO=2466-76-4
##MP= -300
##BP= -300
##MW= 110
##$RETENTION INDEX=1054
##$CONDENSED SPECTRUM=NO
##NPOINTS= 40
##XYDATA=(XY..XY) 1 
    14          6
    15         23
    24          1
    25          3
    26         18
    27         13
    28         52
    29          5
    37          3
    38         24
    39         46
    40        182
    41        247
    42         74
    43        537
    44         13
    45          1
    50          2
    51         13
    52         19
    53          6
    54         20
    55          5
    56          1
    63          1
    64          2
    65          2
    66          7
    67        143
    68        999
    69        112
    70          4
    79          1
    81         26
    82        391
    83         21
    95          9
   110        419
   111         28
   112          2