##TITLE=Library Entry 78753
##JCAMP-DX=Revision 4.10 
##DATA TYPE=MASS SPECTRUM
##SAMPLE DESCRIPTION=R.L.FOLTZ BATTELLE MEMORIAL INST., COLUMBUS LAB., OHIO,
 USA
##NAMES=HP
##CAS NAME=1,3,4-Oxadiazolium, 5-hydroxy-2,3-diphenyl-, hydroxide, inner sal
t
##MOLFORM=C14H10N2O2
##CAS REGISTRY NO=24660-41-1
##MP= -300
##BP= -300
##MW= 238
##$RETENTION INDEX=0
##$CONDENSED SPECTRUM=NO
##NPOINTS= 49
##XYDATA=(XY..XY) 1 
    17          3
    18         14
    26          2
    27         10
    28         17
    37          1
    38          4
    39          8
    41          1
    42          0
    43          5
    44          2
    45          1
    49          3
    50         21
    51         82
    52          6
    53          0
    57          1
    62          0
    63          4
    64          4
    65          6
    69          0
    74          4
    75          4
    76         12
    77        347
    78         27
    79          1
    83          0
    91          4
    93          3
   103          3
   104          2
   105        999
   106         76
   107          4
   115          0
   119          4
   149          1
   152          2
   166          0
   167          2
   195          1
   197          5
   238         44
   239          9
   240          0