##TITLE=Library Entry 84471
##JCAMP-DX=Revision 4.10 
##DATA TYPE=MASS SPECTRUM
##SAMPLE DESCRIPTION=Japan AIST/NIMC Database- Spectrum MS-NW-9454
##NAMES=HP
##CAS NAME=Phenol, 2,2'-methylenebis-
##MOLFORM=C13H12O2
##CAS REGISTRY NO=2467-02-9
##MP= -300
##BP= -300
##MW= 200
##$RETENTION INDEX=0
##$CONDENSED SPECTRUM=NO
##NPOINTS= 99
##XYDATA=(XY..XY) 1 
    18          1
    27          1
    39          7
    50          2
    51          9
    52          4
    53          5
    55          4
    62          2
    63          9
    64          4
    65          9
    66          6
    72          1
    74          2
    75          5
    76         17
    77         46
    78         26
    79         21
    80          1
    81          2
    82          8
    84          1
    85          1
    86          3
    87          2
    88          1
    89          9
    90          9
    91         21
    92          3
    93          2
    94        203
    95         13
    98          1
    99          5
   100         18
   101          3
   102          7
   103          7
   104          1
   105          9
   106         14
   107        999
   108         77
   109          5
   113          3
   114          2
   115         37
   116          6
   117          2
   118          3
   119          1
   121          2
   125          1
   126          6
   127         18
   128         30
   129          9
   130          1
   131         15
   132          2
   139          9
   140          2
   141         16
   142          3
   143          5
   144          4
   145          4
   150          4
   151         21
   152         94
   153         63
   154          9
   155          7
   156          1
   157          7
   158          1
   163          2
   164          3
   165         16
   166          2
   168          4
   169          9
   170          2
   171         14
   172          2
   181        117
   182         23
   183         15
   184          3
   185          1
   197          6
   198          1
   199         24
   200        616
   201         88
   202          8