##TITLE=Library Entry 84472
##JCAMP-DX=Revision 4.10 
##DATA TYPE=MASS SPECTRUM
##SAMPLE DESCRIPTION=Japan AIST/NIMC Database- Spectrum MS-NW-9460
##NAMES=HP
##CAS NAME=Phenol, 2-[(4-hydroxyphenyl)methyl]-
##MOLFORM=C13H12O2
##CAS REGISTRY NO=2467-03-0
##MP= -300
##BP= -300
##MW= 200
##$RETENTION INDEX=0
##$CONDENSED SPECTRUM=NO
##NPOINTS= 118
##XYDATA=(XY..XY) 1 
    26          1
    27         17
    28          6
    29          2
    38          5
    39         41
    40          5
    41          3
    43          6
    44          1
    50         10
    51         44
    52         14
    53         21
    54          1
    55         49
    56          2
    57          6
    58          4
    59          1
    61          1
    62          7
    63         29
    64         13
    65         25
    66         13
    67          2
    68          1
    69          3
    70          3
    71          3
    72          7
    74          5
    75          9
    76         45
    77        105
    78         56
    79         35
    80          2
    81          7
    82         23
    84          7
    85          4
    86          6
    87          4
    88          2
    89         12
    90         15
    91         33
    92          4
    93          3
    94        316
    95         21
    96          1
    98          1
    99          6
   100         21
   101          4
   102          6
   103          6
   104          1
   105         15
   106         20
   107        999
   108         76
   109          5
   113          2
   114          3
   115         41
   116          8
   117          2
   118          3
   119          1
   121          2
   125          1
   126          5
   127         19
   128         32
   129          9
   130          1
   131         16
   132          2
   139          9
   140          3
   141         21
   142          5
   143          6
   144          7
   145          5
   150          3
   151         18
   152         79
   153         65
   154         10
   155          9
   156          2
   157         11
   158          2
   163          1
   164          3
   165         23
   166          3
   168          6
   169         14
   170          5
   171         18
   172          4
   181         96
   182         21
   183         46
   184          9
   185          3
   197         14
   198          5
   199         82
   200        521
   201         73
   202          7