##TITLE=Library Entry 73945
##JCAMP-DX=Revision 4.10 
##DATA TYPE=MASS SPECTRUM
##SAMPLE DESCRIPTION=Exported from NIST MS Search
##NAMES=HP
##CAS NAME=Pentane, 1,1,1,5-tetrachloro-
##MOLFORM=C5H8Cl4
##CAS REGISTRY NO=2467-10-9
##MP= -300
##BP= -300
##MW= 208
##$RETENTION INDEX=1211
##$CONDENSED SPECTRUM=NO
##NPOINTS= 159
##XYDATA=(XY..XY) 1 
    15         12
    25          4
    26         57
    27        328
    28         99
    29        189
    30          7
    31          7
    32         34
    33          2
    34          4
    35         12
    36         34
    37         28
    38         51
    39        321
    40         41
    41        414
    42         43
    43         18
    44         11
    45         60
    46          8
    47         34
    48         15
    49        212
    50         49
    51        133
    52         12
    53         72
    54          8
    55        892
    56         42
    57         11
    58         21
    59         83
    60        110
    61        165
    62         55
    63        340
    64         37
    65        277
    66         21
    67         18
    68         58
    69         48
    70         14
    71          5
    72         26
    73         74
    74         14
    75        464
    76        240
    77        179
    78         74
    79         14
    80          7
    81          4
    82         22
    83         92
    84         14
    85         73
    86          8
    87         92
    88          9
    89         60
    90         14
    91        575
    92         37
    93        179
    94         10
    95         20
    96        625
    97        109
    98        408
    99         82
   100         79
   101        999
   102         63
   103        325
   104         43
   105         17
   106          9
   107         10
   108          5
   109        462
   110         50
   111        315
   112         33
   113         58
   114          6
   115          5
   116          2
   117         57
   118          3
   119        223
   120         14
   121         34
   122         15
   123         84
   124          8
   125         54
   126          3
   127         16
   128         10
   129          6
   130         12
   131         10
   132         13
   133         18
   134          5
   135         15
   136        318
   137        726
   138        241
   139        463
   140         59
   141         76
   142          5
   143          7
   144         69
   145         21
   146         67
   147         17
   148         23
   149         13
   150         25
   151          3
   152          2
   155          2
   157          3
   159         13
   161         11
   162          4
   163         13
   164          5
   165         11
   166          3
   167          3
   169          4
   170          7
   171         19
   172         19
   173        146
   174         25
   175        129
   176         15
   177         40
   178          2
   179          7
   180         10
   181          2
   191          4
   193          6
   195          2
   204          7
   207          5
   209          6
   211          2