##TITLE=Library Entry 86296
##JCAMP-DX=Revision 4.10 
##DATA TYPE=MASS SPECTRUM
##SAMPLE DESCRIPTION=NIST Mass Spectrometry Data Center, 2009
##NAMES=HP
##CAS NAME=Cyclohexanol, 3,3,5-trimethyl-, acetate, cis-
##MOLFORM=C11H20O2
##CAS REGISTRY NO=24691-16-5
##MP= -300
##BP= -300
##MW= 184
##$RETENTION INDEX=1196
##$CONDENSED SPECTRUM=NO
##NPOINTS= 73
##XYDATA=(XY..XY) 1 
    15          5
    26          1
    27         20
    28          5
    29         33
    30          1
    31          2
    38          1
    39         46
    40         10
    41        146
    42         20
    43        361
    44         13
    45          5
    50          2
    51          7
    52          4
    53         33
    54          8
    55        119
    56         48
    57         38
    58          5
    59          2
    60          1
    61          8
    62          1
    63          2
    65         12
    66          5
    67        177
    68        230
    69        148
    70         12
    71         26
    72          2
    77         15
    78          3
    79         24
    80         13
    81        121
    82        213
    83         99
    84          9
    85         31
    86          7
    87          1
    91         13
    92          2
    93         18
    94          6
    95        156
    96         30
    97          4
    98          1
    99          2
   100          1
   101          1
   105          2
   107         13
   109        999
   110         91
   111          6
   113          2
   123         14
   124        386
   125         47
   126          3
   127          4
   141          4
   142          1
   169          1