##TITLE=Library Entry 14876
##JCAMP-DX=Revision 4.10 
##DATA TYPE=MASS SPECTRUM
##SAMPLE DESCRIPTION=LAC, NIDDK, NIH, Bethesda, MD 20892
##NAMES=HP
##CAS NAME=Cholest-5-ene, 3,3'-oxybis-, (3.beta.)-(3'.beta.)-
##MOLFORM=C54H90O
##CAS REGISTRY NO=2469-23-0
##MP= -300
##BP= -300
##MW= 754
##$RETENTION INDEX=0
##$CONDENSED SPECTRUM=NO
##NPOINTS= 202
##XYDATA=(XY..XY) 1 
    41        375
    42         83
    43        999
    44        185
    45         54
    51         11
    53         82
    55        472
    56         61
    57        390
    58         46
    59         92
    60         12
    67        243
    68         66
    69        511
    70         78
    71        352
    77        109
    78         27
    79        316
    80         65
    81        557
    82         67
    83        209
    84         40
    85         91
    90         34
    91        227
    92         47
    93        279
    94         97
    95        626
    96         87
    97        244
    98         46
    99         73
   103         11
   104         10
   105        376
   106        104
   107        412
   108        159
   109        302
   110         73
   111        117
   113         34
   115         61
   116         14
   117        125
   118         51
   119        162
   120         86
   121        299
   122         85
   123        200
   124         87
   125         97
   126         35
   127         43
   128         27
   129         66
   130         27
   131        154
   132         70
   133        309
   134        110
   135        294
   136         54
   137         66
   138         13
   139         43
   141         78
   142         54
   143        168
   144         70
   145        214
   146         49
   147        237
   148         73
   149        218
   150         55
   151         94
   152         36
   153         26
   155         39
   157        100
   158        103
   159        273
   160        132
   161        348
   162         74
   163         96
   165         63
   167         39
   169         32
   171         77
   172         26
   173         89
   174         18
   175        244
   176         59
   177         72
   178         48
   179         57
   181         10
   185         63
   186         23
   187        108
   188         41
   189         77
   191         30
   193         58
   195         41
   197         37
   199         58
   201         67
   202         26
   203         69
   204         11
   205         57
   206         41
   207         55
   209         27
   211         30
   212         14
   213        142
   214         52
   215        123
   216         44
   217         46
   219         51
   220         24
   221         24
   223         46
   225         10
   227         22
   229         80
   230         41
   231         78
   232         24
   233         56
   241         49
   243         49
   245         37
   246         11
   247        135
   248         28
   249         25
   251         30
   253         12
   255         88
   256         44
   257         95
   258         36
   259         47
   260         52
   261         39
   267         11
   269         53
   271         46
   273         53
   274         33
   275        126
   276         37
   279         11
   283         11
   285         40
   287         49
   297         21
   301         90
   302         25
   313         41
   314         14
   327         11
   328         51
   329         63
   330        326
   331         67
   332         39
   353         66
   354         13
   355         90
   356         28
   365         21
   366        117
   367        143
   368        564
   369        665
   370        295
   371        116
   372         43
   382         52
   383         64
   384        336
   385        204
   386        239
   387         60
   399         26
   400         57
   401         26
   402         11