##TITLE=Library Entry 86664
##JCAMP-DX=Revision 4.10 
##DATA TYPE=MASS SPECTRUM
##SAMPLE DESCRIPTION=NIST Mass Spectrometry Data Center, 2009
##NAMES=HP
##CAS NAME=3-Furancarboxamide, 2-methyl-N-phenyl-
##MOLFORM=C12H11NO2
##CAS REGISTRY NO=24691-80-3
##MP= -300
##BP= -300
##MW= 201
##$RETENTION INDEX=1905
##$CONDENSED SPECTRUM=NO
##NPOINTS= 80
##XYDATA=(XY..XY) 1 
    15          1
    26          2
    27         17
    29          3
    37          3
    38          8
    39         39
    40          4
    41          2
    43        103
    44          3
    49          1
    50         15
    51         39
    52         28
    53         36
    54          3
    55          1
    61          1
    62          3
    63         12
    64         10
    65         41
    66          9
    67         12
    68          1
    74          2
    75          2
    76          2
    77         26
    78          3
    79          2
    80         17
    81          6
    82          1
    89          1
    90          1
    91          6
    92         13
    93         14
    94          2
    95          1
   100          3
   102          1
   103          2
   104          4
   105          1
   106          2
   108         33
   109        999
   110         67
   111          6
   115          3
   116          1
   117          1
   118          1
   119          2
   120          2
   127          2
   128          2
   129          1
   130          2
   131          1
   132          4
   142          1
   143          3
   144          6
   145          1
   154          1
   157          1
   158          1
   170          2
   172          2
   184          7
   185          1
   199          1
   200          7
   201        210
   202         29
   203          3