##TITLE=Library Entry 109008
##JCAMP-DX=Revision 4.10 
##DATA TYPE=MASS SPECTRUM
##SAMPLE DESCRIPTION=NIST Mass Spectrometry Data Center, 1998.
##NAMES=HP
##CAS NAME=Pyracarbolid
##MOLFORM=C13H15NO2
##CAS REGISTRY NO=24691-76-7
##MP= -300
##BP= -300
##MW= 217
##$RETENTION INDEX=0
##$CONDENSED SPECTRUM=NO
##NPOINTS= 100
##XYDATA=(XY..XY) 1 
    15          3
    26          3
    27         16
    28          8
    29          8
    30          1
    31          1
    37          2
    38          8
    39         60
    40         14
    41         33
    42          6
    43        306
    44          8
    45          2
    50          9
    51         33
    52         14
    53         34
    54         19
    55        154
    56          6
    57          2
    61          1
    62          3
    63         15
    64         14
    65         63
    66         21
    67         15
    68          5
    69          9
    70          1
    71          4
    74          2
    75          2
    76          3
    77         56
    78          7
    79         14
    80          2
    81          8
    82          2
    83         77
    84          4
    85          1
    89          2
    90          2
    91         11
    92         21
    93         29
    94          4
    95          4
    96          7
    97        227
    98         13
    99          1
   102          1
   103          2
   104          7
   105          2
   106          4
   107         59
   108          5
   115          2
   116          1
   117          4
   118          4
   119          3
   120          3
   122          1
   123          3
   125        999
   126         83
   127          8
   128          4
   129          1
   130          5
   131          1
   132          4
   133          1
   142          1
   143          1
   144          3
   145          1
   146          4
   154          1
   156          1
   158          1
   160          1
   170          1
   172          1
   174          1
   188          3
   189          1
   200          1
   217        122
   218         18
   219          2