##TITLE=Library Entry 63294
##JCAMP-DX=Revision 4.10 
##DATA TYPE=MASS SPECTRUM
##SAMPLE DESCRIPTION=LAC, NIDDK, NIH, Bethesda, MD 20892
##NAMES=HP
##CAS NAME=3-O-Acetyl-N-benzyloxycarbonyltetrahydro-solasodine
##MOLFORM=C37H55NO5
##CAS REGISTRY NO=24694-71-1
##MP= -300
##BP= -300
##MW= 593
##$RETENTION INDEX=0
##$CONDENSED SPECTRUM=NO
##NPOINTS= 130
##XYDATA=(XY..XY) 1 
    41         71
    42         20
    43        161
    44         36
    45          7
    47          0
    49         11
    50         23
    51         47
    52         13
    53         22
    54         10
    55        113
    56         29
    57         17
    58          3
    60          0
    61          8
    62          9
    63         20
    64          5
    65         64
    66          5
    67         55
    68         18
    69         49
    70         15
    71         42
    72          2
    73          1
    74          6
    75          2
    76          2
    77         75
    78         15
    79        143
    80         19
    81         71
    82         38
    83         16
    84         10
    85          4
    86          4
    89         18
    90         18
    91        999
    92         77
    93         50
    94         14
    95         46
    96         31
    97         22
    98        372
    99         25
   105         33
   106         11
   107         91
   108         84
   109         26
   110          6
   111          4
   112          2
   113          4
   114          8
   115          0
   117          5
   118          2
   119         17
   120          8
   121         19
   122         14
   123          8
   124          7
   125          6
   126          5
   129          2
   131          7
   132          2
   133         12
   134          4
   135         10
   136          3
   137          2
   138         10
   139          2
   140         17
   141          3
   142         20
   143          3
   145          8
   146          2
   147         12
   148          4
   149          6
   150          4
   151          0
   152          3
   157          0
   158          2
   159          6
   160          3
   161          7
   162          3
   163          2
   164          2
   166          2
   168          2
   172          2
   173          4
   174          0
   175          3
   176          3
   177          0
   186          2
   188        486
   189         68
   190          5
   201          3
   202          0
   215          5
   216          2
   231         17
   232        285
   233         43
   234          4
   269          1
   458          1
   485          3
   486          0
   593          2