##TITLE=Library Entry 63301
##JCAMP-DX=Revision 4.10 
##DATA TYPE=MASS SPECTRUM
##SAMPLE DESCRIPTION=LAC, NIDDK, NIH, Bethesda, MD 20892
##NAMES=HP
##CAS NAME=3-O-Acetyl-N-benzyloxycarbonyl-16-oxo-tetrahydrosolasodine
##MOLFORM=C37H53NO5
##CAS REGISTRY NO=24694-72-2
##MP= -300
##BP= -300
##MW= 591
##$RETENTION INDEX=0
##$CONDENSED SPECTRUM=NO
##NPOINTS= 98
##XYDATA=(XY..XY) 1 
    41         38
    42         13
    43        100
    44         16
    47          2
    49          3
    50          2
    51          1
    53          7
    54          4
    55         72
    56         15
    57          7
    61          2
    63          6
    65         37
    67         42
    68         13
    69         72
    70         10
    71          4
    77         19
    79         52
    80          9
    81         56
    82         44
    83         14
    84         35
    86         19
    89         11
    90         11
    91        999
    92         74
    93         48
    94         13
    95         42
    96         27
    97         21
    98        298
    99         20
   105         33
   106         12
   107         58
   108         33
   109         23
   110          8
   111          4
   114          2
   117          4
   119         21
   120          9
   121         24
   122         31
   123         10
   124         13
   125          9
   126          2
   131          9
   133         15
   134          7
   135         16
   136          6
   138          8
   140          9
   142         17
   145         12
   147         14
   148          4
   149          8
   150         10
   152         15
   159         10
   161         12
   162          7
   163          6
   164          7
   165         11
   166         18
   167          7
   168         10
   175          2
   176          8
   187          2
   188        795
   189        112
   190          9
   215         10
   216         10
   231         47
   232        537
   233         82
   234          8
   269          6
   424          4
   439          2
   456         16
   485         10
   591          2