##TITLE=Library Entry 71047
##JCAMP-DX=Revision 4.10 
##DATA TYPE=MASS SPECTRUM
##SAMPLE DESCRIPTION=Darrick Lee, Cayman Chemical, Ann Arbor, MI
##NAMES=HP
##CAS NAME=MDPPP
##MOLFORM=C14H17NO3
##CAS REGISTRY NO=24698-57-5
##MP= -300
##BP= -300
##MW= 247
##$RETENTION INDEX=1995
##$CONDENSED SPECTRUM=NO
##NPOINTS= 103
##XYDATA=(XY..XY) 1 
    40          2
    41         22
    42         19
    43          5
    44         14
    45          1
    50          2
    51          4
    52          1
    53          7
    54         20
    55         36
    56         85
    57          4
    58          1
    61          1
    62          9
    63         27
    64          4
    65         42
    66          4
    67          2
    68          9
    69         25
    70         16
    71          1
    74          3
    75          1
    76          1
    77          3
    78          1
    79          2
    80          1
    81          1
    82          1
    84          1
    86          1
    87          1
    88          1
    89          2
    91         22
    92          4
    93          1
    94          4
    96         30
    98        999
    99         72
   100          2
   101          1
   102          1
   103          1
   104          1
   105          1
   106          1
   115          1
   116          1
   117          1
   118          1
   119          6
   120          4
   121         25
   122          3
   123          1
   127          1
   130          1
   131          1
   132          1
   133          1
   135          3
   144          1
   145          1
   146          2
   147          2
   149         33
   150          3
   159          1
   160          1
   161          1
   162          1
   172          1
   173          1
   174          1
   175          1
   176          3
   177          1
   178          1
   186          1
   187          1
   188          1
   202          1
   203          1
   204          1
   214          1
   215          1
   216          4
   217          2
   218          1
   232          1
   243          1
   244          1
   245          2
   246          1
   247          1