##TITLE=Library Entry 50394
##JCAMP-DX=Revision 4.10 
##DATA TYPE=MASS SPECTRUM
##SAMPLE DESCRIPTION=NIST Mass Spectrometry Data Center, 2010
##NAMES=HP
##CAS NAME=Citronellyl tiglate
##MOLFORM=C15H26O2
##CAS REGISTRY NO=24717-85-9
##MP= -300
##BP= -300
##MW= 238
##$RETENTION INDEX=1658
##$CONDENSED SPECTRUM=NO
##NPOINTS= 60
##XYDATA=(XY..XY) 1 
    27         64
    28         17
    29        118
    30          3
    31          3
    39        118
    40         24
    41        435
    42         46
    43         71
    45          9
    50          7
    51         17
    52          9
    53        122
    54         69
    55        743
    56         90
    57         81
    59          4
    65         16
    67        495
    68        257
    69        516
    70         65
    71         12
    73          6
    77         19
    79         43
    80         92
    81        999
    82        705
    83        962
    84         57
    85         19
    91         11
    93         24
    94         76
    95        946
    96        191
    97         21
    98          5
    99         13
   100         23
   101        129
   102          7
   107         11
   109        373
   110         78
   111         15
   113          4
   121         14
   123        915
   124         85
   125          7
   137         21
   138        752
   139         82
   140          5
   155          7