##TITLE=Library Entry 36209
##JCAMP-DX=Revision 4.10 
##DATA TYPE=MASS SPECTRUM
##SAMPLE DESCRIPTION=Chemical Concepts
##NAMES=HP
##CAS NAME=2-Buten-1-one, 1-(2,6,6-trimethyl-2-cyclohexen-1-yl)-, (E)-
##MOLFORM=C13H20O
##CAS REGISTRY NO=24720-09-0
##MP= -300
##BP= -300
##MW= 192
##$RETENTION INDEX=1395
##$CONDENSED SPECTRUM=NO
##NPOINTS= 87
##XYDATA=(XY..XY) 1 
    26          1
    27         27
    29         17
    38          1
    39         60
    41        144
    42          5
    43         27
    44          0
    50          1
    51          7
    52          3
    53         21
    54          1
    55         29
    56          1
    57         27
    58          1
    63          3
    64          1
    65         19
    66          5
    67         40
    68          7
    69        999
    70         45
    71          5
    77         32
    78          6
    79         34
    80          4
    81        180
    82         14
    83          2
    85          1
    89          1
    91         40
    92          5
    93         31
    94          4
    95         31
    96          4
    97          1
   103          2
   104          0
   105         11
   106          2
   107         38
   108         16
   109         14
   110          3
   111          1
   112          1
   115          1
   117          1
   119          2
   120          1
   121         24
   122         33
   123        204
   124         25
   125          1
   128          0
   129          0
   131          1
   133          2
   134          1
   135         44
   136         19
   137          5
   138          0
   143          0
   144          0
   148          1
   149         12
   150          2
   151          0
   159          2
   161          0
   163          3
   164          1
   174          1
   177         19
   178          2
   192        164
   193         25
   194          2