##TITLE=Library Entry 117
##JCAMP-DX=Revision 4.10 
##DATA TYPE=MASS SPECTRUM
##SAMPLE DESCRIPTION=Exported from NIST MS Search
##NAMES=HP
##CAS NAME=Adenosine, 2-methoxy-
##MOLFORM=C11H15N5O5
##CAS REGISTRY NO=24723-77-1
##MP= -300
##BP= -300
##MW= 297
##$RETENTION INDEX=0
##$CONDENSED SPECTRUM=NO
##NPOINTS= 178
##XYDATA=(XY..XY) 1 
    25          6
    26        158
    27        999
    28        516
    29        208
    30         86
    31        221
    32         49
    33          9
    34          9
    35          9
    36         49
    37          6
    38         39
    39         86
    40         89
    41        178
    42        158
    43        291
    44        271
    45        119
    46         13
    47         13
    49         13
    50         13
    51         13
    52         26
    53        109
    54        109
    55        145
    56         59
    57        188
    58         86
    59         26
    60         56
    61         89
    62        132
    64         23
    65         23
    66         72
    67         86
    68         72
    69         99
    70         33
    71         72
    72         26
    73        125
    74         26
    75         13
    76         13
    77         13
    78         13
    79         23
    80         59
    81         72
    82         26
    83         26
    84         26
    85         53
    86         26
    87          9
    88          9
    89          9
    90          9
    91          9
    92         33
    93         33
    94         49
    95         26
    96         46
    97         46
    98         19
    99         13
   100         13
   101         26
   102         13
   103         13
   104         13
   105         36
   106         26
   107         59
   108        182
   109         49
   110         23
   111         13
   112          9
   113          9
   114         23
   115         23
   116          9
   118          9
   119         46
   120         23
   121         49
   122         26
   123         26
   124         26
   125          9
   128          6
   129          6
   131          6
   132          9
   133         33
   134        218
   135        284
   136        165
   137         26
   138         13
   142          9
   143          9
   145          6
   146          6
   147          3
   148         33
   149         66
   150         26
   151         69
   152          6
   161         23
   162          3
   163         23
   164        245
   165        973
   166        354
   167         33
   169        384
   170        258
   171        264
   172         43
   173          9
   175          6
   176          6
   177          9
   178         72
   179         56
   180          3
   181         23
   182          6
   183          9
   184          9
   189          6
   190          9
   191          9
   192          9
   193          6
   194        397
   195         33
   198        152
   199         72
   200        119
   201         49
   202         92
   203          9
   204         19
   206          9
   207          6
   208        152
   209         23
   210          6
   211          3
   212         59
   213          6
   214         26
   220          9
   224          9
   228          9
   236          6
   248          9
   250          9
   261          9
   266          9
   267         23
   271          9
   273          9
   279          9
   280          9
   297         72
   298          9