##TITLE=Library Entry 3067
##JCAMP-DX=Revision 4.10 
##DATA TYPE=MASS SPECTRUM
##SAMPLE DESCRIPTION=Chemical Concepts
##NAMES=HP
##CAS NAME=3-(3,5-Di-tert-butyl-4-hydroxyphenyl)propyl methacrylate
##MOLFORM=C21H32O3
##CAS REGISTRY NO=24732-16-9
##MP= -300
##BP= -300
##MW= 332
##$RETENTION INDEX=0
##$CONDENSED SPECTRUM=NO
##NPOINTS= 190
##XYDATA=(XY..XY) 1 
    34          5
    35          1
    36          6
    37          7
    39        287
    41        999
    43        158
    44         48
    45         17
    46          1
    49          1
    50          6
    51         21
    53         47
    55        127
    57        915
    58         47
    59         15
    62          2
    63          9
    65         35
    66          8
    67         30
    69        328
    70         21
    71         12
    72          5
    73          6
    74          3
    75          2
    76          4
    77         46
    78         13
    79         36
    80         23
    81         13
    82          3
    83          9
    84          4
    85          7
    86         17
    87         16
    89          7
    91         76
    92          8
    93         16
    94          9
    95          9
    96          1
    97          3
    98          2
    99          1
   101          3
   102          5
   103         12
   104          6
   105         45
   106          7
   107         19
   108          3
   109          5
   110          1
   111          2
   112          3
   113          3
   115         43
   116         16
   117         26
   119         35
   120          7
   121         17
   122          3
   123          4
   124          1
   125          1
   126          2
   127         15
   128         38
   129         39
   130         14
   131         27
   133         57
   134          9
   135         11
   136          2
   137          2
   138          1
   139          2
   141         23
   142         15
   143         19
   144          9
   145         32
   146         14
   147         95
   148         11
   149          7
   150          1
   151          4
   152          5
   153          9
   154          6
   155         10
   156          8
   157         11
   158          8
   159         16
   160          9
   161         34
   162          8
   163          9
   164          2
   165          3
   166          5
   167          3
   168          2
   169          5
   170          4
   171          9
   172          4
   173         20
   175        178
   176         21
   177          5
   179          5
   180          1
   181          1
   182          1
   183          2
   184          1
   185          6
   186          4
   187         21
   189        181
   190         33
   191          7
   192          1
   197          1
   199          2
   200          2
   201         10
   203         81
   204         12
   205          8
   206          2
   207          1
   213          1
   215         10
   216          3
   217         15
   218          8
   219         67
   220         10
   221          2
   222          1
   225          1
   228          1
   229          6
   231        151
   232         24
   233          6
   234          1
   235          1
   243          5
   244          4
   245          8
   246         79
   247         23
   248          3
   249          2
   257          1
   258          1
   259          2
   261        119
   262         21
   263          7
   264          2
   275          1
   297          3
   298          1
   299          2
   317          5
   318          1
   328          2
   329          7
   331          7
   332        163
   333         37
   334          6
   335          1