##TITLE=Library Entry 61451
##JCAMP-DX=Revision 4.10 
##DATA TYPE=MASS SPECTRUM
##SAMPLE DESCRIPTION=J.E. WILKINSON S-CUBED, SAN DIEGO, CA.
##NAMES=HP
##CAS NAME=Benzenepropanethiol
##MOLFORM=C9H12S
##CAS REGISTRY NO=24734-68-7
##MP= -300
##BP= -300
##MW= 152
##$RETENTION INDEX=0
##$CONDENSED SPECTRUM=NO
##NPOINTS= 50
##XYDATA=(XY..XY) 1 
    40         10
    41         72
    45         69
    46          5
    47         77
    49          0
    50         50
    51        136
    52         30
    53          9
    58         22
    59          9
    60          8
    61        198
    62         29
    63         91
    64         16
    65        254
    66         12
    73          0
    74         16
    75         10
    76         18
    77        138
    78         70
    79         75
    80          0
    87          1
    89         53
    90         22
    91        999
    92        369
    93         21
   102         10
   103         87
   104         31
   105        160
   106          9
   109          1
   110          0
   115         88
   116         16
   117        873
   118        831
   119         69
   121          0
   123         19
   152        382
   153         35
   154         12