##TITLE=Library Entry 35430
##JCAMP-DX=Revision 4.10 
##DATA TYPE=MASS SPECTRUM
##SAMPLE DESCRIPTION=Exported from NIST MS Search
##NAMES=HP
##CAS NAME=C(14a)-Homo-27-nor-14.beta.-gammaceran-3.alpha.-ol
##MOLFORM=C30H52O
##CAS REGISTRY NO=24739-08-0
##MP= -300
##BP= -300
##MW= 428
##$RETENTION INDEX=0
##$CONDENSED SPECTRUM=NO
##NPOINTS= 107
##XYDATA=(XY..XY) 1 
    65         37
    66         33
    67        529
    68        555
    69        999
    70        103
    71        229
    72         37
    77        111
    78         33
    79        314
    80         92
    81        848
    82        225
    83        281
    84         40
    85         74
    91        192
    92         70
    93        481
    94        185
    95        707
    96        185
    97        196
    98         70
   105        203
   106         74
   107        425
   108        148
   109        492
   110        111
   111        118
   117         37
   119        185
   120        107
   121        740
   122        229
   123        592
   124        122
   125         77
   131         40
   132         37
   133        140
   134        107
   135        370
   136        611
   137        366
   138         66
   139         74
   140         37
   145         44
   147        122
   148         74
   149        222
   150        185
   151         77
   152         33
   153         37
   154         37
   159         37
   161        103
   162         48
   163        159
   164         37
   165         37
   173         37
   175         81
   176         40
   177        170
   178         37
   179         37
   187         85
   189        192
   190        211
   191        107
   192         37
   195         44
   203         70
   204         37
   205         44
   206         37
   207        148
   208         48
   217         40
   229         37
   230         37
   231        111
   232         37
   233         22
   234         40
   245         37
   257         37
   258         33
   259        140
   260         44
   273         44
   274         55
   275         44
   276         33
   393         37
   395         74
   396         37
   410        192
   411         70
   413         37
   428        159
   429         59