##TITLE=Library Entry 2528
##JCAMP-DX=Revision 4.10 
##DATA TYPE=MASS SPECTRUM
##SAMPLE DESCRIPTION=NIST Mass Spectrometry Data Center
##NAMES=HP
##CAS NAME=1-Chloroundecane
##MOLFORM=C11H23Cl
##CAS REGISTRY NO=2473-03-2
##MP= -300
##BP= -300
##MW= 190
##$RETENTION INDEX=1357
##$CONDENSED SPECTRUM=NO
##NPOINTS= 77
##XYDATA=(XY..XY) 1 
    15         14
    17          1
    18          3
    27        402
    28        104
    29        527
    30         13
    35          2
    36          3
    37          2
    39        264
    41        999
    42        249
    43        999
    44         31
    49         31
    50          5
    51         23
    52          7
    53         63
    54         62
    55        646
    56        206
    57        635
    58         28
    61          2
    62          6
    63         37
    64          3
    65         21
    66          5
    67         55
    68         52
    69        395
    70        124
    71        179
    72         10
    73          1
    75          6
    76          3
    77         20
    78          2
    79         10
    81         14
    82         24
    83        138
    84         51
    85         79
    86          5
    88          1
    91        795
    92         43
    93        255
    94         13
    95          3
    97         80
    98         20
    99          4
   105        161
   106         13
   107         54
   108          3
   111         19
   112          6
   113          1
   118          3
   119         17
   120          2
   121          5
   125          2
   126          4
   132          1
   133          2
   146          1
   147          1
   161          1
   190          2