##TITLE=Library Entry 10202
##JCAMP-DX=Revision 4.10 
##DATA TYPE=MASS SPECTRUM
##SAMPLE DESCRIPTION=Japan AIST/NIMC Database- Spectrum MS-NW-4023
##NAMES=HP
##CAS NAME=Nonane, 1-chloro-
##MOLFORM=C9H19Cl
##CAS REGISTRY NO=2473-01-0
##MP= -300
##BP= -300
##MW= 162
##$RETENTION INDEX=1159
##$CONDENSED SPECTRUM=NO
##NPOINTS= 75
##XYDATA=(XY..XY) 1 
    15          6
    26          9
    27        183
    28         15
    29        274
    30          6
    36          6
    37          1
    38          4
    39        115
    40         22
    41        530
    42        173
    43        999
    44         35
    49         16
    50          3
    51          8
    52          3
    53         31
    54         27
    55        592
    56        229
    57        419
    58         20
    61          2
    62          4
    63         29
    64          2
    65          9
    66          2
    67         26
    68         28
    69        355
    70        142
    71        171
    72          9
    75          5
    76          3
    77         22
    78          2
    79          7
    81          6
    82         13
    83        155
    84         74
    85         73
    86          6
    89          1
    90          5
    91        949
    92         46
    93        309
    94         14
    95          1
    96          3
    97         89
    98         29
    99          3
   104          4
   105        130
   106          9
   107         43
   108          3
   111          2
   113          1
   118          2
   119         10
   120          2
   121          3
   126          2
   132          1
   133          3
   135          1
   162          1