##TITLE=Library Entry 70028
##JCAMP-DX=Revision 4.10 
##DATA TYPE=MASS SPECTRUM
##SAMPLE DESCRIPTION=Chemical Concepts
##NAMES=HP
##CAS NAME=2-Butenamide, 2,3-dimethyl-N-phenyl-
##MOLFORM=C12H15NO
##CAS REGISTRY NO=24735-54-4
##MP= -300
##BP= -300
##MW= 189
##$RETENTION INDEX=0
##$CONDENSED SPECTRUM=NO
##NPOINTS= 92
##XYDATA=(XY..XY) 1 
    26          9
    27         99
    28         64
    29         26
    30          1
    31          1
    37          2
    38         17
    39        143
    41        788
    42         35
    43         17
    45          3
    50         16
    51         58
    52         17
    53         66
    54          8
    55          8
    56          1
    57          1
    61          1
    62          4
    63         18
    64         18
    65         79
    66         34
    67         72
    68         34
    69        886
    70         58
    71          3
    73          2
    74          2
    75          3
    76          3
    77         65
    78          8
    79          1
    80          1
    81          1
    83          2
    87          1
    90          1
    91         11
    92         22
    93        199
    94         18
    95          4
    96         33
    97        999
    98         64
    99          3
   103          1
   104          4
   105          1
   106          3
   111          1
   115          1
   117          6
   118          4
   119          2
   120          4
   123          2
   128          2
   129          1
   130          3
   131          2
   132          2
   133          1
   134          3
   140          1
   141          1
   143          1
   144          8
   145          4
   146          2
   149          1
   157          1
   158          1
   160          2
   169          1
   170          1
   171          4
   172          3
   173          1
   174          3
   186          1
   188          2
   189        177
   190         28
   191          3