##TITLE=Library Entry 71228
##JCAMP-DX=Revision 4.10 
##DATA TYPE=MASS SPECTRUM
##SAMPLE DESCRIPTION=A.A.Kutin, Moscow, Russia
##NAMES=HP
##CAS NAME=N-(4-Iodo-2-methyl-phenyl)-2-piperidin-1-yl-acetamide
##MOLFORM=C14H19IN2O
##CAS REGISTRY NO=247592-56-9
##MP= -300
##BP= -300
##MW= 358
##$RETENTION INDEX=0
##$CONDENSED SPECTRUM=NO
##NPOINTS= 116
##XYDATA=(XY..XY) 1 
    34          0
    37          0
    38          1
    39          9
    40          3
    41         44
    42         50
    43         18
    44         31
    45          0
    48          0
    50          3
    51          8
    52          6
    53          3
    54          4
    55         36
    56         16
    57          8
    58          0
    59          0
    61          0
    62          1
    63          4
    64          2
    65          2
    66          0
    67          3
    68          6
    69         18
    70         25
    71          1
    72          0
    73          0
    74          0
    75          1
    76          2
    77         13
    78         10
    79          6
    80          1
    81          0
    82          3
    83          3
    84         79
    85         12
    86          1
    87          0
    88          0
    89          8
    90          9
    91          2
    92          0
    93          0
    94          0
    95          0
    96         18
    97         20
    98        999
    99         79
   100          3
   101          0
   102          0
   103          1
   104         15
   105         12
   106          7
   107          2
   108          0
   109          0
   110          0
   111          0
   112          0
   113          0
   114          0
   115          0
   116          4
   117          2
   118          2
   119          2
   120          0
   124          0
   127          6
   128          9
   130          0
   131          0
   132          1
   133          0
   134          0
   145          0
   146          0
   147          0
   148          0
   149          0
   203          0
   204          0
   217          0
   218          0
   230          1
   231          1
   232          7
   233         10
   234          0
   243          5
   244          0
   246          0
   254          0
   259          2
   260          0
   261          1
   272          0
   275          2
   356          1
   358         19
   359          2
   360          0