##TITLE=Library Entry 13980
##JCAMP-DX=Revision 4.10 
##DATA TYPE=MASS SPECTRUM
##SAMPLE DESCRIPTION=A.A.Kutin, Moscow, Russia
##NAMES=HP
##CAS NAME=2,3,4-Pentanetrione, 3-[(4-chlorophenyl)hydrazone]
##MOLFORM=C11H11ClN2O2
##CAS REGISTRY NO=24756-07-8
##MP= -300
##BP= -300
##MW= 238
##$RETENTION INDEX=0
##$CONDENSED SPECTRUM=NO
##NPOINTS= 93
##XYDATA=(XY..XY) 1 
    36          3
    37          7
    38         17
    39         27
    40         11
    41         15
    43        999
    44         15
    45          3
    49          4
    50         18
    51         13
    52         10
    53          5
    54          4
    55         12
    56          0
    57          3
    60          0
    61          6
    62         17
    63         51
    64         26
    65         13
    66          2
    67          4
    69          7
    70          7
    71          5
    73         35
    74         13
    75         43
    76          7
    77          3
    83          4
    84          5
    85          6
    87          2
    88          2
    89          9
    90         34
    91         21
    92          6
    97          3
    99        121
   100         12
   101         31
   102          2
   103          1
   109          2
   111         61
   112         25
   113         20
   114          1
   124          3
   125         16
   126        152
   127        143
   128         51
   129         40
   130          2
   138          3
   139         16
   140         36
   141          9
   142         11
   151          0
   152          5
   153          7
   154          0
   155          1
   167          0
   169          4
   170          6
   171          0
   172          1
   179          1
   195         20
   197          7
   198          2
   203          1
   205         12
   206          0
   207          4
   220         11
   221          7
   222          3
   223          3
   235          2
   238        173
   239         22
   240         47
   241          5