##TITLE=Library Entry 89314
##JCAMP-DX=Revision 4.10 
##DATA TYPE=MASS SPECTRUM
##SAMPLE DESCRIPTION=A.A.Kutin, Moscow, Russia
##NAMES=HP
##CAS NAME=N-(4-Iodo-2-methyl-phenyl)-2-(4-methyl-piperidin-1-yl)-acetamide
##MOLFORM=C15H21IN2O
##CAS REGISTRY NO=247592-54-7
##MP= -300
##BP= -300
##MW= 372
##$RETENTION INDEX=0
##$CONDENSED SPECTRUM=NO
##NPOINTS= 109
##XYDATA=(XY..XY) 1 
    38          1
    39         12
    40          7
    41         62
    42         68
    43         28
    44        103
    45          4
    46          0
    47          0
    50          3
    51          8
    52          6
    53          6
    54          5
    55         35
    56         21
    57         11
    58          2
    59          0
    60          1
    62          1
    63          5
    64          2
    65          3
    66          1
    67          4
    68          5
    69         45
    70         55
    71          6
    72          4
    73          1
    74          1
    75          1
    76          4
    77         15
    78         12
    79          5
    80          1
    81          2
    82          6
    83          4
    84          5
    85          1
    87          0
    88          1
    89          6
    90         11
    91          4
    92          3
    93          1
    94          1
    95          1
    96          7
    97          5
    98         75
    99          8
   102          1
   103          2
   104         19
   105         16
   106          5
   107          2
   108          1
   109          1
   110         16
   111         17
   112        999
   113         98
   114          4
   116          1
   117          2
   118          2
   119          4
   120          1
   121          1
   122          1
   123          1
   124          1
   126          0
   127          6
   128          9
   129          1
   132          1
   133          2
   134          1
   135          2
   138          1
   146          1
   147          1
   148          0
   149          1
   171          2
   202          1
   203          1
   211          2
   217          1
   231          5
   232          7
   233          3
   246          2
   259          0
   275          0
   328          1
   329          1
   370          0
   372         20
   373          3