##TITLE=Library Entry 89111
##JCAMP-DX=Revision 4.10 
##DATA TYPE=MASS SPECTRUM
##SAMPLE DESCRIPTION=Exported from NIST MS Search
##NAMES=HP
##CAS NAME=2-Pyrazoline-1-carboxanilide, 4-ethyl-3-propylthio-
##MOLFORM=C15H21N3S
##CAS REGISTRY NO=24769-34-4
##MP= -300
##BP= -300
##MW= 275
##$RETENTION INDEX=0
##$CONDENSED SPECTRUM=NO
##NPOINTS= 68
##XYDATA=(XY..XY) 1 
    39         80
    41        150
    42         50
    43        120
    50         30
    51        100
    52         20
    53         30
    54         30
    55        100
    56         50
    65         50
    66         10
    67         20
    68         20
    69        160
    70         50
    71         20
    72         50
    76         20
    77        430
    78         40
    81         30
    82         70
    83         40
    91         30
    92         40
    93        190
    94         20
    95         30
    96         20
    97         40
   103         30
   109         70
   110         40
   111        999
   112        130
   114         30
   118         40
   119         30
   123         30
   125         30
   131         30
   135        320
   136        230
   137        130
   138         20
   139         80
   140        140
   141         30
   143         20
   148         20
   149         10
   151         20
   163        120
   173        160
   174         20
   175         30
   177        150
   205         50
   206         80
   242         30
   243         20
   246         10
   274         40
   275        670
   276        130
   277         50