##TITLE=Library Entry 72519
##JCAMP-DX=Revision 4.10 
##DATA TYPE=MASS SPECTRUM
##SAMPLE DESCRIPTION=Exported from NIST MS Search
##NAMES=HP
##CAS NAME=1-Pyrazolidinethiocarboxanilide, 4-ethyl-3-propyl-
##MOLFORM=C15H23N3S
##CAS REGISTRY NO=24769-38-8
##MP= -300
##BP= -300
##MW= 277
##$RETENTION INDEX=0
##$CONDENSED SPECTRUM=NO
##NPOINTS= 63
##XYDATA=(XY..XY) 1 
    39        100
    41        230
    42         70
    43        160
    44        100
    45         80
    50         70
    51        200
    56        180
    57         80
    58         60
    59        130
    63         30
    64         20
    65         50
    67         20
    69        150
    70        140
    71        130
    72        100
    77        600
    78         60
    82         20
    83         30
    85        150
    91         40
    92         30
    93         90
    97         70
    98         20
    99        999
   100         70
   103         20
   104         30
   109         50
   110         20
   111        100
   112         20
   118         20
   119         40
   131         20
   135        750
   136        230
   137        170
   138         50
   140         30
   141        380
   142        550
   143         50
   162         20
   172         20
   178         60
   179         70
   202         10
   205         10
   206         10
   234        200
   235         30
   244         10
   259         10
   277        290
   278         50
   279         20