##TITLE=Library Entry 11770
##JCAMP-DX=Revision 4.10 
##DATA TYPE=MASS SPECTRUM
##SAMPLE DESCRIPTION=D.HENNEBERG, MAX-PLANCK INSTITUTE, MULHEIM, WEST GERMAN
Y
##NAMES=HP
##CAS NAME=2-Propanamine, N,N'-1,2-ethanediylidenebis-
##MOLFORM=C8H16N2
##CAS REGISTRY NO=24764-90-7
##MP= -300
##BP= -300
##MW= 140
##$RETENTION INDEX=0
##$CONDENSED SPECTRUM=NO
##NPOINTS= 72
##XYDATA=(XY..XY) 1 
    26         62
    27        269
    28        171
    29         25
    30         50
    31          1
    36          0
    37          5
    38         13
    39        117
    40         47
    41        337
    42        177
    43        999
    44         49
    45          0
    47         11
    48          1
    49          1
    50          3
    51          6
    52         16
    53         11
    54         36
    55        101
    56        271
    57         23
    58         12
    59          0
    62          0
    63          0
    64          1
    65          1
    66          5
    67          8
    68         23
    69         26
    70        174
    71         57
    72          7
    77          0
    78          0
    79          2
    80         15
    81         17
    82         52
    83        496
    84         31
    85          3
    91          1
    93          2
    94          1
    95          5
    96          4
    97         59
    98         20
    99          2
   107          0
   108         21
   109          6
   110          9
   111          1
   112          1
   123          2
   124          1
   125        515
   126         43
   127          1
   128          0
   139          2
   140          9
   141          1