##TITLE=Library Entry 51784
##JCAMP-DX=Revision 4.10 
##DATA TYPE=MASS SPECTRUM
##SAMPLE DESCRIPTION=Div. of Experiment Therapeutics WRAIR, WRAMC, Washingto
n DC 20307
##NAMES=HP
##CAS NAME=6-Hydroxymethyl-1-methyluracil
##MOLFORM=C6H8N2O3
##CAS REGISTRY NO=2476-13-3
##MP= -300
##BP= -300
##MW= 156
##$RETENTION INDEX=0
##$CONDENSED SPECTRUM=NO
##NPOINTS= 73
##XYDATA=(XY..XY) 1 
    42        168
    43         56
    44         48
    45          6
    46          0
    47          1
    49          1
    52         97
    53         73
    54        110
    55        123
    56         69
    57         14
    58          7
    59          0
    60          2
    62          0
    63          0
    64          1
    66         14
    67         32
    68         23
    70         32
    71         11
    72          6
    73          2
    74          2
    77          2
    78          0
    79          1
    80          8
    82        999
    83         21
    84         48
    85         72
    86          0
    88          0
    93          0
    95         19
    96          3
    97          1
    98          2
    99          2
   100          5
   101          0
   106          1
   107          0
   109          1
   110          0
   111         26
   112         13
   113         27
   114          0
   115          0
   123          0
   124          6
   125          4
   126          1
   127         29
   128         17
   129          2
   131          0
   138          7
   139         42
   141         62
   142          2
   144          0
   149          0
   151          0
   153          0
   156        723
   157         45
   158          6