##TITLE=Library Entry 4058
##JCAMP-DX=Revision 4.10 
##DATA TYPE=MASS SPECTRUM
##SAMPLE DESCRIPTION=Chemical Concepts
##NAMES=HP
##CAS NAME=2,5-Octadiene, 3,4,5,6-tetramethyl-
##MOLFORM=C12H22
##CAS REGISTRY NO=247797-85-9
##MP= -300
##BP= -300
##MW= 166
##$RETENTION INDEX=0
##$CONDENSED SPECTRUM=NO
##NPOINTS= 90
##XYDATA=(XY..XY) 1 
    27        339
    29        488
    30         10
    37          3
    38          6
    39        323
    40         47
    41        999
    42         58
    43        420
    44         11
    48          4
    50          7
    51         55
    52         29
    53        247
    54         47
    55        751
    56         57
    57        354
    58         17
    59          3
    60          4
    62          2
    63         14
    64          6
    65         72
    66         33
    67        351
    68         36
    69        382
    70         20
    71         27
    75          4
    76          2
    77        108
    78         27
    79        109
    80         19
    81        305
    82         48
    83        185
    84         27
    87          3
    88          2
    89          4
    90          2
    91        112
    92         16
    93         65
    94         16
    95        652
    96         55
    97          7
   102          2
   103         11
   104          6
   105         58
   106         11
   107         87
   108         28
   109        379
   110         55
   111         45
   112          4
   113         12
   114          5
   115          4
   116          2
   117          7
   119         18
   120          7
   121         58
   122         78
   123         90
   124          7
   132          2
   133          3
   135         21
   136         17
   137        900
   138         79
   139          4
   147          4
   149          3
   150          4
   151        162
   152         19
   166         83
   167         10