##TITLE=Library Entry 2815
##JCAMP-DX=Revision 4.10 
##DATA TYPE=MASS SPECTRUM
##SAMPLE DESCRIPTION=Japan AIST/NIMC Database- Spectrum MS-NW-7537
##NAMES=HP
##CAS NAME=Octane, 1,8-diiodo-
##MOLFORM=C8H16I2
##CAS REGISTRY NO=24772-63-2
##MP= -300
##BP= -300
##MW= 366
##$RETENTION INDEX=0
##$CONDENSED SPECTRUM=NO
##NPOINTS= 98
##XYDATA=(XY..XY) 1 
    14          1
    15         13
    25          1
    26         19
    27        334
    28         55
    29        298
    30          6
    31          1
    37          3
    38         10
    39        248
    40         45
    41        999
    42        117
    43        433
    44         15
    45          1
    46          2
    47          1
    50          7
    51         17
    52          9
    53         66
    54         35
    55        876
    56         96
    57        291
    58         12
    60          1
    61          1
    62          1
    63          4
    64          1
    65          9
    66          5
    67         43
    68         11
    69        824
    70         53
    71        137
    72          8
    74          1
    77          6
    78          1
    79          8
    80          2
    81         14
    82          5
    83         67
    84          8
    85          6
    91          2
    93          1
    95          2
    97          1
    98          1
   107          1
   109          3
   110          1
   111        478
   112         46
   113          2
   119          1
   127         42
   128         33
   129          2
   135          1
   137          1
   140          1
   141         26
   142          1
   151          1
   153          3
   154          8
   155        337
   156          9
   162          1
   167          4
   169        177
   170          8
   181          2
   183        248
   184         12
   191          1
   196          1
   197        166
   198         10
   211         12
   212          1
   238          4
   239        234
   240         23
   241          1
   254          3
   255          1
   366         95
   367          9