##TITLE=Library Entry 11618
##JCAMP-DX=Revision 4.10 
##DATA TYPE=MASS SPECTRUM
##SAMPLE DESCRIPTION=ASES Database, Dalian Institute, P.R. China
##NAMES=HP
##CAS NAME=Pregna-1,4-diene-3,20-dione, 17-hydroxy-
##MOLFORM=C21H28O3
##CAS REGISTRY NO=2477-61-4
##MP= -300
##BP= -300
##MW= 328
##$RETENTION INDEX=0
##$CONDENSED SPECTRUM=NO
##NPOINTS= 50
##XYDATA=(XY..XY) 1 
    41        303
    43        999
    55        272
    56        197
    67        119
    69         96
    77        199
    79        180
    91        249
    93        161
   105        115
   107        154
   121        906
   122        448
   133        118
   135        151
   145         93
   147        631
   148         83
   149         33
   157         23
   158         12
   159        136
   160         29
   161         56
   163         33
   165         23
   171         83
   173        169
   174         18
   175         36
   176         23
   189         77
   190          5
   199         17
   207         18
   225         90
   227          5
   242         39
   265         30
   267        600
   268        139
   269         47
   285        481
   286         89
   287         36
   310         87
   311          5
   328        300
   329         63