##TITLE=Library Entry 52199
##JCAMP-DX=Revision 4.10 
##DATA TYPE=MASS SPECTRUM
##SAMPLE DESCRIPTION=RADIAN CORP
##NAMES=HP
##CAS NAME=Hexane, 2,5-dibromo-
##MOLFORM=C6H12Br2
##CAS REGISTRY NO=24774-58-1
##MP= -300
##BP= -300
##MW= 242
##$RETENTION INDEX=0
##$CONDENSED SPECTRUM=NO
##NPOINTS= 58
##XYDATA=(XY..XY) 1 
    15          3
    26          7
    27         65
    28         13
    29         40
    32          2
    37          3
    38         11
    39        143
    40         40
    41        380
    42         83
    43         90
    44          5
    50         13
    51         19
    52          8
    53         46
    54         12
    55        789
    56         41
    57         13
    62          3
    63          7
    65         18
    66          5
    67         64
    68          7
    69          8
    74          2
    77          8
    79         20
    80         15
    81         25
    82         25
    83        999
    84         68
    85          3
    93         10
    95         10
   105          4
   106          4
   107         65
   108          5
   109         59
   119          9
   120         30
   121         68
   122         33
   123         61
   133          4
   135          5
   161          3
   162         17
   163        304
   164         37
   165        298
   166         20