##TITLE=Library Entry 13183
##JCAMP-DX=Revision 4.10 
##DATA TYPE=MASS SPECTRUM
##SAMPLE DESCRIPTION=R RYHAGE MS-LAB KAROLINSKA INSTITUTET STOCKHOLM SWEDEN
##NAMES=HP
##CAS NAME=2(1H)-Naphthalenone, 3,4,4a,5,6,7,8,8a.alpha.-octahydro-5.alpha.-
hydroxy-4a.alpha.,7,7-trimethyl-, acetate
##MOLFORM=C15H24O3
##CAS REGISTRY NO=24795-35-5
##MP= -300
##BP= -300
##MW= 252
##$RETENTION INDEX=0
##$CONDENSED SPECTRUM=NO
##NPOINTS= 102
##XYDATA=(XY..XY) 1 
    15         34
    18         16
    27         69
    29         82
    39         96
    40         28
    41        394
    42         67
    43        999
    44         35
    45         21
    51         20
    52         14
    53        126
    54         33
    55        320
    56         61
    57         74
    59         14
    61         13
    65         46
    66         21
    67        233
    68        127
    69        313
    70         67
    71         61
    72         78
    77         88
    78         20
    79        133
    80         34
    81        119
    82        247
    83        116
    84         22
    85         29
    86         15
    91        100
    92         22
    93        163
    94         53
    95        171
    96         73
    97        178
    98         27
    99         29
   100         15
   105         71
   106         24
   107        151
   108         57
   109        131
   110         96
   111        102
   112         48
   114         10
   117         13
   119         88
   120         84
   121        340
   122        151
   123        137
   124         48
   125         28
   127         12
   131         15
   132         10
   133         49
   134         71
   135        157
   136         92
   137        143
   138         22
   139         43
   140         12
   141         17
   145         13
   147         12
   148         29
   149        255
   150         61
   151         18
   153         37
   154         12
   159         80
   160         12
   163         50
   164         48
   165         10
   167         39
   174         44
   175         19
   177        741
   178        102
   179         10
   192        517
   193         98
   194         10
   195         16
   196         10
   252         39