##TITLE=Library Entry 13830
##JCAMP-DX=Revision 4.10 
##DATA TYPE=MASS SPECTRUM
##SAMPLE DESCRIPTION=Japan AIST/NIMC Database- Spectrum MS-IW-8041
##NAMES=HP
##CAS NAME=1-Acetamido-1,3-dideoxy-3-(N-methylacetamido)-dl-myo-inositol 2,4
,5,6-tetraacetate
##MOLFORM=C19H28N2O10
##CAS REGISTRY NO=24808-24-0
##MP= -300
##BP= -300
##MW= 444
##$RETENTION INDEX=0
##$CONDENSED SPECTRUM=NO
##NPOINTS= 279
##XYDATA=(XY..XY) 1 
    12          1
    13          3
    14         38
    15         31
    16          3
    25          2
    26          4
    27          9
    28         96
    29          9
    30         22
    31          3
    32         17
    38          2
    39          7
    40          9
    41         45
    42        159
    43        999
    44         61
    45         38
    46          1
    50          2
    51          4
    52          6
    53          6
    54          8
    55         15
    56        116
    57         15
    58         20
    59         35
    60         88
    61          8
    63          2
    64          2
    65          6
    66          4
    67          8
    68         26
    69         13
    70         17
    71         14
    72         84
    73        119
    74        151
    75          6
    76          1
    77          4
    78          5
    79          4
    80         26
    81         23
    82         16
    83         22
    84         84
    85         35
    86         90
    87         10
    88         13
    89          3
    90          2
    91         12
    92          5
    93          7
    94         17
    95          8
    96         40
    97         45
    98         98
    99         25
   100         41
   101         51
   102         65
   103         41
   104          5
   105          3
   106          4
   107          6
   108         51
   109         80
   110         54
   111         16
   112         17
   113         26
   114        105
   115        199
   116         79
   117          7
   118          4
   119          3
   120          8
   121         20
   122         59
   123         13
   124         46
   125         82
   126        195
   127         59
   128        122
   129         13
   130          9
   131          4
   132          3
   133          5
   134          3
   135          5
   136          5
   137         34
   138        120
   139        103
   140         90
   141         18
   142         25
   143         45
   144         43
   145         26
   146          5
   147          4
   148          4
   149         28
   150         31
   151         29
   152         35
   153         15
   154          8
   155         29
   156         38
   157        129
   158         39
   159          5
   160          3
   161          6
   162         35
   163         33
   164         22
   165          9
   166         25
   167        163
   168        294
   169         88
   170         38
   171          7
   172          6
   173          5
   174          2
   177          1
   178          1
   179         60
   180        280
   181        251
   182        144
   183         22
   184         15
   185         30
   186         25
   187          5
   188          2
   189          1
   191          7
   192          4
   193         10
   194         10
   195          5
   196          5
   197         49
   198         30
   199         58
   200         14
   201          2
   202          2
   203          1
   204         24
   205         48
   206         21
   207         11
   208         10
   209         93
   210        213
   211         50
   212         11
   213          3
   214          2
   215          6
   216          3
   221         15
   222        327
   223        470
   224        165
   225         25
   226         10
   227         18
   228         35
   229          8
   230          1
   239         58
   240         25
   241         33
   242         17
   243          3
   244          1
   245          2
   246          1
   247          2
   249          4
   250          4
   251          9
   252         17
   253          5
   254         21
   255          4
   257         13
   258          9
   259          2
   263          2
   264        164
   265        176
   266         46
   267          9
   268          2
   269         72
   270         51
   271         17
   272          4
   275          7
   280          4
   281         17
   282         12
   283        135
   284         76
   285         12
   286          3
   287          4
   288          2
   299         34
   300         11
   301          6
   303          2
   311         26
   312         11
   313          3
   314          3
   317         31
   318          5
   322          1
   323          1
   324         59
   325        289
   326        128
   327         23
   328          4
   329         20
   330          6
   331          2
   341         52
   342         20
   343         20
   344          3
   345          4
   359         55
   360          9
   361          2
   369          3
   371          4
   372          3
   373          6
   383          1
   384         50
   385         42
   386          8
   387          5
   390          1
   401         84
   402         22
   403          6
   444         69
   445         47
   446          9
   447          2