##TITLE=Library Entry 44528
##JCAMP-DX=Revision 4.10 
##DATA TYPE=MASS SPECTRUM
##SAMPLE DESCRIPTION=S.N.ELOFF POTCHEFSTROOM UNIV., POTCHEFSTROOM, S. AFRICA
##NAMES=HP
##CAS NAME=L-Serine, N-methyl-
##MOLFORM=C4H9NO3
##CAS REGISTRY NO=2480-26-4
##MP= -300
##BP= -300
##MW= 119
##$RETENTION INDEX=0
##$CONDENSED SPECTRUM=NO
##NPOINTS= 23
##XYDATA=(XY..XY) 1 
    30        250
    31        120
    32         30
    40         30
    41        100
    42        930
    43        110
    44        200
    45         60
    54         20
    55         30
    56        290
    57         60
    58         30
    59         30
    60        100
    70         70
    71         30
    72         30
    74        999
    75         40
    88        850
    89        150