##TITLE=Library Entry 56623
##JCAMP-DX=Revision 4.10 
##DATA TYPE=MASS SPECTRUM
##SAMPLE DESCRIPTION=Div. of Experiment Therapeutics WRAIR, WRAMC, Washingto
n DC 20307
##NAMES=HP
##CAS NAME=2-Morpholino-4,6-bis[trichloromethyl]-S-triazine
##MOLFORM=C9H8Cl6N4O
##CAS REGISTRY NO=24803-10-9
##MP= -300
##BP= -300
##MW= 398
##$RETENTION INDEX=0
##$CONDENSED SPECTRUM=NO
##NPOINTS= 177
##XYDATA=(XY..XY) 1 
    41         81
    42        210
    43         79
    44         26
    45         39
    47         81
    49         17
    51          5
    53         52
    54        114
    55        140
    56        262
    57         28
    62         16
    63         13
    66         49
    67         33
    68         47
    69         29
    70         12
    73         54
    75         29
    76          7
    80         51
    81         22
    82        185
    83         30
    84        405
    85         70
    86        999
    87         76
    88         46
    89         12
    91         22
    94         54
    95        120
    96         87
    97         26
    99          7
   100         14
   101         39
   102         28
   103          6
   106          8
   108        623
   109        132
   110        437
   111        131
   112         93
   113         75
   115         36
   117        249
   119        240
   120         47
   121         78
   122         98
   123         39
   124         70
   125         25
   126         30
   127         29
   129         93
   131        103
   132         32
   133         40
   134        228
   135        303
   136        181
   137        194
   138         64
   139         39
   143         39
   146          6
   148         43
   149        124
   150        167
   151         82
   152         23
   154         27
   155         12
   156         30
   158         14
   161         17
   162         50
   163         28
   164         38
   166         34
   167         18
   168         61
   169         58
   170          7
   176         31
   181         68
   183         67
   185         24
   188         45
   189         15
   190        134
   191         16
   192         88
   194         25
   196         47
   198         42
   200         29
   202          7
   204          8
   218          7
   220          7
   237          6
   242         26
   244         34
   246         13
   251         24
   253         22
   257         43
   259         29
   262          7
   270         36
   272         45
   274         27
   285          6
   297         26
   299         24
   300          7
   305         49
   306          6
   307         75
   308         28
   309         51
   310         13
   311         12
   313         59
   315        110
   317         84
   319         55
   321         35
   322         22
   324         23
   326         66
   327        159
   328        100
   329        208
   330         72
   331        104
   332         44
   333         80
   334         37
   335         92
   336         29
   337         58
   339         19
   341         26
   343         40
   345         35
   347          6
   357         13
   362        278
   363        278
   364        474
   365        406
   366        302
   367        263
   368         98
   369         87
   370         33
   371         24
   383         59
   385        105
   387         91
   389         46
   398         81
   400        161
   401         10
   402        131
   403         21
   404         44
   406         13