##TITLE=Library Entry 6916
##JCAMP-DX=Revision 4.10 
##DATA TYPE=MASS SPECTRUM
##SAMPLE DESCRIPTION=Exported from NIST MS Search
##NAMES=HP
##CAS NAME=Rhamnose, diethyl mercaptal, tetraacetate, L-
##MOLFORM=C18H30O8S2
##CAS REGISTRY NO=24807-89-4
##MP= -300
##BP= -300
##MW= 438
##$RETENTION INDEX=0
##$CONDENSED SPECTRUM=NO
##NPOINTS= 135
##XYDATA=(XY..XY) 1 
    41        112
    42        105
    43        999
    44        163
    45        394
    46         45
    47        126
    48         15
    49          7
    50          5
    51          7
    52          6
    53         16
    54          4
    55         32
    56          5
    57         32
    58         27
    59         74
    60         38
    61         80
    62         13
    63         34
    64          2
    65          8
    66          2
    67          9
    68          7
    69         42
    70          6
    71         33
    72          5
    73         25
    74          7
    75         93
    76         25
    77         16
    78         14
    79         17
    80          1
    81          5
    82          2
    83         25
    84          5
    85         15
    86          4
    87         59
    88          5
    89         36
    90          2
    91          7
    93          3
    95          7
    97          6
    98          1
    99         18
   100          5
   101         13
   102          7
   103         27
   104         66
   105         30
   106          6
   107         28
   108          1
   109          3
   111         38
   112          6
   113         13
   115         20
   116          2
   117         56
   118          4
   119          8
   121          2
   125          2
   126          2
   127         17
   128          5
   129         48
   130          6
   131          7
   133         13
   135        248
   136         18
   137         24
   141          2
   143          6
   144          2
   145         38
   146          7
   147         16
   148          2
   149          3
   153         35
   154          6
   155         48
   156          7
   157          8
   159          8
   161          7
   169          2
   171         20
   172          4
   173        138
   174         12
   175          9
   177         25
   178          2
   179          2
   187         19
   188          3
   189          8
   215         20
   216          2
   217          2
   219         18
   220          2
   221          2
   229         26
   230          2
   231          3
   257          2
   273          1
   275         20
   276          2
   289          5
   317         17
   318          4
   319          2
   377         18
   378         12
   379          3
   438          4
   439          2