##TITLE=Library Entry 17915
##JCAMP-DX=Revision 4.10 
##DATA TYPE=MASS SPECTRUM
##SAMPLE DESCRIPTION=V.A.Korolev, Moscow, Russia
##NAMES=HP
##CAS NAME=5-Bromo-3-nitro-1H-1,2,4-triazole
##MOLFORM=C2HBrN4O2
##CAS REGISTRY NO=24807-56-5
##MP= -300
##BP= -300
##MW= 192
##$RETENTION INDEX=0
##$CONDENSED SPECTRUM=NO
##NPOINTS= 51
##XYDATA=(XY..XY) 1 
    30         87
    38        301
    39        242
    40        110
    41        235
    42         29
    43         11
    46        999
    48         11
    52         39
    53         68
    54        262
    55         10
    59          5
    61          6
    67        424
    68         18
    69         29
    72          6
    79        304
    80         29
    81        289
    82         14
    85          8
    91        172
    93        174
    97          9
    99          5
   100         10
   103          5
   105         47
   106        264
   107        205
   108        262
   109        198
   114          5
   115         10
   116         13
   117        148
   119        142
   147        190
   148         11
   149        185
   150         11
   164         69
   166         69
   191          6
   192        231
   193         12
   194        221
   195         12