##TITLE=Library Entry 64320
##JCAMP-DX=Revision 4.10 
##DATA TYPE=MASS SPECTRUM
##SAMPLE DESCRIPTION=A.A.Kutin, Moscow, Russia
##NAMES=HP
##CAS NAME=Propanoic acid, 3-(4-benzyloxyphenyl)-, methyl ester
##MOLFORM=C17H18O3
##CAS REGISTRY NO=24807-40-7
##MP= -300
##BP= -300
##MW= 270
##$RETENTION INDEX=2178
##$CONDENSED SPECTRUM=NO
##NPOINTS= 55
##XYDATA=(XY..XY) 1 
    33          5
    39         21
    40         12
    41          7
    42          1
    43          1
    44          1
    45          1
    50          2
    51          9
    52          4
    53          1
    55          1
    59          6
    62          1
    63          9
    65         65
    66          4
    76          1
    77          7
    78          9
    79          1
    89         16
    91        999
    92         69
    93          1
    94          0
   103          1
   104          1
   105          1
   106          2
   107          2
   119         12
   120          4
   121          0
   134          0
   136          0
   137          4
   152          0
   163          0
   165          0
   167          0
   179          0
   195          1
   197         17
   198          2
   210          2
   211          0
   239          4
   240          0
   268          2
   270        103
   271         19
   272          2
   273          0