##TITLE=Library Entry 36726
##JCAMP-DX=Revision 4.10 
##DATA TYPE=MASS SPECTRUM
##SAMPLE DESCRIPTION=AAFS Toxicology Section MS DB Committee, U. Alberta, Ca
nada
##NAMES=HP
##CAS NAME=Rescinnamine
##MOLFORM=C35H42N2O9
##CAS REGISTRY NO=24815-24-5
##MP= -300
##BP= -300
##MW= 634
##$RETENTION INDEX=0
##$CONDENSED SPECTRUM=NO
##NPOINTS= 254
##XYDATA=(XY..XY) 1 
    41        387
    42        152
    43        442
    44        190
    45        120
    50         22
    51         44
    53         92
    54        122
    55        682
    56        219
    57        485
    58        106
    59        106
    60        375
    61         97
    63         37
    64         25
    65         57
    66         52
    67        348
    68        231
    69        999
    70        294
    71        495
    72         65
    73        614
    74         84
    75         62
    76         37
    77        180
    78         64
    79        206
    80         96
    81        658
    82        264
    83        580
    84        556
    85        349
    86         87
    87        182
    88         32
    89         48
    90         24
    91        160
    92         75
    93        175
    94        128
    95        325
    96        230
    97        476
    98        257
    99        146
   100         70
   101        111
   102         73
   103         74
   104         53
   105        121
   106         50
   107        148
   108         78
   109        208
   110        170
   111        291
   112        117
   113        107
   114         86
   115        166
   116         78
   117         69
   118         50
   119        113
   120         71
   121        166
   122         79
   123        180
   124         93
   125        126
   126         75
   127         93
   128         47
   129        277
   130        107
   131         62
   132         73
   133         96
   134         67
   135        162
   136        143
   137        217
   138         76
   139         78
   140         43
   141         74
   142         35
   143        122
   144         69
   145         57
   146         30
   147        123
   148         60
   149        468
   150         97
   151         68
   152        138
   153         55
   154         62
   155         82
   156         46
   157         96
   158         69
   159         50
   160         74
   161         71
   162         77
   163        150
   164         42
   165         43
   166         50
   167        133
   168        197
   169        266
   170         91
   171        116
   172         89
   173        105
   174        151
   175         71
   176         39
   177         69
   178         65
   179         59
   180         50
   181         55
   182         56
   183         44
   184         85
   185        166
   186        259
   187        105
   188         32
   189         41
   190        152
   191         96
   192         42
   193         96
   194         58
   195         59
   196         44
   197         77
   198         91
   199        451
   200        333
   201         92
   202         23
   203         26
   204         22
   205         39
   206         71
   207         49
   208         38
   209         28
   210         40
   211         44
   212         96
   213        208
   214        242
   215         78
   219         23
   221        739
   222        151
   223        164
   224         55
   225         80
   226         44
   227        109
   228         52
   229         26
   231         21
   235         31
   236        102
   237         82
   238        174
   239        117
   240         40
   241         84
   242         44
   243         24
   249         31
   250         41
   251        370
   252        101
   253        140
   254        124
   255         42
   256        116
   257         48
   263         24
   264         50
   265        144
   266         39
   267         89
   268         26
   269         39
   270         35
   271         29
   277         28
   278         23
   279         66
   280         32
   284         32
   289         24
   295         33
   297         68
   298         23
   299         31
   305         31
   307         52
   308         24
   309         26
   316         84
   321         33
   323         53
   325         22
   337        101
   338         31
   341         26
   349         28
   359         32
   360         31
   361         26
   363         49
   365        371
   366         91
   367         29
   368         30
   369         35
   381        698
   382        171
   383         43
   394         32
   395        438
   396        343
   397        277
   398         64
   411         28
   413        122
   414         38
   446         51
   603         26
   633         97
   634         77
   635         31