##TITLE=Library Entry 8484
##JCAMP-DX=Revision 4.10 
##DATA TYPE=MASS SPECTRUM
##SAMPLE DESCRIPTION=Chemical Concepts
##NAMES=HP
##CAS NAME=4-Hexenoic acid, 2-acetyl-2,3-dimethyl-, ethyl ester, (E)- (stere
oisomer 2)
##MOLFORM=C12H20O3
##CAS REGISTRY NO=24810-56-8
##MP= -300
##BP= -300
##MW= 212
##$RETENTION INDEX=0
##$CONDENSED SPECTRUM=NO
##NPOINTS= 111
##XYDATA=(XY..XY) 1 
    25          3
    26         28
    27        257
    28         77
    29        432
    30         16
    31         23
    37          4
    38          8
    39        172
    40         33
    41        591
    42         64
    43        999
    44         37
    45         41
    46          4
    50          8
    51         23
    52         14
    53        103
    54         24
    55        181
    56         40
    57         33
    58          3
    59         17
    60          0
    61          4
    63          6
    64          1
    65         22
    66         13
    67         97
    68         41
    69        816
    70        118
    71         19
    72          6
    73         14
    74         23
    75          2
    77         29
    78          7
    79         45
    80         10
    81         69
    82         17
    83         49
    84          5
    85         28
    86          4
    87          9
    89          0
    91          9
    92          2
    93         13
    94          1
    95         84
    96         30
    97         37
    98        111
    99        168
   100         37
   101         25
   102         40
   103          3
   105          5
   106          1
   107          7
   108          2
   109        100
   110         16
   111         29
   112          5
   113         31
   114          1
   115          5
   116          7
   119          1
   120         34
   121         22
   122          5
   123        176
   124         57
   125         40
   126          7
   127         82
   128         14
   129         11
   137          5
   138          8
   139         31
   140          7
   141         68
   142          6
   143          1
   144         42
   145          4
   151          1
   153          2
   155         98
   156          9
   166         17
   167         22
   168          3
   169         17
   170         13
   171          1
   194         70
   195          8