##TITLE=Library Entry 76825
##JCAMP-DX=Revision 4.10 
##DATA TYPE=MASS SPECTRUM
##SAMPLE DESCRIPTION=Chuck Anderson, Aldrich Chemical Co.
##NAMES=HP
##CAS NAME=Butanoic acid, 2-methyl-, 2-phenylethyl ester
##MOLFORM=C13H18O2
##CAS REGISTRY NO=24817-51-4
##MP= -300
##BP= -300
##MW= 206
##$RETENTION INDEX=1488
##$CONDENSED SPECTRUM=NO
##NPOINTS= 42
##XYDATA=(XY..XY) 1 
    15          1
    17          0
    18          0
    26          3
    27         26
    28         13
    29         57
    30          2
    31          1
    38          0
    39         19
    40          1
    41         47
    42          3
    44          1
    50          3
    51         14
    52          3
    53          3
    55          9
    56          5
    57        197
    58          7
    63          5
    65         19
    66          1
    69          0
    74          0
    77         43
    78         25
    79         25
    80          0
    85         56
    86          3
    89          6
    91         55
    92         10
   102          1
   103         17
   104        999
   105        135
   106          9