##TITLE=Library Entry 240
##JCAMP-DX=Revision 4.10 
##DATA TYPE=MASS SPECTRUM
##SAMPLE DESCRIPTION=D.HENNEBERG, MAX-PLANCK INSTITUTE, MULHEIM, WEST GERMAN
Y
##NAMES=HP
##CAS NAME=1,1-Cyclopropanedicarbonitrile, 2-methyl-
##MOLFORM=C6H6N2
##CAS REGISTRY NO=24829-26-3
##MP= -300
##BP= -300
##MW= 106
##$RETENTION INDEX=0
##$CONDENSED SPECTRUM=NO
##NPOINTS= 63
##XYDATA=(XY..XY) 1 
    22          0
    23          0
    24          5
    25          7
    26        110
    27        184
    28        999
    29         25
    30          0
    31          0
    32          0
    33          0
    34          1
    35          1
    36          5
    37         50
    38         72
    39        169
    40         61
    41        174
    42         25
    44          0
    45          0
    47          0
    48          2
    49          9
    50         33
    51         68
    52        261
    53         50
    54         46
    55         69
    56          2
    58          0
    59          1
    60          0
    61          1
    62          9
    63         29
    64         45
    65         11
    66         24
    67          1
    73          0
    74          1
    75         12
    76         18
    77         28
    78         41
    79        440
    80         31
    81          0
    88          0
    89          3
    90          3
    91         31
    92          1
   101          0
   103          1
   104          6
   105        143
   106         38
   107          2