##TITLE=Library Entry 32755
##JCAMP-DX=Revision 4.10 
##DATA TYPE=MASS SPECTRUM
##SAMPLE DESCRIPTION=Exported from NIST MS Search
##NAMES=HP
##CAS NAME=6-Tridecenoic acid, 13-(2-cyclopenten-1-yl)-, methyl ester
##MOLFORM=C19H32O2
##CAS REGISTRY NO=24828-60-2
##MP= -300
##BP= -300
##MW= 292
##$RETENTION INDEX=0
##$CONDENSED SPECTRUM=NO
##NPOINTS= 96
##XYDATA=(XY..XY) 1 
    39         70
    40         20
    41        330
    42         30
    43         70
    44         10
    45         10
    51         10
    52         10
    53         50
    54         60
    55        190
    56         20
    57         20
    59         70
    65         40
    66        110
    67        999
    68        100
    69         60
    70         10
    71         20
    73         10
    74         80
    75         10
    77         30
    78         20
    79        120
    80        460
    81        220
    82         80
    83         50
    84         20
    85         20
    87         50
    88         10
    91         30
    92         20
    93        220
    94        120
    95        150
    96         60
    97         40
    98         20
    99         10
   101         10
   105         10
   106         10
   107         60
   108         60
   109         50
   110         20
   111         20
   115         10
   119         20
   120         10
   121        150
   122         60
   123         30
   124         10
   125         10
   129         10
   133         10
   134         10
   135         80
   136         60
   137         20
   138         10
   139         10
   140         10
   141         10
   143         10
   147         20
   148         10
   149         80
   150         40
   151         10
   154         10
   161         20
   162         10
   163         30
   164         20
   165         10
   172         10
   174         10
   175         10
   176         10
   177         20
   178         10
   191         10
   210         10
   218         10
   223         10
   260         10
   261         10
   292         20