##TITLE=Library Entry 32918
##JCAMP-DX=Revision 4.10 
##DATA TYPE=MASS SPECTRUM
##SAMPLE DESCRIPTION=R.T.HOLMAN,UNIVERSITY OF MINNESOTA
##NAMES=HP
##CAS NAME=Cyclopentene, 3-undecyl-
##MOLFORM=C16H30
##CAS REGISTRY NO=24828-58-8
##MP= -300
##BP= -300
##MW= 222
##$RETENTION INDEX=0
##$CONDENSED SPECTRUM=NO
##NPOINTS= 84
##XYDATA=(XY..XY) 1 
    38          1
    39         33
    40         10
    41        187
    42         24
    43         28
    44          4
    50          1
    51          5
    52          4
    53         25
    54         18
    55         67
    56         22
    57         52
    58          3
    63          1
    64          1
    65         23
    66        157
    67        999
    68         96
    69         29
    70         10
    71         17
    72          1
    77         17
    78          4
    79         35
    80         21
    81         52
    82        236
    83         90
    84          9
    85         10
    86          1
    91          7
    92          1
    93          8
    94          7
    95         49
    96         31
    97         15
    98          3
    99          3
   107          1
   108          1
   109         13
   110         10
   111          6
   112          2
   113          1
   121          1
   122          3
   123         16
   124         15
   125          3
   126          1
   127          1
   136          2
   137         10
   138          8
   139          1
   140          4
   141          1
   151          1
   152          2
   153          1
   154          1
   155          1
   165          4
   166          6
   167          1
   179          2
   180          2
   194          4
   195          1
   210          1
   211          1
   220          1
   221          1
   222         33
   223          6
   224          1