##TITLE=Library Entry 44724
##JCAMP-DX=Revision 4.10 
##DATA TYPE=MASS SPECTRUM
##SAMPLE DESCRIPTION=Exported from NIST MS Search
##NAMES=HP
##CAS NAME=Cyclopentanetridecanoic acid, methyl ester
##MOLFORM=C19H36O2
##CAS REGISTRY NO=24828-61-3
##MP= -300
##BP= -300
##MW= 296
##$RETENTION INDEX=0
##$CONDENSED SPECTRUM=NO
##NPOINTS= 121
##XYDATA=(XY..XY) 1 
    39         80
    40         20
    41        520
    42        160
    43        470
    44         20
    45         20
    51         10
    53         30
    54         50
    55        500
    56        100
    57        180
    58         20
    59        100
    60         10
    61         10
    65         10
    66         10
    67        120
    68         80
    69        320
    70         60
    71         80
    72         10
    73         30
    74        999
    75         21
    76         10
    77         10
    79         20
    80         20
    81         70
    82         60
    83        180
    84         60
    85         40
    86         10
    87        680
    88         80
    89         10
    91         10
    93         20
    94         10
    95         60
    96         40
    97        110
    98         50
    99         10
   101         70
   102         10
   105         10
   107         10
   108         10
   109         30
   110         20
   111         43
   112         10
   113         10
   114         10
   115         30
   116         10
   119         10
   121         10
   122         10
   123         20
   124         10
   125         20
   126         10
   127         10
   128         10
   129         70
   130         20
   131         10
   133         10
   135         10
   136         10
   137         10
   138         10
   139         10
   141         10
   143        170
   144         20
   149         10
   151         10
   152         10
   153         10
   155         10
   157         20
   163         10
   165         10
   171         20
   172         10
   183         10
   185         40
   186         10
   194         10
   197         30
   198         10
   199         50
   200         10
   211         20
   212         10
   213         10
   214         10
   222         10
   225         10
   227         10
   228         10
   229         10
   236         10
   239         10
   242         10
   247         10
   253         70
   254         10
   264         10
   265         10
   267         10
   296         80
   297         20