##TITLE=Library Entry 57056
##JCAMP-DX=Revision 4.10 
##DATA TYPE=MASS SPECTRUM
##SAMPLE DESCRIPTION=R.T.HOLMAN,UNIVERSITY OF MINNESOTA
##NAMES=HP
##CAS NAME=2-Decenoic acid, methyl ester
##MOLFORM=C11H20O2
##CAS REGISTRY NO=2482-39-5
##MP= -300
##BP= -300
##MW= 184
##$RETENTION INDEX=1386
##$CONDENSED SPECTRUM=NO
##NPOINTS= 135
##XYDATA=(XY..XY) 1 
    26         24
    27        300
    28        100
    29        340
    30         13
    31         27
    32         11
    33          5
    36          5
    37          4
    38         15
    39        270
    40         80
    41        640
    42        160
    43        730
    44         36
    45         36
    46          2
    47          3
    50          9
    51         25
    52         17
    53        170
    54        130
    55        630
    56         26
    57        170
    58         20
    59        270
    60         13
    61          6
    62          3
    63          7
    64          3
    65         24
    66         25
    67        160
    68        250
    69        380
    70        120
    71         90
    72         25
    73         26
    74        370
    75         43
    76          5
    77         22
    78          9
    79         45
    80         21
    81        280
    82        120
    83        120
    84        280
    85        110
    86         12
    87        999
    88         67
    89          7
    90          2
    91         16
    92          7
    93         24
    94         20
    95        110
    96        200
    97         90
    98         61
    99         33
   100        220
   101        180
   102         22
   103          5
   104          3
   105         14
   106          6
   107          9
   108         46
   109         62
   110        300
   111         91
   112         14
   113        390
   114         93
   115         45
   116         22
   117          5
   118          2
   119         11
   120          5
   121          7
   122          4
   123        110
   124         51
   125         14
   126          6
   127         62
   128        100
   129         31
   130          7
   131          3
   132          2
   133          3
   134         21
   135          7
   136          3
   137         17
   138          6
   139         40
   140          8
   141         51
   142         12
   143         11
   144          2
   145          3
   148          2
   149          3
   150          2
   151          6
   152        190
   153        270
   154         30
   155         22
   156          3
   157          2
   166          6
   167         11
   168          3
   169          5
   170          2
   171          2
   183          3
   184         14
   185          3