##TITLE=Library Entry 32920
##JCAMP-DX=Revision 4.10 
##DATA TYPE=MASS SPECTRUM
##SAMPLE DESCRIPTION=Exported from NIST MS Search
##NAMES=HP
##CAS NAME=13-(2-Cyclopenten-1-yl)tridecanoic acid, methyl ester, (S)-
##MOLFORM=C19H34O2
##CAS REGISTRY NO=24828-59-9
##MP= -300
##BP= -300
##MW= 294
##$RETENTION INDEX=0
##$CONDENSED SPECTRUM=NO
##NPOINTS= 81
##XYDATA=(XY..XY) 1 
    39         50
    40         10
    41        240
    42         40
    43        130
    44         10
    45         20
    53         40
    54         30
    55        180
    56         30
    57         50
    58         10
    59         60
    65         30
    66        120
    67        999
    68        100
    69         90
    70         20
    71         20
    73         10
    74        190
    75         30
    77         20
    78         10
    79         70
    80        170
    81        180
    82        460
    83        150
    84         30
    85         20
    87        170
    88         20
    91         20
    92         10
    93         30
    94         30
    95        150
    96         80
    97         80
    98         30
    99         10
   101         10
   107         10
   108         10
   109         50
   110         30
   111         30
   115         10
   119         10
   121         30
   122         10
   123         40
   124         30
   125         10
   129         20
   135         10
   136         10
   137         20
   138         10
   139         10
   141         10
   143         30
   149         10
   157         10
   163         50
   164         10
   171         10
   181         60
   185         10
   213         60
   214         10
   229         10
   234         10
   262         80
   263         70
   264         10
   294         40
   295         10