##TITLE=Library Entry 29592
##JCAMP-DX=Revision 4.10 
##DATA TYPE=MASS SPECTRUM
##SAMPLE DESCRIPTION=Japan AIST/NIMC Database- Spectrum MS-NW-4360
##NAMES=HP
##CAS NAME=1-Bromo-2-butanol
##MOLFORM=C4H9BrO
##CAS REGISTRY NO=2482-57-7
##MP= -300
##BP= -300
##MW= 152
##$RETENTION INDEX=0
##$CONDENSED SPECTRUM=NO
##NPOINTS= 82
##XYDATA=(XY..XY) 1 
    14          4
    15         36
    17          1
    18          3
    25          2
    26         20
    27        107
    28         17
    29         97
    30          8
    31        320
    32          4
    33          1
    36          1
    37          5
    38          9
    39         57
    40          8
    41        168
    42         24
    43        180
    44         58
    45         21
    49          2
    50          6
    51          5
    52          2
    53         12
    54          5
    55        279
    56         26
    57         53
    58         41
    59        999
    60         33
    61          3
    69          1
    71          8
    72          9
    73         73
    74          3
    79          7
    80          8
    81          7
    82          8
    86          1
    87          1
    89          1
    91          1
    92          2
    93         14
    94          8
    95         13
    96          6
    97          1
   101          3
   105          3
   106          3
   107          5
   108          3
   109          4
   111          1
   113          1
   115          3
   119          1
   120          2
   121          5
   122         11
   123        186
   124         11
   125        169
   126          4
   127          1
   128          1
   131          2
   134          1
   135          4
   136          1
   137          5
   151          2
   152          1
   153          3