##TITLE=Library Entry 27744
##JCAMP-DX=Revision 4.10 
##DATA TYPE=MASS SPECTRUM
##SAMPLE DESCRIPTION=Japan AIST/NIMC Database- Spectrum MS-NW-2793
##NAMES=HP
##CAS NAME=Methyl dl-alpha-aminobutyrate
##MOLFORM=C5H11NO2
##CAS REGISTRY NO=2483-62-7
##MP= -300
##BP= -300
##MW= 117
##$RETENTION INDEX=0
##$CONDENSED SPECTRUM=NO
##NPOINTS= 33
##XYDATA=(XY..XY) 1 
    14          1
    15         39
    17          3
    18          1
    26          5
    27         18
    28         91
    29         28
    30         90
    31          4
    32          1
    39         11
    40          2
    41        166
    42         27
    43         34
    44          5
    45          2
    52          1
    54          5
    55          4
    56         35
    57          9
    58        999
    59         37
    60         10
    69          5
    70          4
    74          3
    84          1
    88        114
    89          4
   117          3