##TITLE=Library Entry 55840
##JCAMP-DX=Revision 4.10 
##DATA TYPE=MASS SPECTRUM
##SAMPLE DESCRIPTION=Japan AIST/NIMC Database- Spectrum MS-IW-1860
##NAMES=HP
##CAS NAME=1-(2-Bromo-2-methylpropionyl)urea
##MOLFORM=C5H9BrN2O2
##CAS REGISTRY NO=24856-16-4
##MP= -300
##BP= -300
##MW= 208
##$RETENTION INDEX=0
##$CONDENSED SPECTRUM=NO
##NPOINTS= 84
##XYDATA=(XY..XY) 1 
    15          8
    16          9
    17         11
    18          7
    25          1
    26          8
    27         28
    28          7
    29          1
    30          6
    31          6
    37          4
    38         10
    39         97
    40         37
    41        379
    42        205
    43        206
    44        935
    45         29
    46         99
    47          1
    50          1
    51          1
    52          3
    53          4
    54          3
    55          3
    56          3
    57          5
    58         41
    59         21
    60         26
    61          5
    67          1
    68          7
    69         79
    70         74
    71          5
    72          1
    73          2
    79          2
    80          5
    81          3
    82          5
    84          2
    85          5
    86        999
    87        325
    88         86
    89         25
    90          1
    93          3
    95          2
   101          1
   105          2
   106          1
   107          3
   108          1
   120         15
   121        168
   122         25
   123        165
   124         11
   126          2
   128          1
   129        313
   130         19
   131          2
   133          1
   135          1
   136          1
   149          1
   150          1
   152          2
   165         61
   166          3
   167         61
   168          3
   208        120
   209          9
   210        122
   211         10
   212          1