##TITLE=Library Entry 91301
##JCAMP-DX=Revision 4.10 
##DATA TYPE=MASS SPECTRUM
##SAMPLE DESCRIPTION=Japan AIST/NIMC Database- Spectrum MS-NW-9609
##NAMES=HP
##CAS NAME=3H-1,2,4-Triazole-3-thione, 2,4-dihydro-4-methyl-
##MOLFORM=C3H5N3S
##CAS REGISTRY NO=24854-43-1
##MP= -300
##BP= -300
##MW= 115
##$RETENTION INDEX=0
##$CONDENSED SPECTRUM=NO
##NPOINTS= 48
##XYDATA=(XY..XY) 1 
    14          1
    15         16
    26          1
    27          9
    28         23
    29         35
    30         38
    32          1
    33          3
    34          1
    39          1
    40          3
    41          5
    42        131
    43          9
    44         12
    45         20
    46         10
    47         11
    53          5
    54          2
    55         61
    56         42
    57         46
    58          8
    59         22
    60        126
    61         10
    62          6
    70         16
    71          7
    72         12
    73         18
    74        122
    75          4
    76          6
    82         12
    83          9
    84          1
    85         10
    86          2
    87          8
    88          8
   114         18
   115        999
   116         73
   117         47
   118          3