##TITLE=Library Entry 52825
##JCAMP-DX=Revision 4.10 
##DATA TYPE=MASS SPECTRUM
##SAMPLE DESCRIPTION=N.W. Davies, Centr. Sci. Lab., Univ. Tasmania, Hobart,
 Australia
##NAMES=HP
##CAS NAME=Cyclopentaneacetic acid, 3-oxo-2-pentyl-, methyl ester
##MOLFORM=C13H22O3
##CAS REGISTRY NO=24851-98-7
##MP= -300
##BP= -300
##MW= 226
##$RETENTION INDEX=1649
##$CONDENSED SPECTRUM=NO
##NPOINTS= 89
##XYDATA=(XY..XY) 1 
    26          6
    27         63
    31         30
    36          6
    39         53
    40         37
    41        157
    42         22
    43         89
    44         18
    50          7
    51          9
    52          8
    53         64
    54         40
    55        197
    56         23
    57         15
    59         71
    62          6
    63          7
    65          9
    66         21
    67        117
    68         44
    69         77
    70         14
    71         27
    72          7
    74         93
    75         53
    77         19
    78          6
    79         40
    81         70
    82        283
    83        999
    84         84
    85         10
    86         12
    87          9
    91         12
    92          9
    93         18
    94         21
    95         84
    96        110
    97         74
    99         12
   101         12
   105         22
   108         20
   109         61
   110         43
   111         18
   113         24
   115          9
   117          8
   119         18
   122          5
   123         28
   124         14
   125          9
   134         15
   135         28
   137         26
   138          9
   139          9
   141          6
   147          7
   149          5
   150          9
   151         32
   152         44
   153        257
   154         40
   155         19
   156        191
   157         13
   165         10
   168         11
   169         19
   170          6
   180          7
   194          6
   195         30
   207         13
   209          8
   226         18