##TITLE=Library Entry 16163
##JCAMP-DX=Revision 4.10 
##DATA TYPE=MASS SPECTRUM
##SAMPLE DESCRIPTION=Japan AIST/NIMC Database- Spectrum MS-IW-1862
##NAMES=HP
##CAS NAME=1-(2-Bromobutyryl)urea
##MOLFORM=C5H9BrN2O2
##CAS REGISTRY NO=24856-17-5
##MP= -300
##BP= -300
##MW= 208
##$RETENTION INDEX=0
##$CONDENSED SPECTRUM=NO
##NPOINTS= 96
##XYDATA=(XY..XY) 1 
    15          5
    16          6
    17          8
    18          7
    26          9
    27         50
    28         32
    29         10
    30          4
    31          3
    37          4
    38          9
    39         77
    40         18
    41        187
    42         53
    43        169
    44        999
    45         23
    46          6
    52          2
    53          2
    54          5
    55         72
    56          4
    57          2
    58          2
    59          4
    60          5
    61         25
    66          1
    67          1
    68         10
    69        120
    70         40
    71          5
    72          7
    79          4
    80          9
    81          4
    82          9
    84          1
    85          7
    86        140
    87        194
    88          6
    89          1
    92          1
    93          5
    94          1
    95          4
   100          1
   101         37
   102         16
   105          2
   106          2
   107          3
   108          5
   109          2
   110          3
   111          1
   113          2
   115         17
   116          1
   119          2
   120         12
   121         22
   122         20
   123         20
   124          8
   128          3
   129        469
   130         29
   131          2
   133          2
   135          2
   137        156
   138          4
   139        153
   140          4
   148          6
   149          3
   150         20
   151          3
   152         12
   165         16
   166          1
   167         15
   168          1
   180        409
   181         16
   182        405
   183         15
   184          2
   193          9
   195          8