##TITLE=Library Entry 52383
##JCAMP-DX=Revision 4.10 
##DATA TYPE=MASS SPECTRUM
##SAMPLE DESCRIPTION=Div. of Experiment Therapeutics WRAIR, WRAMC, Washingto
n DC 20307
##NAMES=HP
##CAS NAME=6-[4-Chlorophenyl]-N,N-diethyl-1,2,4,5-tetrazin-3-amine
##MOLFORM=C12H14ClN5
##CAS REGISTRY NO=2486-27-3
##MP= -300
##BP= -300
##MW= 263
##$RETENTION INDEX=0
##$CONDENSED SPECTRUM=NO
##NPOINTS= 70
##XYDATA=(XY..XY) 1 
    41         27
    42         84
    43         35
    44         12
    45          2
    47         17
    48          7
    49         67
    50         64
    51         80
    52         13
    53         28
    54         13
    55        651
    56         39
    57          3
    58          2
    60          3
    61          6
    62         15
    63          9
    64          5
    65          0
    67         13
    68          5
    69         54
    70         10
    71          7
    72         13
    73         18
    74         18
    75         88
    76         43
    77          5
    81          0
    83        999
    84         79
    85          7
    86         17
    87          6
    88          6
    97         14
    98        389
    99         27
   100         23
   101         10
   102        118
   103          9
   109          1
   110          6
   111         16
   112          3
   113          5
   123          1
   125          0
   136          1
   137        100
   138         13
   139         43
   140          4
   141          3
   143          1
   156          3
   158          1
   178          3
   180          1
   263         59
   264          9
   265         20
   266          3