##TITLE=Library Entry 87607
##JCAMP-DX=Revision 4.10 
##DATA TYPE=MASS SPECTRUM
##SAMPLE DESCRIPTION=NIST Mass Spectrometry Data Center, 2010
##NAMES=HP
##CAS NAME=Desoxy-minoxidyl
##MOLFORM=C9H15N5
##CAS REGISTRY NO=24867-26-3
##MP= -300
##BP= -300
##MW= 193
##$RETENTION INDEX=0
##$CONDENSED SPECTRUM=NO
##NPOINTS= 118
##XYDATA=(XY..XY) 1 
    15          4
    18          3
    26          7
    27         47
    28         78
    29         40
    30         40
    37          1
    38          5
    39         72
    40         78
    41        200
    42        106
    43        340
    44         26
    45          9
    50          3
    51         11
    52         31
    53         53
    54         64
    55        138
    56        123
    57         14
    58          2
    59          1
    60         16
    61          1
    62          1
    63          1
    64          2
    65         17
    66         62
    67        364
    68        270
    69         66
    70         12
    71          4
    72          9
    76         11
    77          4
    78          9
    79         21
    80         25
    81         46
    82         59
    83        162
    84        686
    85         45
    86          2
    91          2
    92         17
    93         20
    94         22
    95         22
    96         24
    97         20
    98         29
    99          2
   103          1
   104          1
   105         10
   106          9
   107         11
   108         50
   109         74
   110        999
   111        147
   112          8
   116          1
   117          1
   118          3
   119          5
   120         14
   121         10
   122         47
   123         26
   124         91
   125         86
   126         14
   130          1
   131          2
   132          2
   133         16
   134          6
   135         11
   136         45
   137        431
   138        523
   139         82
   140          4
   145          1
   146          2
   147         34
   148         10
   149         19
   150        318
   151         97
   152         69
   153          5
   160          1
   161          3
   162         20
   164        857
   165        180
   166         17
   167          1
   175          5
   176         13
   177          5
   178         58
   179          6
   190          4
   191          4
   192        138
   193        870
   194        100
   195          5