##TITLE=Library Entry 37511
##JCAMP-DX=Revision 4.10 
##DATA TYPE=MASS SPECTRUM
##SAMPLE DESCRIPTION=Div. of Experiment Therapeutics WRAIR, WRAMC, Washingto
n DC 20307
##NAMES=HP
##CAS NAME=N,N-Dimethyl-6-[4-methylphenyl]-1,2,4,5-tetrazin-2-amine
##MOLFORM=C11H13N5
##CAS REGISTRY NO=2486-26-2
##MP= -300
##BP= -300
##MW= 215
##$RETENTION INDEX=0
##$CONDENSED SPECTRUM=NO
##NPOINTS= 71
##XYDATA=(XY..XY) 1 
    42        145
    43         56
    44          8
    45          1
    47          3
    48          1
    49         17
    50         37
    51         69
    52         20
    53         49
    54         11
    55         20
    56          6
    57          5
    58          1
    60          0
    61          8
    62         33
    63        102
    64         58
    65         41
    66          9
    67          7
    69        800
    70        999
    71        266
    72          8
    73          1
    74          9
    75         23
    76         22
    77         17
    78          4
    79          1
    81          0
    82          1
    83          3
    84         11
    85          2
    86         10
    87          8
    88         21
    89        220
    90        231
    91         40
    92          2
    95          0
    97          2
    98          0
    99          2
   100          0
   101          0
   102          6
   103          1
   107          0
   111          1
   114         10
   115          1
   116        363
   117        723
   118        140
   119         10
   125          0
   131          1
   149          0
   213          1
   214          1
   215        210
   216         25
   217          2