##TITLE=Library Entry 8820
##JCAMP-DX=Revision 4.10 
##DATA TYPE=MASS SPECTRUM
##SAMPLE DESCRIPTION=NIST Mass Spectrometry Data Center, 1994
##NAMES=HP
##CAS NAME=2-Nitrophenyl n-butyrate
##MOLFORM=C10H11NO4
##CAS REGISTRY NO=2487-26-5
##MP= -300
##BP= -300
##MW= 209
##$RETENTION INDEX=0
##$CONDENSED SPECTRUM=NO
##NPOINTS= 79
##XYDATA=(XY..XY) 1 
     4          1
    12          1
    13          1
    14          6
    15         30
    16          2
    17          1
    18          3
    26         28
    27        242
    28         65
    29         27
    30        118
    32          2
    36          0
    37         13
    38         66
    39        167
    40          0
    41        244
    42        100
    43        999
    44         33
    45          2
    46          1
    50         39
    51         43
    52         43
    53         33
    54          1
    55         43
    56          2
    60          4
    61          6
    62         25
    63        136
    64         77
    65         46
    66          7
    67          3
    68          3
    69         11
    70          2
    71        931
    72         40
    73          4
    74          4
    75          6
    76          9
    77          6
    78         17
    79          3
    80          8
    81         35
    82          2
    89          0
    92         16
    93         12
    94         11
    95          1
   106          9
   107          1
   109         39
   110          2
   119          0
   120          1
   122         11
   123         12
   124          1
   133          2
   134          1
   135          0
   139         38
   140          2
   146          0
   147          0
   161          0
   209         16
   210          1