##TITLE=Library Entry 13995
##JCAMP-DX=Revision 4.10 
##DATA TYPE=MASS SPECTRUM
##SAMPLE DESCRIPTION=NIST Mass Spectrometry Data Center, 1998.
##NAMES=HP
##CAS NAME=Medinoterb acetate
##MOLFORM=C13H16N2O6
##CAS REGISTRY NO=2487-01-6
##MP= -300
##BP= -300
##MW= 296
##$RETENTION INDEX=0
##$CONDENSED SPECTRUM=NO
##NPOINTS= 149
##XYDATA=(XY..XY) 1 
    14          1
    15         12
    26          1
    27          9
    28          4
    29         14
    30          7
    38          2
    39         35
    40          5
    41         52
    42          1
    43        999
    44         26
    45          4
    46          1
    50          8
    51         28
    52         11
    53         23
    54          4
    55         10
    56          2
    57         16
    58          1
    59          1
    60          1
    61          1
    62          4
    63         18
    64          8
    65         29
    66          9
    67         25
    68          4
    69          7
    70          1
    71          1
    74          3
    75          7
    76          7
    77         50
    78         18
    79         18
    80          5
    81          3
    82          1
    83          3
    86          1
    87          2
    88          1
    89         13
    90          6
    91         52
    92          9
    93          7
    94          5
    95          2
    96          1
    97          1
    98          1
    99          1
   101          2
   102          8
   103         19
   104         10
   105         13
   106          5
   107          4
   108          2
   109          1
   110          1
   111          1
   113          1
   115         36
   116         15
   117         22
   118         14
   119          8
   120          6
   121          3
   122          2
   123          1
   126          1
   127          7
   128         16
   129          5
   130          7
   131          7
   132          7
   133          5
   134          4
   135          2
   136          2
   137          1
   141          1
   142          1
   143          1
   144         16
   145         24
   146         13
   147         12
   148          6
   149          2
   150          1
   157          1
   158          3
   159          4
   160          3
   161          4
   162          6
   163          3
   164          1
   165          1
   172          1
   173          1
   174          5
   175          2
   176          2
   177          1
   179          1
   187          1
   188          1
   189          2
   190          1
   191         24
   192          3
   193          1
   204          2
   205          1
   207          1
   219          3
   220          1
   221          4
   222          1
   224          4
   225          1
   237         11
   238          2
   239         86
   240         10
   241          1
   250          1
   254         73
   255          9
   256          1
   263          1
   296          7
   297          1