##TITLE=Library Entry 50184
##JCAMP-DX=Revision 4.10 
##DATA TYPE=MASS SPECTRUM
##SAMPLE DESCRIPTION=F. TURECEK,HEYROVSKY INST PHYS CHEM & ELECTROCHEM,PRAGU
E,CZECH
##NAMES=HP
##CAS NAME=cis-7-Oxabicyclo[4.3.0]nonan-8-one
##MOLFORM=C8H12O2
##CAS REGISTRY NO=24871-12-3
##MP= -300
##BP= -300
##MW= 140
##$RETENTION INDEX=0
##$CONDENSED SPECTRUM=NO
##NPOINTS= 55
##XYDATA=(XY..XY) 1 
    26         90
    27        460
    29        280
    38         50
    39        580
    40        120
    41        760
    42        190
    43        170
    44         50
    45         20
    50         90
    51        150
    52        260
    53        210
    54        410
    55        650
    56        170
    57        190
    58         40
    63         30
    65         50
    66        150
    67        930
    68        990
    69        180
    70        200
    71         90
    77         70
    78         70
    79        590
    80        160
    81        999
    82         90
    83        140
    84        140
    85         10
    91         50
    92         10
    93         50
    94        120
    95         60
    96        370
    97        230
    98        110
    99         10
   109         10
   111        150
   112         80
   113          7
   121         30
   122         37
   139         37
   140         74
   141         12