##TITLE=Library Entry 32517
##JCAMP-DX=Revision 4.10 
##DATA TYPE=MASS SPECTRUM
##SAMPLE DESCRIPTION=Div. of Experiment Therapeutics WRAIR, WRAMC, Washingto
n DC 20307
##NAMES=HP
##CAS NAME=8-[2-Norbornylamino]-5,5,7-trichloro-6[5H]-quinolone
##MOLFORM=C16H15Cl3N2O
##CAS REGISTRY NO=24886-17-7
##MP= -300
##BP= -300
##MW= 356
##$RETENTION INDEX=0
##$CONDENSED SPECTRUM=NO
##NPOINTS= 232
##XYDATA=(XY..XY) 1 
    41        974
    42        151
    43        292
    44         98
    45        140
    49         56
    50        121
    51        198
    52        109
    53        274
    54        132
    55        325
    56        163
    57         76
    59         76
    60         47
    61         67
    62         89
    63        174
    64         74
    65        231
    66        222
    67        999
    68        130
    69        102
    70        100
    71         38
    73         80
    74        117
    75        125
    76        100
    77        291
    78        186
    79        270
    80         98
    81        205
    82        253
    83         98
    84         57
    85         59
    86         57
    87        101
    88        129
    89         76
    90         70
    91        173
    92         42
    93        218
    94        117
    95        736
    96        122
    97         77
    98         56
    99         50
   100        110
   101         82
   102        135
   103         65
   104         37
   105         67
   106        108
   107         52
   108         69
   109        135
   110        299
   111        106
   112         45
   113         42
   114        173
   115        116
   116         60
   117         41
   118         36
   120         41
   121         54
   122         45
   123         94
   124         52
   125         62
   126         63
   127        147
   128         39
   129        148
   130         46
   131         32
   133         34
   135         40
   136        117
   137        120
   138         48
   139         60
   140         54
   141         47
   142         34
   146         41
   148        102
   149        157
   150        126
   151         79
   152         44
   153         40
   154         38
   155         71
   157         50
   158         37
   159         23
   161         35
   162         47
   163         99
   164         90
   165        104
   166         42
   167         56
   168         45
   173         26
   174         29
   175         71
   176         42
   177         78
   178         94
   179         77
   180        124
   181         71
   182         45
   184        115
   185         34
   186         55
   187         77
   188         43
   189         44
   190         29
   191         34
   192         33
   193         43
   194         51
   195         94
   196         29
   197         44
   198         61
   199        290
   200         41
   201        205
   202         56
   203         87
   204         47
   205         48
   206         34
   207         68
   209         73
   210         38
   211         44
   213        661
   214         42
   215        514
   216         82
   217        100
   218         43
   219         62
   220         29
   221         52
   223         37
   224         28
   225         29
   226         37
   227         40
   228        862
   229        199
   230        605
   231        195
   232        123
   233         62
   235         48
   237         33
   238         44
   239        325
   240        435
   241        369
   242        291
   243        168
   244         83
   245         61
   247         30
   249         31
   251         35
   252         64
   253        515
   254        270
   255        340
   256        188
   257        156
   258         58
   259         37
   262         51
   264         40
   265         26
   266         49
   267        104
   268         36
   269         92
   270         34
   279         32
   280         33
   281         68
   283         41
   285        184
   286         30
   287         62
   288         37
   289        116
   291         32
   292         41
   293        144
   294         50
   295         88
   297         37
   307         34
   309         25
   313         30
   318         47
   320        967
   321        299
   322        637
   323        197
   324         99
   325          0
   326          1
   333          1
   334          0
   335          1
   356         72
   358         71
   360         22