##TITLE=Library Entry 29724
##JCAMP-DX=Revision 4.10 
##DATA TYPE=MASS SPECTRUM
##SAMPLE DESCRIPTION=Japan AIST/NIMC Database- Spectrum MS-NW-9480
##NAMES=HP
##CAS NAME=2,4-Dimethyl-2,4-pentanediol
##MOLFORM=C7H16O2
##CAS REGISTRY NO=24892-49-7
##MP= -300
##BP= -300
##MW= 132
##$RETENTION INDEX=0
##$CONDENSED SPECTRUM=NO
##NPOINTS= 53
##XYDATA=(XY..XY) 1 
    15         14
    18          1
    26          2
    27         24
    28         15
    29         32
    30          1
    31         91
    32          1
    38          2
    39         31
    40         10
    41        149
    42         10
    43        663
    44         16
    45          7
    49          4
    50          5
    51         32
    52          1
    53          7
    54          2
    55         34
    56        436
    57         50
    58         30
    59        999
    60         35
    61         28
    65          1
    67          2
    69          2
    71          1
    73          1
    74          1
    77          7
    79          3
    81          8
    82          2
    83          9
    85          2
    95          1
    96          3
    97          4
    98          2
    99        145
   100          9
   101          4
   103          2
   114          1
   117         25
   118          1