##TITLE=Library Entry 57953
##JCAMP-DX=Revision 4.10 
##DATA TYPE=MASS SPECTRUM
##SAMPLE DESCRIPTION=R.T.HOLMAN,UNIVERSITY OF MINNESOTA
##NAMES=HP
##CAS NAME=Octadecanoic acid, 2-methyl-, methyl ester
##MOLFORM=C20H40O2
##CAS REGISTRY NO=2490-22-4
##MP= -300
##BP= -300
##MW= 312
##$RETENTION INDEX=0
##$CONDENSED SPECTRUM=NO
##NPOINTS= 85
##XYDATA=(XY..XY) 1 
    27         34
    28         19
    29         78
    39         30
    40          8
    41        210
    42         47
    43        310
    44         11
    45         13
    53         16
    54          9
    55        250
    56         87
    57        280
    58         18
    59         68
    60          5
    67         22
    68         15
    69        180
    70         38
    71        150
    72         11
    73         25
    74         23
    75          7
    77          5
    79          6
    81         22
    82         14
    83         80
    84         14
    85         58
    86          5
    87         60
    88        999
    89         51
    90          9
    95         21
    96         16
    97        140
    98         28
    99         17
   101        440
   102         32
   109         15
   110         43
   111         13
   112         13
   114         20
   123          8
   124          5
   125         35
   126         19
   127         12
   129         61
   130         17
   137         12
   138         11
   139         17
   140          5
   141          6
   143          5
   151          5
   152          5
   153          8
   157        110
   158         15
   167          9
   171          5
   177          7
   195         16
   199          7
   213          5
   222         39
   223          8
   227          7
   255          7
   265          6
   269          6
   281          9
   297          6
   312        110
   313         25