##TITLE=Library Entry 44742
##JCAMP-DX=Revision 4.10 
##DATA TYPE=MASS SPECTRUM
##SAMPLE DESCRIPTION=R.T.HOLMAN,UNIVERSITY OF MINNESOTA
##NAMES=HP
##CAS NAME=Hexadecanoic acid, 14-methyl-, methyl ester
##MOLFORM=C18H36O2
##CAS REGISTRY NO=2490-49-5
##MP= -300
##BP= -300
##MW= 284
##$RETENTION INDEX=1984
##$CONDENSED SPECTRUM=NO
##NPOINTS= 228
##XYDATA=(XY..XY) 1 
    26          3
    27         25
    28         35
    29         83
    30          3
    31          4
    32          7
    33          2
    39         25
    40          6
    41        222
    42         41
    43        278
    44         12
    45         10
    50          1
    51          2
    52          2
    53         15
    54         22
    55        271
    56         80
    57        254
    58         16
    59         66
    60          6
    61          3
    62          1
    63          1
    64          4
    65          4
    66          3
    67         41
    68         22
    69        188
    70         47
    71         89
    72          7
    73         22
    74        999
    75        216
    76         11
    77          6
    78          2
    79         11
    80          5
    81         42
    82         22
    83        139
    84         51
    85         46
    86          4
    87        668
    88         55
    89          6
    90          1
    91          6
    92          2
    93          9
    94          4
    95         39
    96         26
    97        118
    98         43
    99         13
   100          3
   101         51
   102          6
   103          2
   104          1
   105          4
   106          2
   107          9
   108          4
   109         26
   110         14
   111         52
   112         13
   113          8
   114          4
   115         25
   116         11
   117          3
   118          1
   119          4
   120          3
   121         15
   122          4
   123         19
   124          9
   125         30
   126          4
   127          5
   128          4
   129         60
   130         13
   131          3
   132          1
   133          3
   134          2
   135         14
   136          4
   137         10
   138          7
   139         21
   140          5
   141          8
   142          3
   143        146
   144         14
   145          4
   146          1
   147          2
   148          2
   149         10
   150          2
   151          6
   152          8
   153         12
   154          3
   155          4
   156          2
   157         13
   158          3
   159          2
   160          1
   161          2
   162          1
   163          5
   164          2
   165          4
   166          2
   167          6
   168          2
   169          2
   170          1
   171         11
   172          3
   173          1
   174          1
   175          1
   176          1
   177          4
   178          2
   179          3
   180          3
   181          7
   182          3
   183          2
   184          1
   185         43
   186          8
   187          2
   188          1
   189          2
   190          1
   191          2
   192          2
   193          2
   194          7
   195          6
   196          2
   197          2
   198          1
   199         38
   200          6
   201          2
   202          1
   203          2
   204          2
   205         14
   206          3
   207          2
   208          3
   209          2
   210          2
   211          2
   212          1
   213          7
   214          4
   215          2
   216          1
   217          1
   218          3
   219          4
   220          2
   221          1
   222          2
   223         13
   224          3
   225          1
   226          1
   227         13
   228          9
   229         11
   230          2
   233          1
   234          2
   235          4
   236          9
   237          9
   238          2
   239          2
   240          2
   241         83
   242         15
   243          2
   244          1
   250          1
   251          2
   252          2
   253         27
   254          6
   255         32
   256          8
   257          3
   258          1
   259          1
   260          1
   267          1
   268          2
   269          3
   270          2
   271          1
   284        156
   285         29
   286          4
   287          1