##TITLE=Library Entry 24113
##JCAMP-DX=Revision 4.10 
##DATA TYPE=MASS SPECTRUM
##SAMPLE DESCRIPTION=R.T.HOLMAN,UNIVERSITY OF MINNESOTA
##NAMES=HP
##CAS NAME=1-Hexadecanol, 2-methyl-
##MOLFORM=C17H36O
##CAS REGISTRY NO=2490-48-4
##MP= -300
##BP= -300
##MW= 256
##$RETENTION INDEX=0
##$CONDENSED SPECTRUM=NO
##NPOINTS= 216
##XYDATA=(XY..XY) 1 
    25          4
    26         17
    27        123
    28         99
    29        316
    30         17
    31        131
    32         11
    36          7
    37          3
    38          4
    39         74
    40         19
    41        633
    42        168
    43        888
    44         94
    45        152
    46          5
    47          2
    48          2
    50          4
    51          6
    52          4
    53         37
    54         74
    55        670
    56        572
    57        999
    58        119
    59         57
    60         19
    61          6
    62          2
    63          3
    64          3
    65          9
    66         11
    67         94
    68        119
    69        580
    70        341
    71        514
    72         45
    73         49
    74          7
    75          6
    76          3
    77         10
    78          5
    79         19
    80          9
    81         74
    82        185
    83        460
    84        218
    85        300
    86         22
    87         32
    88         12
    89         27
    90          3
    91         11
    92          4
    93         10
    94          9
    95         42
    96         90
    97        386
    98        131
    99         61
   100          6
   101         11
   102          4
   103         12
   104          4
   105          9
   106          4
   107          9
   108          5
   109         20
   110         41
   111        213
   112         86
   113         33
   114          9
   115         25
   116          5
   117         11
   118          2
   119          5
   120          3
   121          6
   122          4
   123         13
   124         23
   125         94
   126         53
   127         20
   128          4
   129          8
   130          2
   131          5
   132          3
   133         13
   134          2
   135          6
   136          4
   137          7
   138         17
   139         37
   140         34
   141         14
   142          3
   143          3
   144          2
   145          3
   146          2
   147          6
   148          2
   149          8
   150          2
   151          4
   152         11
   153         20
   154         27
   155         10
   156          2
   157          3
   158          4
   159         13
   160          3
   161          4
   162          2
   163          3
   164          2
   165          4
   166          6
   167         12
   168         19
   169          7
   170          1
   171          2
   172          1
   173          1
   174          1
   175          4
   176          2
   177          5
   178          2
   179          2
   180          6
   181          9
   182         19
   183          5
   184          1
   185          4
   186          2
   187          1
   188          1
   189          2
   190          1
   191          2
   192          2
   193          3
   194          4
   195          6
   196         25
   197          5
   198          1
   199          1
   200          1
   201          1
   202          2
   203          4
   204          2
   205          3
   206          2
   207          3
   208          3
   209          5
   210         29
   211          5
   212          1
   213          2
   214          1
   215          1
   216          1
   217          2
   218          1
   219          2
   220          1
   221          2
   222          2
   223          3
   224          7
   225          3
   226          1
   227          1
   228          2
   229          2
   230          1
   231          2
   232          1
   233          1
   234          1
   235          1
   236          2
   237          2
   238         39
   239          9
   240          2
   241          1
   254          1
   255          2
   256          3