##TITLE=Library Entry 57962
##JCAMP-DX=Revision 4.10 
##DATA TYPE=MASS SPECTRUM
##SAMPLE DESCRIPTION=R.SELF FOOD RESEARCH INSTITUTE, NORWICH, U.K.
##NAMES=HP
##CAS NAME=Hexadecanoic acid, 2-methyl-, methyl ester
##MOLFORM=C18H36O2
##CAS REGISTRY NO=2490-53-1
##MP= -300
##BP= -300
##MW= 284
##$RETENTION INDEX=1944
##$CONDENSED SPECTRUM=NO
##NPOINTS= 108
##XYDATA=(XY..XY) 1 
    28         31
    29        128
    30          3
    31          6
    32          8
    33          2
    38          1
    39         32
    40         11
    41        266
    42         61
    43        311
    44         10
    45         11
    50          1
    51          2
    53         13
    54         17
    55        219
    56         54
    57        148
    58          7
    59         50
    60          2
    61          3
    65          3
    67         20
    68         10
    69        115
    70         24
    71         55
    72          5
    73         21
    74          9
    75          1
    77          2
    79          5
    81         11
    82          6
    83         59
    84         11
    85         25
    86          2
    87         39
    88        999
    89         53
    90          6
    91          1
    93          2
    95          8
    96          3
    97         34
    98         19
    99          8
   100          1
   101        384
   102         25
   103          3
   107          2
   109          4
   110          2
   111         13
   112          8
   113          5
   115         26
   116          3
   121          2
   123          2
   125          5
   126          2
   127          3
   129         12
   130          5
   135          2
   139          2
   141          3
   143         69
   144          9
   153          2
   155          2
   157         65
   158          8
   167          1
   169          1
   171         21
   172          4
   185         21
   186          4
   199         21
   200          4
   213         20
   214          4
   225          9
   226          1
   227         52
   228          9
   241         33
   242          6
   251          1
   252          1
   253         14
   254          3
   255          5
   269          2
   283          1
   284        121
   285         23
   286          3