##TITLE=Library Entry 9320
##JCAMP-DX=Revision 4.10 
##DATA TYPE=MASS SPECTRUM
##SAMPLE DESCRIPTION=Institute of Organic Chemistry, Novosibirsk, USSR 1988
##NAMES=HP
##CAS NAME=Methyl 2,4-di-O-acetyl-3,6-di-O-methyl-.alpha.-D-glucopyranoside
##MOLFORM=C13H22O8
##CAS REGISTRY NO=24905-05-3
##MP= -300
##BP= -300
##MW= 306
##$RETENTION INDEX=0
##$CONDENSED SPECTRUM=NO
##NPOINTS= 76
##XYDATA=(XY..XY) 1 
    41         48
    42         25
    43        999
    44         29
    45        399
    55         29
    56         45
    57         22
    58         54
    59         62
    60         10
    61         15
    68         15
    69         34
    70         15
    71        106
    73         54
    74        939
    75        999
    76         36
    81         30
    82         19
    83         20
    84         50
    85        124
    87        210
    88         26
    89         62
    95         19
    97         22
    98         46
    99        119
   100         54
   101        129
   103        179
   109         30
   111         38
   112         39
   113         77
   114         15
   115        129
   116        379
   117         97
   127        129
   128         18
   129         55
   130         13
   131         15
   139          3
   140          7
   141        159
   142         23
   143         24
   145         48
   149         20
   155         13
   157          5
   159         28
   169         34
   170          3
   171          1
   172         14
   173          6
   177          2
   183         15
   186          2
   187         63
   201         16
   203          2
   219          2
   229          3
   232         22
   243         18
   261         75
   262         14
   275          9