##TITLE=Library Entry 9322
##JCAMP-DX=Revision 4.10 
##DATA TYPE=MASS SPECTRUM
##SAMPLE DESCRIPTION=Institute of Organic Chemistry, Novosibirsk, USSR 1988
##NAMES=HP
##CAS NAME=Methyl 2,4-di-O-acetyl-3,6-di-O-methyl-.beta.-D-glucopyranoside
##MOLFORM=C13H22O8
##CAS REGISTRY NO=24905-08-6
##MP= -300
##BP= -300
##MW= 306
##$RETENTION INDEX=0
##$CONDENSED SPECTRUM=NO
##NPOINTS= 72
##XYDATA=(XY..XY) 1 
    41         42
    42         27
    43        999
    44         35
    45        239
    53         18
    55         59
    56          9
    57         23
    58         65
    59         69
    60         11
    61         16
    68         18
    69         38
    70         16
    71         97
    72         58
    74        969
    75        999
    76         37
    81         30
    83         26
    84         56
    85        119
    87        209
    88         23
    89         61
    95          5
    97         14
    98         39
    99         52
   100         86
   103        142
   111         35
   112         38
   113         74
   114         16
   115        139
   116        299
   117         96
   127        109
   128         11
   129         57
   130         10
   131          9
   140          6
   141         82
   142         15
   143         19
   145         39
   149         11
   155         10
   157          6
   159         16
   169         29
   170          2
   171          2
   172          7
   173          5
   186          1
   187         46
   188          5
   201         15
   203          2
   219          1
   229          4
   232          9
   233          3
   243          3
   261         52
   275          3