##TITLE=Library Entry 44745
##JCAMP-DX=Revision 4.10 
##DATA TYPE=MASS SPECTRUM
##SAMPLE DESCRIPTION=W. KELLY UNILEVER RESEARCH COLWORTH/WELWYN, BEDFORD U.K
.
##NAMES=HP
##CAS NAME=Heptadecanoic acid, 10-methyl-, methyl ester
##MOLFORM=C19H38O2
##CAS REGISTRY NO=2490-25-7
##MP= -300
##BP= -300
##MW= 298
##$RETENTION INDEX=0
##$CONDENSED SPECTRUM=NO
##NPOINTS= 169
##XYDATA=(XY..XY) 1 
    39         36
    40        155
    41        344
    42         77
    43        546
    44        154
    45         14
    46          2
    50          2
    51          3
    53         17
    54         24
    55        409
    56        106
    57        424
    58         22
    59         79
    60          4
    61          3
    65          3
    66          3
    67         54
    68         26
    69        276
    70         52
    71        234
    72         11
    73         28
    74        999
    75        214
    76         12
    77          9
    78          3
    79         16
    80          5
    81         64
    82         27
    83        217
    84         64
    85        130
    86          8
    87        659
    88         52
    89          5
    91          4
    92          2
    93         22
    94          5
    95         53
    96         92
    97        166
    98         55
    99         17
   100          6
   101         34
   102          9
   103          3
   105          5
   107         13
   108          6
   109         38
   110         14
   111         59
   112         15
   113         11
   114          3
   115         36
   116         17
   117          2
   119          4
   120          1
   121         19
   122          4
   123         24
   124         16
   125         65
   126         14
   127          7
   128          2
   129        109
   130         34
   131          6
   132          6
   133          5
   134          1
   135         11
   136          2
   137         12
   138          6
   139         23
   140         14
   141          9
   142          2
   143        230
   144         29
   145          2
   147          2
   148          2
   149         96
   150         13
   151          6
   152          2
   153          9
   154          3
   155          3
   157         34
   158          9
   159          2
   163         98
   164          2
   165          5
   166         51
   167         89
   168         17
   169          4
   171         30
   172         37
   173         21
   174          2
   177          2
   179          3
   180          3
   181         11
   182          2
   185         17
   186          3
   191          2
   192          1
   193          1
   195          3
   196          1
   197          1
   198          1
   199         91
   200         16
   201          3
   207          1
   208          2
   209          2
   213         11
   214          1
   223          1
   224          1
   225          1
   227          2
   233          3
   237          2
   241          9
   242          2
   248          1
   249          9
   250          5
   251          4
   255         84
   256         15
   257          2
   265          1
   266          1
   267         24
   268          4
   269         12
   270          2
   283          4
   284          1
   296          1
   297          1
   298        167
   299         37
   300          4