##TITLE=Library Entry 10776
##JCAMP-DX=Revision 4.10 
##DATA TYPE=MASS SPECTRUM
##SAMPLE DESCRIPTION=Institute of Organic Chemistry, Novosibirsk, USSR 1988
##NAMES=HP
##CAS NAME=1,5,6-Tri-O-acetyl-2,3,4-tri-O-methyl-D-glucitol
##MOLFORM=C15H26O9
##CAS REGISTRY NO=24905-18-8
##MP= -300
##BP= -300
##MW= 350
##$RETENTION INDEX=0
##$CONDENSED SPECTRUM=NO
##NPOINTS= 44
##XYDATA=(XY..XY) 1 
    43        999
    44         49
    45        119
    55         66
    56         33
    57         91
    58         66
    59         99
    67         24
    68         16
    69         74
    70        329
    71        132
    72         16
    73         82
    74         41
    75         66
    81         33
    82         16
    83        229
    85        149
    87        419
    88         99
    89         49
    95         33
    97         49
    99        549
   100         49
   101        999
   102         49
   103         41
   109         33
   111         33
   113        119
   117        799
   129        599
   142         24
   143         33
   155         16
   159         74
   161        319
   173        119
   189        219
   233         99