##TITLE=Library Entry 53670
##JCAMP-DX=Revision 4.10 
##DATA TYPE=MASS SPECTRUM
##SAMPLE DESCRIPTION=Japan AIST/NIMC Database- Spectrum MS-NW-2700
##NAMES=HP
##CAS NAME=N2-Acetyl-L-glutamine
##MOLFORM=C7H12N2O4
##CAS REGISTRY NO=2490-97-3
##MP= -300
##BP= -300
##MW= 188
##$RETENTION INDEX=0
##$CONDENSED SPECTRUM=NO
##NPOINTS= 133
##XYDATA=(XY..XY) 1 
    13          2
    14         15
    15         85
    16         12
    17         43
    18        108
    25          2
    26         19
    27         61
    28        187
    29         29
    30         49
    31          5
    32          9
    35          1
    36          8
    37          4
    38          7
    39         43
    40         20
    41        163
    42         83
    43        717
    44        287
    45         32
    46          9
    50          3
    51          5
    52         13
    53         11
    54         44
    55         63
    56        279
    57        171
    58         11
    59        222
    60        101
    61          4
    62          1
    63          2
    65          2
    66          9
    67          9
    68         27
    69         10
    70         13
    71         21
    72        218
    73        149
    74         58
    75         11
    76          1
    77          3
    78          2
    79          2
    80          6
    81          9
    82         41
    83        158
    84        999
    85         94
    86        262
    87         25
    88         54
    89          3
    91          2
    92          1
    93          3
    94          2
    95          5
    96          4
    97          6
    98         21
    99        102
   100         49
   101        249
   102         24
   103          2
   105          3
   106          3
   107         10
   108          3
   109          4
   110          9
   111         55
   112         36
   113          5
   114         11
   115          6
   116          2
   117         28
   118          2
   119          1
   120          2
   122          1
   123          2
   124          2
   125         27
   126         62
   127         76
   128        166
   129         30
   130         49
   131          3
   132          2
   133          1
   134          5
   135          1
   137          1
   138          1
   139          2
   140          1
   141         13
   142         16
   143        167
   144         70
   145         54
   146          9
   147          2
   148          1
   149          3
   150          1
   152          6
   153         52
   154          5
   155          3
   156          2
   169          1
   170         36
   171         40
   172          5
   173          1
   188          1