##TITLE=Library Entry 57398
##JCAMP-DX=Revision 4.10 
##DATA TYPE=MASS SPECTRUM
##SAMPLE DESCRIPTION=ORMSBG,10(5)376(1975); V. KOVACIK
##NAMES=HP
##CAS NAME=Methyl(methyl 4-O-methyl-.alpha.-d-mannopyranoside)uronate
##MOLFORM=C9H16O7
##CAS REGISTRY NO=24916-47-0
##MP= -300
##BP= -300
##MW= 236
##$RETENTION INDEX=0
##$CONDENSED SPECTRUM=NO
##NPOINTS= 38
##XYDATA=(XY..XY) 1 
    45        339
    47         24
    55        100
    57         76
    59        252
    60        257
    61        102
    69         31
    71        102
    73        110
    74        622
    75        236
    76         18
    85        764
    86         42
    87        999
    88         76
    89         45
    90         63
    99         47
   101         34
   103         34
   104         26
   113         18
   115         52
   116         26
   117        249
   118         15
   127         35
   130          5
   145         24
   147          6
   155         11
   159         10
   173          3
   177         20
   187         36
   205          7