##TITLE=Library Entry 20665
##JCAMP-DX=Revision 4.10 
##DATA TYPE=MASS SPECTRUM
##SAMPLE DESCRIPTION=NIST Mass Spectrometry Data Center, 1990.
##NAMES=HP
##CAS NAME=2-Pentene, 3,4-dimethyl-
##MOLFORM=C7H14
##CAS REGISTRY NO=24910-63-2
##MP= -300
##BP= -300
##MW= 98
##$RETENTION INDEX=672
##$CONDENSED SPECTRUM=NO
##NPOINTS= 47
##XYDATA=(XY..XY) 1 
    14          8
    15         41
    16          3
    26         30
    27        259
    28         47
    29        123
    30          2
    32          0
    37          7
    38         32
    39        285
    40         60
    41        478
    42         45
    43        147
    44          5
    49          4
    50         32
    51         55
    52         24
    53         92
    54          4
    55        999
    56         87
    57          9
    61          1
    62          6
    63         11
    65         28
    66         13
    67         82
    68         14
    69         88
    70         34
    71          1
    74          2
    77         14
    78          3
    79         14
    80          3
    81         18
    82          1
    83        630
    84         40
    98        207
    99         15