##TITLE=Library Entry 88539
##JCAMP-DX=Revision 4.10 
##DATA TYPE=MASS SPECTRUM
##SAMPLE DESCRIPTION=Chemical Concepts
##NAMES=HP
##CAS NAME=4-Chloro-2-(4-chlorophenylazo)phenol
##MOLFORM=C12H8Cl2N2O
##CAS REGISTRY NO=2491-55-6
##MP= -300
##BP= -300
##MW= 266
##$RETENTION INDEX=0
##$CONDENSED SPECTRUM=NO
##NPOINTS= 142
##XYDATA=(XY..XY) 1 
    25          3
    26         15
    27         37
    28         13
    29         45
    30          5
    31         14
    35          3
    36         14
    37         26
    38         60
    39         78
    40          9
    41         65
    42         12
    43         69
    44          6
    45         28
    46          3
    47          6
    48          3
    49         20
    50        105
    51         97
    52         27
    53         49
    54         10
    55         52
    56         19
    57         58
    58          3
    59          5
    60         14
    61         33
    62         57
    63        207
    64         66
    65         25
    66          7
    67         18
    68         11
    69         51
    70         16
    71         29
    72         11
    73        152
    74         49
    75        278
    76        151
    77         40
    78         32
    79         18
    80          7
    81         28
    82         12
    83         25
    84         13
    85         50
    86         16
    87         27
    88         14
    89         18
    90         50
    91         37
    92         35
    93         13
    94          5
    95         21
    96         10
    97         26
    98         29
    99        433
   100         35
   101        127
   102         11
   103          4
   104         14
   105         10
   106          3
   107          7
   108          4
   109         13
   110          8
   111        999
   112        106
   113        387
   114         38
   115          9
   116          3
   117          4
   118          2
   119          6
   120          3
   121          9
   122          5
   123          9
   124          7
   125         12
   126         36
   127        575
   128         63
   129        177
   130         17
   131          6
   132          3
   133          9
   134          7
   135          6
   136          5
   137          9
   138          8
   139        459
   140         47
   141        133
   142         15
   143          6
   144          3
   145          5
   146          2
   147          4
   148          3
   155        288
   156         22
   157         95
   158          7
   167          9
   168         42
   169          7
   174          4
   202         11
   203         24
   204          7
   205         13
   238         12
   239          3
   240          8
   266        390
   267         57
   268        256
   269         38
   270         45
   271          4