##TITLE=Library Entry 30979
##JCAMP-DX=Revision 4.10 
##DATA TYPE=MASS SPECTRUM
##SAMPLE DESCRIPTION=G.D. Roberts, E. White V, SmithKline Corp., Phila., PA,
 USA
##NAMES=HP
##CAS NAME=Octanoic acid, silver(1+) salt
##MOLFORM=C8H15AgO2
##CAS REGISTRY NO=24927-67-1
##MP= -300
##BP= -300
##MW= 250
##$RETENTION INDEX=0
##$CONDENSED SPECTRUM=NO
##NPOINTS= 64
##XYDATA=(XY..XY) 1 
    27         54
    28         25
    29         83
    39        111
    40         22
    41        352
    42        141
    43        415
    44         72
    45        102
    53         36
    54         26
    55        430
    56        135
    57        592
    58         32
    59         46
    60        999
    61        130
    67         72
    68         23
    69        164
    70         44
    71         24
    73        702
    74         66
    79         12
    80         12
    81         17
    82         53
    83         94
    84        179
    85        194
    86         18
    87        123
    88         10
    97         40
    98         34
    99         19
   101        190
   102         17
   107         15
   109         48
   115         80
   125         13
   127        656
   128         67
   129         13
   214          7
   215          8
   216         14
   217         13
   218          6
   219          6
   249          5
   251          5
   273          1
   275          1
   356          1
   357         17
   358          3
   359         33
   360          3
   361         14