##TITLE=Library Entry 23721
##JCAMP-DX=Revision 4.10 
##DATA TYPE=MASS SPECTRUM
##SAMPLE DESCRIPTION=Chemical Concepts
##NAMES=HP
##CAS NAME=Hexanoic acid, 1,1-dimethylethyl ester
##MOLFORM=C10H20O2
##CAS REGISTRY NO=2492-18-4
##MP= -300
##BP= -300
##MW= 172
##$RETENTION INDEX=1058
##$CONDENSED SPECTRUM=NO
##NPOINTS= 68
##XYDATA=(XY..XY) 1 
    25          0
    26          8
    27        110
    28         40
    29        186
    30          4
    31         13
    36          0
    37          3
    38          4
    39         93
    40         20
    41        376
    42         97
    43        269
    44         10
    45          8
    49          0
    50          3
    51          4
    52          1
    53         12
    54          4
    55         57
    56        200
    57        999
    58         44
    59         24
    60         54
    61          9
    63          1
    65          1
    66          1
    67          0
    68          1
    69         11
    70         16
    71        135
    72          6
    73         19
    74          3
    75          4
    76          0
    77          0
    79          0
    80          1
    81          2
    82          0
    83          3
    87         10
    89          8
    91          0
    93          1
    97          3
    99        271
   100         19
   101          2
   105          1
   114          1
   115          2
   116         20
   117         94
   118          7
   119          1
   120          0
   132          0
   157          7
   158          1