##TITLE=Library Entry 20170
##JCAMP-DX=Revision 4.10 
##DATA TYPE=MASS SPECTRUM
##SAMPLE DESCRIPTION=CARL DJERASSI DEPT OF CHEM STANFORD UNIV STANFORD CALIF
 94305
##NAMES=HP
##CAS NAME=6-Tridecene, 7-methyl-
##MOLFORM=C14H28
##CAS REGISTRY NO=24949-42-6
##MP= -300
##BP= -300
##MW= 196
##$RETENTION INDEX=0
##$CONDENSED SPECTRUM=NO
##NPOINTS= 33
##XYDATA=(XY..XY) 1 
    39         80
    40         10
    41        505
    42         50
    43        292
    44        191
    53         50
    55        999
    56        848
    57        575
    58         10
    67         90
    68        131
    69        989
    70        282
    71        121
    79         10
    81         80
    82         30
    83        414
    84        131
    85         20
    91         40
    92         10
    95         20
    97        131
    98         90
   110         10
   111        232
   112         40
   126         90
   127         10
   196         90