##TITLE=Library Entry 50299
##JCAMP-DX=Revision 4.10 
##DATA TYPE=MASS SPECTRUM
##SAMPLE DESCRIPTION=A.CAMBON LAB. OF STRUCTURAL CHEM., UNIV. OF NICE, NICE,
 FRANCE
##NAMES=HP
##CAS NAME=Cyclohexane, 1,3-dichloro-, cis-
##MOLFORM=C6H10Cl2
##CAS REGISTRY NO=24955-63-3
##MP= -300
##BP= -300
##MW= 152
##$RETENTION INDEX=1058
##$CONDENSED SPECTRUM=NO
##NPOINTS= 22
##XYDATA=(XY..XY) 1 
    28         50
    39        130
    41        170
    42         10
    51         30
    53         70
    54         60
    55        130
    67        160
    75         80
    79        100
    80        670
    81        999
    82         60
    88         20
    90         20
   116         50
   117         60
   118         10
   119         10
   152         30
   154         10