##TITLE=Library Entry 59317
##JCAMP-DX=Revision 4.10 
##DATA TYPE=MASS SPECTRUM
##SAMPLE DESCRIPTION=Japan AIST/NIMC Database- Spectrum MS-IW-2831
##NAMES=HP
##CAS NAME=Benzyl acrylate
##MOLFORM=C10H10O2
##CAS REGISTRY NO=2495-35-4
##MP= -300
##BP= -300
##MW= 162
##$RETENTION INDEX=0
##$CONDENSED SPECTRUM=NO
##NPOINTS= 78
##XYDATA=(XY..XY) 1 
    25          2
    26         20
    27        149
    28         11
    29          3
    37          5
    38         14
    39         87
    40          7
    41         21
    42          1
    43          2
    44          3
    45          8
    49          3
    50         42
    51        113
    52         28
    53         13
    54          4
    55        921
    56        167
    57         25
    58          1
    61          5
    62         16
    63         56
    64         18
    65        180
    66          9
    73          2
    74          9
    75          8
    76          8
    77        194
    78         46
    79        336
    80         23
    81          1
    84          3
    85          1
    86          2
    87          2
    89        151
    90        533
    91        999
    92         85
    93          3
   103          4
   104          2
   105        142
   106         35
   107        403
   108        143
   109         10
   115         21
   116         82
   117        683
   118         74
   119          5
   120         27
   121          3
   128          1
   131          2
   132          1
   133          5
   134          6
   135          1
   143          1
   144        218
   145         26
   146          2
   147          6
   161         11
   162        690
   163         75
   164         19
   165          2