##TITLE=Library Entry 50337
##JCAMP-DX=Revision 4.10 
##DATA TYPE=MASS SPECTRUM
##SAMPLE DESCRIPTION=A.CAMBON LAB. OF STRUCTURAL CHEM., UNIV. OF NICE, NICE,
 FRANCE
##NAMES=HP
##CAS NAME=Cyclohexane, 1,3-dichloro-, trans-
##MOLFORM=C6H10Cl2
##CAS REGISTRY NO=24955-62-2
##MP= -300
##BP= -300
##MW= 152
##$RETENTION INDEX=1048
##$CONDENSED SPECTRUM=NO
##NPOINTS= 21
##XYDATA=(XY..XY) 1 
    28         20
    29         10
    39         90
    41        110
    51         10
    53         50
    54         50
    55         50
    62         20
    65         10
    67         50
    75         40
    79         80
    80        220
    81        999
    82         60
    88         30
    90         10
   116        180
   117         10
   118         50