##TITLE=Library Entry 703
##JCAMP-DX=Revision 4.10 
##DATA TYPE=MASS SPECTRUM
##SAMPLE DESCRIPTION=J. SHAW, BORRISTON RESEARCH, ROCKVILLE, MD, USA
##NAMES=HP
##CAS NAME=Demeton S-sulfoxide
##MOLFORM=C8H19O4PS2
##CAS REGISTRY NO=2496-92-6
##MP= -300
##BP= -300
##MW= 274
##$RETENTION INDEX=2020
##$CONDENSED SPECTRUM=NO
##NPOINTS= 136
##XYDATA=(XY..XY) 1 
    12          6
    13          4
    14         20
    15         92
    16          9
    17         20
    18         69
    19         23
    24          2
    25         10
    26        137
    27        725
    28        285
    29        999
    31         84
    32         16
    33         12
    34         21
    35         74
    36          1
    37          3
    39          7
    41         27
    42         12
    43         85
    45        653
    46         74
    47        202
    48         42
    49         28
    50         32
    51          7
    52          1
    53          5
    54          6
    55         14
    56          2
    57         12
    58         80
    59        313
    60        307
    61        408
    62         34
    63         90
    64         50
    65        160
    66          7
    67          1
    69          1
    71          3
    72          2
    73         11
    75         93
    76         54
    77        162
    78         48
    79         22
    81        626
    82         31
    83         18
    85          8
    86         13
    87         62
    88        167
    89         65
    91        239
    92         21
    93         79
    94          5
    95          7
    96         27
    97        147
    98         14
    99         46
   103          4
   105        189
   106         11
   107         17
   109        834
   110         32
   111         21
   113         44
   114         79
   115        105
   116          5
   117          6
   118          4
   119          3
   120          3
   121         15
   122          2
   123         20
   124          6
   125         31
   126         40
   127         17
   128          4
   129          1
   130          1
   133          1
   135          1
   137        266
   138         21
   139         18
   141        701
   142         58
   143         87
   144          4
   145          4
   146          1
   153         14
   154          1
   155          6
   157          2
   162          1
   167          6
   169        182
   170         52
   171         45
   172          4
   173          6
   183          1
   195          3
   197        491
   198         34
   199         25
   200          2
   201          3
   217          1
   229          3
   245          4
   246          3
   257          2
   275         30
   276          2
   277          2