##TITLE=Library Entry 82544
##JCAMP-DX=Revision 4.10 
##DATA TYPE=MASS SPECTRUM
##SAMPLE DESCRIPTION=ORMSBG,10(10)913(1975); D. F. GLENN
##NAMES=HP
##CAS NAME=Methanone, cyclopropyl-3-pyridinyl-
##MOLFORM=C9H9NO
##CAS REGISTRY NO=24966-13-0
##MP= -300
##BP= -300
##MW= 147
##$RETENTION INDEX=0
##$CONDENSED SPECTRUM=NO
##NPOINTS= 49
##XYDATA=(XY..XY) 1 
    37         25
    38         61
    39        288
    40         37
    41        306
    42         21
    43         16
    49         22
    50        180
    51        455
    52         82
    53         40
    55         13
    61         10
    62         22
    63         43
    64         18
    65         28
    66          6
    68          9
    69        306
    70         15
    74         12
    75         20
    76         24
    77         30
    78        685
    79         89
    80          7
    89         14
    90         16
    91         36
    92         16
    93         14
   104          8
   105          9
   106        999
   107         70
   116          5
   117         36
   118         67
   119         17
   120         14
   130          9
   132          9
   145          5
   146        153
   147        414
   148         45