##TITLE=Library Entry 6993
##JCAMP-DX=Revision 4.10 
##DATA TYPE=MASS SPECTRUM
##SAMPLE DESCRIPTION=NIST Mass Spectrometry Data Center
##NAMES=HP
##CAS NAME=(E)-2-Decenyl acetate
##MOLFORM=C12H22O2
##CAS REGISTRY NO=2497-23-6
##MP= -300
##BP= -300
##MW= 198
##$RETENTION INDEX=1406
##$CONDENSED SPECTRUM=NO
##NPOINTS= 100
##XYDATA=(XY..XY) 1 
    14          1
    15          8
    26          3
    27         56
    28         15
    29         84
    30          2
    31          3
    37          1
    38          2
    39         88
    40         16
    41        242
    42         59
    43        999
    44         31
    45          6
    50          2
    51          9
    52          7
    53         61
    54        334
    55        286
    56         79
    57        134
    58         29
    59          8
    60          1
    61         23
    62          1
    63          2
    65         21
    66         36
    67        281
    68        213
    69        130
    70         54
    71        101
    72         47
    73         20
    74          1
    77         14
    78          3
    79         45
    80         21
    81        272
    82        252
    83        121
    84         33
    85         29
    86         30
    87          7
    88          1
    91          6
    92          1
    93          8
    94          8
    95        194
    96        263
    97         63
    98         13
    99         54
   100         77
   101         16
   102          1
   105          1
   107          2
   108          3
   109        110
   110        213
   111         23
   112          8
   113         57
   114         72
   115         21
   116          2
   121          1
   123         12
   124          3
   125          2
   126          1
   127         47
   128         14
   129          1
   136          1
   137          7
   138         81
   139         10
   140          2
   141         17
   142          4
   143          1
   154          1
   155         25
   156         93
   157         10
   158          1
   169          5
   170          1
   183          1