##TITLE=Library Entry 680
##JCAMP-DX=Revision 4.10 
##DATA TYPE=MASS SPECTRUM
##SAMPLE DESCRIPTION=J. SHAW, BORRISTON RESEARCH, ROCKVILLE, MD, USA
##NAMES=HP
##CAS NAME=Oxydisulfoton
##MOLFORM=C8H19O3PS3
##CAS REGISTRY NO=2497-07-6
##MP= -300
##BP= -300
##MW= 290
##$RETENTION INDEX=0
##$CONDENSED SPECTRUM=NO
##NPOINTS= 151
##XYDATA=(XY..XY) 1 
    12          3
    13          3
    14         13
    15         63
    16         12
    17         46
    18        164
    19         11
    25          7
    26         92
    27        685
    28        168
    29        999
    30         30
    31         19
    32         16
    33          9
    34         14
    35         50
    36          1
    37          2
    39          6
    40          1
    41         22
    42          8
    43         56
    44         13
    45        198
    46         38
    47        161
    48         32
    49         18
    50         21
    51          5
    52          1
    53          2
    54          2
    55         13
    56          2
    57         12
    58         41
    59        177
    60        189
    61        373
    62         26
    63        100
    64         60
    65        308
    66          9
    67          3
    69          3
    70          1
    71          2
    72          1
    73          7
    74          2
    75         57
    76         20
    77         92
    78         37
    79         21
    80         32
    81         65
    82          5
    83          5
    84          1
    85          3
    86          4
    87         13
    88        138
    89         85
    90         12
    91         38
    92         21
    93        117
    94         10
    95         29
    97        701
    98          8
    99         34
   105         52
   106          3
   107          8
   108          4
   109         77
   110          4
   111          7
   112         33
   113         17
   114         16
   115         16
   116          1
   117          1
   119          1
   120          2
   121         46
   122          5
   123         14
   125        509
   126         20
   127         27
   129        160
   130          8
   131         19
   133          1
   135          2
   137         16
   138          2
   139         17
   140          6
   141         10
   142         21
   143          8
   144          2
   146          1
   149          2
   151          2
   153        319
   154         17
   155         18
   157        154
   158         14
   159         17
   160          2
   161          3
   167          2
   168          2
   169          1
   170          2
   171          4
   183          2
   185        189
   186         21
   187         20
   188          2
   189          4
   197          1
   202          2
   205          1
   211          1
   213        225
   214         18
   215         20
   216          1
   217          1
   233          1
   245          1
   261          3
   274          2
   290          1
   291          4