##TITLE=Library Entry 85963
##JCAMP-DX=Revision 4.10 
##DATA TYPE=MASS SPECTRUM
##SAMPLE DESCRIPTION=Div. of Experiment Therapeutics WRAIR, WRAMC, Washingto
n DC 20307
##NAMES=HP
##CAS NAME=2-Fluorobenzylsulfonyl chloride
##MOLFORM=C7H6ClFO2S
##CAS REGISTRY NO=24974-71-8
##MP= -300
##BP= -300
##MW= 208
##$RETENTION INDEX=0
##$CONDENSED SPECTRUM=NO
##NPOINTS= 75
##XYDATA=(XY..XY) 1 
    41          5
    43         10
    44          7
    45         13
    46          4
    48         77
    49         13
    50         41
    51         39
    52          8
    53          0
    54         21
    55          6
    57         99
    59         30
    61         14
    62         35
    63         75
    64         65
    65          8
    66          2
    67          3
    68          5
    69         12
    70         12
    71          3
    73          0
    74          7
    75          9
    76          4
    77          2
    78          2
    81         36
    83        191
    84          8
    85          4
    86          6
    87          5
    89         31
    90          5
    91          1
    93          1
    94          2
    95          4
    96          2
    97          0
    99         19
   101          7
   103          0
   105          3
   107         62
   109        999
   110         96
   114          0
   117          0
   119          1
   123          2
   125          1
   127          0
   138          0
   139          2
   140          0
   141          0
   143          1
   144          0
   145          1
   149          0
   159         10
   190          5
   207          3
   208        130
   209         10
   210         37
   211          2
   212          0