##TITLE=Library Entry 8393
##JCAMP-DX=Revision 4.10 
##DATA TYPE=MASS SPECTRUM
##SAMPLE DESCRIPTION=Japan AIST/NIMC Database- Spectrum MS-NW-1095
##NAMES=HP
##CAS NAME=2-Hexen-1-ol, acetate, (E)-
##MOLFORM=C8H14O2
##CAS REGISTRY NO=2497-18-9
##MP= -300
##BP= -300
##MW= 142
##$RETENTION INDEX=1016
##$CONDENSED SPECTRUM=NO
##NPOINTS= 65
##XYDATA=(XY..XY) 1 
    14          5
    15         45
    16          1
    17          2
    18         10
    26          9
    27        110
    28         17
    29         71
    30          2
    31         14
    32          4
    37          2
    38          7
    39        114
    40         18
    41        229
    42         39
    43        999
    44         47
    45          9
    49          1
    50          7
    51         11
    52          7
    53         45
    54         78
    55        142
    56         78
    57        199
    58         24
    59          5
    60          5
    61         28
    62          1
    63          2
    65          9
    66          5
    67        296
    68         18
    69         15
    70          5
    71         64
    72         26
    73          7
    77          2
    79          7
    80          2
    81         35
    82        241
    83         43
    84          9
    85          8
    86          4
    87          5
    97          2
    98          5
    99         38
   100        116
   101          9
   113         10
   114          3
   127          1
   142         14
   143          1