##TITLE=Library Entry 72446
##JCAMP-DX=Revision 4.10 
##DATA TYPE=MASS SPECTRUM
##SAMPLE DESCRIPTION=Exported from NIST MS Search
##NAMES=HP
##CAS NAME=2-Octen-4-one, 2-methoxy-
##MOLFORM=C9H16O2
##CAS REGISTRY NO=24985-48-6
##MP= -300
##BP= -300
##MW= 156
##$RETENTION INDEX=0
##$CONDENSED SPECTRUM=NO
##NPOINTS= 27
##XYDATA=(XY..XY) 1 
    39         50
    40         20
    41         60
    42         10
    43         80
    53         20
    55         20
    56         20
    57         20
    59        100
    67         10
    68         10
    69         10
    71         10
    72         20
    85         20
    97         10
    99        999
   100         50
   101         10
   113         10
   114        190
   115         10
   127         20
   141         20
   155         10
   156         10