##TITLE=Library Entry 71157
##JCAMP-DX=Revision 4.10 
##DATA TYPE=MASS SPECTRUM
##SAMPLE DESCRIPTION=Exported from NIST MS Search
##NAMES=HP
##CAS NAME=2-Octen-4-one, 2-(methylamino)-
##MOLFORM=C9H17NO
##CAS REGISTRY NO=24985-57-7
##MP= -300
##BP= -300
##MW= 155
##$RETENTION INDEX=0
##$CONDENSED SPECTRUM=NO
##NPOINTS= 64
##XYDATA=(XY..XY) 1 
    31         10
    32         10
    38         20
    39         80
    40         30
    41        120
    42         80
    43         50
    44         50
    51         10
    52         10
    53         20
    54         40
    55        100
    56        260
    57         40
    58         60
    65         10
    67         20
    68         20
    69         20
    70         20
    71        280
    72         20
    73         10
    77         10
    78         10
    79         10
    80         10
    81         10
    82         30
    83         20
    84         30
    85         10
    94         10
    95         10
    96         70
    97         20
    98        999
    99         80
   100         10
   106         10
   107         10
   108         20
   109         10
   110         20
   111         10
   112         10
   113        220
   114         20
   122         20
   124         10
   125         10
   126         40
   127         10
   136         10
   138         10
   140         10
   147         10
   151         10
   153         10
   154         10
   155        200
   156         20