##TITLE=Library Entry 18860
##JCAMP-DX=Revision 4.10 
##DATA TYPE=MASS SPECTRUM
##SAMPLE DESCRIPTION=NIST Mass Spectrometry Data Center, 1994
##NAMES=HP
##CAS NAME=n-Heptyl acrylate
##MOLFORM=C10H18O2
##CAS REGISTRY NO=2499-58-3
##MP= -300
##BP= -300
##MW= 170
##$RETENTION INDEX=1173
##$CONDENSED SPECTRUM=NO
##NPOINTS= 61
##XYDATA=(XY..XY) 1 
    14          0
    15          9
    26         48
    27        368
    28         65
    29        197
    30          7
    31         16
    37          1
    39        106
    41        324
    42        146
    43        152
    44         13
    45          5
    50          2
    51          5
    52          3
    53         31
    54          1
    55        999
    56        368
    57        126
    58          7
    65          3
    66          1
    67         19
    68         49
    69        184
    70        343
    71         23
    72          1
    73        324
    74         17
    75          2
    77          1
    79          2
    81         11
    82          9
    83         45
    84          9
    85         28
    86          4
    87          2
    93          1
    95          6
    96          6
    97         30
    98        149
    99         14
   100          6
   108          2
   109          3
   110         10
   111          7
   113         17
   114          3
   123          3
   127          6
   128          2
   141          2