##TITLE=Library Entry 19882
##JCAMP-DX=Revision 4.10 
##DATA TYPE=MASS SPECTRUM
##SAMPLE DESCRIPTION=Exported from NIST MS Search
##NAMES=HP
##CAS NAME=2-Propenoic acid, octyl ester
##MOLFORM=C11H20O2
##CAS REGISTRY NO=2499-59-4
##MP= -300
##BP= -300
##MW= 184
##$RETENTION INDEX=1295
##$CONDENSED SPECTRUM=NO
##NPOINTS= 51
##XYDATA=(XY..XY) 1 
    15          7
    17         23
    18         91
    26         20
    27        260
    28         79
    29        199
    30          7
    31         67
    32          9
    39         80
    40         19
    41        356
    42        242
    43        351
    44         33
    51          5
    53         24
    54         39
    55        999
    56        461
    57        205
    58         15
    62          5
    67         27
    68         74
    69        290
    70        401
    71         66
    72         12
    73        260
    74         13
    81         13
    82         46
    83        219
    84        250
    85         47
    86          5
    95          5
    96          5
    97         24
    98          9
    99         18
   100         20
   101         23
   102          5
   110          8
   111         14
   112         73
   113         20
   127          6