##TITLE=Library Entry 63976
##JCAMP-DX=Revision 4.10 
##DATA TYPE=MASS SPECTRUM
##SAMPLE DESCRIPTION=Japan AIST/NIMC Database- Spectrum MS-IW-7733
##NAMES=HP
##CAS NAME=d-Glycero-2-(N,N-dibenzylamino)butanol
##MOLFORM=C18H23NO
##CAS REGISTRY NO=249922-61-0
##MP= -300
##BP= -300
##MW= 269
##$RETENTION INDEX=0
##$CONDENSED SPECTRUM=NO
##NPOINTS= 107
##XYDATA=(XY..XY) 1 
    17          3
    18          2
    27          2
    28          4
    29          3
    30          1
    31          4
    39          9
    40          1
    41         10
    42         14
    43          2
    44          1
    50          1
    51          5
    52          1
    53          1
    55          7
    56          1
    57          1
    58          2
    59          1
    63          5
    64          1
    65         56
    66          3
    68          1
    70         17
    71          1
    72          1
    76          1
    77          7
    78          3
    79          2
    82          1
    89          9
    90          7
    91        999
    92         89
    93          3
   103          2
   104          6
   105          5
   106         22
   107          2
   115          1
   116          1
   117          6
   118         17
   119          7
   120         12
   121          1
   125          1
   130          1
   131          4
   132          4
   133          1
   134          8
   135          1
   144          1
   145          1
   146         21
   147          3
   148          6
   149          1
   158          1
   160         43
   161          5
   162          1
   165          3
   166          4
   167          1
   174         11
   175          1
   176          2
   178          3
   179          2
   180          1
   181        102
   182         15
   183          1
   190          3
   192          2
   194          2
   195          1
   196          5
   197         22
   198          3
   208          1
   209          1
   210        462
   211         79
   212          6
   236         10
   237          4
   238        521
   239         98
   240         26
   241          4
   250          9
   251         24
   252          5
   253          1
   266          1
   268          1
   269          6
   270          1