##TITLE=Library Entry 19886
##JCAMP-DX=Revision 4.10 
##DATA TYPE=MASS SPECTRUM
##SAMPLE DESCRIPTION=Japan AIST/NIMC Database- Spectrum MS-IW-4783
##NAMES=HP
##CAS NAME=n-Hexyl acrylate
##MOLFORM=C9H16O2
##CAS REGISTRY NO=2499-95-8
##MP= -300
##BP= -300
##MW= 156
##$RETENTION INDEX=1073
##$CONDENSED SPECTRUM=NO
##NPOINTS= 67
##XYDATA=(XY..XY) 1 
    15          3
    25          2
    26         22
    27        201
    28         30
    29         83
    30          2
    31         11
    38          2
    39         48
    40          9
    41        198
    42        223
    43        268
    44         14
    45          5
    50          1
    51          3
    52          1
    53         15
    54         30
    55        999
    56        692
    57         66
    58          5
    59          2
    60          1
    65          1
    66          1
    67         17
    68         10
    69        245
    70         46
    71         14
    72          7
    73        492
    74         21
    75          3
    77          1
    79          2
    81          8
    82         14
    83         62
    84        461
    85         69
    86          6
    87          3
    94          2
    95          3
    96         11
    97         13
    98         10
    99         17
   100          8
   101          4
   109          6
   110          4
   111          2
   112          3
   113         18
   114          5
   115          2
   123          3
   127          6
   128          1
   138          1
   156          1