##TITLE=Library Entry 86195
##JCAMP-DX=Revision 4.10 
##DATA TYPE=MASS SPECTRUM
##SAMPLE DESCRIPTION=Exported from NIST MS Search
##NAMES=HP
##CAS NAME=Benzene, 1-(2-bromoethyl)-3-fluoro-
##MOLFORM=C8H8BrF
##CAS REGISTRY NO=25017-13-4
##MP= -300
##BP= -300
##MW= 202
##$RETENTION INDEX=0
##$CONDENSED SPECTRUM=NO
##NPOINTS= 17
##XYDATA=(XY..XY) 1 
    50         80
    51         90
    63         70
    75        110
    77         60
    83        140
    96        110
   101         60
   103        110
   109        999
   110        370
   122        110
   123        210
   202        130
   203         11
   204        130
   205         11