##TITLE=Library Entry 86354
##JCAMP-DX=Revision 4.10 
##DATA TYPE=MASS SPECTRUM
##SAMPLE DESCRIPTION=A.A.Kutin, Moscow, Russia
##NAMES=HP
##CAS NAME=1H-Pyrazole-3-carboxylic acid, 1-methyl-
##MOLFORM=C5H6N2O2
##CAS REGISTRY NO=25016-20-0
##MP= -300
##BP= -300
##MW= 126
##$RETENTION INDEX=0
##$CONDENSED SPECTRUM=NO
##NPOINTS= 66
##XYDATA=(XY..XY) 1 
    34          1
    35          0
    36         10
    37         30
    38         62
    39         46
    40         94
    41         74
    42        360
    44         90
    45        131
    46          1
    48          0
    49          4
    50          8
    51         57
    52        169
    53         89
    54        203
    55        130
    56          7
    57          3
    58          0
    60          0
    63          2
    64          3
    65          5
    66         33
    67          6
    68          4
    69          3
    70          3
    71          1
    76          1
    77          5
    78          2
    79         30
    80         28
    81        186
    82        231
    83         13
    84          1
    91          2
    92          0
    93          0
    94          6
    95         49
    96          3
    97          8
    98          1
   105          1
   107          3
   109        999
   110         54
   111          4
   112          6
   113          0
   115          0
   119          0
   122          1
   123          3
   124          1
   126        918
   127         47
   128          6
   129          0