##TITLE=Library Entry 58568
##JCAMP-DX=Revision 4.10 
##DATA TYPE=MASS SPECTRUM
##SAMPLE DESCRIPTION=NIST Mass Spectrometry Data Center, 1994
##NAMES=HP
##CAS NAME=p-Chlorophenylacetyl chloride
##MOLFORM=C8H6Cl2O
##CAS REGISTRY NO=25026-34-0
##MP= -300
##BP= -300
##MW= 188
##$RETENTION INDEX=0
##$CONDENSED SPECTRUM=NO
##NPOINTS= 57
##XYDATA=(XY..XY) 1 
    12          9
    14          9
    26         36
    27         22
    28         22
    29          9
    35         26
    36         35
    37         85
    38        102
    39        127
    40         13
    41          9
    42         10
    43         57
    44         71
    47         13
    48          8
    49         52
    50        148
    51         64
    52          8
    60         28
    61        110
    62        240
    63        375
    64         29
    72         20
    73         82
    74         53
    75         46
    76         34
    77         16
    84         16
    85         38
    86         66
    87         58
    88         16
    89        999
    90        100
    91         11
    97         30
    99         48
   101         18
   123         36
   124        347
   125        565
   126        147
   127        175
   128         13
   152        444
   153         53
   154        137
   155         13
   188         68
   189         10
   190         40