##TITLE=Library Entry 87399
##JCAMP-DX=Revision 4.10 
##DATA TYPE=MASS SPECTRUM
##SAMPLE DESCRIPTION=Chemical Concepts
##NAMES=HP
##CAS NAME=(2,5-Dioxo-2,5-dihydropyrrol-1-yl)acetic acid
##MOLFORM=C6H5NO4
##CAS REGISTRY NO=25021-08-3
##MP= -300
##BP= -300
##MW= 155
##$RETENTION INDEX=0
##$CONDENSED SPECTRUM=NO
##NPOINTS= 70
##XYDATA=(XY..XY) 1 
    26        257
    27         40
    28         62
    29         37
    30          8
    31         11
    36          9
    37          8
    38          6
    39         16
    40          5
    41         19
    42         13
    43         19
    44         29
    45         39
    46          4
    50          3
    51          4
    52         17
    53         74
    54        260
    55         90
    56        152
    57         14
    58          3
    60          4
    63          5
    65          4
    66          4
    67          2
    68          3
    69          3
    70          5
    71          9
    72          2
    73          2
    74          3
    75          4
    77          3
    79          5
    80          5
    81          3
    82        321
    83         45
    84          7
    85          2
    86          2
    87          5
    88          4
    89          6
    90          3
    91          2
    93          3
    95          3
    96          4
    97          4
    99          3
   105          4
   109          4
   110        999
   111        601
   112         33
   113         32
   114         14
   115         12
   117         30
   118          6
   120          2
   155         21