##TITLE=Library Entry 3349
##JCAMP-DX=Revision 4.10 
##DATA TYPE=MASS SPECTRUM
##SAMPLE DESCRIPTION=ASES Database, Dalian Institute, P.R. China
##NAMES=HP
##CAS NAME=t-Butyl cyclopentaneperoxycarboxylate
##MOLFORM=C10H18O3
##CAS REGISTRY NO=25023-14-7
##MP= -300
##BP= -300
##MW= 186
##$RETENTION INDEX=0
##$CONDENSED SPECTRUM=NO
##NPOINTS= 12
##XYDATA=(XY..XY) 1 
    41        999
    43        398
    55         49
    57        210
    59         80
    69        529
    73        249
    86         59
    97        189
   114         30
   141          9
   186          9