##TITLE=Library Entry 48807
##JCAMP-DX=Revision 4.10 
##DATA TYPE=MASS SPECTRUM
##SAMPLE DESCRIPTION=Chemical Concepts
##NAMES=HP
##CAS NAME=Bicyclo[3.3.1]non-6-en-3-ol
##MOLFORM=C9H14O
##CAS REGISTRY NO=25048-65-1
##MP= -300
##BP= -300
##MW= 138
##$RETENTION INDEX=0
##$CONDENSED SPECTRUM=NO
##NPOINTS= 89
##XYDATA=(XY..XY) 1 
    25          5
    26          8
    27        113
    29         79
    30         32
    31         37
    33          5
    34          3
    36          6
    37          3
    38         26
    39        175
    40        120
    41        208
    42        241
    43        380
    44        476
    45         21
    46          8
    47          3
    48          4
    49          4
    50         18
    51         49
    52         21
    53         61
    54         27
    55         56
    56          8
    57         17
    58         15
    59        495
    60         22
    61          5
    62          9
    63         25
    64          7
    65         63
    66        104
    67         79
    68         36
    69         32
    70         48
    71         10
    72          9
    73          6
    74          6
    75          8
    76          5
    77        253
    78        497
    79        999
    80        142
    81         40
    82         22
    83         25
    84          7
    85          8
    86          3
    87          7
    88          5
    89          7
    90          6
    91        265
    92        140
    93         44
    94         42
    95         38
    96          9
    97         12
    98          7
   105        101
   106         11
   107         17
   108          8
   109         14
   110          3
   111          3
   118          2
   119          5
   120        232
   121         17
   122          6
   123          8
   135          2
   136          2
   137          3
   138         41
   139          5