##TITLE=Library Entry 14387
##JCAMP-DX=Revision 4.10 
##DATA TYPE=MASS SPECTRUM
##SAMPLE DESCRIPTION=DENNIS H SMITH DEPT OF CHEM STANFORD UNIV STANFORD CALI
F 9430
##NAMES=HP
##CAS NAME=Pregn-4-ene-3,20-dione, 17-(acetyloxy)-16-methyl-, (16.alpha.)-
##MOLFORM=C24H34O4
##CAS REGISTRY NO=2504-36-1
##MP= -300
##BP= -300
##MW= 386
##$RETENTION INDEX=0
##$CONDENSED SPECTRUM=NO
##NPOINTS= 77
##XYDATA=(XY..XY) 1 
    41         89
    42         16
    43        999
    51         13
    53         28
    55        115
    65         22
    67         61
    69         48
    77         69
    78         12
    79         81
    81         45
    83         21
    91        121
    92         15
    93         67
    95         70
    97         63
   101         69
   105         89
   107        102
   108         20
   109         70
   111         18
   115          9
   117         31
   119         56
   120          9
   121         97
   122         13
   123         66
   124         53
   128         10
   129         15
   131         29
   133         41
   135         29
   136         26
   137          9
   141         11
   143         23
   145         34
   147         56
   148         10
   149         29
   157         25
   158          9
   159         86
   160         29
   161         56
   163         13
   171          9
   173         44
   175         20
   185         10
   187         14
   213         20
   229        125
   230         24
   242          9
   243         20
   244        132
   245         38
   265          8
   269          9
   283        940
   284        222
   285         43
   301        272
   311         46
   326         89
   327         20
   343        111
   344         79
   345         18
   386         13