##TITLE=Library Entry 49277
##JCAMP-DX=Revision 4.10 
##DATA TYPE=MASS SPECTRUM
##SAMPLE DESCRIPTION=CARL DJERASSI DEPT OF CHEM STANFORD UNIV STANFORD CALIF
 94305
##NAMES=HP
##CAS NAME=1H-Inden-1-one, 2,3,3a,4,7,7a-hexahydro-, trans-
##MOLFORM=C9H12O
##CAS REGISTRY NO=25050-74-2
##MP= -300
##BP= -300
##MW= 136
##$RETENTION INDEX=0
##$CONDENSED SPECTRUM=NO
##NPOINTS= 55
##XYDATA=(XY..XY) 1 
    41        270
    42         70
    43         30
    44         10
    45         10
    49         10
    51        110
    52        250
    53        140
    54        190
    55        220
    56        130
    57         30
    58         40
    59         70
    61         10
    62         10
    63         50
    64         10
    65        130
    66        140
    67        150
    68         30
    69         10
    74         10
    75         10
    77        390
    78        180
    79        999
    80        380
    81        100
    82         40
    83         10
    89         10
    91        320
    92        600
    93        190
    94         60
    95         50
    96         10
   103         10
   105         30
   106         20
   107        140
   108        120
   109         20
   117        180
   118        270
   119         50
   121        140
   122         10
   134         10
   135         90
   136        740
   137         80