##TITLE=Library Entry 40254
##JCAMP-DX=Revision 4.10 
##DATA TYPE=MASS SPECTRUM
##SAMPLE DESCRIPTION=Finnigan MAT: Toxicological Library (LIBR-TX)
##NAMES=HP
##CAS NAME=Atenolol acetate
##MOLFORM=C16H24N2O4
##CAS REGISTRY NO=250579-95-4
##MP= -300
##BP= -300
##MW= 308
##$RETENTION INDEX=0
##$CONDENSED SPECTRUM=NO
##NPOINTS= 39
##XYDATA=(XY..XY) 1 
    56        217
    58         97
    60         94
    72        999
    77         59
    84         86
    89         55
    98        163
   107        171
   114        102
   116        119
   127         58
   131         43
   140        128
   142         65
   145         72
   158        647
   159         44
   180         25
   187         56
   190         71
   200         73
   201         29
   205         36
   217         49
   222         68
   229         30
   234         79
   235         22
   248         12
   249         17
   251         39
   265          9
   272         38
   276         34
   280         21
   281         15
   293         56
   294         30