##TITLE=Library Entry 58291
##JCAMP-DX=Revision 4.10 
##DATA TYPE=MASS SPECTRUM
##SAMPLE DESCRIPTION=R.T.HOLMAN,UNIVERSITY OF MINNESOTA
##NAMES=HP
##CAS NAME=Tetradecanoic acid, 2-hydroxy-
##MOLFORM=C14H28O3
##CAS REGISTRY NO=2507-55-3
##MP= -300
##BP= -300
##MW= 244
##$RETENTION INDEX=0
##$CONDENSED SPECTRUM=NO
##NPOINTS= 157
##XYDATA=(XY..XY) 1 
    26          9
    27        194
    28         61
    29        363
    30         16
    31         15
    37          7
    38          6
    39        109
    40         24
    41        610
    42        233
    43        727
    44         81
    45         75
    46          6
    47         33
    48          6
    50          6
    51         12
    52         10
    53         55
    54         66
    55        454
    56        145
    57        285
    58         54
    59         25
    60         81
    61         25
    63          6
    65         10
    66         14
    67        114
    68         75
    69        220
    70        107
    71        389
    72         28
    73         44
    74          6
    75          7
    77         11
    79         22
    80         14
    81         98
    82         74
    83        120
    84         72
    85         58
    86         19
    87         46
    88         32
    89        999
    90         46
    91         20
    92          6
    93         14
    94          7
    95         63
    96         71
    97        110
    98         54
    99         19
   100         24
   101         15
   102         12
   103          5
   104         10
   105          7
   106          5
   107         10
   108          9
   109         31
   110         40
   111         53
   112         27
   113         16
   114         36
   115         18
   116          9
   117          6
   118          5
   119         10
   120          6
   121          6
   122          7
   123         23
   124         28
   125         14
   126         11
   127         23
   128         15
   129         14
   130          9
   131          6
   133          7
   134          7
   135          7
   136          6
   137         18
   138         23
   139         12
   140         32
   141         10
   142         10
   143          9
   144          6
   146          5
   147          7
   148          9
   149          7
   150          5
   151         11
   152         10
   153          7
   154         11
   155         10
   156          7
   157          7
   158          9
   159          5
   161          7
   162          5
   164         20
   165         12
   166         55
   167         19
   168          6
   169          7
   170          5
   171          5
   172          6
   178          5
   179          6
   180          7
   182          7
   183         12
   184          6
   185         15
   186          6
   190          9
   191          6
   197          5
   198          9
   199          5
   208         37
   209         10
   210          5
   216          6
   217          5
   218          5
   219          7
   220          5
   226         37
   227         11
   228          7