##TITLE=Library Entry 99315
##JCAMP-DX=Revision 4.10 
##DATA TYPE=MASS SPECTRUM
##SAMPLE DESCRIPTION=Japan AIST/NIMC Database- Spectrum MS-IW-5235
##NAMES=HP
##CAS NAME=Cinnamyl carbanilate
##MOLFORM=C16H15NO2
##CAS REGISTRY NO=25076-44-2
##MP= -300
##BP= -300
##MW= 253
##$RETENTION INDEX=0
##$CONDENSED SPECTRUM=NO
##NPOINTS= 93
##XYDATA=(XY..XY) 1 
    26          5
    27         26
    28         11
    29          9
    31         10
    36          1
    37         22
    38         42
    39         73
    40         11
    41         29
    42          2
    43          9
    44         15
    45         32
    46          2
    49          6
    50         52
    51        109
    52         38
    53         10
    54          3
    55         73
    56         20
    57         17
    58          9
    59         45
    60          5
    61         13
    62         27
    63         96
    64        187
    65         76
    66         31
    67          9
    68          1
    69          1
    73          4
    74         21
    75         18
    76         21
    77        169
    78        197
    79        101
    80          7
    81          1
    85          1
    86          4
    87          6
    88          6
    89         33
    90         24
    91        663
    92        533
    93         71
    94          4
    97          1
    98          2
    99          1
   101          4
   102         25
   103        101
   104         20
   105        248
   106         30
   107         14
   108          1
   113          3
   114          3
   115        211
   116         78
   117        229
   118         39
   119        999
   120         80
   121          5
   128          1
   129          2
   130          1
   131         25
   132         12
   133        101
   134        389
   135         38
   136          2
   204          1
   205          1
   206          2
   207          1
   208          2
   209         13
   210          2
   253          1