##TITLE=Library Entry 48497
##JCAMP-DX=Revision 4.10 
##DATA TYPE=MASS SPECTRUM
##SAMPLE DESCRIPTION=D.HENNEBERG, MAX-PLANCK INSTITUTE, MULHEIM, WEST GERMAN
Y
##NAMES=HP
##CAS NAME=3-Dodecen-1-yne, (Z)-
##MOLFORM=C12H20
##CAS REGISTRY NO=25091-24-1
##MP= -300
##BP= -300
##MW= 164
##$RETENTION INDEX=0
##$CONDENSED SPECTRUM=NO
##NPOINTS= 104
##XYDATA=(XY..XY) 1 
    26        112
    27        443
    28        101
    29        582
    30         10
    31          9
    32          3
    36          1
    37         10
    38         36
    39        548
    40         82
    41        852
    42        236
    43        768
    44         24
    45          1
    47          4
    48          2
    49          6
    50         55
    51        113
    52        123
    53        143
    54        131
    55        597
    56        239
    57        389
    58         19
    59         21
    60          0
    61          1
    62         13
    63         53
    64         15
    65        288
    66        346
    67        410
    68        143
    69        236
    70        154
    71         35
    72          3
    74          5
    75          3
    76          1
    77        285
    78        146
    79        999
    80        463
    81        326
    82        122
    83         77
    84         30
    85          6
    86          0
    89          8
    90          2
    91        192
    92         41
    93        619
    94        268
    95        139
    96         50
    97         23
    98          7
    99          0
   101          1
   102          1
   103          5
   104          3
   105         34
   106          8
   107        270
   108         92
   109         33
   110         47
   111          6
   112          2
   115          3
   116          1
   117          2
   118          1
   119          4
   120          1
   121        205
   122         43
   123         25
   124          4
   126          2
   128          1
   129          1
   133          2
   134          1
   135        117
   136         19
   137          1
   149         16
   150          2
   153          1
   162          0
   163          0
   164         16
   165          2