##TITLE=Library Entry 64164
##JCAMP-DX=Revision 4.10 
##DATA TYPE=MASS SPECTRUM
##SAMPLE DESCRIPTION=Exported from NIST MS Search
##NAMES=HP
##CAS NAME=2-Benzimidazolinone, 1-benzyl-5-methoxy-
##MOLFORM=C15H14N2O2
##CAS REGISTRY NO=2509-28-6
##MP= -300
##BP= -300
##MW= 254
##$RETENTION INDEX=0
##$CONDENSED SPECTRUM=NO
##NPOINTS= 11
##XYDATA=(XY..XY) 1 
    75        170
    76         10
    91        999
    92        170
   136         90
   137         10
   163        300
   164         40
   176         50
   254        500
   255         80