##TITLE=Library Entry 91062
##JCAMP-DX=Revision 4.10 
##DATA TYPE=MASS SPECTRUM
##SAMPLE DESCRIPTION=Div. of Experiment Therapeutics WRAIR, WRAMC, Washingto
n DC 20307
##NAMES=HP
##CAS NAME=4-[3-[N-Morpholino]propylamino]-1,2-naphthoquinone
##MOLFORM=C17H20N2O3
##CAS REGISTRY NO=25107-68-0
##MP= -300
##BP= -300
##MW= 300
##$RETENTION INDEX=0
##$CONDENSED SPECTRUM=NO
##NPOINTS= 153
##XYDATA=(XY..XY) 1 
    41        127
    42        221
    43         91
    44         49
    45         27
    50         17
    51         33
    52         12
    53         12
    54         39
    55         91
    56        280
    57         56
    58         15
    59          4
    62          7
    63         19
    64          5
    65         10
    66          2
    67          5
    68         38
    69         58
    70        109
    71         36
    72         28
    73          3
    74         10
    75         29
    76         43
    77         64
    78         15
    79          4
    80          9
    81          4
    82         24
    83         12
    84         24
    85         25
    86         26
    87         15
    88          7
    89         32
    90          9
    91         12
    92          9
    94          3
    95          2
    96         41
    97         76
    98        154
    99         30
   100        752
   101         78
   102        116
   103         53
   104         19
   105         22
   106          3
   110          1
   111         11
   112         59
   113         20
   114        999
   115         93
   116         23
   117         11
   118          4
   121          5
   124          3
   125          7
   126         84
   127         22
   128         20
   129         33
   130        108
   131        131
   132         18
   133          2
   136          7
   140          6
   141          7
   142         11
   143         10
   144         12
   145         13
   146         17
   147          5
   149          4
   150          8
   153          3
   154          5
   155          2
   156         12
   157          9
   158        108
   159        158
   160         32
   161          4
   166          0
   167          3
   168          5
   169          6
   170         32
   171          7
   172         30
   173         24
   174         33
   175         26
   176          4
   181          4
   182          7
   183          3
   184         18
   185         17
   186        609
   187        388
   188         76
   189         28
   190          3
   196          2
   198         10
   199          4
   200         15
   201         17
   202          6
   204          0
   211          2
   212          7
   213         42
   214         20
   215         16
   216          6
   228          8
   229          2
   241          7
   242         76
   243         21
   244          3
   247          1
   257          4
   261          5
   269         19
   270         88
   271         19
   272          6
   285         13
   286          0
   299          5
   300        292
   301         81
   302         17
   303          0