##TITLE=Library Entry 50083
##JCAMP-DX=Revision 4.10 
##DATA TYPE=MASS SPECTRUM
##SAMPLE DESCRIPTION=V.G.Zaikin, TIPS, Russian Acad. Sci.
##NAMES=HP
##CAS NAME=9-Methylbicyclo[3.3.1]nonane
##MOLFORM=C10H18
##CAS REGISTRY NO=25107-01-1
##MP= -300
##BP= -300
##MW= 138
##$RETENTION INDEX=0
##$CONDENSED SPECTRUM=NO
##NPOINTS= 48
##XYDATA=(XY..XY) 1 
    39        305
    40         50
    41        530
    42         61
    43        120
    50         11
    51         41
    52         30
    53        200
    54        210
    55        430
    56         41
    57        100
    63         15
    65         70
    66         83
    67        860
    68        300
    69         70
    70         20
    71         10
    77        100
    78         23
    79         60
    80         60
    81        999
    82        480
    83         82
    91         60
    92         10
    93         60
    94         65
    95        480
    96        470
    97         90
    98         20
   107         12
   108         17
   109        110
   110         85
   111         31
   122         25
   123        175
   124         18
   136         10
   137         17
   138        100
   139         11