##TITLE=Library Entry 9628
##JCAMP-DX=Revision 4.10 
##DATA TYPE=MASS SPECTRUM
##SAMPLE DESCRIPTION=NIST Mass Spectrometry Data Center, 1994
##NAMES=HP
##CAS NAME=3,5-Dimethylisoxazole-4-carboxylic acid
##MOLFORM=C6H7NO3
##CAS REGISTRY NO=2510-36-3
##MP= -300
##BP= -300
##MW= 141
##$RETENTION INDEX=0
##$CONDENSED SPECTRUM=NO
##NPOINTS= 49
##XYDATA=(XY..XY) 1 
    12         26
    14         56
    15        201
    25         28
    26         97
    27        124
    28        156
    29          5
    30         63
    37         52
    38         83
    39        244
    40         84
    41         77
    42        192
    43        999
    44         63
    45         83
    50         30
    51         85
    52        136
    53        118
    54        173
    55        149
    58         33
    61         21
    62         44
    63         73
    64         21
    65         35
    66         36
    67         52
    68         59
    69         33
    70         58
    71         68
    80        106
    81        274
    82        892
    83         51
    84         26
    97         61
    98         34
    99         54
   123         82
   124         33
   126        139
   141        543
   142         39