##TITLE=Library Entry 15228
##JCAMP-DX=Revision 4.10 
##DATA TYPE=MASS SPECTRUM
##SAMPLE DESCRIPTION=A.A.Kutin, Moscow, Russia
##NAMES=HP
##CAS NAME=Phosphoramidochloridic acid, dimethyl-, ethyl ester
##MOLFORM=C4H11ClNO2P
##CAS REGISTRY NO=2510-93-2
##MP= -300
##BP= -300
##MW= 171
##$RETENTION INDEX=0
##$CONDENSED SPECTRUM=NO
##NPOINTS= 32
##XYDATA=(XY..XY) 1 
    26         65
    27        122
    29         61
    30         34
    31         20
    35         29
    36        172
    38         62
    39         16
    41         63
    42        333
    43        290
    44        999
    45         89
    47         40
    64         13
    65         17
    91         12
    92         33
    99         13
   100         29
   106         39
   108        200
   126         69
   127         17
   128         44
   136         16
   142        132
   143         13
   144         62
   171        109
   173         31