##TITLE=Library Entry 28591
##JCAMP-DX=Revision 4.10 
##DATA TYPE=MASS SPECTRUM
##SAMPLE DESCRIPTION=Div. of Experiment Therapeutics WRAIR, WRAMC, Washingto
n DC 20307
##NAMES=HP
##CAS NAME=4-[N-[3-[Dimethylamino]propyl]anilino]-1,2-naphthoquinone
##MOLFORM=C21H22N2O2
##CAS REGISTRY NO=25107-80-6
##MP= -300
##BP= -300
##MW= 334
##$RETENTION INDEX=0
##$CONDENSED SPECTRUM=NO
##NPOINTS= 110
##XYDATA=(XY..XY) 1 
    41         24
    42         99
    43         39
    44         71
    45         23
    46          4
    47          3
    50         30
    51         64
    52         11
    53          6
    55          7
    56         28
    57         43
    58        999
    59         38
    62          7
    63         16
    64          8
    65         31
    66          7
    70         39
    71         18
    72         19
    74         15
    75         26
    76         37
    77        110
    78         15
    79          8
    84         50
    85         47
    86         13
    88          2
    89         21
    90          8
    91         47
    92          9
    93         15
    96          2
   101         28
   102         20
   103         11
   104         50
   105         29
   106         35
   107          2
   115         10
   116          8
   117          9
   118          9
   119          8
   120          4
   121          4
   122          3
   128          8
   129         15
   130         18
   131          8
   132         41
   133         15
   144          8
   149         22
   151          4
   152         10
   157          8
   158          2
   163          7
   164          9
   165         39
   166          8
   175          7
   176          8
   177         10
   178         39
   179         18
   180          7
   190         18
   191         15
   192         11
   193         10
   203          8
   204         21
   205          7
   206         24
   207          9
   208          2
   216          2
   217         11
   218         10
   219         13
   220         31
   221         10
   223          8
   231          2
   232         25
   233         11
   234         87
   235         42
   236          9
   248         55
   249         33
   250          7
   260          6
   262         23
   263         11
   276          2
   333          9
   334         11
   335          2