##TITLE=Library Entry 47270
##JCAMP-DX=Revision 4.10 
##DATA TYPE=MASS SPECTRUM
##SAMPLE DESCRIPTION=Exported from NIST MS Search
##NAMES=HP
##CAS NAME=Quinoline, 8-(phenylazo)-
##MOLFORM=C15H11N3
##CAS REGISTRY NO=25117-49-1
##MP= -300
##BP= -300
##MW= 233
##$RETENTION INDEX=0
##$CONDENSED SPECTRUM=NO
##NPOINTS= 18
##XYDATA=(XY..XY) 1 
    63        172
    64        107
    74        118
    75        290
    76         86
    77        999
    78         86
   100         43
   101        322
   102        172
   105         21
   127         64
   128        623
   129         86
   156        236
   204        376
   205         75
   233         10