##TITLE=Library Entry 100463
##JCAMP-DX=Revision 4.10 
##DATA TYPE=MASS SPECTRUM
##SAMPLE DESCRIPTION=Dr. Jiri Zamecnik, DCIEM, North York, Canada, GP Librar
y
##NAMES=HP
##CAS NAME=Benzonitrile, 4-ethoxy-
##MOLFORM=C9H9NO
##CAS REGISTRY NO=25117-74-2
##MP= -300
##BP= -300
##MW= 147
##$RETENTION INDEX=0
##$CONDENSED SPECTRUM=NO
##NPOINTS= 22
##XYDATA=(XY..XY) 1 
    38         19
    39         48
    50         23
    51         34
    52         17
    63         64
    64        113
    65         24
    75         41
    76         31
    90         41
    91        119
    92         26
   102         41
   103          6
   104          4
   119        999
   120         81
   121          5
   132          4
   147        307
   148         33