##TITLE=Library Entry 7941
##JCAMP-DX=Revision 4.10 
##DATA TYPE=MASS SPECTRUM
##SAMPLE DESCRIPTION=D.HENNEBERG, MAX-PLANCK INSTITUTE, MULHEIM, WEST GERMAN
Y
##NAMES=HP
##CAS NAME=Tridecane, 5-methyl-
##MOLFORM=C14H30
##CAS REGISTRY NO=25117-31-1
##MP= -300
##BP= -300
##MW= 198
##$RETENTION INDEX=1348
##$CONDENSED SPECTRUM=NO
##NPOINTS= 56
##XYDATA=(XY..XY) 1 
    22          4
    26         19
    27         68
    29        149
    30          3
    33          2
    34          0
    35          3
    38          7
    39         29
    41        244
    42         75
    43        999
    44          2
    51          0
    53          7
    54          6
    55        107
    56        148
    57        779
    58         37
    59         12
    67          6
    68          8
    69         64
    70         50
    71        364
    72         21
    73          0
    78          2
    79          3
    82          7
    83         21
    84        231
    85        575
    86         35
    95          1
    96          4
    97         21
    98         19
    99         64
   100          3
   111         18
   112         30
   113         18
   126          5
   127          1
   140         84
   141         60
   142          4
   154          2
   155          3
   168          3
   169          2
   183          7
   198          2