##TITLE=Library Entry 46586
##JCAMP-DX=Revision 4.10 
##DATA TYPE=MASS SPECTRUM
##SAMPLE DESCRIPTION=M.DEMEUNYNCK,LAB. CHIM. ORG. BIOL.,ERA CNRS,UNIV. DE LI
LLE,FR.
##NAMES=HP
##CAS NAME=4-(Phenylazo)quinoline
##MOLFORM=C15H11N3
##CAS REGISTRY NO=25117-45-7
##MP= -300
##BP= -300
##MW= 233
##$RETENTION INDEX=0
##$CONDENSED SPECTRUM=NO
##NPOINTS= 39
##XYDATA=(XY..XY) 1 
    49          4
    50        167
    51        500
    52         63
    53          2
    55          5
    57          2
    61         11
    62         38
    63         51
    64         29
    65          4
    73          3
    74        126
    75        276
    76         75
    77        999
    78         71
    83          2
    86          3
    87          4
    88          4
    91          3
    98         13
    99          5
   100         23
   101        262
   102         26
   105        160
   106         10
   127          3
   128        217
   129         29
   177          3
   203          6
   204         33
   205          6
   233        118
   234         20