##TITLE=Library Entry 109752
##JCAMP-DX=Revision 4.10 
##DATA TYPE=MASS SPECTRUM
##SAMPLE DESCRIPTION=K. MATOBA, TOYAMA MED. & PHARM. UNIV., SUGITANI, TOYAMA
, JAPAN
##NAMES=HP
##CAS NAME=2-Ethyl-3-methoxy-2-cyclopentenone
##MOLFORM=C8H12O2
##CAS REGISTRY NO=25112-86-1
##MP= -300
##BP= -300
##MW= 140
##$RETENTION INDEX=1097
##$CONDENSED SPECTRUM=NO
##NPOINTS= 50
##XYDATA=(XY..XY) 1 
    40        119
    41        531
    42        109
    43        261
    44        152
    45         60
    50         61
    51        107
    52         75
    53        257
    54        129
    55        263
    56         57
    57         95
    58         81
    59         92
    60        121
    62         20
    63         41
    65        144
    66         75
    67        444
    68         90
    69        191
    71         32
    72         25
    74         21
    77         94
    78         19
    79        193
    80         36
    81         99
    82         95
    83        200
    84         21
    88         26
    95        185
    96         31
    97        463
    98         77
   107         21
   109         29
   110         20
   111        204
   112         28
   125        999
   126         93
   139        156
   140        838
   141        136