##TITLE=Library Entry 38142
##JCAMP-DX=Revision 4.10 
##DATA TYPE=MASS SPECTRUM
##SAMPLE DESCRIPTION=CARL DJERASSI DEPT OF CHEM STANFORD UNIV STANFORD CALIF
 94305
##NAMES=HP
##CAS NAME=20.Xi.-Lanosta-7,9(11)-diene-3.beta.,18,20-triol
##MOLFORM=C30H50O3
##CAS REGISTRY NO=25116-58-9
##MP= -300
##BP= -300
##MW= 458
##$RETENTION INDEX=0
##$CONDENSED SPECTRUM=NO
##NPOINTS= 329
##XYDATA=(XY..XY) 1 
    27        116
    28        953
    29        255
    32         93
    33        186
    37         23
    39        116
    40         23
    41        814
    42        116
    44         93
    45        186
    51         23
    52         23
    53        139
    54         69
    56        302
    58        209
    59        511
    60        325
    61         69
    62         69
    64        418
    65         93
    66         23
    67        418
    68        116
    70        279
    71        999
    72        116
    73        302
    74         23
    77        139
    79        325
    80         93
    82        209
    84        186
    85        627
    86         69
    87         69
    91        325
    92         69
    94        162
    96        232
    98        837
    99        209
   100        232
   102        116
   104         46
   105         46
   106        511
   107        139
   108        418
   109        162
   110        604
   111        162
   112        720
   113        139
   114        162
   115         46
   118        162
   119         69
   120        186
   121        162
   122        395
   123        139
   124        395
   125        139
   126        186
   127         69
   128        162
   129        162
   130        441
   131        139
   132        558
   133        116
   134        348
   135        116
   136        232
   137         69
   138        209
   139         69
   140        139
   141         69
   142        186
   143        209
   144        581
   145        162
   146        604
   147        162
   148        302
   149        116
   150        186
   152        162
   153         93
   154        186
   155        116
   156        511
   157        209
   158        558
   159        302
   160        511
   161        162
   162        348
   163        116
   164        162
   165         69
   166        186
   167         93
   168        209
   169         93
   170        488
   171        209
   173        348
   174        325
   175        116
   176        209
   177         69
   178        116
   179         93
   180        186
   181         93
   182        209
   183        116
   184        465
   185        186
   186        465
   187         93
   188        209
   189         93
   190        139
   191         69
   192        116
   194        116
   195         69
   196        209
   197        116
   198        465
   199        232
   200        232
   202        209
   203         69
   204        116
   205         69
   206        139
   207        116
   208        116
   209         93
   210        255
   211        116
   212        348
   213        139
   214        209
   216        116
   217         69
   218        139
   219         93
   220        116
   223        116
   224        325
   225        116
   226        372
   227        139
   228        186
   229        116
   230        139
   232        116
   233         93
   234         93
   235         93
   236        139
   237        116
   238        209
   239        139
   240        255
   241        139
   242        139
   243        325
   244        116
   245        139
   246        116
   247         93
   248         93
   249        139
   251        209
   252        162
   253        232
   254        116
   255        325
   256        139
   257        209
   258        162
   260        116
   261         93
   263        139
   264         93
   265        186
   266         93
   267        162
   268         93
   269        395
   270        395
   271        348
   272        162
   273        186
   274         93
   275         93
   276         93
   277        139
   278        116
   279        279
   280        139
   281        418
   282        325
   283        279
   284        162
   285        162
   286        116
   287        116
   288         93
   291        116
   292        116
   293        139
   294        162
   295        325
   296        209
   297        511
   298        186
   299        325
   301         69
   302         46
   304         23
   305         23
   306         23
   307         46
   308         46
   309        325
   310        139
   311        232
   313        325
   314        232
   315        116
   316         23
   317         23
   319         69
   320         46
   321         93
   322         23
   323        116
   324         46
   325         69
   327        488
   328        139
   329        116
   330         69
   331         46
   332         46
   333         46
   335         93
   336         46
   337        232
   338        116
   339        279
   340         93
   341         69
   342         23
   343         46
   345         46
   349         23
   352         69
   353         69
   355         46
   356        465
   357        162
   358         46
   359         23
   361         46
   362         23
   363         23
   364         23
   366         46
   367         46
   368         46
   369         46
   372         46
   374        139
   375         93
   376         93
   377         46
   378         46
   379         93
   380         69
   381         69
   382         69
   383         46
   386         46
   387         69
   388         46
   390        209
   391         69
   392        186
   393         93
   394         93
   395        116
   396        348
   397        116
   398        186
   399         69
   403         23
   404         23
   406         46
   407        860
   408        325
   411        441
   412        116
   422        860
   423        558
   424        186
   425        395
   426        116
   427         93
   440        511
   441        209
   442        162
   443         93
   444         46
   456         46
   457         46
   458         46