##TITLE=Library Entry 100455
##JCAMP-DX=Revision 4.10 
##DATA TYPE=MASS SPECTRUM
##SAMPLE DESCRIPTION=Exported from NIST MS Search
##NAMES=HP
##CAS NAME=Benzonitrile, 3-ethoxy-
##MOLFORM=C9H9NO
##CAS REGISTRY NO=25117-75-3
##MP= -300
##BP= -300
##MW= 147
##$RETENTION INDEX=0
##$CONDENSED SPECTRUM=NO
##NPOINTS= 71
##XYDATA=(XY..XY) 1 
    25          4
    26         37
    27        192
    29        246
    30          7
    31          8
    36          8
    37         33
    38         65
    39        139
    40         16
    41         27
    42         28
    43        156
    44         16
    45        120
    49          7
    50         56
    51         64
    52         33
    53         21
    54         24
    55         15
    56          2
    57          7
    61         17
    62         38
    63        118
    64        139
    65         73
    66         18
    67          7
    68          4
    69          6
    73          6
    74         19
    75         57
    76         49
    77         22
    78          9
    79          6
    80         18
    81         16
    82          8
    88          8
    89          7
    90         60
    91        153
    92         34
    93         27
    94         37
    95          4
   102         48
   103          9
   104          8
   105          6
   108          7
   109          7
   110         31
   116          4
   117          3
   118         16
   119        999
   120        110
   121         79
   122         19
   132          8
   146          4
   147        253
   148         28
   149          2