##TITLE=Library Entry 57769
##JCAMP-DX=Revision 4.10 
##DATA TYPE=MASS SPECTRUM
##SAMPLE DESCRIPTION=CARL DJERASSI DEPT OF CHEM STANFORD UNIV STANFORD CALIF
 94305
##NAMES=HP
##CAS NAME=6-Heptenoic acid, ethyl ester
##MOLFORM=C9H16O2
##CAS REGISTRY NO=25118-23-4
##MP= -300
##BP= -300
##MW= 156
##$RETENTION INDEX=1609
##$CONDENSED SPECTRUM=NO
##NPOINTS= 55
##XYDATA=(XY..XY) 1 
    41        790
    42        150
    43        290
    44         20
    45        270
    50         10
    51         30
    52         20
    53        140
    54        200
    55        790
    56         90
    57         50
    58         20
    59         10
    60        620
    61        420
    62         10
    65         20
    66         20
    67        330
    68        800
    69        460
    70        300
    71         20
    73        250
    74         60
    75         10
    77         20
    79         40
    81        170
    82        290
    83        340
    84         20
    85         70
    86         10
    87        140
    88        999
    89         40
    93         30
    95         20
    99         20
   100         10
   101        160
   102         10
   109         30
   110        590
   111        400
   112         20
   113         10
   115         40
   127         40
   128         20
   141         20
   156         60