##TITLE=Library Entry 88006
##JCAMP-DX=Revision 4.10 
##DATA TYPE=MASS SPECTRUM
##SAMPLE DESCRIPTION=FI-15-5
##NAMES=HP
##CAS NAME=Phosphonothioic acid, ethyl-, O-ethyl S-methyl ester
##MOLFORM=C5H13O2PS
##CAS REGISTRY NO=2511-12-8
##MP= -300
##BP= -300
##MW= 168
##$RETENTION INDEX=0
##$CONDENSED SPECTRUM=NO
##NPOINTS= 72
##XYDATA=(XY..XY) 1 
    35         29
    38         10
    39         10
    40        381
    41        296
    42         16
    43        169
    44        317
    45        646
    46        304
    47        992
    48        707
    49        234
    50         17
    51         17
    52         10
    54         10
    55         15
    56         10
    57         29
    58         10
    60         37
    61        197
    62         25
    63        122
    64         31
    65        992
    66         18
    67         18
    68         12
    71         12
    75        192
    76        114
    77        261
    78         44
    79        150
    80         31
    81         11
    82         11
    85          3
    91        170
    92        187
    93        989
    94        502
    95        484
    96        169
    97        210
   105          3
   109        127
   110          2
   111        999
   112        195
   113         46
   114          3
   115          6
   117          3
   119         16
   120          6
   121        281
   122        401
   123        281
   124        656
   125         46
   126         21
   139         20
   140        926
   141         40
   142         44
   153         37
   168        169
   169         10
   170          5