##TITLE=Library Entry 74397
##JCAMP-DX=Revision 4.10 
##DATA TYPE=MASS SPECTRUM
##SAMPLE DESCRIPTION=M.A.FRIEDMAN FAC. SCI. ST-JEROME, MARSEILLE, FRANCE
##NAMES=HP
##CAS NAME=Thiazole, 5-ethoxy-
##MOLFORM=C5H7NOS
##CAS REGISTRY NO=25115-63-3
##MP= -300
##BP= -300
##MW= 129
##$RETENTION INDEX=1025
##$CONDENSED SPECTRUM=NO
##NPOINTS= 22
##XYDATA=(XY..XY) 1 
    26         40
    27        140
    28        170
    29        440
    40         40
    45        190
    46        360
    56        130
    57         80
    58        130
    59        140
    73        530
    75         80
    85         40
    86         50
   100         40
   101        999
   102        120
   103        150
   129        330
   130         30
   131         30