##TITLE=Library Entry 7868
##JCAMP-DX=Revision 4.10 
##DATA TYPE=MASS SPECTRUM
##SAMPLE DESCRIPTION=R.T.HOLMAN,UNIVERSITY OF MINNESOTA
##NAMES=HP
##CAS NAME=Octadecane, 5-methyl-
##MOLFORM=C19H40
##CAS REGISTRY NO=25117-35-5
##MP= -300
##BP= -300
##MW= 268
##$RETENTION INDEX=1854
##$CONDENSED SPECTRUM=NO
##NPOINTS= 168
##XYDATA=(XY..XY) 1 
    25          2
    26         18
    27        307
    28         97
    29        784
    30         16
    31          4
    32          4
    36          2
    37          2
    38          4
    39         12
    40         26
    41        947
    42        210
    43        999
    44         78
    45         16
    46          1
    50          1
    51          4
    52          2
    53         33
    54         39
    55        389
    56        321
    57        999
    58         84
    59          8
    60          3
    61          1
    62          1
    63          1
    64          1
    65          4
    66          9
    67         52
    68         63
    69        184
    70        110
    71        999
    72         55
    73          4
    74          1
    75          1
    77          3
    78          1
    79          5
    80          3
    81         25
    82         84
    83         94
    84        578
    85        999
    86         68
    87          2
    88          1
    89          1
    91          4
    92          1
    93          1
    94          2
    95         18
    96         37
    97         65
    98         39
    99        144
   100         11
   101          1
   102          1
   103          1
   104          1
   105          1
   106          1
   107          1
   108          1
   109          8
   110         13
   111         31
   112         20
   113         84
   114          8
   115          1
   116          1
   117          1
   119          1
   120          1
   121          1
   122          1
   123          4
   124          7
   125         18
   126         13
   127         65
   128          6
   129          1
   130          1
   131          1
   132          1
   133          1
   135          1
   136          1
   137          2
   138          4
   139          8
   140          8
   141         47
   142          5
   143          1
   144          1
   145          1
   149          1
   150          1
   151          1
   152          2
   153          5
   154          7
   155         29
   156          3
   157          1
   158          1
   163          1
   165          1
   166          1
   167          3
   168          4
   169         15
   170          2
   171          1
   179          1
   180          1
   181          1
   182         21
   183         12
   184          1
   185          1
   194          1
   195          1
   196          3
   197          4
   198          1
   199          1
   201          1
   205          1
   210         68
   211         89
   212         13
   213          1
   219          1
   222          2
   223          1
   224          5
   225          6
   226          1
   233          1
   238          5
   239          9
   240          2
   241          1
   248          1
   250          1
   252          2
   253         10
   254          3
   255          1
   267          1
   268          2
   269          1