##TITLE=Library Entry 114029
##JCAMP-DX=Revision 4.10 
##DATA TYPE=MASS SPECTRUM
##SAMPLE DESCRIPTION=NIST Mass Spectrometry Data Center, 1990.
##NAMES=HP
##CAS NAME=1-(Phenylethynyl)-1-cyclopentanol
##MOLFORM=C13H14O
##CAS REGISTRY NO=25118-60-9
##MP= -300
##BP= -300
##MW= 186
##$RETENTION INDEX=0
##$CONDENSED SPECTRUM=NO
##NPOINTS= 109
##XYDATA=(XY..XY) 1 
    14          2
    15         24
    16          3
    17         15
    18         32
    26         53
    27        240
    28        163
    29         73
    31         15
    37         27
    38         49
    39        276
    40         30
    41        173
    42         79
    43         61
    44         12
    49         26
    50        201
    51        277
    52         82
    53         53
    54         12
    55        697
    56         84
    57         18
    61         34
    62        111
    63        212
    64         48
    65         84
    66        160
    67        438
    68         26
    69         27
    71         14
    73         27
    74        192
    75        267
    76        281
    77        287
    78         99
    79         79
    80        103
    81         38
    82         44
    83         48
    84         67
    85         16
    86         42
    87         84
    88         52
    89        130
    90         35
    91        188
    92         37
    97          9
    98         57
    99         29
   100         30
   101        146
   102        736
   103        147
   104         44
   105         33
   109         13
   110         12
   111         10
   112          8
   113         52
   114          8
   115        695
   116        118
   117        340
   118         44
   126         89
   127        176
   128        309
   129        999
   130        362
   131         65
   137          9
   139        106
   140         23
   141         84
   142         34
   143        128
   144        102
   145         14
   151         28
   152        173
   153        153
   154         27
   155         13
   156         13
   157        441
   158        155
   159         19
   163         13
   165        170
   166         71
   167        287
   168        246
   169         35
   171         18
   185        899
   186        173
   187         17