##TITLE=Library Entry 7944
##JCAMP-DX=Revision 4.10 
##DATA TYPE=MASS SPECTRUM
##SAMPLE DESCRIPTION=W.L.MEAD BRITISH PETROLEUM CO. LTD., SUNBURY-ON-THAMES,
 UK
##NAMES=HP
##CAS NAME=Heneicosane, 5-methyl-
##MOLFORM=C22H46
##CAS REGISTRY NO=25117-37-7
##MP= -300
##BP= -300
##MW= 310
##$RETENTION INDEX=2151
##$CONDENSED SPECTRUM=NO
##NPOINTS= 88
##XYDATA=(XY..XY) 1 
    39         73
    40         18
    41        433
    42        104
    43        999
    44         32
    53         24
    54         27
    55        294
    56        177
    57        700
    58         31
    67         38
    68         24
    69        155
    70         73
    71        360
    72         20
    73         16
    81         16
    82         23
    83         85
    84        278
    85        550
    86         31
    95          7
    96         13
    97         65
    98         22
    99        101
   100          6
   110          8
   111         33
   112         15
   113         70
   114          8
   124          5
   125         21
   126          7
   127         55
   128          6
   139         15
   140         12
   141         47
   142          9
   152          6
   153          8
   154          5
   155         37
   156          5
   167          7
   168          3
   169         32
   170          6
   181          5
   182          4
   183         27
   184          3
   195          3
   196          3
   197         18
   198          3
   209          4
   210          2
   211         12
   212          2
   223          2
   224         21
   225         12
   226          1
   238          2
   239          3
   240          1
   252         63
   253         93
   254         15
   255          2
   266          9
   267         10
   268          2
   280          6
   281         18
   282          4
   294          1
   295         10
   296          3
   310          2
   311          1