##TITLE=Library Entry 54423
##JCAMP-DX=Revision 4.10 
##DATA TYPE=MASS SPECTRUM
##SAMPLE DESCRIPTION=R.L.FOLTZ BATTELLE COLUMBUS LAB., COLUMBUS, OHIO, USA
##NAMES=HP
##CAS NAME=Piperidine, 1,1'-thiobis-
##MOLFORM=C10H20N2S
##CAS REGISTRY NO=25116-80-7
##MP= -300
##BP= -300
##MW= 200
##$RETENTION INDEX=0
##$CONDENSED SPECTRUM=NO
##NPOINTS= 37
##XYDATA=(XY..XY) 1 
    43         79
    44         54
    45         16
    50        101
    53          6
    54         12
    55        425
    56        168
    57         87
    58          6
    60         21
    61         25
    62         46
    67         13
    69         13
    70         39
    73          4
    74          8
    75          5
    76         30
    82         93
    83         48
    84        999
    85        207
    86         54
    87         12
    88         10
    98         11
   104         12
   115        116
   116        536
   117         83
   118         24
   148         23
   200        810
   201        107
   202         37