##TITLE=Library Entry 8614
##JCAMP-DX=Revision 4.10 
##DATA TYPE=MASS SPECTRUM
##SAMPLE DESCRIPTION=CARL DJERASSI DEPT OF CHEM STANFORD UNIV STANFORD CALIF
 94305
##NAMES=HP
##CAS NAME=Lanosta-7,9(11),20(22)-triene-3.beta.,18-diol, diacetate
##MOLFORM=C34H52O4
##CAS REGISTRY NO=25116-61-4
##MP= -300
##BP= -300
##MW= 524
##$RETENTION INDEX=0
##$CONDENSED SPECTRUM=NO
##NPOINTS= 345
##XYDATA=(XY..XY) 1 
    41        205
    42         22
    43        999
    44         22
    45         22
    50          8
    51          4
    53         35
    54          4
    55        339
    56         26
    57        174
    58          8
    59          8
    60         22
    61          4
    65         13
    66          8
    67        129
    68         75
    69        468
    70         40
    71         98
    72         13
    73         13
    77         31
    78          4
    79         93
    80         22
    81        290
    82        125
    83        200
    84         17
    85         44
    86          4
    91         93
    92         22
    93        133
    94         35
    95        308
    96         53
    97        178
    98         17
    99         17
   100          4
   103          8
   104          4
   105        142
   106         22
   107        151
   108         26
   109        165
   110         22
   111         62
   112          8
   113          4
   114          4
   115         22
   116         13
   117         53
   118         26
   119        129
   120         31
   121        111
   122         40
   123        125
   124         17
   125         13
   127         13
   128         31
   129         80
   130         67
   131        178
   132         49
   133        120
   134         22
   135         89
   136         22
   137         26
   138         31
   139          8
   140          4
   141         53
   142         71
   143        169
   144        160
   145        192
   146         40
   147         62
   148         13
   149         31
   150          4
   151         13
   152          8
   153         26
   154         26
   155        156
   156         89
   157        183
   158         71
   159        102
   160         26
   161         35
   162          8
   163         22
   164          8
   165         22
   166         17
   167         44
   168         44
   169        205
   170         89
   171        138
   172         40
   173         58
   174          8
   175         22
   176          4
   177         13
   178          8
   179         31
   180         13
   181         75
   182         49
   183        178
   184         62
   185        107
   186         26
   187         40
   188         13
   189         17
   190          4
   191         22
   192          4
   193         31
   194         13
   195         98
   196         49
   197        169
   198         53
   199         67
   200         13
   201         22
   202          4
   203         17
   204          4
   205          8
   206          4
   207         35
   208         17
   219          4
   220          4
   221         40
   222         13
   223         98
   224         31
   225        111
   226         31
   227         53
   228         17
   229         13
   230          4
   231          8
   233          4
   234          4
   235         35
   236         17
   237         71
   238         40
   239         71
   240         26
   241         31
   242         22
   243         13
   244          4
   245          4
   247          4
   248          4
   249         31
   250         13
   251        125
   252         53
   253        147
   254         49
   255        223
   256         58
   257         22
   258          4
   259          4
   261          4
   263         58
   264         22
   265         40
   267         44
   268         31
   269         89
   270         26
   271         22
   272          8
   273         13
   275          4
   276          4
   277         44
   278         17
   279         35
   280         13
   281         44
   282         44
   283         26
   284          4
   285         22
   286         13
   287         13
   288         22
   289          8
   291         80
   292         22
   293         53
   294         17
   295         49
   296         17
   297         58
   298         40
   299         17
   300         26
   301          4
   302         22
   303          8
   304          4
   305         13
   306          4
   307         17
   308          8
   309         31
   310         13
   311         58
   312        111
   313        424
   314        107
   315        339
   316         84
   317         13
   319         22
   320          8
   321         26
   322          8
   323         22
   324         13
   325         31
   326         49
   327         22
   328         22
   329         31
   330          8
   331          4
   333         35
   334         13
   335         22
   336          8
   337         17
   338         44
   339         35
   340          8
   341          8
   343          4
   344          4
   346         13
   347          4
   348         13
   349          8
   351         71
   352         31
   353         49
   354         17
   355         80
   356         22
   361         13
   362          4
   363          8
   365          8
   366          4
   367          8
   368         17
   369         31
   370         13
   371          8
   373          4
   374          4
   375          8
   376          8
   377          8
   378          4
   379         31
   380         17
   381         31
   382          8
   383          8
   384          4
   388          8
   389        183
   390         58
   391        178
   392         58
   393         44
   394         13
   395         13
   396          4
   403          4
   404         22
   405         26
   406         13
   407         67
   408         26
   409         31
   410         13
   411        116
   412         35
   413         17
   414          8
   421         13
   422          4
   423          4
   435          4
   436         17
   437          4
   449        281
   450         98
   451        401
   452        142
   453         53
   454         13
   455          4
   463          4
   464        232
   465         89
   466         35
   467         22
   468          4
   509         22
   510          8
   511          4
   524        120
   525         44
   526         35
   527          8