##TITLE=Library Entry 8888
##JCAMP-DX=Revision 4.10 
##DATA TYPE=MASS SPECTRUM
##SAMPLE DESCRIPTION=W.L.MEAD BRITISH PETROLEUM CO. LTD., SUNBURY-ON-THAMES,
 UK
##NAMES=HP
##CAS NAME=Nonadecane, 4-methyl-
##MOLFORM=C20H42
##CAS REGISTRY NO=25117-27-5
##MP= -300
##BP= -300
##MW= 282
##$RETENTION INDEX=1960
##$CONDENSED SPECTRUM=NO
##NPOINTS= 69
##XYDATA=(XY..XY) 1 
    39        107
    40         26
    41        473
    42        133
    43        999
    44         35
    53         30
    54         27
    55        342
    56        143
    57        636
    58         33
    67         47
    68         26
    69        143
    70        353
    71        737
    72         40
    81         19
    82         23
    83         86
    84         38
    85        307
    86         21
    95         11
    96         17
    97         68
    98         20
    99        118
   100          9
   111         42
   112         17
   113         75
   114          5
   125         20
   126         12
   127         69
   128          7
   138          6
   139         17
   140          6
   141         55
   142          8
   153          3
   154          4
   155         54
   156          5
   167          4
   168          4
   169         31
   170          3
   181          5
   182          7
   183         24
   184          4
   196          3
   197         11
   198          4
   210         18
   211         22
   212          2
   238         74
   239        123
   240         22
   253          7
   254          8
   267          9
   268          2
   282          2