##TITLE=Library Entry 8677
##JCAMP-DX=Revision 4.10 
##DATA TYPE=MASS SPECTRUM
##SAMPLE DESCRIPTION=J. Klune, Insect Chem. Ecol. Lab., USDA, Beltsville, MD
 20705
##NAMES=HP
##CAS NAME=4-Methyldocosane
##MOLFORM=C23H48
##CAS REGISTRY NO=25117-30-0
##MP= -300
##BP= -300
##MW= 324
##$RETENTION INDEX=2257
##$CONDENSED SPECTRUM=NO
##NPOINTS= 194
##XYDATA=(XY..XY) 1 
    41        455
    42        159
    43        999
    44          0
    45          0
    49          1
    50          0
    51          4
    52          1
    53         37
    54          0
    55        531
    56        212
    57        706
    58         31
    59          0
    61          0
    63          4
    65         19
    66          6
    67         95
    68         50
    69        285
    70        726
    71        593
    72         41
    73          1
    75          9
    76          1
    77         24
    78          3
    79         39
    80          9
    81         86
    82         67
    83        194
    84         91
    85        352
    86         22
    87         10
    89         33
    90          4
    91         32
    92          6
    93         30
    94          6
    95        125
    96         46
    97        173
    98         42
    99         97
   100          7
   101          9
   102         18
   103         11
   104          8
   105         11
   106          1
   107         21
   109         82
   110         40
   111         93
   112         26
   113         51
   114          5
   115         13
   116         14
   117         10
   118          7
   119          3
   120          1
   121         12
   122          6
   123        121
   124         18
   125         94
   126         16
   127         41
   129         22
   130          7
   131         15
   132          6
   133          4
   134          1
   135         10
   136         11
   137         27
   138         15
   139         19
   140          9
   141         20
   143          8
   144         23
   145          5
   146          7
   147          4
   148          0
   149          7
   150          2
   151         10
   152         25
   153          8
   154         17
   155         12
   156          3
   157          3
   158          3
   159          1
   160          1
   161          0
   163          4
   164          5
   165         60
   166         19
   167         41
   168         12
   169         15
   170          2
   171          1
   172          0
   173          1
   175          0
   177          2
   178          0
   179          2
   180          2
   181          3
   182          3
   183          7
   184          1
   185          1
   187          0
   189          0
   191          1
   192          0
   193          1
   194          1
   195          1
   196          1
   197          5
   198          0
   199          0
   205          1
   207          1
   208          1
   209          1
   210          1
   211          3
   212          0
   219          0
   221          0
   222          0
   223          0
   224          1
   225          2
   233          0
   235          0
   236          1
   237          0
   238          1
   239          1
   245          0
   249          0
   250          0
   251          0
   252         14
   253         14
   254          1
   261          0
   262          0
   263          1
   264          0
   266         22
   267          5
   268          0
   277          0
   280         38
   281         68
   282         13
   283          1
   289          2
   290          0
   291          0
   294          7
   295          8
   296          1
   298          0
   308          2
   309          7
   310          1
   323          1
   324          8
   325          2
   326          0