##TITLE=Library Entry 22321
##JCAMP-DX=Revision 4.10 
##DATA TYPE=MASS SPECTRUM
##SAMPLE DESCRIPTION=CARL DJERASSI DEPT OF CHEM STANFORD UNIV STANFORD CALIF
 94305
##NAMES=HP
##CAS NAME=Cyclopropane, pentyl-
##MOLFORM=C8H16
##CAS REGISTRY NO=2511-91-3
##MP= -300
##BP= -300
##MW= 112
##$RETENTION INDEX=813
##$CONDENSED SPECTRUM=NO
##NPOINTS= 26
##XYDATA=(XY..XY) 1 
    41        550
    42        570
    43        570
    44         20
    50         10
    51         10
    52         10
    53         50
    54         60
    55        800
    56        999
    57        150
    65         10
    67         40
    68        120
    69        470
    70        530
    71         60
    81         10
    82         60
    83        310
    84        310
    85         20
    97         30
   112         60
   113         10