##TITLE=Library Entry 89864
##JCAMP-DX=Revision 4.10 
##DATA TYPE=MASS SPECTRUM
##SAMPLE DESCRIPTION=Exported from NIST MS Search
##NAMES=HP
##CAS NAME=2,6-Piperidinedione, 3-ethyl-
##MOLFORM=C7H11NO2
##CAS REGISTRY NO=25115-69-9
##MP= -300
##BP= -300
##MW= 141
##$RETENTION INDEX=0
##$CONDENSED SPECTRUM=NO
##NPOINTS= 15
##XYDATA=(XY..XY) 1 
    39        157
    40         54
    41        333
    42        242
    55        327
    56        151
    69        115
    70        203
    84         60
    85        330
    86         90
    98         90
   113        999
   114         90
   126         84