##TITLE=Library Entry 8883
##JCAMP-DX=Revision 4.10 
##DATA TYPE=MASS SPECTRUM
##SAMPLE DESCRIPTION=W.L.MEAD BRITISH PETROLEUM CO. LTD., SUNBURY-ON-THAMES,
 UK
##NAMES=HP
##CAS NAME=Hexadecane, 4-methyl-
##MOLFORM=C17H36
##CAS REGISTRY NO=25117-26-4
##MP= -300
##BP= -300
##MW= 240
##$RETENTION INDEX=1659
##$CONDENSED SPECTRUM=NO
##NPOINTS= 63
##XYDATA=(XY..XY) 1 
    39         94
    40         21
    41        507
    42        132
    43        999
    44         38
    53         33
    54         30
    55        328
    56        123
    57        627
    58         31
    67         35
    68         21
    69        116
    70        343
    71        724
    72         41
    81         11
    82         18
    83         64
    84         41
    85        313
    86         21
    96         15
    97         52
    98         21
    99        106
   100          9
   110          8
   111         30
   112         17
   113         89
   114          7
   124          4
   125         17
   126         12
   127         74
   128          8
   138          3
   139         11
   140          8
   141         48
   142          7
   153          5
   154          4
   155         23
   156          3
   168         29
   169         18
   170          4
   182          2
   183          3
   196         71
   197        103
   198         13
   210          6
   211          8
   212          2
   224          1
   225          8
   226          1
   240          4