##TITLE=Library Entry 89362
##JCAMP-DX=Revision 4.10 
##DATA TYPE=MASS SPECTRUM
##SAMPLE DESCRIPTION=M. VANDEWALLE
##NAMES=HP
##CAS NAME=1,3-Cyclopentanedione, 2-ethyl-2-methyl-
##MOLFORM=C8H12O2
##CAS REGISTRY NO=25112-87-2
##MP= -300
##BP= -300
##MW= 140
##$RETENTION INDEX=0
##$CONDENSED SPECTRUM=NO
##NPOINTS= 24
##XYDATA=(XY..XY) 1 
    41        310
    42         50
    43        280
    53        100
    55        320
    56        570
    57         80
    65         50
    66        100
    69         60
    70        100
    77         20
    79         20
    83        340
    94        100
    97         60
   111        280
   112        999
   113         60
   125        100
   126         20
   139         10
   140        270
   141         30