##TITLE=Library Entry 8882
##JCAMP-DX=Revision 4.10 
##DATA TYPE=MASS SPECTRUM
##SAMPLE DESCRIPTION=W.L.MEAD BRITISH PETROLEUM CO. LTD., SUNBURY-ON-THAMES,
 UK
##NAMES=HP
##CAS NAME=Tetradecane, 4-methyl-
##MOLFORM=C15H32
##CAS REGISTRY NO=25117-24-2
##MP= -300
##BP= -300
##MW= 212
##$RETENTION INDEX=1459
##$CONDENSED SPECTRUM=NO
##NPOINTS= 55
##XYDATA=(XY..XY) 1 
    39         53
    40         14
    41        338
    42        115
    43        999
    44         41
    53         20
    54         17
    55        231
    56        113
    57        910
    58         41
    67         18
    68         17
    69         85
    70        448
    71        940
    72         51
    81          3
    82         17
    83         47
    84         47
    85        388
    86         25
    96         12
    97         41
    98         23
    99        148
   100         11
   110          6
   111         28
   112         18
   113        103
   114          9
   125         17
   126          9
   127         51
   128          5
   139          8
   140         37
   141         26
   142          2
   154          3
   155          5
   168        107
   169        138
   170         18
   182          8
   183         11
   184          2
   196          2
   197         12
   198          1
   212         10
   213          2