##TITLE=Library Entry 2359
##JCAMP-DX=Revision 4.10 
##DATA TYPE=MASS SPECTRUM
##SAMPLE DESCRIPTION=Exported from NIST MS Search
##NAMES=HP
##CAS NAME=2(1H)-Pyrimidinone, tetrahydro-4,5-dihydroxy-1,3-dimethyl-, cis-
##MOLFORM=C6H12N2O3
##CAS REGISTRY NO=25127-82-6
##MP= -300
##BP= -300
##MW= 160
##$RETENTION INDEX=0
##$CONDENSED SPECTRUM=NO
##NPOINTS= 47
##XYDATA=(XY..XY) 1 
    26         50
    27        150
    28        150
    29        150
    30        380
    35        270
    39         70
    40        200
    41        999
    42        950
    43        999
    55        100
    56        210
    57        210
    58        620
    59        380
    60        930
    70         50
    71         50
    72        110
    73        150
    74        210
    84         70
    88        100
    99        100
   100         70
   101         60
   102         70
   114        210
   115        250
   116         70
   117         30
   118        380
   125        600
   126        160
   127         70
   128         60
   129         70
   130         30
   131         50
   141         70
   142        350
   143        210
   144         90
   159         70
   160        100
   161         50