##TITLE=Library Entry 2777
##JCAMP-DX=Revision 4.10 
##DATA TYPE=MASS SPECTRUM
##SAMPLE DESCRIPTION=R RYHAGE MS-LAB KAROLINSKA INSTITUTET STOCKHOLM SWEDEN
##NAMES=HP
##CAS NAME=Androstane-3,17-diol
##MOLFORM=C19H32O2
##CAS REGISTRY NO=25126-76-5
##MP= -300
##BP= -300
##MW= 292
##$RETENTION INDEX=0
##$CONDENSED SPECTRUM=NO
##NPOINTS= 225
##XYDATA=(XY..XY) 1 
    17         28
    18        105
    19         16
    25          5
    26         26
    27        190
    28         74
    29        411
    30         36
    31        124
    32          8
    37          8
    38         13
    39        252
    40         78
    41        999
    42        105
    43        579
    44        252
    45         75
    50         16
    51         44
    52         32
    53        348
    54        108
    55        989
    56         99
    57        653
    58         93
    59         27
    60          5
    63         14
    64          9
    65        124
    66         77
    67        840
    68        317
    69        333
    70         93
    71        171
    72         14
    73          8
    74          8
    75          8
    76          5
    77        292
    78         85
    79        681
    80        174
    81        765
    82        149
    83        180
    84         63
    85         49
    86          6
    87          5
    88          7
    89          8
    90          6
    91        504
    92        131
    93        681
    94        314
    95        560
    96        105
    97        177
    98         26
    99         13
   101          7
   102          6
   103         26
   104         28
   105        373
   106        233
   107        737
   108        320
   109        308
   110         77
   111        121
   112         22
   113         11
   114         26
   115         37
   116        168
   117         79
   118         42
   119        264
   120        190
   121        386
   122        224
   123        283
   124        128
   125         58
   126         16
   127          8
   128         20
   129         30
   130         16
   131        115
   132         41
   133        249
   134        118
   135        215
   136         99
   137         77
   138         47
   139         17
   141          9
   142          8
   143         29
   144         17
   145        171
   146         61
   147        311
   148        246
   149        299
   150         59
   151         70
   152         19
   153         17
   154          5
   155          6
   157         23
   158         14
   159        128
   160         82
   161        187
   162        114
   163         81
   164         50
   165        495
   166        336
   167         83
   168         17
   169          8
   171         26
   172         12
   173        110
   174         74
   175        107
   176         56
   177         44
   178         52
   179         39
   180         25
   181          7
   183          5
   185         36
   186         18
   187         85
   188         51
   189         49
   190         50
   191         64
   192        100
   193         28
   194          9
   197          6
   199         67
   200         33
   201        143
   202         63
   203         34
   204         28
   205         34
   206         58
   207         12
   212         63
   213         32
   214         18
   215        774
   216        180
   217        541
   218        134
   219         93
   220         63
   221         12
   227         12
   228         10
   229         15
   230        134
   231         70
   232         42
   233        784
   234        187
   235        121
   236         19
   237          5
   239          9
   241        134
   242         34
   243         12
   244         10
   245         18
   246         27
   247         10
   248        252
   249         49
   250         10
   255         16
   256         36
   257         32
   258         13
   259        236
   260         50
   261         10
   262          8
   263         26
   264         18
   265          7
   270          9
   272         33
   273         16
   274        218
   275         54
   276         12
   277        392
   278         79
   279          9
   288          8
   290         38
   291         16
   292        830
   293        174
   294         21