##TITLE=Library Entry 56240
##JCAMP-DX=Revision 4.10 
##DATA TYPE=MASS SPECTRUM
##SAMPLE DESCRIPTION=Div. of Experiment Therapeutics WRAIR, WRAMC, Washingto
n DC 20307
##NAMES=HP
##CAS NAME=d,l-1-[Diethylamino]-3-benzenesulfonamidobutane
##MOLFORM=C14H24N2O2S
##CAS REGISTRY NO=25132-09-6
##MP= -300
##BP= -300
##MW= 284
##$RETENTION INDEX=0
##$CONDENSED SPECTRUM=NO
##NPOINTS= 64
##XYDATA=(XY..XY) 1 
    41          9
    42         56
    43         10
    44         62
    45          2
    49          0
    50          5
    51         28
    52          2
    53          2
    54          4
    55         11
    56         46
    57         25
    58        138
    59          5
    65          2
    68          2
    69          2
    70         15
    71         12
    72        208
    73         50
    74          3
    75          1
    76          3
    77        134
    78         10
    79          0
    82          1
    84         14
    85          8
    86        999
    87         62
    88          1
    91          0
    92          0
    97          2
    98          4
    99          5
   100         34
   101          4
   112          1
   113          2
   114          2
   115          2
   125          1
   126          1
   127          4
   128          2
   141         27
   142          2
   143         44
   144          4
   170          2
   184          9
   191          0
   198          1
   255          5
   269          9
   270          1
   283          2
   284          7
   285          1