##TITLE=Library Entry 2560
##JCAMP-DX=Revision 4.10 
##DATA TYPE=MASS SPECTRUM
##SAMPLE DESCRIPTION=Div. of Experiment Therapeutics WRAIR, WRAMC, Washingto
n DC 20307
##NAMES=HP
##CAS NAME=3-Chloro-4-n-hexylamino-1,2-naphthoquinone
##MOLFORM=C16H18ClNO2
##CAS REGISTRY NO=25131-93-5
##MP= -300
##BP= -300
##MW= 291
##$RETENTION INDEX=0
##$CONDENSED SPECTRUM=NO
##NPOINTS= 153
##XYDATA=(XY..XY) 1 
    41        999
    42        132
    43        922
    44         96
    45          9
    49         85
    50        102
    51        196
    52         26
    53        106
    54         19
    55        409
    56        102
    57         59
    58         34
    59         21
    61         15
    62         57
    63         94
    64         36
    65         34
    67         17
    68         18
    69         56
    70         79
    71          9
    73         32
    74         99
    75        148
    76        148
    77        166
    78         47
    79          9
    81         10
    83         24
    84         75
    85         13
    86         63
    87         30
    88         78
    89        159
    91         49
    95         15
    97         13
    98         54
    99        119
   100         58
   101        220
   102        166
   103         76
   104         68
   105         50
   109         13
   111         10
   113         13
   114         61
   115        158
   116         98
   117         20
   123        118
   125         56
   126         13
   127         32
   128        199
   129        201
   130        213
   131         51
   135        169
   136         55
   137         89
   138         12
   139         11
   140          9
   141          9
   142         11
   143         16
   144         54
   145         14
   146         44
   149         53
   150         35
   151         72
   152         30
   153          9
   154         10
   156         65
   158        544
   159         97
   160         10
   163        154
   164         65
   165         85
   166         17
   167         30
   170         42
   171         12
   172        159
   173         12
   174         29
   178         12
   179        348
   180        136
   181        102
   182         52
   184         65
   185         58
   186        124
   187         33
   189         10
   191         11
   192        247
   193        195
   194        113
   195         81
   198         92
   199         70
   200         58
   204          9
   206        175
   207         92
   208        229
   209         62
   210         65
   212         10
   213         10
   214         25
   219          9
   220        837
   221        227
   222        278
   223        105
   226         50
   228        336
   229         60
   234        179
   235         30
   236         59
   248         38
   250         13
   256        695
   257        157
   258         12
   259         18
   262         30
   263         59
   264         13
   265         19
   290         58
   291        316
   292         90
   293        107
   294         30
   295         11