##TITLE=Library Entry 23489
##JCAMP-DX=Revision 4.10 
##DATA TYPE=MASS SPECTRUM
##SAMPLE DESCRIPTION=CARL DJERASSI DEPT OF CHEM STANFORD UNIV STANFORD CALIF
 94305
##NAMES=HP
##CAS NAME=Cyclopentanol, 2-methyl-, trans-
##MOLFORM=C6H12O
##CAS REGISTRY NO=25144-04-1
##MP= -300
##BP= -300
##MW= 100
##$RETENTION INDEX=1344
##$CONDENSED SPECTRUM=NO
##NPOINTS= 29
##XYDATA=(XY..XY) 1 
    41        490
    42        110
    43        320
    44        380
    45        110
    50         30
    51         30
    52         10
    53         70
    54         70
    55        170
    56        280
    57        999
    58        210
    59         20
    61         10
    65         10
    67        270
    68         20
    69         30
    70         20
    71        280
    72        110
    79         10
    81         30
    82        330
    83         50
    85         20
   100         80