##TITLE=Library Entry 25716
##JCAMP-DX=Revision 4.10 
##DATA TYPE=MASS SPECTRUM
##SAMPLE DESCRIPTION=Japan AIST/NIMC Database- Spectrum MS-NW-9176
##NAMES=HP
##CAS NAME=Cyclopentanol, 2-methyl-, cis-
##MOLFORM=C6H12O
##CAS REGISTRY NO=25144-05-2
##MP= -300
##BP= -300
##MW= 100
##$RETENTION INDEX=0
##$CONDENSED SPECTRUM=NO
##NPOINTS= 60
##XYDATA=(XY..XY) 1 
    14          1
    15         10
    17          2
    18          7
    26          9
    27        107
    28         56
    29        148
    30         31
    31         46
    32          1
    37          3
    38          9
    39        110
    40         31
    41        339
    42         76
    43        178
    44        326
    45         81
    46          2
    47          1
    50          7
    51         11
    52          5
    53         38
    54         58
    55        126
    56        269
    57        999
    58        178
    59         14
    62          1
    63          2
    65          9
    66          6
    67        378
    68         28
    69         26
    70         14
    71        318
    72        115
    73          7
    77          6
    78          1
    79         13
    80          4
    81         50
    82        385
    83         46
    84          2
    85         16
    94          1
    95          3
    96          5
    97          2
    98          2
    99          4
   100         82
   101          5