##TITLE=Library Entry 28756
##JCAMP-DX=Revision 4.10 
##DATA TYPE=MASS SPECTRUM
##SAMPLE DESCRIPTION=Japan AIST/NIMC Database- Spectrum MS-NW-9119
##NAMES=HP
##CAS NAME=Benzenemethanaminium, N,N-dimethyl-N-[2-[2-[methyl-4-(1,1,3,3-tet
ramethylbutyl)phenoxy]ethoxy]ethyl]-, chloride
##MOLFORM=C28H44ClNO2
##CAS REGISTRY NO=25155-18-4
##MP= -300
##BP= -300
##MW= 461
##$RETENTION INDEX=0
##$CONDENSED SPECTRUM=NO
##NPOINTS= 104
##XYDATA=(XY..XY) 1 
    15          2
    18          1
    26          1
    27          3
    28          6
    29          7
    30          5
    38          2
    39         11
    40          1
    41         12
    42          9
    43         10
    44         16
    45          9
    50          5
    51          6
    52          2
    53          1
    55          3
    56          5
    57         33
    58        999
    59         39
    62          2
    63          9
    64          3
    65         21
    66          1
    69          1
    70          6
    71          6
    72         66
    73          4
    74          1
    75          1
    77          2
    78          1
    79          1
    84          1
    85          1
    86          3
    87          1
    88          1
    89         24
    90          6
    91        174
    92         13
    93          1
    99          1
   100          3
   101          1
   102          1
   103          3
   105          4
   106          1
   107          2
   109          1
   114          1
   115          2
   116        136
   117         11
   118          1
   119          2
   120          2
   121          4
   125          4
   126         33
   127          4
   128         10
   129          1
   131          1
   132          3
   133          6
   134         56
   135          8
   147          3
   148         11
   149         15
   150          2
   161          2
   162          1
   163          1
   175         13
   176          2
   191          1
   192          5
   193          3
   219          2
   220          1
   246          6
   247          1
   250          1
   255          1
   264         16
   265          3
   278          2
   279          1
   292          1
   320          2
   334          3
   335         16
   336          4
   340          1