##TITLE=Library Entry 16592
##JCAMP-DX=Revision 4.10 
##DATA TYPE=MASS SPECTRUM
##SAMPLE DESCRIPTION=H. Fales, LC, NHLBI, NIH, Bethesda, MD 20892
##NAMES=HP
##CAS NAME=Tetrahydrooxocrinine methine
##MOLFORM=C17H21NO3
##CAS REGISTRY NO=2515-43-7
##MP= -300
##BP= -300
##MW= 287
##$RETENTION INDEX=0
##$CONDENSED SPECTRUM=NO
##NPOINTS= 192
##XYDATA=(XY..XY) 1 
    42        601
    43         31
    44        999
    45         25
    46          1
    47          4
    49         16
    50         29
    51         95
    52         29
    53         55
    55        196
    56         29
    57         89
    58         87
    59         21
    60          4
    61          2
    62         13
    63         54
    64         31
    65         66
    66         18
    67         31
    68         11
    69         12
    70        100
    71         19
    72         23
    74         14
    75         27
    76         43
    77        129
    78         48
    79         44
    80         13
    81         14
    82         12
    83         13
    84         21
    85         12
    86         24
    87         24
    88          5
    89         74
    90         16
    91         69
    92         16
    93         23
    94         28
    95         17
    96         26
    97          6
    98          4
    99          4
   100         21
   101         59
   102         79
   103         65
   104         25
   105         24
   106         12
   107         34
   108         19
   109          8
   110          6
   111         10
   112          3
   113          8
   114          5
   115        258
   116         69
   117         38
   118         24
   119         16
   120         11
   121         26
   122          7
   123          5
   124          7
   126         12
   127         63
   128        162
   129        108
   130         53
   131         39
   132         17
   133          7
   134          3
   135        477
   136         76
   137          7
   138          4
   139          8
   140          3
   141         31
   142         19
   143         88
   144         46
   145         22
   146         21
   147         28
   148         41
   149         62
   150         13
   151          3
   152         36
   153         13
   154          5
   155         13
   156         18
   157         61
   158         31
   159         37
   160         48
   161         34
   162         43
   163         31
   164         21
   165          7
   166          9
   167          5
   168          5
   169         11
   170         18
   171         30
   172         55
   173        128
   174         76
   175         43
   176        718
   177        178
   178         25
   179          3
   181          3
   182          0
   183          4
   184          3
   185         81
   186        126
   187        157
   188        156
   189         34
   190        341
   191         79
   192          9
   195          3
   197          5
   198          8
   199         60
   200         58
   201         53
   202         84
   203         29
   204         12
   205          4
   211          3
   212          4
   213         10
   214         29
   215         16
   216         79
   217         19
   218        126
   219         18
   220          3
   225          4
   226          5
   227          8
   228         86
   229         42
   230        159
   231         44
   232         10
   241          5
   242          6
   243         26
   244         40
   245          7
   256         30
   257         13
   258         28
   259         13
   270          7
   272        332
   273         58
   274          8
   284          3
   286        394
   287        752
   288        141
   289         19