##TITLE=Library Entry 49731
##JCAMP-DX=Revision 4.10 
##DATA TYPE=MASS SPECTRUM
##SAMPLE DESCRIPTION=NIST Mass Spectrometry Data Center, 1994
##NAMES=HP
##CAS NAME=2,4-Decadienal, (E,E)-
##MOLFORM=C10H16O
##CAS REGISTRY NO=25152-84-5
##MP= -300
##BP= -300
##MW= 152
##$RETENTION INDEX=1317
##$CONDENSED SPECTRUM=NO
##NPOINTS= 84
##XYDATA=(XY..XY) 1 
    14          2
    15         16
    16          0
    24          0
    27        243
    28         21
    29        290
    30          6
    31          9
    37          7
    39        286
    40         84
    41        419
    42         91
    43         41
    44          1
    45          1
    46          0
    50         25
    51         56
    52         36
    53        134
    54        110
    55        164
    56         14
    57         24
    58          1
    59          0
    60          1
    61          2
    62          8
    63         18
    64          0
    65         85
    66         89
    67        194
    68         62
    69         27
    70         44
    71          3
    74          2
    75          1
    77         57
    78         25
    79         85
    80          1
    81        999
    82        100
    83        103
    84         21
    85          1
    86          0
    87          0
    89          1
    91         22
    92          6
    93         14
    94         19
    95         96
    96         34
    97          5
    98          2
   102          0
   103          1
   105          6
   106          2
   107          5
   108         11
   109         18
   110          4
   111          1
   115          0
   117          0
   119          4
   121          2
   123         20
   124          3
   133          0
   134          1
   135          0
   137          2
   152         70
   153          8
   154          0