##TITLE=Library Entry 24118
##JCAMP-DX=Revision 4.10 
##DATA TYPE=MASS SPECTRUM
##SAMPLE DESCRIPTION=CHEM. RES. LAB., WRIGHT-PATTERSON AIR FORCE BASE, OHIO,
 USA
##NAMES=HP
##CAS NAME=Acetic acid, (2,4-dichlorophenoxy)-, isooctyl ester
##MOLFORM=C16H22Cl2O3
##CAS REGISTRY NO=25168-26-7
##MP= -300
##BP= -300
##MW= 332
##$RETENTION INDEX=0
##$CONDENSED SPECTRUM=NO
##NPOINTS= 52
##XYDATA=(XY..XY) 1 
    27         66
    29        151
    39         33
    41        300
    42         77
    43        723
    44         17
    53         13
    55        311
    56        201
    57        999
    58         41
    63         20
    67         11
    68         16
    69        206
    70        179
    71        305
    72         19
    74         14
    75         22
    83        117
    84         53
    85         61
    97         81
    98         10
   101         16
   109         26
   110         10
   111         48
   112         14
   113         19
   133         15
   145         52
   147         45
   149         11
   161         13
   162         48
   163         14
   164         30
   175         99
   176         12
   177         63
   179         11
   220        146
   221         14
   222         90
   223         11
   224         15
   332         64
   333         15
   334         42