##TITLE=Library Entry 15308
##JCAMP-DX=Revision 4.10 
##DATA TYPE=MASS SPECTRUM
##SAMPLE DESCRIPTION=Japan AIST/NIMC Database- Spectrum MS-NW-6425
##NAMES=HP
##CAS NAME=Cyclopropyl carbinol
##MOLFORM=C4H8O
##CAS REGISTRY NO=2516-33-8
##MP= -300
##BP= -300
##MW= 72
##$RETENTION INDEX=652
##$CONDENSED SPECTRUM=NO
##NPOINTS= 39
##XYDATA=(XY..XY) 1 
    15         17
    16          1
    17          2
    18         11
    25          3
    26         24
    27        121
    28         25
    29         64
    30          3
    31        167
    32          2
    34          1
    36          1
    37         11
    38         20
    39        141
    40         21
    41        106
    42        120
    43        220
    44        999
    45         29
    46          2
    49          3
    50         10
    51          9
    52          3
    53         32
    54         19
    55         48
    56          4
    57         41
    58          3
    61          6
    69          8
    70          8
    71          6
    72          3