##TITLE=Library Entry 957
##JCAMP-DX=Revision 4.10 
##DATA TYPE=MASS SPECTRUM
##SAMPLE DESCRIPTION=NIST Mass Spectrometry Data Center, 1994
##NAMES=HP
##CAS NAME=(Aminomethyl)cyclopropane
##MOLFORM=C4H9N
##CAS REGISTRY NO=2516-47-4
##MP= -300
##BP= -300
##MW= 71
##$RETENTION INDEX=0
##$CONDENSED SPECTRUM=NO
##NPOINTS= 44
##XYDATA=(XY..XY) 1 
    12          3
    13          5
    14         22
    15         69
    16          9
    17         17
    18         24
    24          0
    25          6
    26         55
    27        152
    28        393
    29         94
    30        999
    31         14
    32          2
    34          3
    36          3
    37         28
    38         53
    39        186
    40         41
    41         95
    42        355
    43        783
    44         24
    49          3
    50         17
    51         19
    52         14
    53         32
    54         42
    55         20
    56         32
    57          1
    64          0
    65          1
    66          1
    67          1
    68          9
    69          0
    70         66
    71         96
    72          5