##TITLE=Library Entry 9856
##JCAMP-DX=Revision 4.10 
##DATA TYPE=MASS SPECTRUM
##SAMPLE DESCRIPTION=J. Klune, Insect Chem. Ecol. Lab., USDA, Beltsville, MD
 20705
##NAMES=HP
##CAS NAME=5-Methyldocosane
##MOLFORM=C23H48
##CAS REGISTRY NO=25163-52-4
##MP= -300
##BP= -300
##MW= 324
##$RETENTION INDEX=2252
##$CONDENSED SPECTRUM=NO
##NPOINTS= 74
##XYDATA=(XY..XY) 1 
    41        388
    42        120
    43        999
    44         33
    49          9
    53         19
    54         32
    55        307
    56        217
    57        837
    58         33
    67         49
    68         37
    69        207
    70        107
    71        493
    72         25
    79          8
    81         25
    82         44
    83        147
    84        775
    85        924
    86         63
    95          9
    96         27
    97        124
    98         51
    99        151
   100         13
   110         14
   111         67
   112         31
   113         95
   114          4
   124          4
   125         35
   126         23
   127         70
   139         18
   140         21
   141         61
   153          9
   154         14
   155         48
   168          8
   169         43
   183         37
   197         29
   210         13
   211         24
   224          8
   225         19
   238        211
   239        128
   240         24
   252         23
   253         26
   266        618
   267        822
   268        155
   269         12
   280         51
   281         71
   282         13
   294         67
   295        114
   296         27
   308         24
   309        125
   310         33
   323         11
   324        200
   325         49