##TITLE=Library Entry 6509
##JCAMP-DX=Revision 4.10 
##DATA TYPE=MASS SPECTRUM
##SAMPLE DESCRIPTION=Chuck Anderson, Aldrich Chemical Co.
##NAMES=HP
##CAS NAME=Cyclobutylamine
##MOLFORM=C4H9N
##CAS REGISTRY NO=2516-34-9
##MP= -300
##BP= -300
##MW= 71
##$RETENTION INDEX=0
##$CONDENSED SPECTRUM=NO
##NPOINTS= 34
##XYDATA=(XY..XY) 1 
    14          0
    15          7
    17          1
    18          2
    25          0
    26         11
    27         40
    28         61
    29         10
    30         26
    33          1
    34          3
    36          0
    37          7
    38         14
    39         49
    40         19
    41         70
    42        339
    43        999
    44         35
    49          1
    50          7
    51          8
    52          5
    53          8
    54          7
    55          5
    56          7
    68          3
    69          0
    70          3
    71          2
    72          6