##TITLE=Library Entry 21918
##JCAMP-DX=Revision 4.10 
##DATA TYPE=MASS SPECTRUM
##SAMPLE DESCRIPTION=Japan AIST/NIMC Database- Spectrum MS-NW-6216
##NAMES=HP
##CAS NAME=2-Azetidinecarboxylic acid
##MOLFORM=C4H7NO2
##CAS REGISTRY NO=2517-04-6
##MP= -300
##BP= -300
##MW= 101
##$RETENTION INDEX=0
##$CONDENSED SPECTRUM=NO
##NPOINTS= 57
##XYDATA=(XY..XY) 1 
    12          1
    13          2
    14          5
    15          9
    16          1
    17          2
    18          7
    25          4
    26         40
    27        103
    28        568
    29         63
    30        133
    31          3
    32          1
    37          2
    38          5
    39          8
    40          7
    41         13
    42          9
    43          4
    44         15
    45         42
    46          5
    47          1
    50          1
    51          5
    52          9
    53          4
    54         41
    55         78
    56        999
    57         43
    58          1
    63          1
    64          1
    65          1
    68          1
    69          1
    70          1
    71          1
    72          3
    73         33
    74          5
    80          1
    81          1
    82          3
    83          2
    84          1
    85          1
    86          1
    97          1
    98          1
   100          1
   101         63
   102          4