##TITLE=Library Entry 29567
##JCAMP-DX=Revision 4.10 
##DATA TYPE=MASS SPECTRUM
##SAMPLE DESCRIPTION=Japan AIST/NIMC Database- Spectrum MS-NW-9315
##NAMES=HP
##CAS NAME=1-Butanol, 3-methoxy-
##MOLFORM=C5H12O2
##CAS REGISTRY NO=2517-43-3
##MP= -300
##BP= -300
##MW= 104
##$RETENTION INDEX=786
##$CONDENSED SPECTRUM=NO
##NPOINTS= 49
##XYDATA=(XY..XY) 1 
    14          1
    15         21
    18          2
    26          4
    27         37
    28         14
    29        110
    30          6
    31        187
    32          6
    33         70
    34          1
    37          1
    38          3
    39         31
    40          8
    41         69
    42         51
    43         80
    44          9
    45         41
    46          1
    50          1
    51          1
    53          9
    54          5
    55         56
    56         17
    57         54
    58         27
    59        999
    60         39
    61          6
    63          2
    69          2
    70          3
    71         45
    72         23
    73         12
    74          4
    85          7
    86         20
    87          3
    89         68
    90          3
   101          1
   103          3
   104          1
   105          1