##TITLE=Library Entry 85143
##JCAMP-DX=Revision 4.10 
##DATA TYPE=MASS SPECTRUM
##SAMPLE DESCRIPTION=A.A.Kutin, Moscow, Russia
##NAMES=HP
##CAS NAME=3-(p-Methoxyphenyl)propionic acid
##MOLFORM=C10H12O3
##CAS REGISTRY NO=25173-37-9
##MP= -300
##BP= -300
##MW= 180
##$RETENTION INDEX=0
##$CONDENSED SPECTRUM=NO
##NPOINTS= 73
##XYDATA=(XY..XY) 1 
    37          3
    38         12
    39         81
    40          8
    41         14
    42         10
    43         26
    44          5
    45        131
    46          2
    47          1
    49          2
    50         43
    51         94
    52         57
    53         60
    54          5
    55         41
    56          2
    57          0
    60          1
    61          3
    62         13
    63         39
    64         10
    65         71
    66          8
    67          3
    68          2
    69          1
    71          3
    72          1
    73         28
    74          8
    75          4
    77        258
    78         75
    79        140
    80         66
    81          8
    85          0
    86          2
    87          1
    89         22
    90         56
    91        111
    92         13
    93         11
    94          1
    95          0
   103          1
   105         11
   107        510
   108        999
   109         84
   110          5
   115          1
   117          1
   118          0
   119          4
   120          1
   121         20
   122          2
   133          2
   134          4
   135          8
   136          0
   163          6
   164          0
   178          2
   180        366
   181         41
   182          4