##TITLE=Library Entry 45259
##JCAMP-DX=Revision 4.10 
##DATA TYPE=MASS SPECTRUM
##SAMPLE DESCRIPTION=D.HENNEBERG, MAX-PLANCK INSTITUTE, MULHEIM, WEST GERMAN
Y
##NAMES=HP
##CAS NAME=Ethane, 1,1,2,2-tetramethoxy-
##MOLFORM=C6H14O4
##CAS REGISTRY NO=2517-44-4
##MP= -300
##BP= -300
##MW= 150
##$RETENTION INDEX=0
##$CONDENSED SPECTRUM=NO
##NPOINTS= 36
##XYDATA=(XY..XY) 1 
    27          2
    28         21
    29         23
    30          7
    31         50
    32          4
    33          1
    41          0
    42          2
    43         17
    44          6
    45        118
    46          3
    47        146
    48          3
    56          0
    57          0
    58          1
    59          5
    60          0
    61          2
    72          0
    73        174
    74          7
    75        999
    76         31
    77          3
    86          0
    88         12
    89          1
   103          3
   118          1
   119        109
   120          6
   121          0
   133          0