##TITLE=Library Entry 37604
##JCAMP-DX=Revision 4.10 
##DATA TYPE=MASS SPECTRUM
##SAMPLE DESCRIPTION=V.G. Zaikin, R.S.Borisov, TIPS RAS, Moscow, Russia
##NAMES=HP
##CAS NAME=Cyclohexanecarboxylic acid, 3-methylbutyl ester
##MOLFORM=C12H22O2
##CAS REGISTRY NO=25183-19-1
##MP= -300
##BP= -300
##MW= 198
##$RETENTION INDEX=1435
##$CONDENSED SPECTRUM=NO
##NPOINTS= 61
##XYDATA=(XY..XY) 1 
    26          3
    27         32
    29         39
    39         42
    40          7
    41        149
    42         48
    43        199
    44          8
    45          4
    47          2
    51          3
    52          2
    53         22
    54         29
    55        323
    56         34
    57          4
    60          4
    61          3
    65          3
    66          3
    67         45
    68         33
    69         38
    70        999
    71        196
    72          8
    73         44
    74          2
    77          4
    79         10
    80          3
    81         41
    82         22
    83        476
    84         35
    85          4
    86          6
    87          7
    93         14
    99         11
   100          2
   109          4
   110         28
   111        209
   112         15
   113          6
   115         14
   127          5
   128         59
   129        337
   130         25
   131          1
   141          3
   143         23
   155         18
   156          3
   157          3
   183          5
   198          2