##TITLE=Library Entry 69518
##JCAMP-DX=Revision 4.10 
##DATA TYPE=MASS SPECTRUM
##SAMPLE DESCRIPTION=ATLAS OF MASS SPECTRA OF ORGANIC COMPOUNDS, V. A. KOPTY
UG, ED.
##NAMES=HP
##CAS NAME=2-Pentenal, 2-methyl-, diethylhydrazone
##MOLFORM=C10H20N2
##CAS REGISTRY NO=25186-09-8
##MP= -300
##BP= -300
##MW= 168
##$RETENTION INDEX=0
##$CONDENSED SPECTRUM=NO
##NPOINTS= 52
##XYDATA=(XY..XY) 1 
    28        289
    29        567
    30        333
    39        256
    40         64
    41        856
    42        544
    43         89
    53        189
    54         78
    55        233
    56        356
    57         74
    58        756
    59        111
    65         51
    67        189
    68         78
    69        200
    70        167
    71         48
    72        356
    73         48
    74         78
    79         83
    80         78
    81        311
    82        200
    83        200
    84        222
    85        111
    94        156
    95        178
    96        999
    97        233
    98         89
   108         90
   109         89
   110         90
   111        256
   112         94
   113         66
   124         89
   125         94
   138         67
   139        889
   140        100
   153        556
   154         63
   167         30
   168        833
   169         86