##TITLE=Library Entry 109899
##JCAMP-DX=Revision 4.10 
##DATA TYPE=MASS SPECTRUM
##SAMPLE DESCRIPTION=RADIAN CORP
##NAMES=HP
##CAS NAME=Benzene, 1,3-dichloro-5-methyl-
##MOLFORM=C7H6Cl2
##CAS REGISTRY NO=25186-47-4
##MP= -300
##BP= -300
##MW= 160
##$RETENTION INDEX=1132
##$CONDENSED SPECTRUM=NO
##NPOINTS= 68
##XYDATA=(XY..XY) 1 
    14          2
    26          5
    27          8
    28         10
    32          2
    35          5
    36          3
    37         20
    38         24
    39         60
    40          6
    43         35
    44         68
    47          5
    48          3
    49         21
    50         50
    51         32
    52          3
    60         15
    61         50
    62        124
    63        163
    64         18
    65         11
    72          9
    73         68
    74         36
    75         47
    76          3
    77          3
    80          8
    81          5
    83          4
    84         19
    85         30
    86         33
    87         32
    88          8
    89        212
    90         37
    91          2
    96          4
    97         27
    98          3
    99         70
   100          4
   101         20
   107          6
   108          2
   109         12
   110          3
   111          5
   123         45
   124         16
   125        999
   126         80
   127        321
   128         24
   133         15
   135         10
   159         75
   160        521
   161         89
   162        337
   163         34
   164         53
   165          4