##TITLE=Library Entry 45970
##JCAMP-DX=Revision 4.10 
##DATA TYPE=MASS SPECTRUM
##SAMPLE DESCRIPTION=NIST Mass Spectrometry Data Center, 1994
##NAMES=HP
##CAS NAME=2,6-Dichlorobenzaldoxime
##MOLFORM=C7H5Cl2NO
##CAS REGISTRY NO=25185-95-9
##MP= -300
##BP= -300
##MW= 189
##$RETENTION INDEX=0
##$CONDENSED SPECTRUM=NO
##NPOINTS= 129
##XYDATA=(XY..XY) 1 
    12         17
    13          8
    16        101
    17        152
    18        179
    24          8
    25         35
    26         85
    27         26
    28        281
    29          8
    30        260
    32          2
    35        121
    36        129
    37        457
    38        279
    39        183
    40         16
    42          5
    43         36
    44        173
    47        128
    48         73
    49        316
    50        609
    51        228
    52         56
    53         21
    54          5
    55         37
    56         19
    59         78
    60        134
    61        335
    62        413
    63        630
    64         98
    65         22
    66          9
    67          9
    68         35
    69         13
    71         29
    72        154
    73        612
    74        857
    75        999
    76        218
    79         11
    84        331
    85        252
    86        281
    87        212
    88        109
    89        151
    90        442
    91        132
    92         12
    95         12
    96         46
    97        125
    98        221
    99        605
   100        894
   101        230
   102         61
   103          8
   106         11
   107         28
   108         74
   109        600
   110        219
   111        323
   112         73
   113         40
   116          7
   118        345
   119         63
   120         20
   121         22
   122          7
   123        296
   124        130
   125        378
   126        658
   127        168
   128        220
   129         28
   133         43
   134         61
   135         90
   136        825
   137        114
   138        273
   139         28
   145        246
   146        220
   147        168
   148        137
   149         39
   150         23
   153        524
   154        859
   155        226
   156        308
   157         30
   158         23
   159         83
   160         23
   161         80
   162        156
   163         35
   164         97
   165          8
   166         16
   171        736
   172        188
   173        531
   174        112
   175        109
   176         23
   187          6
   189        952
   190         76
   191        624
   192         50
   193        103
   194          8