##TITLE=Library Entry 27585
##JCAMP-DX=Revision 4.10 
##DATA TYPE=MASS SPECTRUM
##SAMPLE DESCRIPTION=A.Mazepa, Phys.-Chem.Institute, Odessa, Ukraine
##NAMES=HP
##CAS NAME=2,2-Dimethyl-propionic acid 7-bromo-5-(2-chloro-phenyl)-2-oxo-2,3
-dihydro-1H-benzo[e][1,4]diazepin-3-yl ester
##MOLFORM=C20H18BrClN2O3
##CAS REGISTRY NO=251968-46-4
##MP= -300
##BP= -300
##MW= 448
##$RETENTION INDEX=0
##$CONDENSED SPECTRUM=NO
##NPOINTS= 213
##XYDATA=(XY..XY) 1 
    50         19
    51         11
    53          5
    54          9
    55         42
    56         30
    57        999
    58         45
    59         11
    60          7
    63         27
    64         45
    65         21
    66         10
    68         15
    69         24
    70         15
    71         20
    74         15
    75         51
    76         21
    77         20
    78          4
    81          7
    82          6
    83         10
    84          4
    85         99
    86         10
    87         14
    88         14
    89         19
    90         14
    91         25
    92         13
    93          4
    94          2
    97          8
    98          5
    99          9
   100          8
   101         11
   102         45
   103         15
   104          2
   105          6
   106          2
   110          2
   111         16
   112          4
   113          9
   114          3
   115          5
   116          6
   117          6
   118          2
   123          4
   124          2
   125          6
   126          4
   127          4
   128          3
   129          5
   130          5
   131          2
   137          5
   138         26
   139         13
   140         10
   141          3
   142          3
   143          6
   144          1
   145          9
   148          1
   149         13
   150         16
   151         19
   152          8
   153          2
   154          1
   162          2
   163          4
   164          8
   165          6
   166          7
   167          4
   168          2
   171          2
   172          7
   173          3
   174          1
   175          4
   176         11
   177         33
   178         14
   179          5
   180          2
   185          1
   186          5
   187          1
   191          3
   192         13
   193          6
   194          5
   195          7
   196          2
   197          5
   198          2
   202          2
   203          6
   204          9
   205         16
   206          5
   207          4
   212          2
   213          3
   214          1
   220          3
   221          5
   222          1
   223          5
   224          1
   225          6
   226          2
   227          3
   228          6
   229          2
   230          2
   238          2
   239         19
   240         12
   241          9
   242          6
   243          2
   244          2
   255          2
   256          7
   257          5
   258          3
   259          2
   260          1
   271          1
   272          1
   273          2
   274          1
   275          3
   283          9
   284          4
   285         14
   286          7
   287          3
   288          3
   292          2
   293          2
   294          5
   296          1
   299          5
   300          1
   301          7
   302          1
   303          3
   306          1
   307          7
   308          4
   309          7
   310          2
   311          3
   312          2
   313          6
   314          2
   315          4
   317          5
   318          6
   319         47
   320         21
   321         68
   322         18
   323         33
   324          7
   325          3
   329          8
   330          1
   331          8
   332          1
   333          2
   334          2
   335        102
   336         24
   337        129
   338         29
   339         32
   340          6
   347         10
   348         10
   349         15
   350         10
   351          4
   352          2
   363         34
   364         92
   365         60
   366        118
   367         34
   368         30
   369          5
   433          1
   435          2
   448         11
   449          2
   450         15
   451          3
   452          2