##TITLE=Library Entry 44737
##JCAMP-DX=Revision 4.10 
##DATA TYPE=MASS SPECTRUM
##SAMPLE DESCRIPTION=N.W. DAVIES, UNIVERSITY OF TASMANIA, TASMANIA, AUSTRALI
A
##NAMES=HP
##CAS NAME=Methyl 6-methyl heptanoate
##MOLFORM=C9H18O2
##CAS REGISTRY NO=2519-37-1
##MP= -300
##BP= -300
##MW= 158
##$RETENTION INDEX=1069
##$CONDENSED SPECTRUM=NO
##NPOINTS= 40
##XYDATA=(XY..XY) 1 
    27        139
    29        156
    31         15
    39        109
    40         27
    41        349
    42         79
    43        483
    44         46
    45         23
    53         29
    55        299
    56         81
    57        192
    58         13
    59        144
    67         35
    68         11
    69        179
    70         15
    71         25
    73         53
    74        999
    75         89
    81         20
    82        171
    83        149
    84         46
    85         30
    87        533
    88         54
    93         60
    99         15
   101         51
   109         76
   111         37
   115         83
   126         11
   127         64
   129         11