##TITLE=Library Entry 54319
##JCAMP-DX=Revision 4.10 
##DATA TYPE=MASS SPECTRUM
##SAMPLE DESCRIPTION=NIST Mass Spectrometry Data Center, 1998.
##NAMES=HP
##CAS NAME=Cyclopentanone, 2-(3-methyl-2-buten-1-yl)-
##MOLFORM=C10H16O
##CAS REGISTRY NO=2520-60-7
##MP= -300
##BP= -300
##MW= 152
##$RETENTION INDEX=0
##$CONDENSED SPECTRUM=NO
##NPOINTS= 97
##XYDATA=(XY..XY) 1 
    15          5
    26         12
    27        141
    28         23
    29         79
    30          2
    31          1
    37          3
    38         15
    39        296
    40         55
    41        679
    42         67
    43         76
    44          3
    45          2
    46          2
    47          1
    48          1
    49          1
    50         26
    51         70
    52         38
    53        214
    54         80
    55        299
    56        154
    57         24
    58          2
    59          3
    61          2
    62          8
    63         19
    64          4
    65         67
    66         34
    67        295
    68        105
    69        593
    70         38
    71          5
    72          1
    74          3
    75          2
    76          2
    77        100
    78         23
    79        196
    80         34
    81        481
    82         67
    83        457
    84        999
    85         58
    86          4
    87          1
    89          2
    91         86
    92         15
    93        105
    94         19
    95        130
    96        112
    97        566
    98         40
    99          2
   103          3
   104          1
   105         37
   106         26
   107         21
   108         17
   109        286
   110         36
   111          7
   115          2
   117          4
   118          1
   119         50
   120          5
   121          4
   122          1
   123         17
   124         19
   125          2
   131          1
   133          7
   134         24
   135          8
   136          1
   137        160
   138         16
   139          1
   150          1
   152        711
   153         80
   154          5