##TITLE=Library Entry 54219
##JCAMP-DX=Revision 4.10 
##DATA TYPE=MASS SPECTRUM
##SAMPLE DESCRIPTION=D.HORTON THE OHIO STATE UNIV., COLUMBUS, OHIO, USA
##NAMES=HP
##CAS NAME=Celesticetin
##MOLFORM=C24H36N2O9S
##CAS REGISTRY NO=2520-21-0
##MP= -300
##BP= -300
##MW= 528
##$RETENTION INDEX=0
##$CONDENSED SPECTRUM=NO
##NPOINTS= 18
##XYDATA=(XY..XY) 1 
    59         45
    84        999
    92         40
   120         85
   121         40
   138         40
   229         25
   313          1
   331         20
   389          0
   408          1
   427          0
   469          0
   472          0
   497          0
   510          0
   513          0
   528          5