##TITLE=Library Entry 71503
##JCAMP-DX=Revision 4.10 
##DATA TYPE=MASS SPECTRUM
##SAMPLE DESCRIPTION=S.OMOTO MICROBIAL CHEM. RES. FOUNDATION, TOKYO, JAPAN
##NAMES=HP
##CAS NAME=.alpha.-D-Mannopyranoside, methyl, 2,4,6-triacetate 3-carbamate
##MOLFORM=C14H21NO10
##CAS REGISTRY NO=25217-95-2
##MP= -300
##BP= -300
##MW= 363
##$RETENTION INDEX=0
##$CONDENSED SPECTRUM=NO
##NPOINTS= 110
##XYDATA=(XY..XY) 1 
    30         37
    31        109
    39         83
    40         45
    41        220
    42        140
    43        536
    44        382
    45        196
    53         48
    54         29
    55        104
    56        114
    57        145
    58         37
    59         45
    60        262
    61        394
    62         55
    65         32
    68         43
    69        463
    70        622
    71        147
    73        270
    74        480
    75         60
    76         39
    80        160
    81        434
    82         59
    83         59
    84        110
    85        238
    86        169
    87        421
    97        351
    98        999
    99        580
   100         88
   101         47
   102        568
   103        915
   104        263
   105         62
   109        209
   110         36
   111         44
   112        366
   113         91
   115        999
   116        635
   117         90
   121         26
   122         23
   123         30
   126        153
   127        436
   128        106
   129        133
   130         50
   139         59
   140        636
   141        271
   142         58
   144        234
   145        284
   146        169
   149        839
   150         84
   157        326
   158        721
   159         99
   163         23
   168         25
   169        185
   170        102
   171         35
   172         17
   175         14
   182         67
   183         43
   187         42
   188         22
   199         53
   200        696
   201        113
   202         23
   205         53
   217         40
   218        106
   223         69
   229         21
   242        153
   243        106
   244         35
   260         83
   261         13
   270          6
   278         18
   279          5
   289         13
   290         31
   291          4
   303          6
   304          4
   313          4
   332         50
   333          8
   334          1