##TITLE=Library Entry 1653
##JCAMP-DX=Revision 4.10 
##DATA TYPE=MASS SPECTRUM
##SAMPLE DESCRIPTION=A.A.Kutin, Moscow, Russia
##NAMES=HP
##CAS NAME=Carbamic acid, N-(3,5-dichlorophenyl)-, 2-propynyl ester
##MOLFORM=C10H7Cl2NO2
##CAS REGISTRY NO=25216-52-8
##MP= -300
##BP= -300
##MW= 243
##$RETENTION INDEX=0
##$CONDENSED SPECTRUM=NO
##NPOINTS= 87
##XYDATA=(XY..XY) 1 
    35         80
    37        303
    38        452
    39        999
    40         55
    42         15
    44         28
    45          7
    47         36
    48         15
    49         36
    50         36
    51         44
    52         53
    53         80
    54         64
    55        119
    56         34
    60         65
    61         82
    62        111
    63        109
    64         20
    65          2
    71          2
    72         39
    73         75
    74         54
    75         52
    76         17
    83          3
    84         14
    85         15
    86         31
    87         29
    88         37
    89         20
    90         39
    96          3
    97         43
    98         19
    99         23
   100          7
   101         14
   102          4
   107          6
   109         29
   110          6
   111         10
   112          2
   123          5
   124        156
   125         58
   126         53
   127         33
   128         25
   129          4
   133        132
   135         83
   136         24
   137         12
   145         21
   146          2
   147         14
   159         61
   160         98
   161         71
   162         74
   163         35
   164        118
   166         41
   171         20
   172          9
   173         12
   187        243
   189        179
   190         25
   191         12
   198        180
   199         32
   200        127
   201         11
   202         16
   243        233
   245        157
   246          7
   247         23