##TITLE=Library Entry 62341
##JCAMP-DX=Revision 4.10 
##DATA TYPE=MASS SPECTRUM
##SAMPLE DESCRIPTION=Japan AIST/NIMC Database- Spectrum MS-NW-7397
##NAMES=HP
##CAS NAME=Encyprate
##MOLFORM=C13H17NO2
##CAS REGISTRY NO=2521-01-9
##MP= -300
##BP= -300
##MW= 219
##$RETENTION INDEX=1586
##$CONDENSED SPECTRUM=NO
##NPOINTS= 105
##XYDATA=(XY..XY) 1 
    15          1
    26          3
    27         22
    28         14
    29         81
    30          4
    31          1
    38          3
    39         39
    40          5
    41         49
    42         12
    43          9
    44          3
    45          3
    50          6
    51         19
    52          5
    53          2
    54          6
    55          3
    56         34
    57          3
    58          2
    59          1
    62          6
    63         18
    64          7
    65         98
    66          6
    67          2
    68         15
    69          5
    70          7
    73          1
    74          3
    75          2
    76          3
    77         19
    78          7
    79         11
    80          1
    82          3
    83          1
    84          7
    86          1
    87          2
    88          1
    89         25
    90         20
    91        999
    92         96
    93          5
    98          2
   100         14
   101          1
   102          3
   103          5
   104         37
   105         16
   106         18
   107          4
   114          1
   115          8
   116          5
   117         20
   118         27
   119         17
   120          2
   127          1
   128         21
   129         11
   130         22
   131          7
   132         22
   133          6
   134          5
   135          2
   136          1
   142          2
   143          1
   144          8
   145          5
   146        502
   147         61
   148          4
   150          4
   160          2
   162          3
   172          1
   173          1
   174          8
   175          1
   176          1
   178          4
   179          1
   190         73
   191         11
   192          4
   204          2
   217          3
   218         88
   219        130
   220         18
   221          4