##TITLE=Library Entry 94959
##JCAMP-DX=Revision 4.10 
##DATA TYPE=MASS SPECTRUM
##SAMPLE DESCRIPTION=Humboldt-Universitat zu Berlin, Department of Chemistry
, Analytical Group
##NAMES=HP
##CAS NAME=Carbamic acid, N-(2-naphthyl)-, methyl ester
##MOLFORM=C12H11NO2
##CAS REGISTRY NO=25216-38-0
##MP= -300
##BP= -300
##MW= 201
##$RETENTION INDEX=0
##$CONDENSED SPECTRUM=NO
##NPOINTS= 103
##XYDATA=(XY..XY) 1 
    12          2
    14          6
    15        257
    16         11
    17         57
    18        180
    26          5
    27         16
    28         32
    29         34
    30          9
    31         16
    32          5
    36          4
    37          5
    38         17
    39         59
    40          6
    41         14
    42          5
    43         12
    44         27
    45          4
    49          3
    50         41
    51         48
    52         16
    53          3
    55          7
    56          5
    58         29
    59        100
    60          4
    61         13
    62         54
    63        118
    64         26
    65         51
    66          5
    69          5
    71         26
    73          3
    74         30
    75         39
    76         27
    77         31
    78          6
    83          3
    85          7
    86         19
    87         37
    88         51
    89        117
    90         14
    91          4
    97          2
    98          8
    99          7
   100          7
   101         18
   102         16
   103          5
   104          3
   109          2
   110          2
   111          4
   112          6
   113         82
   114        135
   115        999
   116        129
   117         10
   125          3
   126         33
   127         95
   128         88
   129         74
   130         21
   131          3
   138          3
   140        120
   141        130
   142         99
   143         74
   144         74
   145          8
   149          7
   154          4
   155          8
   156         96
   157         17
   158          6
   167          4
   169        740
   170         98
   171         10
   172          1
   185          8
   186          5
   187          1
   201        567
   202         77
   203          7