##TITLE=Library Entry 40693
##JCAMP-DX=Revision 4.10 
##DATA TYPE=MASS SPECTRUM
##SAMPLE DESCRIPTION=Japan AIST/NIMC Database- Spectrum MS-IW-2119
##NAMES=HP
##CAS NAME=4,4,4-Trichloro-2,3-dimethylbutyramide
##MOLFORM=C6H10Cl3NO
##CAS REGISTRY NO=25236-77-5
##MP= -300
##BP= -300
##MW= 217
##$RETENTION INDEX=0
##$CONDENSED SPECTRUM=NO
##NPOINTS= 142
##XYDATA=(XY..XY) 1 
    14          2
    15          7
    16          7
    17          4
    25          1
    26         15
    27        111
    28        107
    29        102
    30         10
    31          1
    32         16
    35          5
    36         32
    37         11
    38         23
    39        128
    40         14
    41        164
    42         40
    43         31
    44        692
    45         27
    46          6
    47          7
    48          2
    49         30
    50         16
    51         56
    52         10
    53         29
    54         17
    55         90
    56         57
    57        401
    58         17
    59         14
    60          4
    61         13
    62          8
    63        174
    64          8
    65        112
    66         15
    67        104
    68          9
    69          9
    70          2
    71          2
    72        142
    73        999
    74         43
    75         93
    76          6
    77         37
    78          4
    79         12
    80          6
    81          2
    82         43
    83         20
    84          5
    85         19
    86          3
    87         58
    88          4
    89         23
    90          3
    91         15
    92          9
    93          5
    94          3
    95          1
    96          4
    97         12
    98          3
    99          9
   100        306
   101         34
   102          8
   103        363
   104         23
   105        115
   106         24
   107         34
   108          3
   109         33
   110         61
   111         23
   112          9
   113          5
   114          2
   116          1
   117         15
   118         19
   119         14
   120          8
   121          6
   122          1
   123        158
   124          8
   125        101
   126          7
   127         17
   128          3
   129          2
   130          2
   131          2
   132          1
   136          2
   137         72
   138         69
   139         49
   140         44
   141          9
   142          7
   143          1
   144          1
   145          5
   146        157
   147         15
   148         51
   149          5
   150          1
   152          1
   154          1
   164          1
   165          1
   166          3
   167          1
   168          2
   182        118
   183          8
   184         74
   185          5
   186         11
   187          1
   201          6
   203          6
   205          2
   217          1
   219          1