##TITLE=Library Entry 16305
##JCAMP-DX=Revision 4.10 
##DATA TYPE=MASS SPECTRUM
##SAMPLE DESCRIPTION=Japan AIST/NIMC Database- Spectrum MS-IW-2117
##NAMES=HP
##CAS NAME=4,4,4-Trichlorobutyramide
##MOLFORM=C4H6Cl3NO
##CAS REGISTRY NO=25236-71-9
##MP= -300
##BP= -300
##MW= 189
##$RETENTION INDEX=0
##$CONDENSED SPECTRUM=NO
##NPOINTS= 128
##XYDATA=(XY..XY) 1 
    13          1
    14          5
    15          6
    16         10
    17          4
    25          4
    26         23
    27         42
    28         52
    29         10
    30         16
    31          2
    35         11
    36         31
    37         31
    38         44
    39        122
    40         10
    41         20
    42        101
    43         23
    44        999
    45         21
    46          3
    47         19
    48          6
    49         72
    50          3
    51         23
    52          5
    53          4
    54         40
    55         84
    56          8
    57          1
    58          5
    59         96
    60         11
    61         37
    62          8
    63         23
    64          5
    65          5
    66          2
    67          1
    69          4
    70          2
    71          3
    72        102
    73         59
    74         13
    75        322
    76         16
    77        102
    78          6
    79          1
    80         15
    82        320
    83         65
    84         11
    85         39
    86          3
    87          6
    88          1
    89          2
    90         52
    91          5
    92         16
    93          1
    95         10
    96         12
    97          7
    98          9
    99          2
   100          4
   101          5
   102          8
   103          3
   104          2
   107          4
   108          4
   109        325
   110        210
   111        210
   112        135
   113         39
   114         21
   115          1
   117         22
   118        169
   119         24
   120         56
   121          8
   122          1
   123          1
   124          1
   126          1
   130          2
   131          3
   132          2
   133          3
   134          1
   135          1
   136         13
   137         56
   138         10
   139         36
   140          4
   141          6
   143          1
   145          1
   153          1
   154        915
   155         45
   156        594
   157         28
   158         94
   159          5
   172          1
   173         47
   174          3
   175         46
   176          2
   177         14
   179          1
   184          1
   189          1
   191          1