##TITLE=Library Entry 48816
##JCAMP-DX=Revision 4.10 
##DATA TYPE=MASS SPECTRUM
##SAMPLE DESCRIPTION=Japan AIST/NIMC Database- Spectrum MS-NW-6429
##NAMES=HP
##CAS NAME=2-Pyridinecarboxylic acid, ethyl ester
##MOLFORM=C8H9NO2
##CAS REGISTRY NO=2524-52-9
##MP= -300
##BP= -300
##MW= 151
##$RETENTION INDEX=1269
##$CONDENSED SPECTRUM=NO
##NPOINTS= 51
##XYDATA=(XY..XY) 1 
    14          2
    15          7
    18          1
    25          2
    26         20
    27         80
    28         21
    29        129
    30          3
    31          1
    32          1
    37          4
    38          8
    39         18
    40          2
    41          2
    42          1
    43          5
    44          4
    45          3
    48          1
    49          6
    50         38
    51        152
    52        106
    53         10
    54          1
    64          1
    65          3
    66          2
    67          4
    75          5
    76         11
    77         13
    78        473
    79        999
    80         91
    81          4
    92          1
    93          2
    95          2
   104          1
   105          1
   106        156
   107        214
   108         14
   109          1
   124          3
   150          2
   151         12
   152          2