##TITLE=Library Entry 4243
##JCAMP-DX=Revision 4.10 
##DATA TYPE=MASS SPECTRUM
##SAMPLE DESCRIPTION=Exported from NIST MS Search
##NAMES=HP
##CAS NAME=Ether, allyl p-bromophenyl
##MOLFORM=C9H9BrO
##CAS REGISTRY NO=25244-30-8
##MP= -300
##BP= -300
##MW= 212
##$RETENTION INDEX=0
##$CONDENSED SPECTRUM=NO
##NPOINTS= 109
##XYDATA=(XY..XY) 1 
    15          6
    18          1
    26          8
    27         19
    28          7
    29          5
    31          2
    32          3
    36          1
    37         17
    38         60
    39        176
    40         11
    41        999
    42         35
    43          4
    45          1
    46          2
    49          5
    50         59
    51         25
    52          4
    53         11
    54         12
    55         46
    56          5
    57          2
    60          2
    61         15
    62         40
    63        141
    64         78
    65         73
    66         11
    67          1
    68          7
    69          1
    72          1
    73          6
    74         31
    75         58
    76         52
    77         39
    78         14
    79         32
    80          2
    81          1
    89          2
    90          1
    91         14
    92         23
    93         49
    94          5
    95          5
   102          4
   103         23
   104         21
   105        156
   106         16
   107          4
   115         20
   116          5
   117         42
   118         12
   119         42
   120          2
   121          3
   123          2
   129          4
   130          1
   131         21
   132          9
   133        328
   134         33
   135          3
   142          1
   143        156
   144         15
   145        153
   146         14
   155         30
   156         14
   157         35
   158         13
   159          6
   169          4
   170          3
   171         94
   172        167
   173         99
   174        162
   175         11
   183          5
   184          9
   185          8
   186          9
   187          4
   197         25
   198          3
   199         25
   200          3
   202          2
   204          1
   211          3
   212        448
   213         46
   214        437
   215         44
   216          3