##TITLE=Library Entry 14375
##JCAMP-DX=Revision 4.10 
##DATA TYPE=MASS SPECTRUM
##SAMPLE DESCRIPTION=A. MACCOLL DEPT. OF CHEMISTRY, UNIVERSITY COLLEGE, LOND
ON
##NAMES=HP
##CAS NAME=D-Homo-24-nor-17-oxachola-20,22-dien-16-one, 1,3,7-tris(acetyloxy
)-14,15:21,23-diepoxy-4,4,8-trimethyl-, (1.alpha.,3.alpha.,5.alpha.,7.alpha.
,13.alpha.,14.beta.,15.beta.,17a.alpha.)-
##MOLFORM=C32H42O10
##CAS REGISTRY NO=2524-38-1
##MP= -300
##BP= -300
##MW= 586
##$RETENTION INDEX=0
##$CONDENSED SPECTRUM=NO
##NPOINTS= 393
##XYDATA=(XY..XY) 1 
    36         13
    37          2
    38         10
    39         36
    40         13
    41        135
    42         25
    43        999
    44        159
    45        118
    46         26
    50          3
    51          6
    52          3
    53         30
    54          6
    55        120
    56         11
    57         28
    58          3
    59         10
    60         37
    61          6
    63          2
    65         13
    66          5
    67         71
    68         10
    69        103
    70         12
    71         36
    72         11
    73          5
    74          1
    76          1
    77         45
    78         11
    79         66
    80         12
    81         93
    82         21
    83         46
    84         10
    85         12
    86          2
    87          2
    89          2
    91         91
    92         16
    93         91
    94         17
    95        222
    96         37
    97         67
    98         25
    99         11
   100          1
   101          1
   103         11
   104          6
   105        107
   106         21
   107         90
   108         25
   109        118
   110         17
   111         25
   112          6
   113          5
   114          2
   115         17
   116          8
   117          6
   118         10
   119        136
   120         37
   121        130
   122         33
   123         66
   124         11
   125         16
   126          5
   127         10
   128         35
   129         25
   130         11
   131         47
   132         20
   133        132
   134         37
   135         73
   136         17
   137         43
   138         12
   139         12
   140          3
   141         15
   142         32
   143         42
   144         17
   145         83
   146         28
   147         77
   148         30
   149         53
   150         17
   151         20
   152          8
   153         10
   154          6
   155         22
   156         17
   157         58
   158         27
   159         75
   160         23
   161         68
   162         21
   163         51
   164         12
   165         20
   166         10
   167         11
   168          7
   169         33
   170         17
   171         58
   172         22
   173         70
   174         25
   175         58
   176         16
   177         18
   178        132
   179         17
   180          7
   181         17
   182         10
   183         47
   184         20
   185         77
   186         23
   187         80
   188         18
   189         43
   190         25
   191         15
   192          8
   193         13
   194          8
   195         25
   196         13
   197         50
   198         23
   199         51
   200         21
   201         47
   202         15
   203         25
   204          8
   205         16
   206         10
   207         15
   208          8
   209         28
   210         12
   211         38
   212         21
   213        155
   214         36
   215         25
   216         12
   217         15
   218          6
   219          8
   220          5
   221         12
   222          6
   223         30
   224         13
   225         31
   226         16
   227         37
   228         15
   229         17
   230         10
   231         11
   232          6
   233          7
   234          6
   235         12
   236          7
   237         20
   238         10
   239         51
   240         23
   241         33
   242         15
   243         15
   244          6
   245         10
   246          5
   247          7
   248          6
   249         15
   250         10
   251         23
   252         11
   253         35
   254         36
   255         45
   256         12
   257         18
   258          6
   259          7
   260          3
   261          7
   262          3
   263         11
   264          6
   265         91
   266         37
   267         45
   268         16
   269         15
   270          8
   271         11
   272          6
   273          7
   274          2
   275          7
   276          3
   277         10
   278          5
   279         13
   280          6
   281         21
   282         21
   283        844
   284        193
   285         35
   286          6
   287          5
   288          2
   289          5
   290          3
   291         10
   292          7
   293         13
   294          7
   295         16
   296          5
   297         33
   298         10
   299         28
   300         10
   301         31
   302          8
   303          6
   304          3
   305          8
   306          3
   307          6
   308          3
   309         11
   310         12
   311         13
   312         57
   313         17
   314          8
   315          6
   316          2
   317          8
   318          6
   319         15
   320          7
   321          8
   322          3
   323          3
   324          2
   325          5
   326          3
   327          5
   328          7
   329          7
   330         12
   331         10
   332          6
   333         18
   334         10
   335          8
   336          3
   337          7
   338          2
   339          2
   341          1
   342          3
   343        157
   344         38
   345         18
   346          7
   347         13
   348         13
   349         12
   350          5
   351          2
   352          1
   353          2
   354          1
   355          3
   356          2
   357          1
   359          3
   360          6
   361         38
   362         25
   363         28
   364          8
   365          5
   367          1
   370          2
   371          2
   372         23
   373         13
   374          6
   375          5
   376          2
   377          6
   378         12
   379          8
   380          3
   381          2
   387          2
   388         11
   389          8
   390          6
   391        106
   392         30
   393          7
   394          2
   395          1
   396          2
   402          3
   403         30
   404         31
   405          7
   406         23
   407         18
   408          6
   409          7
   410          2
   414          1
   419          7
   420          2
   421          2
   422          2
   423          3
   424          3
   425          2
   430          2
   431          2
   432        106
   433         32
   434          6
   438          2
   439          1
   448          2
   449          1
   451          2
   466          3
   467          2
   469          3
   474         11
   475          3
   481         18
   482          8
   483         10
   484          3
   493          1
   498          3
   499          1
   511          6
   512          2
   526         11
   527          7
   528          2
   542          6
   543          6
   544          1
   554          1
   586         26
   587         11
   588          2