##TITLE=Library Entry 53103
##JCAMP-DX=Revision 4.10 
##DATA TYPE=MASS SPECTRUM
##SAMPLE DESCRIPTION=A.A.Kutin, Moscow, Russia
##NAMES=HP
##CAS NAME=1,2,3-Triazol-4-amine, 2-(2-hydroxypropyl)-5-nitro-, 1-oxide
##MOLFORM=C5H9N5O4
##CAS REGISTRY NO=252555-89-8
##MP= -300
##BP= -300
##MW= 203
##$RETENTION INDEX=0
##$CONDENSED SPECTRUM=NO
##NPOINTS= 62
##XYDATA=(XY..XY) 1 
    37          0
    38          4
    39         16
    40         12
    41         41
    42         45
    43         58
    44         26
    45         71
    46          5
    50          1
    53         83
    54         64
    55         10
    56          6
    57         16
    58         41
    59         13
    65          0
    69        362
    70        318
    71         78
    72          0
    78          0
    79          0
    80         11
    83        999
    84         28
    85          6
    86         10
    87          1
    95         75
    96         61
    97         17
    98          2
    99          0
   109          3
   112        714
   113        567
   115          1
   125          8
   126         11
   127          1
   129          0
   139          2
   142         87
   144          1
   146         19
   154          0
   155          2
   157        276
   158         17
   159          4
   160          4
   171          2
   172          0
   185          1
   186          6
   187         12
   188          1
   203        355
   204         14