##TITLE=Library Entry 22703
##JCAMP-DX=Revision 4.10 
##DATA TYPE=MASS SPECTRUM
##SAMPLE DESCRIPTION=RADIAN CORP
##NAMES=HP
##CAS NAME=Hexane, 1-isocyanato-
##MOLFORM=C7H13NO
##CAS REGISTRY NO=2525-62-4
##MP= -300
##BP= -300
##MW= 127
##$RETENTION INDEX=0
##$CONDENSED SPECTRUM=NO
##NPOINTS= 49
##XYDATA=(XY..XY) 1 
    15         44
    26         65
    27        524
    29        443
    30         57
    37          8
    38         29
    39        397
    40         84
    41        833
    42        321
    43        561
    44         21
    46          6
    50          9
    51          4
    52         17
    53         58
    54         56
    55        419
    56        999
    57         63
    58         58
    59         16
    60          1
    62          2
    65          3
    66          4
    67         46
    68         16
    69        110
    70         90
    71         27
    80          8
    81          6
    82         52
    83         18
    84        293
    85        281
    94          3
    95          2
    98        425
    99        842
   100         52
   101          2
   110          2
   112        175
   113         12
   126         17