##TITLE=Library Entry 24850
##JCAMP-DX=Revision 4.10 
##DATA TYPE=MASS SPECTRUM
##SAMPLE DESCRIPTION=Japan AIST/NIMC Database- Spectrum MS-NW-5310
##NAMES=HP
##CAS NAME=Myristic acid isobutyl ester
##MOLFORM=C18H36O2
##CAS REGISTRY NO=25263-97-2
##MP= -300
##BP= -300
##MW= 284
##$RETENTION INDEX=1932
##$CONDENSED SPECTRUM=NO
##NPOINTS= 152
##XYDATA=(XY..XY) 1 
    15          4
    17          1
    18          4
    26          5
    27         77
    28         22
    29        214
    30          6
    31          9
    32          3
    33          3
    37          1
    38          3
    39         58
    40         12
    41        394
    42         76
    43        372
    44         13
    45          8
    50          2
    51          3
    52          2
    53         17
    54         26
    55        236
    56        775
    57        999
    58         48
    59          9
    60        220
    61         68
    62          3
    63          1
    65          3
    66          3
    67         40
    68         24
    69        132
    70         41
    71        164
    72         10
    73        164
    74         22
    75          2
    77          3
    78          3
    79          9
    80          5
    81         39
    82         19
    83         86
    84         56
    85        104
    86         10
    87         47
    88          5
    89          5
    91          3
    92          1
    93          7
    94          5
    95         47
    96         16
    97         66
    98         83
    99         26
   100          3
   101         26
   102          6
   103          5
   105          1
   107          5
   108          2
   109         26
   110          9
   111         41
   112         19
   113         15
   114          2
   115         30
   116         33
   117         13
   118          1
   121          6
   122          1
   123         13
   124          5
   125         16
   126          5
   127          8
   128          1
   129         93
   130          9
   131          2
   135          5
   136          1
   137          7
   138          5
   139          9
   140          3
   141          2
   143         19
   144          3
   145          1
   149          3
   151          3
   152          1
   153          5
   154          1
   155          1
   157          9
   158          2
   159          1
   163          1
   164          1
   165          1
   166          9
   167          4
   168          5
   169          4
   171         17
   172          3
   173          1
   181          1
   183          6
   184          1
   185         56
   186          7
   187          1
   191          5
   192          2
   193          2
   199         10
   200          3
   201          3
   208          2
   209          6
   210          2
   211        301
   212         49
   213          5
   227          1
   228         90
   229        167
   230         26
   231          3
   241          1
   254          3
   269          3
   284          3
   285          1