##TITLE=Library Entry 9470
##JCAMP-DX=Revision 4.10 
##DATA TYPE=MASS SPECTRUM
##SAMPLE DESCRIPTION=NIST Mass Spectrometry Data Center, 2010
##NAMES=HP
##CAS NAME=Thunbergol
##MOLFORM=C20H34O
##CAS REGISTRY NO=25269-17-4
##MP= -300
##BP= -300
##MW= 290
##$RETENTION INDEX=2073
##$CONDENSED SPECTRUM=NO
##NPOINTS= 146
##XYDATA=(XY..XY) 1 
    15          3
    27         79
    29         92
    30          2
    31          5
    38          3
    39        105
    40         34
    41        541
    42         43
    43        999
    44         25
    45         27
    51         19
    52         13
    53        196
    54         40
    55        448
    56         31
    57         86
    58         22
    59         24
    62          1
    63          4
    65         62
    66         28
    67        393
    68        117
    69        376
    70         38
    71        222
    72         16
    77        145
    78         30
    79        313
    80         86
    81        578
    82        132
    83        144
    84         50
    85         33
    91        215
    92         62
    93        425
    94        127
    95        431
    96         86
    97        241
    98         26
    99         12
   103         15
   104          9
   105        229
   106         73
   107        420
   108        147
   109        386
   110         56
   111         92
   112         12
   113         11
   115         13
   116          6
   117         31
   118         12
   119        200
   120         75
   121        382
   122        109
   123        253
   124         53
   125         63
   126         43
   130          4
   131         49
   132         17
   133        200
   134        157
   135        217
   136        167
   137        121
   138         35
   139         90
   140         18
   144          4
   145         73
   146         25
   147        257
   148        112
   149        180
   150         68
   151         55
   152         12
   153         10
   158          3
   159         68
   160         22
   161        144
   162         55
   163         75
   164         56
   165         30
   166          8
   173         52
   174         13
   175         47
   176         21
   177         41
   178         11
   179         17
   180          5
   181          6
   182          1
   187         42
   188         17
   189        141
   190         34
   191         26
   192          7
   193          9
   201         25
   202         12
   203         15
   204         11
   205         19
   206          6
   207         16
   208          4
   215          9
   216          7
   217         15
   218          4
   220          4
   229         81
   230         17
   232         14
   244          6
   247         23
   248          5
   257         24
   258          5
   272         28
   273          6
   275          9
   290          7
   291          1