##TITLE=Library Entry 8624
##JCAMP-DX=Revision 4.10 
##DATA TYPE=MASS SPECTRUM
##SAMPLE DESCRIPTION=NIST Mass Spectrometry Data Center
##NAMES=HP
##CAS NAME=cis-1,4-Diacetoxy-2-butene
##MOLFORM=C8H12O4
##CAS REGISTRY NO=25260-60-0
##MP= -300
##BP= -300
##MW= 172
##$RETENTION INDEX=0
##$CONDENSED SPECTRUM=NO
##NPOINTS= 44
##XYDATA=(XY..XY) 1 
    13          2
    14         15
    15         85
    16          1
    26          8
    27         37
    28         16
    29         28
    30          2
    31          8
    37          2
    38          8
    39         69
    40         12
    41         39
    43        999
    44         25
    45          6
    50          4
    51          6
    52          5
    53         18
    54         10
    55          5
    56          1
    57          6
    58          1
    61         25
    68          4
    69         31
    70        249
    71         18
    72          1
    73          1
    82          7
    83          1
    84          1
    86          2
    99          5
   100          1
   103          3
   112         33
   113         22
   114          1