##TITLE=Library Entry 96588
##JCAMP-DX=Revision 4.10 
##DATA TYPE=MASS SPECTRUM
##SAMPLE DESCRIPTION=Humboldt-Universitat zu Berlin, Department of Chemistry
, Analytical Group
##NAMES=HP
##CAS NAME=3,7-Diphenyl-2H-imidazo[2.1-b][1,3,4]oxadiazine
##MOLFORM=C17H13N3O
##CAS REGISTRY NO=25261-02-3
##MP= -300
##BP= -300
##MW= 275
##$RETENTION INDEX=0
##$CONDENSED SPECTRUM=NO
##NPOINTS= 142
##XYDATA=(XY..XY) 1 
    12          2
    14          3
    15          3
    16          5
    17         25
    18         64
    26          7
    27         29
    28         32
    29         10
    30          2
    32          4
    37          5
    38         11
    39         53
    40          8
    41         61
    42         24
    43         15
    44         19
    45          7
    50         51
    51        161
    52         30
    53          9
    54          3
    55          7
    56          3
    57          8
    58          4
    60          2
    61          4
    62         17
    63         49
    64         16
    65         18
    66          4
    67          2
    68          2
    69          6
    70          2
    71          4
    73          3
    74         13
    75         27
    76         73
    77        299
    78         23
    79          1
    81          1
    82          1
    83          3
    84          2
    85          3
    86          2
    87          5
    89        125
    90         39
    91         30
    92          3
    95          1
    96          1
    97          2
    98          2
    99          3
   100          1
   101          8
   102         59
   103        464
   104         94
   105         15
   106          1
   109          1
   110          1
   111          2
   112          1
   114         11
   116        999
   117        231
   118         26
   119          4
   123          1
   127          2
   128          7
   129         11
   130         10
   131          2
   132         10
   133          1
   138         14
   140          1
   141          4
   142          7
   143          6
   145        260
   146         25
   147          3
   155          1
   156          3
   157          6
   158          2
   159          4
   160          6
   165          1
   169          1
   170          1
   171         20
   172        156
   173         16
   174          2
   184          3
   185          1
   189          1
   190          1
   191          2
   192          2
   198          7
   199          1
   202          2
   203          3
   204          3
   205          4
   206          1
   217          1
   218          3
   219          8
   220          2
   228          1
   231          1
   232          3
   233          2
   234          0
   245          0
   246          7
   247          9
   248          9
   249          1
   273          0
   275        428
   276         82
   277         10
   278          0