##TITLE=Library Entry 1008
##JCAMP-DX=Revision 4.10 
##DATA TYPE=MASS SPECTRUM
##SAMPLE DESCRIPTION=Exported from NIST MS Search
##NAMES=HP
##CAS NAME=1,3-Dioxolane-4,5-dione
##MOLFORM=C3H2O4
##CAS REGISTRY NO=25260-20-2
##MP= -300
##BP= -300
##MW= 102
##$RETENTION INDEX=0
##$CONDENSED SPECTRUM=NO
##NPOINTS= 16
##XYDATA=(XY..XY) 1 
    12         15
    13          6
    14         26
    16         26
    18         13
    28        248
    29        431
    30        999
    31         15
    43         11
    44        437
    45         33
    56         37
    58         13
    59          4
   102         84