##TITLE=Library Entry 20265
##JCAMP-DX=Revision 4.10 
##DATA TYPE=MASS SPECTRUM
##SAMPLE DESCRIPTION=MUS267 A. Mujsce, AT&T Bell Labs., Murray Hill, N.J., U
SA
##NAMES=HP
##CAS NAME=1-Pentadecanethiol
##MOLFORM=C15H32S
##CAS REGISTRY NO=25276-70-4
##MP= -300
##BP= -300
##MW= 244
##$RETENTION INDEX=0
##$CONDENSED SPECTRUM=NO
##NPOINTS= 126
##XYDATA=(XY..XY) 1 
    15          5
    26          3
    27        144
    28         49
    29        293
    34          3
    39        119
    41        790
    42        164
    43        689
    44         34
    45         47
    46         23
    47        217
    48          8
    49          6
    51          4
    53         67
    54        104
    55        999
    56        444
    57        642
    58         26
    59         27
    60         51
    61        155
    62         15
    63         11
    65         17
    66         16
    67        195
    68        328
    69        918
    70        526
    71        340
    72         22
    73         18
    75         12
    77         14
    78          3
    79         23
    80          5
    81         97
    82        372
    83        898
    84        344
    85        187
    86         11
    87         46
    88         55
    89        293
    90         17
    91         18
    92          3
    93          6
    94          2
    95         35
    96        204
    97        704
    98        218
    99         34
   101         22
   102          9
   103         35
   107          2
   109         10
   110         67
   111        349
   112        125
   113         14
   115          2
   117          8
   119          2
   124         42
   125        135
   126         74
   127         12
   133          2
   138         19
   139         50
   140         42
   141         12
   143          3
   148          2
   152         14
   153         17
   154         22
   155          3
   157          2
   158          2
   159          2
   165          3
   166          9
   167          7
   168          8
   172          3
   173          5
   174          2
   180          6
   181          9
   182         53
   183          4
   188          2
   191          2
   192          2
   196          2
   199          2
   200          2
   204          2
   205          2
   207          8
   209          2
   210        140
   211         25
   212          3
   213          2
   214          2
   215          5
   228          2
   229          2
   241          2
   243         41
   244        332
   245         71
   246         25
   247          6