##TITLE=Library Entry 109588
##JCAMP-DX=Revision 4.10 
##DATA TYPE=MASS SPECTRUM
##SAMPLE DESCRIPTION=A.A.Kutin, Moscow, Russia
##NAMES=HP
##CAS NAME=Isothiazole-4-carbonitrile, 3,5-bis(4-chlorobenzylthio)-
##MOLFORM=C18H12Cl2N2S3
##CAS REGISTRY NO=252725-31-8
##MP= -300
##BP= -300
##MW= 422
##$RETENTION INDEX=0
##$CONDENSED SPECTRUM=NO
##NPOINTS= 304
##XYDATA=(XY..XY) 1 
    33          0
    34          0
    35          1
    36          5
    37          1
    38          8
    39         41
    40          7
    41          3
    42          0
    43          2
    44          6
    45        114
    46          4
    47          5
    48          0
    49          3
    50         10
    51         19
    52          2
    53          0
    54          0
    55          1
    56          0
    57          1
    58          0
    59          0
    60          1
    61          3
    62         14
    63         71
    64         18
    65         15
    66          1
    67          0
    68          0
    69          5
    70          4
    71          2
    73         23
    74          4
    75         22
    76          5
    77         16
    78          4
    79          1
    80          0
    81          1
    82          4
    83          1
    84          1
    85          3
    86          2
    87          4
    89        182
    90         58
    91          7
    92          0
    93          1
    94          2
    95          1
    96          1
    97          3
    99         66
   100          5
   101         21
   102          1
   103          0
   104          0
   105          0
   106          0
   107          0
   108          2
   109          3
   110          0
   111          5
   112          3
   113          2
   114          3
   115          0
   116          0
   117          0
   118          0
   119          0
   120          2
   121         10
   122          6
   123         10
   125        999
   126        120
   127        392
   128         34
   129          1
   130          0
   131          0
   132          0
   133          0
   134          0
   135          0
   136          0
   137          0
   138          0
   139          0
   140          2
   141          3
   142          1
   143          0
   144          0
   145          0
   146          0
   147          0
   148          0
   149          1
   150          0
   151          0
   152          0
   153          2
   154          0
   155         11
   156          3
   157         18
   158          3
   159          5
   160          0
   161          0
   162          0
   163          0
   165          1
   166          0
   167          0
   168          0
   169          0
   170          0
   171          0
   172          0
   173          0
   174          0
   175          0
   176          0
   177          0
   178          0
   179          0
   180          0
   181          0
   182          0
   183          0
   184          0
   185          0
   186          0
   187          0
   188          0
   189          2
   190          0
   191          1
   192          0
   193          0
   194          0
   195          0
   197          0
   198          0
   199          0
   200          0
   201          2
   202          0
   203          1
   204          0
   205          0
   206          0
   207          0
   208          0
   209          0
   210          0
   211          0
   213          1
   214          0
   215          0
   216          0
   217          0
   218          0
   219          0
   220          0
   221          0
   222          0
   223          0
   224          0
   227          0
   229          0
   230          0
   231          0
   232          0
   233          1
   234          0
   235          1
   236          0
   237          0
   238          0
   239          0
   240          0
   244          0
   245          0
   246          0
   247          0
   248          0
   249          0
   250          0
   251          0
   252          0
   253          0
   254          0
   255          0
   261          0
   262          0
   264         21
   265          3
   266          8
   267          2
   268          2
   269          1
   270          1
   271          0
   272          0
   276          0
   277          0
   278          0
   279          0
   280          0
   281          0
   282          0
   283          1
   284          0
   285          1
   286          0
   287          0
   288          0
   289          0
   295          0
   296          0
   297          6
   298          1
   299          3
   300          0
   301          0
   302          0
   304          0
   309          0
   310          0
   311          0
   312          0
   313          0
   314          0
   319          0
   321          0
   323          0
   324          0
   325          0
   326          0
   327          0
   328          0
   329          0
   331          0
   333          0
   334          0
   341          0
   345          0
   347          0
   348          0
   353          0
   354          0
   355          0
   356          0
   357          0
   358          1
   359          0
   360          0
   361          0
   362          0
   363          0
   370          0
   372          0
   376          0
   386          0
   388          0
   389          9
   390          2
   391          6
   392          1
   393          1
   394          0
   395          0
   404          0
   405          0
   406          0
   407          0
   408          0
   410          0
   419          0
   422         54
   423         13
   424         38
   425          9
   426         10
   427          2
   428          1
   429          0