##TITLE=Library Entry 28089
##JCAMP-DX=Revision 4.10 
##DATA TYPE=MASS SPECTRUM
##SAMPLE DESCRIPTION=G. ECKHARDT, INST. ORG. CHEM. BIOCHEM., UNIV. BONN, W.
 GERMA
##NAMES=HP
##CAS NAME=N,N-Dimethyl-3-ethoxypropylamine
##MOLFORM=C7H17NO
##CAS REGISTRY NO=25277-18-3
##MP= -300
##BP= -300
##MW= 131
##$RETENTION INDEX=0
##$CONDENSED SPECTRUM=NO
##NPOINTS= 27
##XYDATA=(XY..XY) 1 
    30         22
    31         54
    32          8
    39          9
    41         21
    42         71
    43         20
    44         38
    45        156
    46          6
    56         11
    57         20
    58        999
    59         47
    70         10
    71          7
    72          9
    84         12
    86          7
    87         29
   100         10
   102         38
   103          2
   116          1
   130          1
   131         39
   132          3