##TITLE=Library Entry 9928
##JCAMP-DX=Revision 4.10 
##DATA TYPE=MASS SPECTRUM
##SAMPLE DESCRIPTION=O A MAMER, MCGILL UNIVERSITY, MONTREAL,
##NAMES=HP
##CAS NAME=Tridecane-2,4-dione
##MOLFORM=C13H24O2
##CAS REGISTRY NO=25276-80-6
##MP= -300
##BP= -300
##MW= 212
##$RETENTION INDEX=1560
##$CONDENSED SPECTRUM=NO
##NPOINTS= 79
##XYDATA=(XY..XY) 1 
    13          5
    26          9
    27        115
    28         16
    29        176
    30          6
    31         18
    38          5
    39         77
    40         22
    41        299
    42         62
    43        999
    44         25
    45         10
    51          6
    52          6
    53         30
    54         23
    55        157
    56         34
    57        123
    58        138
    59         22
    65          6
    66          7
    67         36
    68         16
    69         76
    70         21
    71        116
    72        155
    73         13
    77          8
    79         13
    80         17
    81         41
    82         13
    83         30
    84         53
    85        881
    86         43
    87         16
    93          8
    94         13
    95         43
    96          9
    97         32
    98         49
    99         15
   100        867
   101         97
   102         11
   107          6
   109          9
   110         17
   111         13
   112         24
   113        190
   114         23
   121          5
   123          9
   124         19
   125          8
   127         13
   128          9
   136         27
   137         24
   138         13
   142         21
   151         11
   152          5
   154         16
   155         39
   156         13
   194         16
   197         18
   212         31
   213          9