##TITLE=Library Entry 13592
##JCAMP-DX=Revision 4.10 
##DATA TYPE=MASS SPECTRUM
##SAMPLE DESCRIPTION=Chemical Concepts
##NAMES=HP
##CAS NAME=5-Methyl-3-(4-nitrophenyl)-1,2,4-oxadiazole
##MOLFORM=C9H7N3O3
##CAS REGISTRY NO=25283-96-9
##MP= -300
##BP= -300
##MW= 205
##$RETENTION INDEX=0
##$CONDENSED SPECTRUM=NO
##NPOINTS= 79
##XYDATA=(XY..XY) 1 
    37         64
    38        162
    39        146
    40         60
    41         59
    43        999
    46         57
    49         25
    50        378
    51        235
    52         81
    53         17
    54          7
    55          9
    56         12
    57          8
    59          5
    61         51
    62        312
    63        145
    64         74
    65         19
    66          6
    67         10
    68          4
    69          6
    70          3
    73         16
    74        119
    75        209
    76        214
    77         49
    78         18
    79          8
    80          8
    84          6
    85         19
    86         64
    87        116
    88        434
    90        224
    91         48
    92          7
    99         11
   100         11
   101         17
   102         65
   103         77
   104         22
   106        306
   114          5
   116         11
   117        103
   118         59
   119          8
   127          9
   128         10
   129         14
   131          5
   132          6
   134        340
   135         24
   144          7
   147         48
   148          7
   149         12
   159         67
   160          8
   161          8
   164        506
   165         41
   166          6
   175        157
   176         13
   181          5
   189          8
   205        573
   206         60
   207          6