##TITLE=Library Entry 59589
##JCAMP-DX=Revision 4.10 
##DATA TYPE=MASS SPECTRUM
##SAMPLE DESCRIPTION=A.A.Kutin, Moscow, Russia
##NAMES=HP
##CAS NAME=1,2-Benzenedicarboxylic acid, mono(phenylmethyl) ester
##MOLFORM=C15H12O4
##CAS REGISTRY NO=2528-16-7
##MP= -300
##BP= -300
##MW= 256
##$RETENTION INDEX=0
##$CONDENSED SPECTRUM=NO
##NPOINTS= 137
##XYDATA=(XY..XY) 1 
    33          3
    34          2
    35          1
    36          7
    37         51
    38        104
    39        433
    40         47
    41         56
    42          9
    43         13
    44         41
    45         60
    47          1
    48          4
    50        530
    51        406
    52         88
    53         69
    54          5
    55          8
    56          2
    57          4
    58          0
    60          2
    61         20
    62         52
    63        153
    64         87
    65        770
    66         50
    67          7
    68          3
    69          2
    70          2
    71          1
    72          2
    73         30
    74        161
    75        129
    76        347
    77        461
    78        103
    79        196
    80         16
    81          3
    82          1
    83          3
    84          2
    85          2
    86          5
    87          5
    89        111
    91        999
    92        109
    93        120
    94         15
    95          2
    96          0
    97          1
    98          1
    99          0
   100          0
   101          1
   102          3
   104        263
   105        295
   106         36
   107        148
   108        178
   109         13
   110          1
   111          5
   112          1
   113          1
   114          0
   115          2
   116          0
   117          0
   119          7
   121         84
   122        321
   123         26
   124          3
   125          0
   126          0
   127          1
   128          1
   129          1
   130          0
   132         34
   133          6
   134          1
   135          2
   136          0
   138          0
   139          1
   140          0
   141          0
   142          0
   143          0
   146          0
   149        392
   150        356
   151         33
   152          8
   153          2
   154          0
   155          0
   159          0
   163          1
   164          2
   165         25
   166          7
   167          3
   168          0
   169          0
   171          0
   177          0
   181          2
   182          0
   183          0
   192          0
   193          2
   194          6
   195          1
   197          0
   209          0
   210          1
   211          0
   212          1
   225          0
   238          2
   243          0
   254          0
   256          5
   257          1