##TITLE=Library Entry 5987
##JCAMP-DX=Revision 4.10 
##DATA TYPE=MASS SPECTRUM
##SAMPLE DESCRIPTION=Japan AIST/NIMC Database- Spectrum MS-NW-2670
##NAMES=HP
##CAS NAME=Heptanoyl chloride
##MOLFORM=C7H13ClO
##CAS REGISTRY NO=2528-61-2
##MP= -300
##BP= -300
##MW= 148
##$RETENTION INDEX=1012
##$CONDENSED SPECTRUM=NO
##NPOINTS= 94
##XYDATA=(XY..XY) 1 
    13          1
    14          6
    15         21
    25          1
    26         43
    27        463
    28         98
    29        363
    30          8
    31          2
    34          1
    35         12
    36         75
    37          9
    38         24
    39        277
    40         50
    41        766
    42        341
    43        999
    44         33
    45          5
    48          3
    49          9
    50         16
    51         21
    52          9
    53         51
    54         29
    55        748
    56        304
    57        130
    58         11
    59          2
    60         25
    61          5
    62          4
    63         40
    64          2
    65         13
    66          3
    67         29
    68        456
    69        158
    70        185
    71        344
    72         19
    73         13
    74          5
    75          5
    76          2
    77         21
    78        276
    79         49
    80         91
    81         14
    82          3
    83         92
    84        407
    85        146
    86          9
    87          7
    88          2
    89          1
    90          1
    91        129
    92         10
    93         43
    94         53
    95         31
    96          2
    97         20
    98          4
    99          3
   101          3
   102          2
   103          1
   104          2
   105         39
   106          5
   107         13
   108          1
   111          4
   112        111
   113        444
   114         31
   115          2
   119         19
   120         40
   121          9
   122         12
   130          1
   133          1
   148          1