##TITLE=Library Entry 30770
##JCAMP-DX=Revision 4.10 
##DATA TYPE=MASS SPECTRUM
##SAMPLE DESCRIPTION=A.A.Kutin, Moscow, Russia
##NAMES=HP
##CAS NAME=Furan-2-carbohydrazide, 5-(3,5-dichlorophenoxy)-N2,N2-dimethyl-
##MOLFORM=C13H12Cl2N2O3
##CAS REGISTRY NO=252914-58-2
##MP= -300
##BP= -300
##MW= 314
##$RETENTION INDEX=0
##$CONDENSED SPECTRUM=NO
##NPOINTS= 217
##XYDATA=(XY..XY) 1 
    33          2
    34          3
    35          2
    36         10
    37          7
    38         22
    39         11
    40         31
    41         14
    42         62
    43        105
    44         87
    45         13
    46          2
    47          0
    48          1
    50         14
    51          4
    52          5
    53         15
    54         70
    55         21
    56          6
    57         16
    59        999
    60         36
    61          4
    62          7
    63         13
    64          3
    66         18
    67          4
    68          4
    69          5
    70          8
    71          6
    72          3
    73         10
    74         25
    75         28
    76          4
    77          1
    78          0
    80         21
    81          4
    82         52
    83         11
    84          8
    85          9
    86          3
    87          3
    88          0
    89          0
    90          1
    91          5
    92          3
    93          4
    94         17
    95          7
    96          4
    97          5
    98         44
    99         18
   100          3
   101          3
   102          2
   103          1
   105          2
   106          1
   107          2
   108          7
   109         38
   110         16
   111         28
   112          6
   113          1
   115          1
   117          1
   118          0
   119          2
   120          1
   121          2
   122          2
   123          5
   124          4
   125          3
   126         18
   127          4
   128          2
   129          2
   131          1
   132          0
   133          4
   134          2
   135         12
   136         33
   137          8
   138         10
   139          2
   140          1
   141          3
   142          1
   144          1
   145         29
   146          5
   147         20
   148          3
   149         13
   150          3
   151         21
   152          4
   153          2
   154          1
   155          0
   156          0
   159          3
   161          0
   162         11
   163          5
   164          9
   165         10
   166          3
   167          3
   168          1
   169          2
   170          2
   171          9
   172          2
   173          8
   174          0
   175          3
   176          0
   177          1
   179          0
   180          1
   183          2
   185          1
   188          1
   190          3
   191          1
   192          2
   193          2
   194          1
   197          0
   199         29
   200          4
   201         17
   202          3
   203          4
   204          0
   205          0
   206          0
   207          2
   208          9
   209          1
   210          3
   211          1
   215          1
   216          1
   217          0
   219          0
   220          5
   221          2
   222          2
   223          1
   225          0
   226          1
   227          8
   228          5
   229          6
   230          2
   231          2
   232          1
   235          2
   236          7
   237          2
   238          2
   239          1
   241          6
   243          6
   245          2
   246          0
   247          0
   251          0
   253          3
   255        203
   256         26
   257        120
   258         16
   259         20
   260          3
   261          0
   262          0
   267          0
   268          1
   271        423
   272         90
   273        256
   274         53
   275         41
   276          9
   277          1
   283          0
   285          1
   287          0
   291          0
   294          0
   299          0
   301          0
   303          0
   312          0
   314         28
   315          5
   316         16
   317          3
   318          3
   319          1