##TITLE=Library Entry 46584
##JCAMP-DX=Revision 4.10 
##DATA TYPE=MASS SPECTRUM
##SAMPLE DESCRIPTION=Japan AIST/NIMC Database- Spectrum MS-IW-2620
##NAMES=HP
##CAS NAME=1H,1H,2H-Perfluoro-1-octene
##MOLFORM=C8H3F13
##CAS REGISTRY NO=25291-17-2
##MP= -300
##BP= -300
##MW= 346
##$RETENTION INDEX=0
##$CONDENSED SPECTRUM=NO
##NPOINTS= 78
##XYDATA=(XY..XY) 1 
    26          4
    27         42
    31         20
    32          1
    37          1
    38          2
    39          9
    43          2
    45          6
    46          1
    50          4
    51        239
    52          2
    56          3
    57         17
    58          2
    64          3
    65          8
    69        145
    70          2
    74          1
    75         24
    76          6
    77        999
    78         35
    81          2
    82          1
    87          1
    88          3
    89          3
    93          8
    95         11
    99          1
   100         29
   101          1
   106          1
   107          6
   108         23
   109          1
   112          2
   113          7
   119         31
   120          1
   126          1
   127         15
   131         41
   132          1
   137          2
   139          6
   145          9
   150          1
   157          6
   158          1
   163          3
   169         12
   177          2
   181          5
   189          1
   195          2
   207          5
   213          4
   219          4
   227          1
   231          1
   237          1
   239          1
   243          1
   245          2
   257         15
   258          1
   263          4
   277          1
   281         18
   282          1
   287          1
   307          2
   327         13
   328          1