##TITLE=Library Entry 114893
##JCAMP-DX=Revision 4.10 
##DATA TYPE=MASS SPECTRUM
##SAMPLE DESCRIPTION=Japan AIST/NIMC Database- Spectrum MS-NW-2228
##NAMES=HP
##CAS NAME=1,6-Naphthyridine
##MOLFORM=C8H6N2
##CAS REGISTRY NO=253-72-5
##MP= -300
##BP= -300
##MW= 130
##$RETENTION INDEX=0
##$CONDENSED SPECTRUM=NO
##NPOINTS= 51
##XYDATA=(XY..XY) 1 
    25          1
    26         13
    27          8
    28          3
    36          2
    37         17
    38         30
    39         30
    40          4
    41          2
    42          1
    44          1
    48          2
    49         12
    50        120
    51         57
    52         46
    53          9
    54          1
    60          1
    61          7
    62         12
    63         45
    64         15
    65         29
    66          2
    73          5
    74         36
    75         75
    76        162
    77         51
    78         13
    79        111
    80          6
    88          2
    89          3
    90         14
    91          2
    99          2
   100          3
   101          3
   102         40
   103        237
   104        133
   105          9
   106          1
   128          3
   129        196
   130        999
   131         91
   132          4