##TITLE=Library Entry 114888
##JCAMP-DX=Revision 4.10 
##DATA TYPE=MASS SPECTRUM
##SAMPLE DESCRIPTION=Exported from NIST MS Search
##NAMES=HP
##CAS NAME=1,7-Naphthyridine
##MOLFORM=C8H6N2
##CAS REGISTRY NO=253-69-0
##MP= -300
##BP= -300
##MW= 130
##$RETENTION INDEX=0
##$CONDENSED SPECTRUM=NO
##NPOINTS= 22
##XYDATA=(XY..XY) 1 
    36         60
    38         50
    39         80
    41         80
    50        200
    51        100
    52         70
    63         50
    65         80
    74         60
    75        140
    76        250
    77        100
    79        160
   101        130
   102         80
   103        260
   104        240
   105         50
   129        210
   130        999
   131        170