##TITLE=Library Entry 2781
##JCAMP-DX=Revision 4.10 
##DATA TYPE=MASS SPECTRUM
##SAMPLE DESCRIPTION=CARL DJERASSI DEPT OF CHEM STANFORD UNIV STANFORD CALIF
 94305
##NAMES=HP
##CAS NAME=2(1H)-Naphthalenone, octahydro-8a-methyl-, cis-
##MOLFORM=C11H18O
##CAS REGISTRY NO=2530-17-8
##MP= -300
##BP= -300
##MW= 166
##$RETENTION INDEX=0
##$CONDENSED SPECTRUM=NO
##NPOINTS= 54
##XYDATA=(XY..XY) 1 
    41        999
    42        160
    43        180
    50         10
    51         80
    52         60
    53        340
    54        190
    55        700
    56        120
    57         40
    63         20
    65         90
    66         60
    67        640
    68        290
    69        370
    70         60
    71         70
    77        110
    78         30
    79        190
    80         70
    81        480
    82        320
    83         90
    84         30
    91         90
    92         20
    93        220
    94         50
    95        640
    96        210
    97         60
    98         20
   105         30
   106         20
   107         60
   108        540
   109        340
   110        130
   111         70
   122         50
   123        110
   124        190
   125         20
   133        100
   137         20
   138         20
   148         50
   151        190
   152         10
   166        280
   167         40