##TITLE=Library Entry 57657
##JCAMP-DX=Revision 4.10 
##DATA TYPE=MASS SPECTRUM
##SAMPLE DESCRIPTION=AAFS Toxicology Section MS DB Committee, U. Alberta, Ca
nada
##NAMES=HP
##CAS NAME=Theophylline, 7-(2-hydroxy-3-(N-(2-hydroxyethyl)-N-methylamino)pr
opyl)-
##MOLFORM=C13H21N5O4
##CAS REGISTRY NO=2530-97-4
##MP= -300
##BP= -300
##MW= 311
##$RETENTION INDEX=0
##$CONDENSED SPECTRUM=NO
##NPOINTS= 52
##XYDATA=(XY..XY) 1 
    40         18
    41         36
    42        112
    43         47
    44        201
    45         73
    53         13
    54         22
    55         21
    56         19
    57         42
    58         89
    59         14
    66         14
    67         33
    68         24
    69         14
    70         43
    71         13
    72         10
    73         12
    79          8
    80         10
    81         38
    82         24
    83         11
    84         20
    86         27
    88        999
    89         57
    94         16
    95         28
    96         12
   100         17
   101          9
   108          9
   109         36
   111         10
   114         45
   123         12
   125          9
   129          8
   152         13
   166         15
   180         25
   181         10
   188         18
   193         21
   194         12
   223         18
   237         30
   280         31