##TITLE=Library Entry 68571
##JCAMP-DX=Revision 4.10 
##DATA TYPE=MASS SPECTRUM
##SAMPLE DESCRIPTION=A.A.Kutin, Moscow, Russia
##NAMES=HP
##CAS NAME=Propenone, 3-(4-chlorophenylthio)-1-(4-fluorophenyl)-
##MOLFORM=C15H10ClFOS
##CAS REGISTRY NO=253133-11-8
##MP= -300
##BP= -300
##MW= 292
##$RETENTION INDEX=0
##$CONDENSED SPECTRUM=NO
##NPOINTS= 68
##XYDATA=(XY..XY) 1 
    34         25
    36          7
    39         31
    40         62
    41         14
    42         16
    43         49
    44         21
    45         84
    50         93
    51         78
    53         56
    56          9
    57         53
    58         10
    63         67
    69        111
    70         31
    73         26
    75        404
    76         36
    81         22
    82         15
    85         71
    89         30
    91         10
    93         17
    95        999
    96         68
    97         12
    99         28
   101         38
   107         14
   108        211
   109         80
   110         12
   111         10
   114          9
   117          5
   121         32
   122          9
   123        903
   124         65
   125         29
   127          9
   133          8
   134         83
   143        169
   144        365
   145         60
   146        134
   148         19
   149        653
   150         63
   165          8
   168         13
   169         24
   176          9
   180         49
   181        312
   182         29
   183          9
   197         74
   199         11
   291         25
   292        256
   293         53
   294        113