##TITLE=Library Entry 33782
##JCAMP-DX=Revision 4.10 
##DATA TYPE=MASS SPECTRUM
##SAMPLE DESCRIPTION=Chemical Concepts
##NAMES=HP
##CAS NAME=2-Butenoic acid, 2-(formylamino)-3-methyl-, ethyl ester
##MOLFORM=C8H13NO3
##CAS REGISTRY NO=25315-39-3
##MP= -300
##BP= -300
##MW= 171
##$RETENTION INDEX=0
##$CONDENSED SPECTRUM=NO
##NPOINTS= 96
##XYDATA=(XY..XY) 1 
    25          1
    26         22
    27        159
    28        142
    29        143
    30         77
    31         20
    37          8
    38         19
    39        156
    40         36
    41        311
    42        190
    43        136
    44         13
    45         12
    46          1
    47          3
    48          0
    49          1
    50          6
    51         12
    52         31
    53         34
    54        136
    55         14
    56         17
    57          3
    58          6
    59         25
    60          0
    63          0
    64          2
    65          2
    66          9
    67         22
    68        999
    69        498
    70        213
    71         13
    72          1
    73          1
    74          0
    77          0
    78          0
    79          1
    80          1
    81          2
    82         10
    83          2
    84          3
    85          2
    86          8
    87          3
    88          0
    95          0
    96          8
    97        283
    98         95
    99          6
   100         18
   101          0
   105          0
   106          0
   107          0
   108          0
   109          0
   110         65
   111          3
   112          1
   113          1
   114        242
   115         15
   116          1
   123          0
   124         10
   125        529
   126        147
   127         10
   128          3
   129          0
   141          3
   142         16
   143         92
   144          7
   145          0
   153          1
   154          0
   155          0
   156         12
   157          0
   167          0
   169          0
   171        105
   172         10
   173          0