##TITLE=Library Entry 375
##JCAMP-DX=Revision 4.10 
##DATA TYPE=MASS SPECTRUM
##SAMPLE DESCRIPTION=NIST Mass Spectrometry Data Center
##NAMES=HP
##CAS NAME=Ethyl 2-nitropropionate
##MOLFORM=C5H9NO4
##CAS REGISTRY NO=2531-80-8
##MP= -300
##BP= -300
##MW= 147
##$RETENTION INDEX=0
##$CONDENSED SPECTRUM=NO
##NPOINTS= 36
##XYDATA=(XY..XY) 1 
    14          6
    15         34
    16          3
    18          1
    19          9
    26        122
    27        380
    28        254
    29        999
    30        252
    31          1
    38          2
    39          4
    40          5
    41         66
    42         26
    43         81
    45        334
    46         66
    47          1
    53          6
    55        115
    56        178
    57         30
    58         39
    60          2
    73        202
    74         34
    75         21
    76          1
    86          2
    99          1
   101         46
   102        124
   103          5
   132          2