##TITLE=Library Entry 40239
##JCAMP-DX=Revision 4.10 
##DATA TYPE=MASS SPECTRUM
##SAMPLE DESCRIPTION=Exported from NIST MS Search
##NAMES=HP
##CAS NAME=Pyramat
##MOLFORM=C11H17N3O2
##CAS REGISTRY NO=2532-49-2
##MP= -300
##BP= -300
##MW= 223
##$RETENTION INDEX=0
##$CONDENSED SPECTRUM=NO
##NPOINTS= 27
##XYDATA=(XY..XY) 1 
    39         49
    41         78
    42         93
    43         49
    54         29
    55         24
    56         24
    66         39
    67         24
    68         29
    70         24
    72        999
    73         49
   124         39
   138         39
   151        221
   152         34
   153         49
   164         44
   179         29
   180         24
   195        197
   196         32
   208         36
   222          4
   223         19
   224          4