##TITLE=Library Entry 29527
##JCAMP-DX=Revision 4.10 
##DATA TYPE=MASS SPECTRUM
##SAMPLE DESCRIPTION=J. SHAW, BORRISTON RESEARCH, ROCKVILLE, MD, USA
##NAMES=HP
##CAS NAME=Butanoic acid, 4-(2,4,5-trichlorophenoxy)-, methyl ester
##MOLFORM=C11H11Cl3O3
##CAS REGISTRY NO=25333-21-5
##MP= -300
##BP= -300
##MW= 296
##$RETENTION INDEX=1955
##$CONDENSED SPECTRUM=NO
##NPOINTS= 168
##XYDATA=(XY..XY) 1 
    12          3
    13          3
    15        949
    16         25
    17        127
    18        403
    19          3
    26         25
    27        132
    28         79
    29        268
    30         25
    31         48
    32          3
    33          4
    35          7
    36         14
    37         14
    38         20
    39        174
    40         44
    41        470
    42        221
    43         58
    44          7
    45         58
    46          1
    47          4
    48          1
    49          7
    50         12
    51          7
    52          1
    53         12
    55         31
    56          6
    57         12
    59        999
    60         43
    61         32
    62         53
    63         20
    64          1
    65          2
    66          1
    67          1
    69        247
    70         13
    71         16
    72         18
    73         39
    74         59
    75         19
    76          2
    77          3
    81          1
    82          2
    83         17
    84         12
    85         19
    86          5
    87          7
    88          1
    89          3
    90          1
    91          1
    94          1
    95          2
    96         14
    97         88
    98         12
    99         35
   101        944
   102         62
   103          7
   104          3
   105          3
   107         27
   108         14
   109         44
   110          8
   111         19
   112          3
   113          3
   115          1
   117          3
   118         12
   119          9
   120          5
   123          2
   124          1
   125          3
   126          2
   127          1
   131          6
   132         21
   133         24
   134         15
   135         13
   136          4
   137          3
   138          1
   139          1
   141          1
   143         18
   144         12
   145         23
   146         13
   147         11
   148          5
   149          4
   150          1
   159          3
   160          5
   161          7
   162          7
   163          5
   164          4
   165          6
   167         45
   168          4
   169         39
   170          3
   171         13
   172          1
   173          3
   174          1
   175          7
   176          1
   177          4
   178          1
   179         14
   180          2
   181         14
   182          1
   183          5
   185          1
   187          1
   195         14
   196         66
   197         16
   198         63
   199         18
   200         21
   201          5
   202          5
   204          1
   207          1
   209          7
   210          1
   211          6
   212          1
   213          2
   223          2
   225          2
   234          4
   235          4
   236          3
   237          3
   238          1
   265         15
   266          1
   267         14
   268          1
   269          4
   296          4
   298          4
   300          1