##TITLE=Library Entry 79445
##JCAMP-DX=Revision 4.10 
##DATA TYPE=MASS SPECTRUM
##SAMPLE DESCRIPTION=Japan AIST/NIMC Database- Spectrum MS-IW-4774
##NAMES=HP
##CAS NAME=Benzenebutanoic acid, .gamma.-oxo-, methyl ester
##MOLFORM=C11H12O3
##CAS REGISTRY NO=25333-24-8
##MP= -300
##BP= -300
##MW= 192
##$RETENTION INDEX=0
##$CONDENSED SPECTRUM=NO
##NPOINTS= 76
##XYDATA=(XY..XY) 1 
    15         11
    26          2
    27         14
    28          2
    29          5
    30          1
    31          7
    38          2
    39          7
    41          1
    42          1
    43          1
    44          1
    45          2
    50         21
    51         80
    52          6
    53          2
    54          1
    55         26
    56          2
    57          1
    58          1
    59         11
    62          2
    63          5
    64          1
    65          4
    66          1
    68          3
    74          6
    75          6
    76         13
    77        323
    78         25
    79          2
    80          2
    82          2
    87          9
    88          2
    89          2
    91          6
   102          3
   103          7
   104          7
   105        999
   106         78
   107          5
   113          2
   114          9
   115         23
   116          6
   117          5
   119          1
   120          1
   121          1
   131         10
   132          9
   133         23
   134          2
   142          7
   143          1
   144          4
   159          1
   160         28
   161        144
   162         16
   163          1
   164          1
   165          1
   167          1
   174         11
   175          1
   192         62
   193          9
   194          1