##TITLE=Library Entry 22910
##JCAMP-DX=Revision 4.10 
##DATA TYPE=MASS SPECTRUM
##SAMPLE DESCRIPTION=A.A.Kutin, Moscow, Russia
##NAMES=HP
##CAS NAME=Pyrimidine-5-carboxylic acid, 1,2,3,4-tetrahydro-4-(2-chloropheny
l)-1,6-dimethyl-2-oxo-, ethyl ester
##MOLFORM=C15H17ClN2O3
##CAS REGISTRY NO=253328-48-2
##MP= -300
##BP= -300
##MW= 308
##$RETENTION INDEX=0
##$CONDENSED SPECTRUM=NO
##NPOINTS= 213
##XYDATA=(XY..XY) 1 
    33          2
    34          1
    35          7
    36         23
    37          4
    38         18
    39         79
    40         40
    41         43
    42         78
    43         47
    44         40
    45         11
    46          2
    49          1
    50         37
    51         54
    52         18
    53         19
    54         48
    55        100
    56        999
    57         46
    58         24
    59          2
    60          3
    61          4
    62         10
    63         30
    64         13
    65         17
    66         95
    67         65
    68         22
    69         15
    70         22
    71          9
    72          7
    73         10
    74         29
    75         72
    76         27
    77         46
    78         12
    79          6
    80          9
    81         12
    82         41
    83         13
    84          7
    85         13
    86          7
    87         10
    88         10
    89         24
    90          6
    91          6
    92          6
    93          7
    94         63
    95         20
    96         15
    97          6
    98         22
    99         19
   100         18
   101         40
   102         50
   103         11
   104          5
   105          2
   107          2
   108          2
   109          7
   110         10
   111         20
   112          9
   113         22
   114         28
   115         55
   116         21
   117          5
   118          2
   119          0
   120          1
   121          2
   122          6
   123         21
   124         53
   125         24
   126         21
   127         34
   128         34
   129         12
   130         11
   131          5
   132          3
   133          0
   135          3
   136         26
   137         13
   138         32
   139         15
   140         21
   141         15
   142         11
   143         20
   144          7
   145          3
   149         15
   151        288
   152         36
   153          7
   154          5
   155          7
   156         13
   157         12
   158          5
   159          2
   160          1
   161          6
   162          6
   163         10
   164          5
   165          6
   166         16
   167         10
   169        342
   170         35
   171          9
   172          3
   174          2
   176          7
   177          4
   178          6
   179          2
   180          3
   181          1
   182          1
   183          3
   184          8
   185          8
   186          4
   187          1
   189          0
   190          3
   191          2
   192         12
   193          2
   194          5
   195          5
   197        851
   198         91
   199         48
   200         11
   201          2
   202         11
   203          2
   204          4
   205          3
   206          6
   207          2
   208          2
   211          0
   212          2
   213          1
   218          1
   219          5
   220          7
   221          3
   222          3
   226         20
   227         13
   228          3
   229          3
   230          3
   232          0
   233          7
   235        215
   236         36
   237         65
   238         10
   239          0
   243         19
   244          3
   245          2
   261          8
   262          3
   263         48
   264          9
   265         17
   266          3
   267          0
   271          1
   273        138
   274         21
   275          3
   277          0
   279        223
   280         35
   281         69
   282         10
   283          0
   293         39
   294          7
   295         11
   296          1
   306          0
   307         13
   308         46
   309         12
   310         15
   311          2