##TITLE=Library Entry 27499
##JCAMP-DX=Revision 4.10 
##DATA TYPE=MASS SPECTRUM
##SAMPLE DESCRIPTION=K.OLSSON INST. OF ORG. CHEM., GOTEBORG 5, SWEDEN
##NAMES=HP
##CAS NAME=Benzene, 2,4-dibromo-1,3,5-tris(2,2-dimethylpropyl)-
##MOLFORM=C21H34Br2
##CAS REGISTRY NO=25347-06-2
##MP= -300
##BP= -300
##MW= 444
##$RETENTION INDEX=0
##$CONDENSED SPECTRUM=NO
##NPOINTS= 68
##XYDATA=(XY..XY) 1 
    29        350
    39         70
    40         20
    41        480
    42         20
    43        480
    44         20
    53         20
    55         90
    56         90
    57        999
    58        140
    65         20
    69         20
    71        220
    82         20
    91         20
   115         50
   116         20
   117         20
   128         40
   129         30
   141         40
   142         30
   143         40
   156         20
   157         40
   158         30
   159         20
   171         20
   173         40
   174         30
   198         30
   200         20
   229         20
   230         20
   253         20
   254         20
   276        320
   277         40
   278        610
   279         60
   280        300
   281         30
   332        210
   333         50
   334        410
   335         70
   336        210
   337         30
   387         40
   388        180
   389        120
   390        320
   391        170
   392        160
   393         30
   429         30
   431         60
   432         20
   433         30
   444         78
   445         17
   446        162
   447         34
   448         75
   449         16
   450          1