##TITLE=Library Entry 71557
##JCAMP-DX=Revision 4.10 
##DATA TYPE=MASS SPECTRUM
##SAMPLE DESCRIPTION=Chemical Concepts
##NAMES=HP
##CAS NAME=3,6-Dibromo-9-(2-hydroxy-3-piperidinopropyl)carbazole
##MOLFORM=C20H22Br2N2O
##CAS REGISTRY NO=253448-94-1
##MP= -300
##BP= -300
##MW= 464
##$RETENTION INDEX=0
##$CONDENSED SPECTRUM=NO
##NPOINTS= 170
##XYDATA=(XY..XY) 1 
    34         27
    36         12
    38         16
    40         39
    41        159
    42        118
    43        120
    44         21
    46          2
    49          3
    50          9
    51         20
    52          9
    53         10
    54         13
    55        106
    56         36
    57         59
    58         85
    59          6
    60          7
    62         16
    63         16
    64          6
    65          5
    66          5
    67         11
    68         13
    69         43
    70         41
    71         12
    72          7
    73          9
    74         16
    75         23
    76          9
    77         10
    78          9
    79          9
    80          9
    81         12
    82         17
    83         18
    84         21
    85         10
    86         13
    87         27
    88        101
    89         13
    90          3
    91          5
    93          5
    94          4
    95          8
    96         16
    98        999
    99         67
   100          9
   101          5
   102          3
   105          4
   107          3
   108          2
   109          3
   110         11
   111          8
   112          9
   113          8
   114          4
   115          3
   116          2
   117          3
   119          4
   121          3
   122          5
   123          6
   124         15
   125          9
   126         18
   128        515
   129         33
   130          3
   133          3
   135          5
   136          5
   137         12
   138          9
   139          4
   140          3
   149          6
   150         27
   151         44
   152         15
   153          3
   161          2
   162          5
   163         12
   164         60
   165         13
   166          3
   167          2
   171          4
   175          3
   176          8
   177         22
   178         29
   179         12
   180          3
   188          2
   189          3
   190          7
   191          8
   192          4
   203          2
   204          2
   205          2
   206          2
   207          5
   211          2
   218          2
   220          2
   230          2
   231          2
   232          2
   242          3
   243          8
   244          6
   245          8
   246          3
   256          9
   257         34
   258         24
   259         31
   260         16
   261          2
   271          2
   282          3
   283          3
   284          3
   287          2
   300          3
   301          3
   302          3
   322          8
   323          3
   324         12
   325          5
   326          7
   327          3
   334          3
   336         29
   337          9
   338         48
   339         12
   340         22
   341          6
   364          2
   365          2
   377          2
   379         20
   380          6
   381         31
   382          6
   383         14
   384          3
   464          6
   465          3
   466          8
   467          2
   468          4