##TITLE=Library Entry 78920
##JCAMP-DX=Revision 4.10 
##DATA TYPE=MASS SPECTRUM
##SAMPLE DESCRIPTION=Div. of Experiment Therapeutics WRAIR, WRAMC, Washingto
n DC 20307
##NAMES=HP
##CAS NAME=1-Benzoyl-3,3-diisobutyl-2-thiourea
##MOLFORM=C16H24N2OS
##CAS REGISTRY NO=25343-27-5
##MP= -300
##BP= -300
##MW= 292
##$RETENTION INDEX=0
##$CONDENSED SPECTRUM=NO
##NPOINTS= 131
##XYDATA=(XY..XY) 1 
    41        230
    42         86
    43         92
    44         27
    45          5
    46          1
    47          3
    49          9
    50         36
    51        136
    52          8
    53          9
    54          5
    55        120
    56         47
    57        232
    58         33
    59          2
    60         30
    61          3
    62          4
    63          2
    65          2
    67          1
    68          4
    69          9
    70         21
    71          9
    72        220
    73         14
    74          9
    75          9
    76         25
    77        516
    78         35
    79         12
    80          1
    82          5
    83          3
    84         68
    85          3
    86        294
    87         16
    88          5
    89          3
    91          2
    93          3
    96          1
    97         21
    98          6
    99         16
   100         13
   103          3
   105        999
   106         72
   107          5
   109         12
   110         32
   111          4
   112          4
   113          2
   114         16
   115         14
   116         16
   117          2
   118          2
   120          1
   121          5
   122         69
   123          5
   126          5
   127         39
   128        102
   129         24
   130         20
   131         11
   132          9
   133          3
   134          5
   137          2
   138          3
   139          2
   147         39
   148          5
   149          1
   151          5
   152          5
   155          3
   156         34
   157          3
   158          2
   159          1
   161          7
   162          8
   163          1
   164         26
   165          7
   166          3
   170          2
   171         50
   172         25
   173          4
   176          3
   179          8
   180         88
   181         24
   182          5
   183          2
   185          7
   187          3
   188          2
   193          6
   194          4
   203         18
   204          7
   217          4
   218          1
   221          2
   235        101
   236         39
   237         10
   238          2
   249         26
   250          3
   259         13
   260          3
   291         27
   292        128
   293         24
   294          8
   295          1