##TITLE=Library Entry 51704
##JCAMP-DX=Revision 4.10 
##DATA TYPE=MASS SPECTRUM
##SAMPLE DESCRIPTION=T.Hofmann ET AL.JAFC, 46,2721(1998)
##NAMES=HP
##CAS NAME=2-Acetyl-1,4,5,6-tetrahydropyridine
##MOLFORM=C7H11NO
##CAS REGISTRY NO=25343-57-1
##MP= -300
##BP= -300
##MW= 125
##$RETENTION INDEX=1061
##$CONDENSED SPECTRUM=NO
##NPOINTS= 27
##XYDATA=(XY..XY) 1 
    39         44
    41         54
    42         34
    43        349
    44          4
    52         36
    53         65
    54        518
    55        197
    56         26
    65         16
    67         45
    68         55
    70          6
    79         16
    80         96
    81         36
    82        999
    83         67
    85          4
    96         27
   110         68
   111          7
   124        220
   125        962
   126         50
   127          8