##TITLE=Library Entry 73489
##JCAMP-DX=Revision 4.10 
##DATA TYPE=MASS SPECTRUM
##SAMPLE DESCRIPTION=Chemical Concepts
##NAMES=HP
##CAS NAME=3,6-Dibromo-9-(2-hydroxy-3-morpholinopropyl)carbazole
##MOLFORM=C19H20Br2N2O2
##CAS REGISTRY NO=253449-16-0
##MP= -300
##BP= -300
##MW= 466
##$RETENTION INDEX=0
##$CONDENSED SPECTRUM=NO
##NPOINTS= 146
##XYDATA=(XY..XY) 1 
    39          5
    40          5
    41         20
    42         50
    43         22
    44         24
    45          7
    50          1
    51          3
    52          1
    54          7
    55          9
    56         93
    57         11
    58          8
    59          1
    62          2
    63          4
    64          1
    67          1
    68          4
    69          2
    70         29
    71          7
    72         14
    73          1
    74          4
    75          5
    76          3
    77          2
    79          7
    80         12
    81          6
    82         13
    83          1
    84          1
    85          4
    86          8
    87          4
    88          3
    89          3
    94          1
    96          1
    98         17
   100        999
   101         53
   102          8
   103          1
   110          1
   111          2
   112          4
   113          2
   114          3
   115          1
   122          1
   123          1
   124          2
   125          3
   126         11
   127          2
   128          6
   130        404
   131         24
   132          2
   137          5
   138          3
   139          1
   140          1
   142          1
   144          1
   149          2
   150         13
   151         27
   152          9
   153          2
   162          1
   163          3
   164         26
   165          6
   166          1
   167          1
   175          1
   176          2
   177         11
   178         17
   179          9
   180          2
   190          1
   191          1
   192          1
   193          1
   203          1
   204          2
   217          1
   218          1
   219          1
   222          1
   230          1
   231          1
   232          1
   233          1
   242          1
   243          3
   244          3
   245          3
   246          2
   256          2
   257         13
   258         13
   259         14
   260         10
   261          1
   282          2
   283          1
   284          2
   285          1
   287          2
   289          2
   300          1
   302          1
   322          3
   323          2
   324          7
   325          3
   326          3
   327          2
   336          5
   337          6
   338         14
   339          7
   340          8
   341          3
   362          1
   364          2
   365          1
   366          1
   367          1
   379          1
   381          1
   383          1
   450          1
   466          2
   467          1
   468          4
   469          1
   470          2