##TITLE=Library Entry 39688
##JCAMP-DX=Revision 4.10 
##DATA TYPE=MASS SPECTRUM
##SAMPLE DESCRIPTION=Chemical Concepts
##NAMES=HP
##CAS NAME=Acetoacetamide, N,N-dimethyl-2-o-tolyl-
##MOLFORM=C13H17NO2
##CAS REGISTRY NO=25343-58-2
##MP= -300
##BP= -300
##MW= 219
##$RETENTION INDEX=0
##$CONDENSED SPECTRUM=NO
##NPOINTS= 164
##XYDATA=(XY..XY) 1 
    25          1
    26         19
    27        157
    28        401
    29         36
    30         44
    31          4
    33          0
    34          1
    36          0
    37         16
    38         43
    39        239
    40         40
    41         85
    42        296
    43        989
    44        749
    45        415
    46         50
    47          2
    48          1
    49         11
    50        161
    51        362
    52         97
    53         51
    54          5
    55         21
    56         29
    57         14
    58         22
    59          5
    60          4
    61         23
    62         73
    63        177
    64         26
    65         95
    66         11
    67          9
    68          5
    69          8
    70          6
    71          5
    72        999
    73         79
    74         88
    75         94
    76        102
    77        537
    78        255
    79         55
    80          4
    81          7
    82          5
    83          5
    84          3
    85          8
    86         21
    87         19
    88          9
    89         41
    90         18
    91        155
    92         16
    93          7
    94          2
    95          4
    96          2
    97          3
    98         10
    99          5
   100          3
   101         22
   102        152
   103        479
   104        719
   105        316
   106         34
   107          6
   108          2
   109          3
   110          2
   111          2
   112          1
   113          4
   114          5
   115         95
   116         27
   117        116
   118         39
   119         32
   120         28
   121          5
   122          1
   123          1
   124          0
   125          1
   126          3
   127         11
   128        247
   129         53
   130         20
   131        180
   132        374
   133         50
   134          9
   135          2
   136          0
   137          1
   138          0
   140          6
   141          1
   142          1
   143         10
   144          9
   145         56
   146         18
   147         26
   148        160
   149         18
   150          2
   151          1
   152          0
   153          0
   154          1
   155          3
   156         80
   157         73
   158          4
   159         40
   160         21
   161         10
   162        153
   163         16
   164          2
   165          0
   166          0
   167          0
   168          0
   172          0
   173          1
   174        474
   175         80
   176         46
   177        735
   178         80
   180          4
   181          0
   189          0
   190          0
   191          0
   192          0
   201          3
   202          1
   203          0
   204          1
   206          1
   207          0
   218          0
   219        133
   220         20
   221          0