##TITLE=Library Entry 15621
##JCAMP-DX=Revision 4.10 
##DATA TYPE=MASS SPECTRUM
##SAMPLE DESCRIPTION=Exported from NIST MS Search
##NAMES=HP
##CAS NAME=1,2-Benzenediol, 4-[1-(3,4-dihydroxyphenyl)-2-(methylamino)ethyl]
-5-[1-hydroxy-2-(methylamino)ethyl]-
##MOLFORM=C18H24N2O5
##CAS REGISTRY NO=25349-47-7
##MP= -300
##BP= -300
##MW= 348
##$RETENTION INDEX=0
##$CONDENSED SPECTRUM=NO
##NPOINTS= 215
##XYDATA=(XY..XY) 1 
    40         30
    41         55
    42        412
    43        437
    44        999
    45        200
    46         17
    49         12
    50         50
    51        107
    52         42
    53         32
    54         20
    55         57
    56         50
    57         90
    58        899
    59         57
    61         12
    62         30
    63         87
    64         90
    65         40
    66         20
    67         12
    68         12
    69         17
    70         50
    71         75
    72         25
    73         12
    74         20
    75         30
    76         50
    77         70
    78         50
    79         25
    80         15
    81         25
    82         17
    83         10
    84         15
    85         10
    86         10
    87         17
    88         17
    89         37
    90         20
    91         32
    92         25
    93         15
    94         17
    99         17
   100          5
   101         20
   102         25
   103         25
   104         20
   105         20
   106         17
   107         20
   108          7
   109         17
   110        250
   111         20
   112         15
   113         20
   114        120
   115         42
   116         20
   117         17
   118         25
   119         15
   120         12
   121          7
   122         15
   123         87
   124         75
   125         17
   126         20
   127         25
   128         30
   129         17
   130         20
   131         25
   132         37
   133         20
   134         12
   135         12
   136         35
   137         25
   138         17
   139         55
   140         20
   141         20
   142         10
   143         15
   144         15
   145         15
   146         50
   147         50
   148         20
   149         17
   150         25
   151         20
   152         30
   153         17
   154         15
   155         17
   156         10
   157         17
   158         10
   159         10
   160         30
   161         30
   162         17
   163         25
   164         17
   165         20
   166         12
   167         12
   168         20
   169         20
   170         12
   171         15
   173         20
   174         17
   175         82
   176        120
   177         30
   178         50
   179         25
   180         15
   181         25
   182         15
   183         15
   184         25
   185         17
   186         15
   187         10
   188         10
   189         57
   190         17
   191         10
   192         10
   193         10
   194          5
   195          5
   196         17
   197         50
   198         25
   199         10
   200          5
   201          5
   208         10
   209         15
   210         15
   211         17
   212         15
   213         30
   214         20
   215         20
   216          5
   225         17
   226         62
   227        170
   228         30
   229         15
   230         12
   231        100
   232         50
   233         12
   239         15
   240         12
   241         20
   242         25
   243         70
   244         75
   245         25
   246         12
   253         12
   254         12
   255         55
   256         80
   257         25
   258         20
   266         15
   267         12
   268         20
   269         10
   270         15
   271         20
   272         17
   273          5
   274          5
   275         25
   276         17
   280         10
   281          5
   282          5
   284         20
   285         25
   286        292
   287        115
   288         30
   289         10
   297          7
   298         35
   299         50
   300         17
   301         20
   302          7
   348        210
   349         60
   350          3