##TITLE=Library Entry 67928
##JCAMP-DX=Revision 4.10 
##DATA TYPE=MASS SPECTRUM
##SAMPLE DESCRIPTION=Chuck Anderson, Aldrich Chemical Co.
##NAMES=HP
##CAS NAME=exo-2-Bromonorbornane
##MOLFORM=C7H11Br
##CAS REGISTRY NO=2534-77-2
##MP= -300
##BP= -300
##MW= 174
##$RETENTION INDEX=0
##$CONDENSED SPECTRUM=NO
##NPOINTS= 90
##XYDATA=(XY..XY) 1 
    14          0
    15          2
    25          0
    26         11
    27         92
    28         18
    29         20
    30          0
    31          0
    32          0
    33          0
    36          0
    37          6
    38         21
    39        188
    40         36
    41        143
    42          7
    43          2
    44          0
    45         11
    46          9
    49          1
    50         15
    51         32
    52         16
    53         66
    54         49
    55         58
    56          2
    57          0
    60          0
    61          2
    62          6
    63         12
    64          2
    65         56
    66         72
    67        306
    68         45
    69          2
    72          0
    73          0
    74          1
    77         44
    78          9
    79         52
    80         13
    81          6
    82          1
    83          0
    85          0
    86          0
    87          0
    89          1
    90          0
    91         25
    92          2
    93         61
    94          7
    95        999
    96         68
    97          2
   104          0
   105          1
   106          1
   107          1
   108          1
   109          0
   117          0
   119          3
   120          0
   121          2
   122          0
   130          0
   131          0
   132          3
   133          1
   134          3
   135          1
   136          0
   138          0
   139          0
   144          0
   145          0
   146          0
   147          0
   148          0
   174          0
   176          0