##TITLE=Library Entry 27430
##JCAMP-DX=Revision 4.10 
##DATA TYPE=MASS SPECTRUM
##SAMPLE DESCRIPTION=K.OLSSON INST. OF ORG. CHEM., GOTEBORG 5, SWEDEN
##NAMES=HP
##CAS NAME=Benzene, 2-bromo-1,3,5-tris(2,2-dimethylpropyl)-
##MOLFORM=C21H35Br
##CAS REGISTRY NO=25347-03-9
##MP= -300
##BP= -300
##MW= 366
##$RETENTION INDEX=0
##$CONDENSED SPECTRUM=NO
##NPOINTS= 42
##XYDATA=(XY..XY) 1 
    29        120
    39         30
    41        190
    43        160
    55         40
    56         40
    57        999
    58         40
    71         80
    91         20
   115         20
   117         20
   118         20
   119         40
   120         80
   128         20
   129         20
   159         20
   175         30
   176         40
   198        250
   199         40
   200        250
   201         20
   231         30
   232         30
   254        280
   255         50
   256        270
   257         40
   309         70
   310        140
   311         90
   312        140
   313         20
   351         50
   353         50
   366        116
   367         27
   368        114
   369         27
   370          3