##TITLE=Library Entry 40558
##JCAMP-DX=Revision 4.10 
##DATA TYPE=MASS SPECTRUM
##SAMPLE DESCRIPTION=Chemical Concepts
##NAMES=HP
##CAS NAME=2-Hexyldecanoic acid
##MOLFORM=C16H32O2
##CAS REGISTRY NO=25354-97-6
##MP= -300
##BP= -300
##MW= 256
##$RETENTION INDEX=0
##$CONDENSED SPECTRUM=NO
##NPOINTS= 121
##XYDATA=(XY..XY) 1 
    25          4
    26         12
    27        122
    28         26
    29        222
    31          9
    34          7
    37          6
    38          7
    39         94
    40         33
    41        616
    42        106
    43        550
    44         36
    45         62
    51         11
    52          3
    53         62
    54         47
    55        574
    56        115
    57        215
    58         24
    59         25
    60        127
    61         20
    63          5
    65         15
    66         12
    67         92
    68         46
    69        283
    70         59
    71        127
    72         10
    73        999
    74         62
    77          5
    78         10
    79         34
    80         20
    81         50
    82         48
    83        176
    84         97
    85         73
    86         34
    87        558
    88         44
    89          7
    91          3
    93         16
    94         12
    95         35
    96         18
    97         84
    98         67
    99         27
   100         19
   101        470
   102         51
   103          3
   104          3
   105          4
   107          3
   108         13
   109         19
   110         28
   111         24
   112         12
   113         18
   115        245
   116         25
   118          5
   119          5
   121          5
   122          3
   123          5
   124          9
   125          9
   126         14
   127          4
   128          5
   129        282
   130         45
   136          7
   137          5
   139         13
   141          5
   143        156
   144        586
   145         62
   146          4
   149          2
   153          3
   154          5
   155          9
   157        203
   158         25
   167          4
   171         92
   172        368
   173         30
   174          2
   181          2
   182          2
   184          4
   185        142
   186         23
   199        100
   200         11
   209          4
   210          6
   213         39
   214          6
   227         26
   228          3
   238          5
   256         51
   257         11