##TITLE=Library Entry 84639
##JCAMP-DX=Revision 4.10 
##DATA TYPE=MASS SPECTRUM
##SAMPLE DESCRIPTION=A.A.Kutin, Moscow, Russia
##NAMES=HP
##CAS NAME=1,2,3-Thiadiazole-4-carboxylic acid, (1-amino-2-chloroethenyliden
eamino) ester
##MOLFORM=C5H5ClN4O2S
##CAS REGISTRY NO=253586-49-1
##MP= -300
##BP= -300
##MW= 220
##$RETENTION INDEX=0
##$CONDENSED SPECTRUM=NO
##NPOINTS= 164
##XYDATA=(XY..XY) 1 
    33         75
    34          7
    35         16
    36         56
    37          8
    38         32
    39         24
    40         84
    41        132
    42        623
    43        314
    44        133
    45        179
    46         46
    47         19
    48         36
    49        451
    50         20
    51        137
    52          9
    53         59
    54         11
    55         76
    56         77
    57        593
    58        173
    59         66
    60         16
    61          6
    62         18
    63         12
    64         18
    65          5
    66          4
    67          7
    68          6
    69         12
    70         11
    71         20
    72         29
    73         25
    74         15
    75         31
    76        201
    77        152
    78         63
    79         43
    80          2
    81          4
    82          3
    83          9
    84         29
    85        267
    86         24
    87         25
    88          6
    89         11
    90         12
    91         10
    92         39
    93          5
    94         15
    95          4
    96          4
    98          6
    99          8
   100          3
   101          6
   102         29
   103          7
   104          3
   105          4
   107         76
   108        999
   109         54
   110        351
   111         13
   113        349
   114         16
   115         15
   116          2
   117          9
   118          3
   119         27
   120          2
   121         10
   122          2
   123          1
   124          1
   125          1
   126          1
   127          1
   128          3
   129          2
   130          0
   131          3
   132          1
   133          1
   134          1
   135          4
   136          2
   137          2
   138          1
   139          5
   140          1
   141          1
   142          0
   144          1
   145         12
   146          1
   147          3
   148          3
   149          7
   150          1
   151          1
   152          1
   153          0
   154          5
   155          1
   156          2
   157          8
   158          0
   159          1
   160          0
   162          0
   164          2
   166          1
   167          0
   168          2
   169          0
   170          0
   171          1
   174          0
   175          6
   176          0
   177          2
   180          2
   181          0
   183          1
   185         44
   186          3
   187          2
   189          2
   190          0
   191          1
   192          2
   193          0
   194          1
   197          0
   202          0
   203          9
   204          0
   205          3
   206          1
   207          1
   208          0
   213          0
   219          0
   220         63
   221          8
   222         21
   223          3
   224          1
   225          0