##TITLE=Library Entry 90734
##JCAMP-DX=Revision 4.10 
##DATA TYPE=MASS SPECTRUM
##SAMPLE DESCRIPTION=H-W. FEHLHABER INST. ORGANIC CHEM., UNIV. OF BONN, W. G
ERMANY
##NAMES=HP
##CAS NAME=Pentanamide, 2-(dimethylamino)-3-methyl-N-[3-(1-methylethyl)-7-(2
-methylpropyl)-5,8-dioxo-2-oxa-6,9-diazabicyclo[10.2.2]hexadeca-10,12,14,15-
tetraen-4-yl]-, [3R-[3R*,4S*(2S*,3S*),7S*]]-
##MOLFORM=C28H44N4O4
##CAS REGISTRY NO=25350-22-5
##MP= -300
##BP= -300
##MW= 500
##$RETENTION INDEX=0
##$CONDENSED SPECTRUM=NO
##NPOINTS= 267
##XYDATA=(XY..XY) 1 
    40          1
    41         25
    42         17
    43         16
    44         17
    45          2
    46          5
    50          0
    51          1
    52          1
    53          2
    54          1
    55          7
    56          4
    57          9
    58         14
    59          0
    63          0
    64          0
    65          1
    66          0
    67          3
    68          3
    69         14
    70         10
    71          4
    72          2
    73          0
    77          2
    78          1
    79          1
    80          0
    81          2
    82          4
    83          2
    84         20
    85         23
    86         20
    87          1
    89          1
    90          1
    91          2
    92          0
    93          0
    94          0
    95          1
    96          3
    97         20
    98         12
    99          3
   100          9
   101          2
   104          1
   105          1
   106          1
   107          4
   108          1
   109          0
   110          1
   111          1
   112          7
   113          5
   114        999
   115          8
   116          3
   117          1
   118          1
   119          1
   120          1
   121          0
   122          0
   124          0
   125          2
   126          0
   127          0
   128          0
   130          0
   131          0
   132          1
   133          2
   134         11
   135         19
   136          2
   137          0
   138          0
   139          1
   140          0
   141          3
   142          0
   144          0
   145          0
   146          0
   147          0
   148          0
   150          0
   151          1
   152          0
   153          0
   154          0
   155          2
   156          0
   157          0
   158          0
   159          0
   160          0
   161          1
   162          0
   163          0
   164          0
   165          0
   166          0
   167          1
   168          0
   169          0
   170          0
   171          0
   172          0
   173          0
   174          0
   175          0
   176          0
   177          0
   178          0
   179          0
   180          0
   181          0
   182          2
   183          0
   184          0
   185          0
   186          0
   187          0
   188          0
   189          3
   190          3
   191          0
   192          0
   193          0
   194          0
   195          0
   196          0
   197          0
   198          0
   199          0
   200          0
   201          0
   202          1
   203          0
   204          0
   205          0
   207          0
   208          0
   209          0
   210          0
   211          0
   212          0
   213          0
   214          0
   215          0
   216          0
   217          0
   218          0
   219          0
   221          0
   222          0
   223          0
   224          0
   225          0
   226          0
   227          0
   228          0
   229          0
   230          0
   231          0
   232          0
   233          0
   235          0
   236          0
   237          0
   238          0
   239          0
   240          0
   243          0
   244          0
   245          0
   246          0
   247          0
   248          0
   249          0
   250          0
   251          0
   252          0
   253          0
   256          0
   257          0
   258          0
   259          0
   261          0
   265          0
   266          0
   267          0
   268          0
   272          0
   273          0
   274          0
   275          0
   279          0
   286          0
   287          0
   293          0
   295          0
   299          0
   300          0
   302          0
   303          0
   304          0
   305          0
   313          0
   314          0
   315          0
   316          0
   321          0
   323          0
   325          0
   328          0
   329          0
   330          0
   341          0
   342          0
   343          0
   344          1
   345          0
   357          0
   358          0
   359          0
   370          0
   371          0
   372          0
   385          0
   386          0
   387          0
   388          0
   398          0
   399          0
   414          0
   415          0
   427          0
   428          0
   429          0
   441          0
   442          0
   443          4
   444          1
   445          0
   446          0
   455          0
   457          0
   458          0
   470          0
   471          0
   485          1
   486          0
   487          0
   498          0
   499          0
   500          0
   501          0