##TITLE=Library Entry 25117
##JCAMP-DX=Revision 4.10 
##DATA TYPE=MASS SPECTRUM
##SAMPLE DESCRIPTION=Japan AIST/NIMC Database- Spectrum MS-NW-5654
##NAMES=HP
##CAS NAME=tert-Hexadecanethiol
##MOLFORM=C16H34S
##CAS REGISTRY NO=25360-09-2
##MP= -300
##BP= -300
##MW= 258
##$RETENTION INDEX=0
##$CONDENSED SPECTRUM=NO
##NPOINTS= 212
##XYDATA=(XY..XY) 1 
    14          1
    15          4
    26          5
    27        111
    28         15
    29        227
    30          5
    32         26
    33         28
    34         83
    35          3
    36          4
    37          1
    38          2
    39         94
    40         17
    41        546
    42         50
    43        718
    44         25
    45         10
    46          1
    47         17
    48          1
    49          1
    50          2
    51          9
    52          6
    53         67
    54         20
    55        616
    56        135
    57        999
    58         44
    59         31
    60          7
    61         57
    62          3
    63          5
    64          8
    65         16
    66          7
    67        103
    68         39
    69        762
    70        288
    71        684
    72         38
    73          7
    74        109
    75        130
    76         10
    77         32
    78          6
    79         30
    80          7
    81         97
    82         58
    83        576
    84        281
    85        478
    86         33
    87         10
    88        106
    89        164
    90         13
    91         30
    92          5
    93         21
    94          7
    95        111
    96         43
    97        356
    98        142
    99        113
   100          9
   101          9
   102         36
   103         75
   104          8
   105         13
   106          3
   107         20
   108          8
   109        104
   110         31
   111        203
   112         80
   113         66
   114          5
   115         11
   116         16
   117         47
   118          5
   119          8
   120          3
   121         18
   122          8
   123         85
   124         24
   125         99
   126         94
   127         76
   128          7
   129         11
   130          8
   131         30
   132          4
   133          6
   134          2
   135         12
   136          6
   137         60
   138         17
   139         47
   140         39
   141         30
   142          3
   143          9
   144          6
   145         28
   146          4
   147          8
   148          2
   149          9
   150          5
   151         44
   152         12
   153         24
   154         19
   155         16
   156          2
   157          8
   158          5
   159         22
   160          3
   161          6
   162          2
   163          8
   164          4
   165         32
   166          9
   167         15
   168         14
   169          9
   170          2
   171          7
   172          5
   173         24
   174          4
   175          5
   176          2
   177          9
   178          3
   179         24
   180          6
   181          9
   182          5
   183          3
   184          1
   185          5
   186          5
   187         28
   188          6
   189          4
   190          2
   191          9
   192          3
   193         23
   194          7
   195          9
   196          9
   197          6
   198          1
   199          5
   200          3
   201         16
   202          5
   203          3
   204          2
   205          8
   206          4
   207         18
   208          9
   209         10
   210         29
   211         20
   212          3
   213          4
   214          1
   215          9
   216          3
   217          2
   218          1
   219          4
   220          3
   221         10
   222          6
   223          5
   224         11
   225          7
   226          2
   227          2
   228          1
   229          4
   230          1
   242          1
   243          3
   244          2
   245          1
   257          1
   258          1