##TITLE=Library Entry 25410
##JCAMP-DX=Revision 4.10 
##DATA TYPE=MASS SPECTRUM
##SAMPLE DESCRIPTION=Japan AIST/NIMC Database- Spectrum MS-NW-9248
##NAMES=HP
##CAS NAME=tert-Nonyl mercaptan
##MOLFORM=C9H20S
##CAS REGISTRY NO=25360-10-5
##MP= -300
##BP= -300
##MW= 160
##$RETENTION INDEX=0
##$CONDENSED SPECTRUM=NO
##NPOINTS= 108
##XYDATA=(XY..XY) 1 
    15          3
    26          3
    27        106
    28         13
    29        189
    30          4
    32          3
    33          2
    34          7
    35          7
    36          2
    37          1
    38          2
    39        104
    40         15
    41        531
    42         65
    43        850
    44         28
    45         26
    46          3
    47         69
    48          2
    49          5
    50          2
    51          9
    52          4
    53         52
    54         19
    55        773
    56        212
    57        999
    58         44
    59         87
    60         36
    61        230
    62          9
    63         12
    64          1
    65          9
    66          3
    67         38
    68         23
    69        486
    70        308
    71        929
    72         51
    73         12
    74        185
    75        469
    76         28
    77         29
    78          2
    79          9
    80          1
    81         15
    82         15
    83        278
    84        122
    85        415
    86         27
    87         15
    88        111
    89        299
    90         20
    91         16
    92          1
    93          2
    95         10
    96          6
    97        205
    98         38
    99         15
   100          1
   101          8
   102         42
   103        101
   104          9
   105          6
   109          7
   110          1
   111         35
   112          6
   113          2
   115          8
   116         26
   117         76
   118          7
   119          4
   123          2
   124          1
   125         13
   126        144
   127        340
   128         33
   129         15
   130          5
   131         34
   132          3
   133          2
   144          1
   145          8
   146          2
   147          1
   159          3
   160         86
   161          9
   162          4