##TITLE=Library Entry 13599
##JCAMP-DX=Revision 4.10 
##DATA TYPE=MASS SPECTRUM
##SAMPLE DESCRIPTION=Humboldt-Universitat zu Berlin, Department of Chemistry
, Analytical Group
##NAMES=HP
##CAS NAME=Heptanoic acid, 7-methoxy-2-oxo-2H-chromen-4-ylmethyl ester
##MOLFORM=C18H22O5
##CAS REGISTRY NO=253662-53-2
##MP= -300
##BP= -300
##MW= 318
##$RETENTION INDEX=0
##$CONDENSED SPECTRUM=NO
##NPOINTS= 205
##XYDATA=(XY..XY) 1 
    12          2
    13          1
    14          4
    15         41
    16          2
    17          8
    18         28
    26         13
    27        174
    28         80
    29        246
    30          9
    31          4
    36          1
    37          2
    38          9
    39        107
    40         20
    41        348
    42         71
    43        999
    44         40
    45         12
    50         25
    51         51
    52         13
    53         27
    54         10
    55        222
    56         36
    57        236
    58         13
    59         12
    60          3
    61          3
    62         22
    63         61
    64         18
    65         34
    66          8
    67         33
    68         13
    69        116
    70         20
    71         58
    72          3
    73          3
    74         10
    75         21
    76         42
    77         97
    78         23
    79         39
    80          8
    81         31
    82         13
    83         51
    84         12
    85        255
    86         21
    87         11
    88         16
    89         91
    90         80
    91         51
    92         17
    93         11
    94          7
    95         53
    96         13
    97         36
    98          6
    99         14
   100          3
   101         13
   102         76
   103         34
   104         12
   105         23
   106         10
   107         11
   108          5
   109         20
   110          8
   111         26
   113        291
   114         24
   115         19
   116         16
   117         18
   118         96
   119         43
   120         17
   121         75
   122         11
   123         12
   124          9
   125         14
   126          4
   127          8
   128          2
   129          5
   130         20
   131         17
   132         14
   133         69
   134         13
   135         12
   136          3
   137         10
   138          4
   139          6
   140          2
   141          5
   142          1
   143          1
   145         76
   146         48
   147         29
   148         34
   149        170
   150         24
   151         10
   152          2
   153          4
   154          1
   155          4
   157          2
   158          2
   159          5
   161        198
   162        131
   163         30
   164          5
   165          5
   166          1
   167          2
   168          1
   169          2
   171          1
   173          2
   174          3
   175         14
   176         21
   177         53
   178        137
   179         17
   180          2
   181          2
   182          1
   183          2
   185          1
   187          1
   188          7
   189         41
   190        255
   191         43
   192          6
   193          2
   194          1
   195          1
   196          1
   197          1
   202         24
   203         10
   204          9
   205         31
   206        617
   207         84
   208         11
   209          1
   210          1
   211          1
   215          2
   216          1
   217          3
   218          1
   219          1
   220          1
   221          1
   223          1
   225          1
   229          1
   230          5
   231          1
   232          1
   233          1
   235          0
   239          1
   243          1
   248          2
   249          0
   257          1
   261         22
   262          3
   263          0
   275          1
   276          0
   289          1
   290          0
   303          1
   304          0
   318         68
   319         19
   320          3