##TITLE=Library Entry 86273
##JCAMP-DX=Revision 4.10 
##DATA TYPE=MASS SPECTRUM
##SAMPLE DESCRIPTION=NIST Mass Spectrometry Data Center, 1990.
##NAMES=HP
##CAS NAME=Diethyl cyanomethylphosphonate
##MOLFORM=C6H12NO3P
##CAS REGISTRY NO=2537-48-6
##MP= -300
##BP= -300
##MW= 177
##$RETENTION INDEX=0
##$CONDENSED SPECTRUM=NO
##NPOINTS= 70
##XYDATA=(XY..XY) 1 
    14         15
    15         38
    16          6
    18          1
    19          8
    26         53
    27        286
    28        109
    29        399
    30         15
    31         51
    32          5
    39         14
    40         77
    41        333
    42         71
    43         96
    44         26
    45        198
    46          5
    47        174
    48         27
    49         11
    54         48
    55         10
    56          8
    57          5
    63         11
    65        170
    67          6
    68         23
    69         28
    74         24
    77         56
    78         15
    79         13
    80          6
    81        543
    82          9
    83          6
    85         12
    87         11
    91        304
    92         12
    93         86
    95          5
    96         63
    97         79
   103         52
   104        533
   105         19
   106          9
   109        999
   110         21
   111          5
   121        124
   122        626
   123         31
   124         14
   125          6
   132         54
   134        173
   135          8
   137        301
   138         18
   148         86
   149         53
   150        274
   151         14
   162         25