##TITLE=Library Entry 50132
##JCAMP-DX=Revision 4.10 
##DATA TYPE=MASS SPECTRUM
##SAMPLE DESCRIPTION=S.A. Rang et al., IR & MS of Unsatd. Hydrocarbons, 1977
##NAMES=HP
##CAS NAME=Cyclohexene,1-propyl-
##MOLFORM=C9H16
##CAS REGISTRY NO=2539-75-5
##MP= -300
##BP= -300
##MW= 124
##$RETENTION INDEX=949
##$CONDENSED SPECTRUM=NO
##NPOINTS= 75
##XYDATA=(XY..XY) 1 
    15          3
    16          0
    25          0
    26          6
    27        123
    28          5
    29         75
    30          1
    37          1
    38          4
    39        135
    40         22
    41        249
    42         19
    43         17
    45          0
    46          0
    50          7
    51         35
    52         17
    53         99
    54         94
    55        164
    56          9
    57          4
    58          1
    59          0
    62          1
    63          7
    64          2
    65         40
    66         25
    67        476
    68        128
    69         22
    70          4
    71          0
    73          0
    74          0
    75          2
    76          1
    77         84
    78         16
    79        135
    80         57
    81        999
    82        428
    83         38
    84          2
    85          0
    89          1
    90          0
    91         30
    92          5
    93         30
    94         10
    95        292
    96         71
    97          4
    98          0
    99          0
   105          2
   106          0
   107          2
   108          0
   109         30
   110          2
   111          0
   120          0
   121          0
   122          1
   123          3
   124        234
   125         21
   126          1