##TITLE=Library Entry 114751
##JCAMP-DX=Revision 4.10 
##DATA TYPE=MASS SPECTRUM
##SAMPLE DESCRIPTION=Japan AIST/NIMC Database- Spectrum MS-NW-2534
##NAMES=HP
##CAS NAME=1,8-Naphthyridine
##MOLFORM=C8H6N2
##CAS REGISTRY NO=254-60-4
##MP= -300
##BP= -300
##MW= 130
##$RETENTION INDEX=0
##$CONDENSED SPECTRUM=NO
##NPOINTS= 42
##XYDATA=(XY..XY) 1 
    26         18
    27         12
    28         15
    36          2
    37         17
    38         22
    39         50
    40          4
    48          2
    49         10
    50        128
    51         87
    52         47
    53         13
    60          2
    61          8
    62         12
    63         32
    64         13
    65         27
    73          6
    74         27
    75         83
    76        257
    77         89
    78         12
    79        125
    80          7
    87          1
    88          3
    90          4
    99          3
   100          3
   101          4
   102         61
   103        256
   104        152
   105         10
   129        182
   130        999
   131        102
   132          6