##TITLE=Library Entry 48177
##JCAMP-DX=Revision 4.10 
##DATA TYPE=MASS SPECTRUM
##SAMPLE DESCRIPTION=ORMSBG,9(12)1166(1974); DIZABO
##NAMES=HP
##CAS NAME=4H-1,3-Benzodioxin
##MOLFORM=C8H8O2
##CAS REGISTRY NO=254-27-3
##MP= -300
##BP= -300
##MW= 136
##$RETENTION INDEX=0
##$CONDENSED SPECTRUM=NO
##NPOINTS= 29
##XYDATA=(XY..XY) 1 
    50        166
    51        266
    52        193
    53         12
    54        169
    55         32
    59         17
    61         14
    62         32
    63         67
    64         16
    65         32
    66         32
    67         32
    68         64
    74         50
    75         32
    76         40
    77        161
    78        999
    79        105
    82        394
    83         26
   105         12
   106        286
   107         47
   110        114
   136        195
   137         17