##TITLE=Library Entry 51079
##JCAMP-DX=Revision 4.10 
##DATA TYPE=MASS SPECTRUM
##SAMPLE DESCRIPTION=NIST Mass Spectrometry Data Center, 1994
##NAMES=HP
##CAS NAME=5-Dimethylamino-2-methyl-3-pentyn-2-ol
##MOLFORM=C8H15NO
##CAS REGISTRY NO=25400-83-3
##MP= -300
##BP= -300
##MW= 141
##$RETENTION INDEX=0
##$CONDENSED SPECTRUM=NO
##NPOINTS= 88
##XYDATA=(XY..XY) 1 
    12          2
    13          5
    14         22
    15        359
    16          4
    17          3
    18         47
    19          0
    25          2
    26         15
    27        128
    28         96
    29         42
    30         84
    36          2
    37         19
    38         51
    39        256
    40         48
    41        211
    42        786
    43        812
    44        459
    45         48
    46         18
    47          2
    49          4
    50         36
    51         69
    52         30
    53        101
    54         25
    55        144
    56         32
    57         57
    58        286
    59         65
    60          4
    61          5
    62          2
    63         86
    64         15
    65         48
    66         44
    67        129
    68         70
    69         33
    70         32
    71          7
    72         45
    73          1
    75          2
    77         44
    78         11
    79         61
    80         84
    81          1
    82        999
    83        146
    84         25
    85          3
    86          2
    91          4
    92          6
    93         10
    94         21
    95         20
    96         27
    97         21
    98         47
    99          3
   106          4
   107          9
   108         50
   109         15
   110         34
   111         11
   112         31
   113          3
   122         19
   123         15
   124         33
   125         14
   126         68
   127          5
   140        174
   141        198
   142         19