##TITLE=Library Entry 43780
##JCAMP-DX=Revision 4.10 
##DATA TYPE=MASS SPECTRUM
##SAMPLE DESCRIPTION=Japan AIST/NIMC Database- Spectrum MS-IW-1802
##NAMES=HP
##CAS NAME=5-Phenoxymethyl-N-phenyl-2-thiazolin-2-amine
##MOLFORM=C16H16N2OS
##CAS REGISTRY NO=25409-60-3
##MP= -300
##BP= -300
##MW= 284
##$RETENTION INDEX=0
##$CONDENSED SPECTRUM=NO
##NPOINTS= 153
##XYDATA=(XY..XY) 1 
    26          1
    27          9
    28         14
    29          4
    30          5
    32          2
    34          1
    37          3
    38          9
    39         62
    40          9
    41         50
    42          6
    43          6
    44          3
    45        127
    46          5
    47         15
    49          1
    50         14
    51         60
    52          9
    53          4
    54          5
    55         16
    56         34
    57          7
    58         10
    59         36
    60          5
    61          5
    62          5
    63         18
    64         13
    65         69
    66         23
    67          4
    68          2
    69          4
    70          2
    71         11
    72         16
    73        999
    74         59
    75         52
    76         12
    77        197
    78         27
    79         12
    80          2
    81          4
    82          1
    83          3
    84          1
    85          2
    86          4
    87          1
    88         43
    89          5
    90          7
    91        105
    92         86
    93         36
    94         83
    95          9
    96          3
    97          5
    98          9
    99          3
   100          1
   102          2
   103         11
   104         48
   105         19
   106          8
   107         14
   108          5
   109         15
   110          4
   111          3
   113          1
   115          2
   116          1
   117         10
   118         63
   119         26
   120          5
   121          5
   122          2
   123          6
   124          3
   125          1
   127          1
   128          3
   129          1
   130          9
   131         63
   132         19
   133         14
   134          7
   135         38
   136         28
   137         12
   138          2
   139          1
   142         13
   143          2
   144         24
   145          7
   146          1
   147          1
   148          1
   149          7
   150         28
   151          5
   152          2
   155          1
   156          4
   157         21
   158         11
   159          3
   160          1
   161          2
   162          9
   163          6
   164          2
   165          3
   166          2
   167          1
   175         21
   176         12
   177         59
   178          9
   179          3
   187          3
   188         10
   189         29
   190        163
   191        321
   192         51
   193         17
   194          3
   196          2
   209          1
   228          2
   229          1
   251          1
   254          3
   283         88
   284        526
   285        112
   286         36
   287          5