##TITLE=Library Entry 20944
##JCAMP-DX=Revision 4.10 
##DATA TYPE=MASS SPECTRUM
##SAMPLE DESCRIPTION=Exported from NIST MS Search
##NAMES=HP
##CAS NAME=Octadecanoic acid, 13-hydroxy-, methyl ester
##MOLFORM=C19H38O3
##CAS REGISTRY NO=2540-76-3
##MP= -300
##BP= -300
##MW= 314
##$RETENTION INDEX=0
##$CONDENSED SPECTRUM=NO
##NPOINTS= 44
##XYDATA=(XY..XY) 1 
    15        138
    17        168
    27        141
    28         78
    29        195
    30         66
    31        165
    39         90
    41        499
    43        162
    53         30
    54         69
    55        999
    58         69
    59         51
    67        168
    74        927
    83        662
    84         30
    87        945
    88        283
    95        156
    97         66
    98         63
   101        126
   109         72
   115         60
   129         90
   143        159
   149        111
   151         15
   167         30
   171        120
   175         51
   185         30
   211        644
   212         90
   214        262
   215         81
   243         90
   264         30
   265         15
   283         12
   296         15