##TITLE=Library Entry 23293
##JCAMP-DX=Revision 4.10 
##DATA TYPE=MASS SPECTRUM
##SAMPLE DESCRIPTION=J. SHAW, BORRISTON RESEARCH, ROCKVILLE, MD, USA
##NAMES=HP
##CAS NAME=Acetic acid, (2,4,5-trichlorophenoxy)-, 2-ethyl-2-(hydroxymethyl)
hexyl ester
##MOLFORM=C17H23Cl3O4
##CAS REGISTRY NO=25417-35-0
##MP= -300
##BP= -300
##MW= 396
##$RETENTION INDEX=0
##$CONDENSED SPECTRUM=NO
##NPOINTS= 240
##XYDATA=(XY..XY) 1 
    12          7
    13          6
    14         37
    15        103
    16         12
    17         14
    18         38
    19         23
    25          3
    26         29
    27        238
    28        209
    29        848
    30         65
    31        204
    32          3
    33          1
    35          9
    36         14
    37         13
    38         12
    39        107
    41        870
    42        368
    43        362
    44         85
    45        707
    46         15
    47          6
    48          2
    49          7
    50         12
    51          6
    52          1
    53         15
    54          7
    55        127
    56        161
    57        999
    58        149
    59        259
    60         19
    61         27
    62         35
    63         20
    64          1
    65          4
    67          3
    68          1
    69         19
    70          9
    71         84
    72         45
    73        198
    74         58
    75        128
    76          6
    77          5
    79          1
    81          1
    82          2
    83         31
    84         23
    85        113
    86        106
    87        138
    88         11
    89         14
    90          1
    91          1
    94          1
    95          2
    96         11
    97         55
    98         10
    99         30
   100        144
   101        236
   102         25
   103         49
   104          3
   105          2
   106          2
   107         18
   108         20
   109         61
   110         14
   111         40
   112          8
   113         15
   114          8
   115         96
   116         13
   117         27
   118          4
   119          7
   120          2
   121          2
   122          1
   123          1
   125          2
   126          1
   127          3
   128          5
   129         78
   130          9
   131         56
   132         14
   133         11
   134          7
   135          5
   136          1
   137          1
   139          4
   140          1
   141          5
   142          4
   143         42
   144         37
   145        118
   146         69
   147         49
   148         34
   149         12
   150          5
   151          1
   156          1
   157          4
   158        117
   159         88
   160         15
   161          6
   162         10
   163          6
   164          4
   165          3
   167         32
   169         31
   170          2
   171         10
   172          2
   173         10
   174          8
   175         35
   176          7
   177         22
   179         74
   180          9
   181         77
   182          8
   183         33
   184          3
   185          7
   186          1
   187          1
   188          1
   189          3
   190          4
   191          4
   192          5
   193          4
   194          3
   195         13
   196         49
   197         15
   198         47
   199          8
   200         15
   201          5
   202          2
   203          4
   204          1
   205          8
   206          1
   207         11
   209        169
   210         19
   211        152
   212         15
   213         48
   214          5
   215          6
   216          5
   217          5
   219          8
   220          3
   221          4
   222          2
   223          1
   227          1
   237          2
   238          1
   239          2
   241          1
   246          1
   247          1
   249          1
   250          6
   251          1
   252          3
   253          2
   254         35
   255          5
   256         33
   257          4
   258         10
   259          1
   260          3
   261         14
   262          3
   263          9
   264          1
   265          1
   278          1
   280          1
   281          4
   283          4
   285          1
   291          2
   293          2
   294          3
   295         80
   296         12
   297         75
   298         10
   299         24
   300          3
   301          2
   303          1
   305          1
   312         12
   313          1
   314         11
   315          1
   316          3
   317          2
   319          1
   354          1
   356          1
   370          1