##TITLE=Library Entry 9892
##JCAMP-DX=Revision 4.10 
##DATA TYPE=MASS SPECTRUM
##SAMPLE DESCRIPTION=NIST Mass Spectrometry Data Center, 1990.
##NAMES=HP
##CAS NAME=n-Amyl isovalerate
##MOLFORM=C10H20O2
##CAS REGISTRY NO=25415-62-7
##MP= -300
##BP= -300
##MW= 172
##$RETENTION INDEX=1110
##$CONDENSED SPECTRUM=NO
##NPOINTS= 63
##XYDATA=(XY..XY) 1 
    14          5
    15         22
    18          4
    26         23
    27        301
    28         92
    29        410
    30         10
    31         30
    32          1
    37          3
    39        214
    40         69
    41        754
    42        490
    43        999
    44         46
    45         51
    50          2
    51          5
    52          4
    53         27
    54          2
    55        330
    56         98
    57        762
    58         43
    59         75
    60        215
    61        180
    62          5
    65          2
    66          1
    67          9
    68         13
    69        120
    70        885
    71        159
    72         18
    73          4
    74          2
    82          2
    83         10
    85        922
    86         72
    87        239
    88         11
   100         20
   101         23
   102         98
   103        746
   104         39
   105          6
   112          1
   115         57
   116          4
   127          3
   129          6
   130         36
   131          3
   142          2
   143          4
   157          2