##TITLE=Library Entry 35071
##JCAMP-DX=Revision 4.10 
##DATA TYPE=MASS SPECTRUM
##SAMPLE DESCRIPTION=A.A.Kutin, Moscow, Russia
##NAMES=HP
##CAS NAME=1,3,5-Triazine, 2-methylamino-4,6-bis(nonafluoro-tert-butyl)-
##MOLFORM=C12H4F18N4
##CAS REGISTRY NO=254118-16-6
##MP= -300
##BP= -300
##MW= 546
##$RETENTION INDEX=0
##$CONDENSED SPECTRUM=NO
##NPOINTS= 211
##XYDATA=(XY..XY) 1 
    33          3
    34          0
    36          0
    38          1
    39          1
    40         19
    41         10
    42         14
    43          1
    44          2
    46         18
    47          0
    50          9
    51          1
    53        222
    54         35
    55        569
    56        212
    57          7
    58          0
    60         16
    61          0
    66          1
    67         16
    69        999
    70         13
    71          9
    72          8
    74          0
    75          1
    76          5
    77          0
    78          5
    80         20
    81         31
    82        295
    83         13
    84          0
    85          0
    86          0
    88          5
    89          2
    91         48
    93         21
    94          0
    95          4
    96          1
    98          1
    99          0
   100          8
   101          0
   102          1
   103          0
   105         45
   106          4
   107         11
   108          3
   109          0
   112         13
   113          2
   114         16
   115          9
   116          2
   117          0
   119          1
   120          0
   121          2
   122          1
   123          0
   125          4
   126          2
   127          0
   128          0
   129          0
   131          6
   132          0
   133          1
   134          1
   136          1
   138        159
   139         10
   140          2
   141          1
   142          0
   143          1
   145          0
   148          1
   149          0
   150         12
   151          0
   152          1
   153          0
   155          7
   157         46
   158        123
   159          8
   160          0
   162          2
   163          0
   164          2
   165          3
   166          3
   167          0
   169          0
   171          1
   172          2
   173          0
   174          0
   175          0
   176          3
   177          9
   178          3
   179          0
   181         21
   182          4
   183         85
   184         26
   185          2
   186          0
   188          0
   190          8
   191          5
   192          8
   193          0
   194          0
   198          0
   200          8
   201          0
   202          6
   203         69
   204          4
   205         25
   206          1
   207          1
   212          0
   217          3
   218          0
   219          1
   222          0
   226         36
   227          2
   228          0
   229          0
   230          0
   231          0
   232         14
   233          1
   236          0
   237          0
   238          0
   246         65
   247          5
   248          1
   250          1
   253          1
   259          1
   262          1
   271         34
   272         61
   273          5
   280          2
   282          6
   283          1
   286          1
   295          0
   299          1
   300          4
   319          0
   322          0
   326          2
   327          1
   333          4
   338          0
   342          0
   349          7
   350          1
   360          0
   368          1
   369          9
   370          1
   383          1
   388          0
   389          0
   407          0
   421         13
   422          1
   430          0
   437        127
   438         21
   439          3
   450          0
   455          0
   457        406
   458         65
   459          5
   471          0
   476          1
   477          6
   478          0
   517          0
   518          0
   525          1
   527        424
   528         61
   529          4
   543          1
   544          4
   545         44
   546        444
   547         71
   548          4