##TITLE=Library Entry 36980
##JCAMP-DX=Revision 4.10 
##DATA TYPE=MASS SPECTRUM
##SAMPLE DESCRIPTION=Chemical Concepts
##NAMES=HP
##CAS NAME=2-(4-Nitroanilino)-4,6-bis[2,2,2-trifluoro-1,1-bis(trifluoromethy
l)ethyl]-1,3,5-triazine
##MOLFORM=C17H5F18N5O2
##CAS REGISTRY NO=254118-34-8
##MP= -300
##BP= -300
##MW= 653
##$RETENTION INDEX=0
##$CONDENSED SPECTRUM=NO
##NPOINTS= 195
##XYDATA=(XY..XY) 1 
    38         37
    39         72
    40         16
    41         25
    42          8
    43         28
    44         19
    45          2
    46         46
    47          3
    50         71
    51         31
    52         45
    53         47
    54          9
    55         20
    56          7
    57         24
    58          3
    61          2
    62         38
    63        218
    64        101
    65        140
    66         23
    67         12
    69        999
    70         21
    71         21
    73          5
    74         21
    75         64
    76         77
    77         29
    78         51
    79         26
    80          8
    81          5
    82          7
    83         11
    84          4
    85         11
    88         20
    89         89
    90        585
    91         81
    92         10
    93         16
    95          6
    97          4
    98          4
   100          3
   102          2
   103         11
   105        170
   106         28
   107          7
   108          6
   111          2
   112         14
   113          6
   114         15
   115         38
   116        121
   117        572
   118         45
   119          5
   122          2
   125          2
   127          5
   128          5
   129          5
   130         11
   131         22
   132         45
   133        611
   134         49
   135          8
   136          4
   138         73
   139          8
   140          4
   141          4
   142         13
   143         71
   144         10
   145          2
   146          2
   147          9
   150          7
   157         15
   158        148
   159         12
   161          3
   163         45
   165          3
   166          9
   167          3
   171          9
   172          4
   176          2
   177         10
   178          4
   181         19
   182          4
   183         44
   184          6
   185          4
   188          6
   189         59
   190          6
   192          2
   197          6
   203          6
   204         10
   207          3
   212         14
   223          9
   224         39
   225          9
   226         37
   227          3
   230          2
   242          3
   243          2
   245          7
   246        198
   247         13
   248          2
   253          3
   254          4
   255          2
   271         27
   273         78
   274         44
   275          7
   281          4
   283          3
   288          5
   289          2
   292         25
   293         62
   294          7
   302          2
   312          5
   319         21
   322          4
   324          3
   339          9
   342          9
   343          2
   350         26
   351          3
   358          4
   359          3
   360          3
   361         36
   362        112
   363         16
   378          3
   388          2
   390          2
   407         12
   421          9
   515          2
   535          7
   565          4
   584         14
   595          2
   603          6
   604          2
   606          5
   607          9
   617          3
   618          7
   619         12
   621         31
   623        558
   624         89
   625          7
   630          5
   631          6
   632         11
   634        219
   635         38
   636         10
   637         27
   638          6
   647          4
   648          3
   649         19
   651         33
   653        706
   654        107
   655          9