##TITLE=Library Entry 46766
##JCAMP-DX=Revision 4.10 
##DATA TYPE=MASS SPECTRUM
##SAMPLE DESCRIPTION=A.A.Kutin, Moscow, Russia
##NAMES=HP
##CAS NAME=2-(Diphenylamino)-4,6-bis[2,2,2-trifluoro-1,1-bis(trifluoromethyl
)ethyl]-1,3,5-triazine
##MOLFORM=C23H10F18N4
##CAS REGISTRY NO=254118-42-8
##MP= -300
##BP= -300
##MW= 684
##$RETENTION INDEX=0
##$CONDENSED SPECTRUM=NO
##NPOINTS= 228
##XYDATA=(XY..XY) 1 
    36          3
    37          1
    38         10
    39         67
    40         28
    41          6
    44          5
    46         15
    50         57
    51        295
    52         22
    53         22
    54          1
    57          3
    62          7
    63         42
    64         33
    65        129
    66         35
    67          3
    69        858
    70         23
    71          5
    72          1
    74         13
    75         24
    76         61
    77        999
    78         73
    79          3
    83        117
    87          2
    88          5
    89         22
    90         49
    91         89
    92         10
    93          7
    95          5
    96         24
    97         51
   100          3
   101          5
   102         13
   103         33
   104         22
   105          2
   107          1
   108          3
   109         13
   110         20
   112          8
   113          6
   114         19
   115         45
   116         20
   117        140
   118         31
   119          4
   122          1
   126          8
   127         11
   128         18
   129         10
   130          1
   131          3
   134          1
   137          3
   138        106
   139         55
   140         57
   141         39
   142         14
   143         47
   144         12
   145          1
   147          1
   150          7
   151         14
   152         28
   153         16
   154          9
   155         31
   157          9
   158        161
   159         10
   162          1
   164         26
   165         35
   166        323
   167        503
   168        135
   169         17
   170          1
   175          3
   176          3
   177          9
   178         68
   179         20
   180         13
   181         17
   182          2
   183         46
   184         11
   185          4
   186          1
   189          1
   191         30
   192        181
   193        401
   194        165
   195         20
   196          2
   197          2
   198          1
   200          3
   202          3
   203          7
   204          1
   205          3
   206          1
   207          1
   209          2
   210          1
   211          1
   212          1
   214          1
   217          3
   218         31
   219         77
   220        147
   221         24
   222          4
   223          2
   224          4
   226         13
   227          1
   230          1
   231          2
   233         11
   234         34
   235          4
   238          2
   239          1
   240          1
   241         14
   242          3
   243          3
   246         50
   247          3
   252          2
   253          8
   254          2
   259          1
   261          2
   262          2
   265          1
   267          1
   271          7
   272          1
   273          5
   274          5
   279         17
   280          8
   281          4
   282          1
   283          1
   288         11
   290          2
   293          1
   298          1
   299          1
   300         22
   301          6
   310         32
   311          7
   319          3
   322        125
   323         16
   324          1
   326          2
   327          1
   329          3
   330         16
   331          3
   332         28
   342         39
   348          4
   349         13
   350         57
   351         10
   362          1
   368         10
   369         34
   370          9
   375          2
   400          2
   420          4
   421          3
   438         11
   439          3
   456          1
   457          2
   465         34
   466          7
   487          1
   497          1
   506         12
   507          6
   545          2
   555          1
   575         22
   576          5
   594         24
   595         72
   596         39
   597          5
   615         12
   616          2
   665        173
   666         31
   667          6
   682          3
   683         23
   684        849
   685        224
   686         29
   687          2