##TITLE=Library Entry 61141
##JCAMP-DX=Revision 4.10 
##DATA TYPE=MASS SPECTRUM
##SAMPLE DESCRIPTION=A.A.Kutin, Moscow, Russia
##NAMES=HP
##CAS NAME=2-(Benzylamino)-4,6-bis[2,2,2-trifluoro-1,1-bis(trifluoromethyl)e
thyl]-1,3,5-triazine
##MOLFORM=C18H8F18N4
##CAS REGISTRY NO=254118-26-8
##MP= -300
##BP= -300
##MW= 622
##$RETENTION INDEX=0
##$CONDENSED SPECTRUM=NO
##NPOINTS= 229
##XYDATA=(XY..XY) 1 
    36          2
    37          1
    38          9
    39         76
    40         16
    41         25
    42          2
    43          1
    44          2
    46         21
    50         36
    51         90
    52         28
    53         74
    54          7
    55         66
    56          1
    57          0
    59          0
    61          1
    62          9
    63         46
    64         16
    65        193
    66         15
    67         11
    69        541
    70          7
    71          4
    72          3
    73          1
    74          7
    75         10
    76         26
    77        148
    78         67
    79        121
    80         13
    81          2
    83          1
    86          1
    87          1
    88          2
    89         79
    90         48
    91        999
    92         75
    93         14
    94          0
    95          1
    96          1
    98          0
   100          4
   101          1
   102         11
   103         54
   104        377
   105         74
   106        882
   107         75
   108          6
   109         13
   110          1
   111          0
   112          6
   113          2
   114          7
   115          8
   116         11
   117          7
   118          1
   119          0
   120          1
   121          1
   122          0
   124          0
   126          0
   127          2
   128          2
   129         32
   130         29
   131        473
   132         60
   133          4
   134          2
   135          0
   137          1
   138        101
   139          6
   140          1
   141          1
   142          1
   143          3
   144          2
   145          0
   148          0
   150         10
   151          0
   152          1
   153          0
   154          1
   156         14
   157         29
   158        209
   159         11
   160          0
   162          0
   164          1
   165          0
   166          1
   171          0
   176          1
   177         10
   178          4
   179          0
   180          1
   181         16
   183         60
   184         15
   185          1
   188          9
   190          1
   192          1
   196          0
   197          0
   198          0
   200          5
   201          0
   202          4
   203         23
   204          1
   205          2
   207          0
   212          1
   213          2
   217          0
   219          3
   222          0
   226         12
   227          0
   228          0
   230          0
   236          0
   238          2
   239          5
   240          0
   246         77
   247          6
   248          5
   249          0
   250          1
   253          1
   257         32
   266          4
   267         10
   268          8
   269          1
   271         51
   272         13
   273          1
   279          2
   280          1
   286          2
   287          0
   288          0
   291          2
   292          0
   295          0
   301          3
   306          1
   307          0
   308          1
   313          1
   314          0
   319          0
   322          0
   333          1
   336          0
   338          2
   360          1
   361          0
   376          1
   380          0
   383          0
   395          1
   396          0
   402          0
   403          4
   404          0
   407          0
   414          0
   423          0
   424          0
   425          1
   426          0
   437          0
   443          0
   445         29
   446          4
   463          0
   464          2
   465          0
   483          2
   484          0
   493          0
   513         26
   514          6
   515          0
   518          2
   531          0
   533        718
   534        158
   535         11
   536          0
   545          8
   546          0
   551          0
   552          1
   553         13
   554          2
   603        169
   604         36
   605          3
   619          0
   621        114
   622        379
   623         64
   624          8
   625          0