##TITLE=Library Entry 57642
##JCAMP-DX=Revision 4.10 
##DATA TYPE=MASS SPECTRUM
##SAMPLE DESCRIPTION=V.G.Zaikin, TIPS, Russian Acad. Sci.
##NAMES=HP
##CAS NAME=Pentanoic acid, 4-methyl-, ethyl ester
##MOLFORM=C8H16O2
##CAS REGISTRY NO=25415-67-2
##MP= -300
##BP= -300
##MW= 144
##$RETENTION INDEX=969
##$CONDENSED SPECTRUM=NO
##NPOINTS= 38
##XYDATA=(XY..XY) 1 
    41        400
    42        120
    43        920
    44         40
    45        220
    55        400
    56        160
    57        220
    58         30
    59        100
    60        420
    61        240
    62         80
    69         80
    70        260
    71        200
    72         50
    73        300
    74        260
    75         70
    81        330
    82         30
    83        140
    87         40
    88        999
    89         50
    97         30
    99        600
   100         40
   101        670
   102         80
   115        100
   116         20
   117         50
   118          3
   129         50
   130          4
   144          2