##TITLE=Library Entry 35617
##JCAMP-DX=Revision 4.10 
##DATA TYPE=MASS SPECTRUM
##SAMPLE DESCRIPTION=A.A.Kutin, Moscow, Russia
##NAMES=HP
##CAS NAME=2-[4-(Ethoxycarbonyl)anilino]-4,6-bis[2,2,2-trifluoro-1,1-bis(tri
fluoromethyl)ethyl]-1,3,5-triazine
##MOLFORM=C20H10F18N4O2
##CAS REGISTRY NO=254118-38-2
##MP= -300
##BP= -300
##MW= 680
##$RETENTION INDEX=0
##$CONDENSED SPECTRUM=NO
##NPOINTS= 196
##XYDATA=(XY..XY) 1 
    34          5
    36          7
    37          1
    38         20
    39         71
    40         92
    41         15
    42          7
    43         45
    44         37
    45        185
    46         37
    50         57
    51         25
    52         25
    53         26
    55          2
    57          1
    58         17
    62         29
    63        176
    64         97
    65        196
    66         31
    67          6
    69        999
    70         10
    71         11
    72         49
    74         20
    75         55
    76         92
    77         32
    78         19
    79          9
    81         11
    83          1
    86         47
    87          1
    88         20
    89         92
    90        861
    91        135
    92         21
    93         16
    95          6
    97          3
   100          5
   101          1
   102         16
   103         37
   104         22
   105         10
   106         11
   107          2
   108         20
   112          4
   114         19
   115         37
   116        199
   117        832
   118        116
   119         35
   120          7
   121         15
   126          1
   128          9
   129          5
   130         14
   131          9
   132          2
   133         20
   134          9
   135          4
   137         12
   138         76
   139          2
   140          6
   141          4
   142         27
   143        124
   144        209
   145        462
   146         51
   147         11
   148          6
   149          9
   150         73
   151          5
   157         15
   158        139
   159          9
   160          7
   161         12
   162        135
   163         15
   164          7
   166         14
   167          7
   169          2
   170         92
   171         16
   172          3
   174          1
   175          3
   176          2
   177          9
   178          1
   181         21
   183         54
   184          2
   185          3
   186          1
   187          5
   188         32
   189          7
   190          2
   195          2
   197          6
   200          8
   203          7
   204          7
   205          1
   211          8
   214          1
   216         61
   217          9
   223          3
   224         48
   226         31
   239          9
   242          1
   243          9
   246         87
   247          6
   250          2
   253          1
   254          5
   268          1
   271         20
   272         10
   273         71
   274         67
   275          8
   292          7
   293         61
   294          8
   300         11
   308          5
   318         32
   319          3
   320          5
   342          9
   343          1
   361         10
   362        113
   363         14
   370          2
   371          1
   388          3
   390          9
   406          3
   421          3
   434          8
   461          3
   497         36
   498          7
   516          4
   527          1
   538          2
   547         64
   548         12
   564          3
   565          6
   566         29
   567          6
   583          1
   591          6
   607         12
   608         16
   633          2
   634          1
   635        660
   636        153
   637         19
   652        200
   653         45
   654          3
   661         95
   662         19
   663          2
   665          2
   679          3
   680        223
   681         52
   682          6