##TITLE=Library Entry 38923
##JCAMP-DX=Revision 4.10 
##DATA TYPE=MASS SPECTRUM
##SAMPLE DESCRIPTION=Japan AIST/NIMC Database- Spectrum MS-IW-5638
##NAMES=HP
##CAS NAME=n-Butyric acid 2-ethylhexyl ester
##MOLFORM=C12H24O2
##CAS REGISTRY NO=25415-84-3
##MP= -300
##BP= -300
##MW= 200
##$RETENTION INDEX=1317
##$CONDENSED SPECTRUM=NO
##NPOINTS= 78
##XYDATA=(XY..XY) 1 
    15          3
    26          5
    27         87
    28         12
    29         85
    30          2
    31          5
    36          1
    37          2
    38          4
    39         56
    40         11
    41        262
    42         99
    43        453
    44         16
    45          5
    50          2
    51          4
    52          2
    53         16
    54         15
    55        340
    56        188
    57        304
    58         13
    59          4
    60         26
    61          3
    63          1
    65          3
    66          1
    67         16
    68         18
    69        128
    70        862
    71        999
    72         57
    73         16
    74         19
    77          2
    79          3
    81          6
    82         36
    83        229
    84        123
    85          9
    86          7
    87         51
    88         37
    89        143
    90          7
    91          1
    95          2
    96          1
    97         18
    98         13
    99         18
   100          6
   101         44
   102         38
   103          9
   110          4
   111         21
   112        245
   113         38
   114         63
   115          5
   127         10
   128          4
   129          4
   139          4
   143          3
   153          1
   157          6
   171          1
   200          1
   201          1