##TITLE=Library Entry 6486
##JCAMP-DX=Revision 4.10 
##DATA TYPE=MASS SPECTRUM
##SAMPLE DESCRIPTION=Chemical Concepts
##NAMES=HP
##CAS NAME=2-(Dipropylamino)-4,6-bis[2,2,2-trifluoro-1,1-bis(trifluoromethyl
)ethyl]-1,3,5-triazine
##MOLFORM=C17H14F18N4
##CAS REGISTRY NO=254118-22-4
##MP= -300
##BP= -300
##MW= 616
##$RETENTION INDEX=0
##$CONDENSED SPECTRUM=NO
##NPOINTS= 198
##XYDATA=(XY..XY) 1 
    33          2
    39         63
    41        628
    42        260
    43        999
    44         67
    46          9
    47          1
    50          2
    51          1
    53         49
    54         39
    55        251
    56         50
    57          6
    58          3
    59          1
    66          6
    67         11
    68        106
    69        272
    70         27
    71          5
    72          5
    73          1
    76          1
    77          1
    78          6
    80         34
    81         26
    82          8
    83         20
    84          2
    85          5
    86          1
    89          1
    91         13
    92          1
    93          7
    94          7
    95          5
    96          2
    97          3
    98          1
    99          1
   100          1
   102          1
   104          2
   105          1
   106          1
   107          2
   108          9
   110         13
   112          4
   113          2
   114          4
   115          1
   116          1
   117          1
   118          1
   120          2
   121          1
   122          2
   123          1
   131          7
   133          1
   138         39
   139          2
   140          1
   150          3
   151          1
   152          9
   153          1
   157          9
   158         34
   159          2
   171          1
   176          1
   177          2
   178          1
   180          1
   181          5
   183         18
   184          7
   185          1
   188          1
   190          6
   191          1
   192          1
   193          1
   200          2
   202          2
   203          7
   204          1
   218          1
   224          3
   226         22
   227          1
   236          1
   238          2
   243          1
   244          1
   246         33
   247          2
   248          1
   257          1
   259          5
   268          6
   269          1
   271         14
   272          6
   273          1
   280          6
   281          1
   310          1
   312          2
   313          4
   326          3
   368          1
   381          1
   395          1
   407          1
   421          2
   437          9
   438          1
   457         11
   458          1
   465          3
   468          1
   469          2
   471          6
   472          1
   476          6
   477          1
   483          2
   485          4
   486          1
   489          2
   490          2
   497          2
   499         13
   500          2
   503          1
   505          2
   513          1
   517          1
   518          3
   519          2
   525          6
   527         12
   528          2
   531          1
   538          1
   539          1
   540          4
   541          5
   545        349
   546         43
   547         27
   548          4
   553          1
   554          2
   556          2
   557          3
   558          9
   559         62
   560          8
   561          1
   568          1
   569          1
   571          3
   573         22
   574          5
   575          1
   581          4
   582          9
   583          9
   587        566
   588         75
   589          6
   590          1
   592          1
   593          1
   594          2
   595          5
   597        137
   598         19
   599          2
   601          5
   602          1
   611          1
   612          2
   613          2
   614          4
   615          9
   616        100
   617         14
   618          2