##TITLE=Library Entry 96977
##JCAMP-DX=Revision 4.10 
##DATA TYPE=MASS SPECTRUM
##SAMPLE DESCRIPTION=A.A.Kutin, Moscow, Russia
##NAMES=HP
##CAS NAME=2-(3-Nitroanilino)-4,6-bis[2,2,2-trifluoro-1,1-bis(trifluoromethy
l)ethyl]-1,3,5-triazine
##MOLFORM=C17H5F18N5O2
##CAS REGISTRY NO=254118-35-9
##MP= -300
##BP= -300
##MW= 653
##$RETENTION INDEX=0
##$CONDENSED SPECTRUM=NO
##NPOINTS= 153
##XYDATA=(XY..XY) 1 
    33          1
    34          2
    36          4
    37          3
    38         28
    39         70
    40         76
    41         15
    42          2
    43          5
    44         16
    46         38
    50         51
    51         26
    52         37
    53         34
    54          4
    55          2
    57          1
    61          2
    62         29
    63        159
    64         96
    65        134
    66         24
    67          6
    69        799
    71          8
    74         17
    75         58
    76        104
    77         28
    78         41
    79         13
    80          1
    81          5
    88         14
    89         58
    90        580
    91        104
    92         27
    93         15
    95          3
   100          4
   102          6
   103          8
   104         19
   105         81
   106         13
   108          2
   112          5
   114         16
   115         35
   116        172
   117        999
   118         82
   119          4
   121          2
   130          6
   131         15
   132          6
   133         19
   134          1
   135          4
   137          1
   138         40
   139          1
   140          3
   141          1
   143         80
   144          6
   145          1
   146          1
   147          3
   150          6
   157         13
   158         71
   159         18
   160          1
   161          2
   162         13
   163         75
   164          6
   166          1
   177          5
   178          2
   181         13
   183         60
   184          4
   185          3
   188          4
   189         51
   190          6
   197          3
   200          3
   202          2
   203          7
   204         15
   212         12
   223          4
   224         41
   225          4
   226         17
   243          5
   246         61
   247          5
   250          2
   254          4
   261          1
   271         29
   272          7
   273         70
   274         63
   275          6
   281          5
   285          1
   292         24
   293         67
   294          9
   299          1
   302          1
   312          7
   319         14
   322          4
   339         14
   342         13
   350         78
   351         10
   360          1
   361         22
   362        210
   363         31
   370          1
   378         10
   379          1
   390          4
   407         16
   421          6
   449          2
   538          5
   565         10
   584         13
   585          1
   607         21
   608          1
   623          4
   634        219
   635         39
   636          7
   637          5
   653        649
   654        115
   655         17