##TITLE=Library Entry 34207
##JCAMP-DX=Revision 4.10 
##DATA TYPE=MASS SPECTRUM
##SAMPLE DESCRIPTION=NIST Mass Spectrometry Data Center, 1994
##NAMES=HP
##CAS NAME=8-Heptadecanol
##MOLFORM=C17H36O
##CAS REGISTRY NO=2541-75-5
##MP= -300
##BP= -300
##MW= 256
##$RETENTION INDEX=0
##$CONDENSED SPECTRUM=NO
##NPOINTS= 75
##XYDATA=(XY..XY) 1 
    15          2
    18          4
    27        170
    28         18
    29        404
    30         13
    31         31
    38          3
    39         95
    40         25
    41        712
    42        155
    43        609
    44         95
    45         25
    51          4
    52          3
    53         44
    54         53
    55        634
    56        115
    57        490
    58         64
    59         10
    65          8
    66         16
    67         87
    68         60
    69        999
    70        111
    71        114
    72         11
    77          4
    79         12
    80          4
    81         72
    82         67
    83        615
    84         68
    85         35
    86          8
    95         32
    96         36
    97        248
    98         29
    99          9
   100          6
   109         12
   110         40
   111        251
   112         36
   113          8
   124          8
   125         18
   126          8
   127         25
   128         12
   129        148
   130         15
   138         10
   139         12
   140          4
   142          5
   143          3
   152          3
   153          5
   154          3
   155         20
   156          3
   157        109
   158         13
   170          3
   210          4
   238         17
   239          4