##TITLE=Library Entry 22529
##JCAMP-DX=Revision 4.10 
##DATA TYPE=MASS SPECTRUM
##SAMPLE DESCRIPTION=A.A.Kutin, Moscow, Russia
##NAMES=HP
##CAS NAME=Pyrrol-2,5(3H,4H)-dione, 1-methylsulphonyl-
##MOLFORM=C5H7NO4S
##CAS REGISTRY NO=25417-46-3
##MP= -300
##BP= -300
##MW= 177
##$RETENTION INDEX=0
##$CONDENSED SPECTRUM=NO
##NPOINTS= 99
##XYDATA=(XY..XY) 1 
    33         15
    34         12
    35          7
    36         23
    37          8
    38         15
    40        106
    41         26
    42        103
    43         29
    44         34
    45         45
    46         30
    48         65
    49          9
    50          8
    51         10
    52         12
    53         12
    56        999
    57         38
    58          5
    59          1
    60          3
    61          4
    63         33
    64         27
    65         16
    66          3
    67          2
    68          2
    70        227
    71         10
    72          4
    73          6
    74          8
    75          2
    76          2
    77          4
    79        160
    80         15
    81          9
    82          4
    83          3
    84          2
    85          1
    86          0
    87          0
    88          1
    90         18
    91          3
    92          2
    93          2
    94          1
    95          4
    97          1
    98          9
    99          8
   100          2
   101          8
   102          0
   103          0
   104          1
   106         11
   107          1
   108          0
   109          0
   113         45
   114          2
   119          2
   120          3
   122         67
   124          9
   125          1
   126          1
   127          1
   128          0
   129          0
   132          0
   133          0
   134          1
   135          0
   145          0
   146          1
   147          3
   148          5
   149          5
   153          0
   159          1
   161          6
   162          1
   163          3
   171          1
   173          0
   174          0
   176          1
   177         29
   178          1
   179          1