##TITLE=Library Entry 22460
##JCAMP-DX=Revision 4.10 
##DATA TYPE=MASS SPECTRUM
##SAMPLE DESCRIPTION=H.ROPER HAMBURG UNIVERSITY, HAMBURG, GERMANY, F.R.G.
##NAMES=HP
##CAS NAME=Pentylamine, N-ethyl-N-nitroso-
##MOLFORM=C7H16N2O
##CAS REGISTRY NO=25413-63-2
##MP= -300
##BP= -300
##MW= 144
##$RETENTION INDEX=0
##$CONDENSED SPECTRUM=NO
##NPOINTS= 46
##XYDATA=(XY..XY) 1 
    26         14
    27        136
    28        138
    29        341
    30        152
    39         65
    41        242
    42        287
    43        416
    44        193
    45         33
    46         16
    51         11
    53         31
    54         41
    55        167
    56        999
    57        696
    58        756
    59         43
    60         11
    67         14
    68         19
    69        193
    70        154
    71        235
    72         68
    73         41
    74         14
    75         95
    84        114
    85         43
    87        436
    88        386
    89         17
    98        341
    99         33
   101         19
   103         16
   112         27
   114         24
   115         24
   127        530
   128         48
   144        231
   145         21