##TITLE=Library Entry 45820
##JCAMP-DX=Revision 4.10 
##DATA TYPE=MASS SPECTRUM
##SAMPLE DESCRIPTION=NIST Mass Spectrometry Data Center
##NAMES=HP
##CAS NAME=3,3-Dimethylacrylic acid, TMS derivative
##MOLFORM=C8H16O2Si
##CAS REGISTRY NO=25436-25-3
##MP= -300
##BP= -300
##MW= 172
##$RETENTION INDEX=1007
##$CONDENSED SPECTRUM=NO
##NPOINTS= 95
##XYDATA=(XY..XY) 1 
    15          5
    26          3
    27         46
    28         15
    29         70
    30          3
    31          5
    37          1
    38          6
    39         92
    40          8
    41          9
    42         15
    43         57
    44         18
    45        164
    46         11
    47         94
    48          4
    49          4
    50          7
    51         14
    52          8
    53         65
    54         63
    55        175
    56         11
    57         12
    58         17
    59         46
    60         16
    61         58
    62          4
    63          3
    65          1
    66          3
    67         16
    68          3
    69          4
    70          3
    71          5
    72         13
    73        276
    74         40
    75        999
    76         76
    77         47
    78          3
    79          3
    80          1
    82        445
    83        345
    84         19
    85         12
    86          1
    87          4
    88          1
    89          3
    95          1
    96          1
    97         26
    98          5
    99         37
   100          5
   101         12
   102          1
   103          1
   109          1
   111         13
   112         50
   113        278
   114         38
   115         22
   116          4
   117          2
   127          2
   128          1
   129          4
   138          1
   139          4
   140          1
   141          7
   142          1
   143          1
   144          6
   145          1
   146          1
   156        163
   157        611
   158         85
   159         24
   160          2
   172        115
   173         16
   174          5