##TITLE=Library Entry 43546
##JCAMP-DX=Revision 4.10 
##DATA TYPE=MASS SPECTRUM
##SAMPLE DESCRIPTION=Chemical Concepts
##NAMES=HP
##CAS NAME=Diphenylacetic acid, TMS derivative
##MOLFORM=C17H20O2Si
##CAS REGISTRY NO=25436-01-5
##MP= -300
##BP= -300
##MW= 284
##$RETENTION INDEX=0
##$CONDENSED SPECTRUM=NO
##NPOINTS= 113
##XYDATA=(XY..XY) 1 
    39          5
    41          0
    42          0
    43          7
    44          5
    45         45
    46          2
    47          6
    50          0
    51          3
    52          0
    53          0
    55          0
    57          1
    58          6
    59          2
    60          1
    61          4
    62          1
    63          4
    64          0
    65          3
    66          0
    69          0
    70          1
    71          0
    72          7
    73        999
    74         88
    75         96
    76          6
    77          8
    78          0
    79          0
    81          0
    82          3
    83          1
    86          0
    87          1
    88          0
    89          7
    90          4
    91          1
    99          0
   102          1
   103          0
   105          1
   113          1
   114          0
   115          8
   116          0
   117          7
   118          2
   119          0
   121          2
   122          0
   126          1
   127          2
   128          5
   129          0
   133          0
   134          6
   135          3
   137         15
   138          2
   139          6
   140          0
   141          2
   145          0
   147          0
   148          1
   149          0
   150          0
   151          4
   152         38
   153          5
   154          0
   162          0
   163          5
   164          8
   165         86
   166         33
   167         63
   168          8
   169          0
   177          0
   178          0
   179          0
   181          0
   191          0
   192          0
   193          2
   194          1
   195          1
   197          0
   199          0
   207          0
   208          0
   209          0
   223          0
   224          0
   225          0
   240        162
   241         37
   242          9
   243          1
   268          0
   269         63
   270         14
   271          3
   272          0
   283          0
   284          0