##TITLE=Library Entry 22968
##JCAMP-DX=Revision 4.10 
##DATA TYPE=MASS SPECTRUM
##SAMPLE DESCRIPTION=E.MULLER UNIVERSITY OF TUBINGEN, TUBINGEN, F.R.G.
##NAMES=HP
##CAS NAME=2,5-Cyclohexadien-1-one, 2,4,6-tri-tert-butyl-4-[(2,5,8-tri-tert-
butyl-1,3,5-cyclooctatrien-1-yl)oxy]-
##MOLFORM=C38H62O2
##CAS REGISTRY NO=25435-86-3
##MP= -300
##BP= -300
##MW= 550
##$RETENTION INDEX=0
##$CONDENSED SPECTRUM=NO
##NPOINTS= 36
##XYDATA=(XY..XY) 1 
    41        470
    43        100
    55        160
    56        999
    57         75
    67         35
    69         90
    77         60
    79         55
    83         90
    91        115
   105         80
   107         50
   111         40
   115         50
   119         90
   121        130
   133         80
   135         80
   147         70
   149         50
   161         60
   163         50
   175         70
   176         70
   177        200
   191         60
   205         50
   231         90
   233        670
   234        120
   247        590
   248        120
   262        110
   289        130
   550         10