##TITLE=Library Entry 40650
##JCAMP-DX=Revision 4.10 
##DATA TYPE=MASS SPECTRUM
##SAMPLE DESCRIPTION=NIST Mass Spectrometry Data Center
##NAMES=HP
##CAS NAME=Aceturic acid, TMS derivative
##MOLFORM=C7H15NO3Si
##CAS REGISTRY NO=25436-19-5
##MP= -300
##BP= -300
##MW= 189
##$RETENTION INDEX=1278
##$CONDENSED SPECTRUM=NO
##NPOINTS= 61
##XYDATA=(XY..XY) 1 
    15         17
    28         37
    29         22
    30        170
    31         13
    42         44
    43        462
    44         48
    45        212
    46         15
    47         83
    48          5
    53          6
    54          9
    55         37
    56        117
    57         24
    58         57
    59         53
    60         18
    61         80
    62          5
    70          6
    71         10
    72         97
    73        999
    74        112
    75        423
    76         32
    77         19
    86         32
    87         29
    88         31
    89          9
    90          3
    99         12
   100         14
   101         31
   102         44
   103         11
   104        272
   105         25
   106          9
   114         21
   115          6
   116         17
   117         37
   118          4
   128          3
   129          7
   130        337
   131         46
   132        190
   133         19
   134          6
   145        349
   146         49
   147         16
   174        324
   175         41
   176         12