##TITLE=Library Entry 79195
##JCAMP-DX=Revision 4.10 
##DATA TYPE=MASS SPECTRUM
##SAMPLE DESCRIPTION=Exported from NIST MS Search
##NAMES=HP
##CAS NAME=Cyclohexanone, 3-hydroxy-3-phenyl-
##MOLFORM=C12H14O2
##CAS REGISTRY NO=25444-79-5
##MP= -300
##BP= -300
##MW= 190
##$RETENTION INDEX=0
##$CONDENSED SPECTRUM=NO
##NPOINTS= 114
##XYDATA=(XY..XY) 1 
    26          6
    27         40
    29         12
    31          2
    37          3
    38          7
    39         42
    40         18
    41         19
    42         23
    43        217
    44         11
    45          2
    46          1
    49          2
    50         43
    51        150
    52         15
    53          6
    54         10
    55         77
    56          4
    57          5
    58         16
    61          2
    62          7
    63         18
    64          7
    65         17
    66          4
    67          2
    68          2
    69          6
    70          8
    71         12
    72          2
    73          2
    74         13
    75         13
    76         25
    77        478
    78         70
    79          6
    81          1
    83          1
    84          2
    85         20
    86          3
    87          3
    88          2
    89         13
    90          3
    91         23
    92          6
    93          2
    94          1
    95          2
    98          1
    99          1
   101          2
   102         14
   103         11
   104          8
   105        999
   106         80
   107          6
   113          3
   114          5
   115        107
   116         87
   117         11
   118          2
   119          2
   120        280
   121         25
   122          2
   126          1
   127          7
   128         20
   129         32
   130         26
   131         11
   132         24
   133         87
   134         10
   139          2
   141          7
   142          3
   143         11
   144        140
   145         19
   146         29
   147         47
   148         17
   149          2
   152          2
   153          3
   154          6
   155          1
   156          1
   157         17
   158          2
   161          2
   162          8
   163          1
   169          1
   170          6
   171         13
   172        110
   173         15
   174          1
   175          2
   190         50
   191          7