##TITLE=Library Entry 17631
##JCAMP-DX=Revision 4.10 
##DATA TYPE=MASS SPECTRUM
##SAMPLE DESCRIPTION=Chemical Concepts
##NAMES=HP
##CAS NAME=Benzene, 1-methoxy-4-(methoxymethoxy)-
##MOLFORM=C9H12O3
##CAS REGISTRY NO=25458-46-2
##MP= -300
##BP= -300
##MW= 168
##$RETENTION INDEX=0
##$CONDENSED SPECTRUM=NO
##NPOINTS= 83
##XYDATA=(XY..XY) 1 
    25          2
    26         33
    27         14
    28         12
    29         96
    30         10
    31          7
    37          7
    38         33
    39         46
    40          4
    41         59
    42          4
    43          8
    44          6
    45        999
    46         35
    47          3
    48          0
    49          2
    50         34
    51         37
    52         54
    53         36
    54         46
    55          9
    56          1
    57          2
    58          1
    59          2
    60          1
    61          8
    62         25
    63         75
    64         72
    65         34
    66         12
    67         10
    68          3
    69          6
    73          3
    74         11
    75          8
    76         12
    77         72
    78          9
    79         16
    80         24
    81         15
    82         12
    83          1
    91          1
    92         58
    93          6
    94          8
    95         91
    96          7
    97          1
   105          3
   106          1
   107         43
   108         10
   109         35
   110          4
   121          1
   122          2
   123        274
   124         36
   125          3
   135          2
   136          1
   137         50
   138        302
   139         28
   140          2
   150          0
   151          0
   152          2
   153          0
   167          3
   168        261
   169         27
   170          3