##TITLE=Library Entry 2855
##JCAMP-DX=Revision 4.10 
##DATA TYPE=MASS SPECTRUM
##SAMPLE DESCRIPTION=R.T.HOLMAN,UNIVERSITY OF MINNESOTA
##NAMES=HP
##CAS NAME=Octadecanoic acid, 9,10-dibromo-, methyl ester
##MOLFORM=C19H36Br2O2
##CAS REGISTRY NO=25456-04-6
##MP= -300
##BP= -300
##MW= 454
##$RETENTION INDEX=2672
##$CONDENSED SPECTRUM=NO
##NPOINTS= 298
##XYDATA=(XY..XY) 1 
    26         13
    27        220
    28         70
    29        380
    30         11
    31         16
    32          2
    33          6
    36          2
    37          3
    38          7
    39        250
    40         48
    41        999
    42        170
    43        720
    44         30
    45         35
    46          2
    47          1
    48          1
    50          6
    51         23
    52         18
    53        190
    54        160
    55        980
    56        120
    57        320
    58         17
    59        370
    60         15
    61          5
    62          3
    63          6
    64          3
    65         57
    66         35
    67        510
    68        110
    69        600
    70         70
    71         95
    72          9
    73         65
    74        770
    75         86
    76          8
    77         64
    78         19
    79        160
    80         50
    81        500
    82         91
    83        470
    84         72
    85         87
    86          8
    87        240
    88         30
    89          5
    90          3
    91         55
    92         10
    93        110
    94         29
    95        430
    96         87
    97        340
    98         56
    99         40
   100          7
   101         48
   102          5
   103          4
   104          3
   105         27
   106          7
   107         83
   108         20
   109        240
   110         58
   111        180
   112         23
   113         22
   114         10
   115         55
   116          7
   117          6
   118          2
   119         41
   120          8
   121         84
   122         18
   123        170
   124         35
   125        110
   126         13
   127         27
   128         10
   129         47
   130          7
   131          8
   132          5
   133         55
   134         10
   135         66
   136         18
   137        120
   138         27
   139         65
   140         12
   141         39
   142          8
   143         44
   144          5
   145          8
   146          3
   147         50
   148          9
   149         54
   150         22
   151         97
   152         27
   153         44
   154         11
   155         27
   156          4
   157         27
   158          4
   159          5
   160          2
   161         39
   162          7
   163         46
   164         19
   165        100
   166         23
   167         39
   168         10
   169         24
   170          4
   171         24
   172          5
   173          6
   174          2
   175         31
   176          5
   177         18
   178          8
   179        110
   180         26
   181         37
   182          8
   183         19
   184          4
   185         25
   186          5
   187          4
   188          2
   189         20
   190          4
   191          9
   192          4
   193         35
   194          9
   195         14
   196          7
   197         18
   198          3
   199         29
   200          5
   201          3
   202          1
   203         10
   204          2
   205          7
   206          3
   207         25
   208          7
   209          6
   210          4
   211         17
   212          4
   213         30
   214          6
   215          3
   216          1
   217          5
   218          2
   219         17
   220         16
   221         61
   222         27
   223          8
   224          3
   225         14
   226          3
   227         10
   228          3
   231          3
   232          2
   233          3
   234          5
   235         30
   236          4
   237          3
   238          2
   239         12
   240          4
   241          3
   242          1
   243          4
   244          3
   245        190
   246         39
   247         12
   248          3
   249          2
   251          3
   252          2
   253          6
   254          2
   255          3
   256          2
   257          1
   259          2
   260          1
   261          5
   262         18
   263        540
   264        140
   265         45
   266          8
   267          3
   268          1
   269          1
   270          5
   271          2
   273          2
   275          1
   277          5
   278          2
   279          3
   280          1
   281          2
   282          1
   284          1
   287          2
   289          1
   291          1
   293         24
   294         65
   295        510
   296        110
   297         44
   298         12
   299          2
   300          2
   301          2
   302          2
   303          1
   315          2
   316          1
   317          2
   325          3
   326          2
   327          3
   328          2
   331          2
   333          2
   341          1
   342          1
   343         25
   344          6
   345         24
   346          6
   347          2
   373          1
   374          8
   375         63
   376         24
   377         81
   378         18
   379          3
   423          3
   424          2
   425          6
   426          2
   427          3
   428          2
   453          2
   454          3
   455          2
   456          4
   457          2
   458          3
   459          2