##TITLE=Library Entry 77122
##JCAMP-DX=Revision 4.10 
##DATA TYPE=MASS SPECTRUM
##SAMPLE DESCRIPTION=AAFS Toxicology Section MS DB Committee, U. Alberta, Ca
nada
##NAMES=HP
##CAS NAME=Felbamate
##MOLFORM=C11H14N2O4
##CAS REGISTRY NO=25451-15-4
##MP= -300
##BP= -300
##MW= 238
##$RETENTION INDEX=2157
##$CONDENSED SPECTRUM=NO
##NPOINTS= 50
##XYDATA=(XY..XY) 1 
    38          7
    39         37
    41          7
    42          4
    43         34
    44         79
    45          7
    46          2
    50         18
    51         65
    52         14
    53          4
    55          4
    56          2
    62         14
    63         32
    64          9
    65         48
    66          7
    74         11
    75         11
    77        181
    78        146
    79         72
    80          2
    88          2
    89         20
    91        188
    92        172
    93         20
    94          4
   103        358
   104        999
   105        139
   106         14
   107          4
   115         14
   116         11
   117          4
   119          4
   120         27
   121         81
   122          7
   132          2
   133         62
   134        104
   135          9
   165         27
   166          4
   178          7