##TITLE=Library Entry 24810
##JCAMP-DX=Revision 4.10 
##DATA TYPE=MASS SPECTRUM
##SAMPLE DESCRIPTION=Organic Synthesis Lab, MSU, Moscow.TRC 732
##NAMES=HP
##CAS NAME=(2,4,5-Trichlorophenoxy)acetic acid butoxyethanol ester
##MOLFORM=C14H17Cl3O4
##CAS REGISTRY NO=2545-59-7
##MP= -300
##BP= -300
##MW= 354
##$RETENTION INDEX=0
##$CONDENSED SPECTRUM=NO
##NPOINTS= 192
##XYDATA=(XY..XY) 1 
    26          4
    27         67
    29        390
    30         12
    31         24
    32         33
    35          1
    36         14
    37          1
    38          4
    39         25
    40          5
    41        332
    42        123
    43         87
    44         88
    45        225
    46          4
    50          5
    51          2
    53          5
    54          1
    55         61
    56        626
    57        999
    58         71
    59          8
    60          0
    61          6
    62         15
    63          8
    65          0
    67          1
    69          3
    70          0
    71         30
    72         20
    73         40
    74         27
    75         11
    77          0
    82          1
    83          9
    84         10
    85        279
    86        216
    87        129
    88          5
    89         11
    96          4
    97         34
    98          2
    99         14
   100         93
   101         42
   102          2
   103         60
   104          2
   107         12
   108         12
   109         41
   110          5
   111         16
   112          2
   113          4
   115          2
   117          3
   118          0
   119          1
   121          0
   128          1
   131          2
   132          8
   133          6
   134          5
   135          3
   139          1
   141          2
   142          1
   143         36
   144         29
   145        104
   146         41
   147         33
   148         21
   149          6
   150          3
   159          0
   160          5
   161          3
   162          8
   163          3
   164          4
   165          0
   167         30
   168          1
   169         26
   170          1
   171          7
   173          5
   174          3
   175         18
   176          3
   177         12
   178          0
   179         76
   180          7
   181         78
   182          7
   183         28
   184          2
   185          4
   190          4
   191          5
   192          5
   193          4
   194          2
   195         17
   196         97
   197         19
   198         91
   199          9
   200         29
   201          5
   202          3
   203          3
   205          5
   207          4
   208          1
   209        150
   210         16
   211        139
   212         18
   213         45
   214          4
   215          4
   218          1
   219         18
   220         12
   221         12
   222          7
   223          2
   224          0
   233          2
   235          2
   236          0
   238          1
   245          4
   246         22
   247         24
   248         14
   249         14
   250         12
   251          3
   252          5
   254        248
   255         23
   256        243
   257         19
   258         77
   259          5
   260          8
   268          2
   270          2
   280          1
   281         64
   282         10
   283         63
   284          9
   285         20
   286          2
   287          1
   298          7
   300          7
   302          2
   310          8
   311          0
   312          7
   314          2
   320          6
   322          3
   350         16
   351          2
   352         12
   353          1
   354        176
   355         26
   356        173
   357         26
   358         56
   359          8
   360          6