##TITLE=Library Entry 6386
##JCAMP-DX=Revision 4.10 
##DATA TYPE=MASS SPECTRUM
##SAMPLE DESCRIPTION=Div. of Experiment Therapeutics WRAIR, WRAMC, Washingto
n DC 20307
##NAMES=HP
##CAS NAME=4-[3-n-Hexyloxypropylamino]benzo-1,2,3-triazine
##MOLFORM=C16H24N4O
##CAS REGISTRY NO=25465-42-3
##MP= -300
##BP= -300
##MW= 288
##$RETENTION INDEX=0
##$CONDENSED SPECTRUM=NO
##NPOINTS= 105
##XYDATA=(XY..XY) 1 
    41        627
    42        118
    43        999
    44         93
    45         28
    46          3
    47          6
    49         40
    50         47
    51         63
    52         26
    53         18
    54         15
    55        220
    56        174
    57        199
    58         73
    59         60
    60          1
    62         11
    63         43
    64         39
    65         33
    66          8
    67         12
    68          6
    69         30
    70          7
    71         13
    72         45
    73          6
    74         13
    75         38
    76         90
    77        115
    78         23
    79         11
    80          2
    81         13
    82          2
    83         21
    84         27
    85         45
    86         30
    88          7
    89         15
    90         92
    91         90
    92         31
    93         21
    94          1
    98          1
    99          1
   102        184
   103        138
   104        237
   105         47
   106         15
   111          2
   115          6
   116         17
   117         69
   118        252
   119        127
   120         34
   121         20
   122          1
   128          7
   129         26
   130         86
   131        304
   132         87
   133         48
   134         11
   142          5
   143         11
   144         10
   145         74
   146         38
   147        137
   148         21
   156          4
   157         39
   158         29
   159        252
   160        102
   161         28
   162          4
   173         12
   174         17
   175        196
   176         25
   177          5
   187         22
   188         19
   189         10
   203          6
   217          1
   231         10
   245          2
   259          3
   287         33
   288         41
   289         10
   290          4