##TITLE=Library Entry 3126
##JCAMP-DX=Revision 4.10 
##DATA TYPE=MASS SPECTRUM
##SAMPLE DESCRIPTION=Div. of Experiment Therapeutics WRAIR, WRAMC, Washingto
n DC 20307
##NAMES=HP
##CAS NAME=4-[3-Ethoxypropylamino]benzo-1,2,3-triazine
##MOLFORM=C12H16N4O
##CAS REGISTRY NO=25465-41-2
##MP= -300
##BP= -300
##MW= 232
##$RETENTION INDEX=0
##$CONDENSED SPECTRUM=NO
##NPOINTS= 91
##XYDATA=(XY..XY) 1 
    41        999
    42        297
    43        212
    44        209
    45        221
    46         26
    47         30
    49         38
    50        270
    51        272
    52        139
    53         28
    54         46
    55        127
    56        302
    57        441
    58        291
    59        811
    60         25
    61         13
    62         69
    63        219
    64        199
    65        120
    66         29
    67         15
    68         15
    69          8
    70          5
    71         15
    72        111
    73         37
    74         56
    75        200
    76        385
    77        347
    78         85
    79         33
    80         12
    83         16
    84         13
    85         22
    86         25
    87         34
    88         23
    89         65
    90        336
    91        321
    92         98
    93         34
   100         23
   102        572
   103        462
   104        624
   105        114
   106         31
   115         13
   116         43
   117        149
   118        594
   119        277
   120         49
   121         21
   128         20
   129         93
   130        230
   131        633
   132        142
   133         45
   142         13
   143         18
   144         16
   145        122
   146         52
   147        272
   148         42
   157        104
   158         53
   159        424
   160        231
   161         28
   173          9
   175        270
   176         34
   187         32
   188         38
   189         10
   203         39
   231         44
   232         52
   233         10