##TITLE=Library Entry 98506
##JCAMP-DX=Revision 4.10 
##DATA TYPE=MASS SPECTRUM
##SAMPLE DESCRIPTION=Div. of Experiment Therapeutics WRAIR, WRAMC, Washingto
n DC 20307
##NAMES=HP
##CAS NAME=4-[n-Butylamino]benzo-1,2,3-triazine
##MOLFORM=C11H14N4
##CAS REGISTRY NO=25465-37-6
##MP= -300
##BP= -300
##MW= 202
##$RETENTION INDEX=0
##$CONDENSED SPECTRUM=NO
##NPOINTS= 58
##XYDATA=(XY..XY) 1 
    41        174
    42         20
    43         72
    50         68
    51         61
    52         40
    55         34
    56         36
    57          8
    62         19
    63         76
    64         80
    65         38
    70         16
    72         22
    74         34
    75        108
    76        171
    77        133
    78         24
    88          7
    89         33
    90        200
    91        401
    92         46
    93         38
   102        399
   103        268
   104        336
   105         59
   106          9
   116         30
   117        258
   118        999
   119        351
   120         98
   128         33
   129         29
   130        320
   131        661
   132        137
   133         10
   144         63
   145        401
   146        135
   147          7
   156         30
   157         15
   158         39
   159        157
   160         17
   173        396
   174        162
   175         18
   201        154
   202        230
   203         44
   204         14