##TITLE=Library Entry 6183
##JCAMP-DX=Revision 4.10 
##DATA TYPE=MASS SPECTRUM
##SAMPLE DESCRIPTION=Chuck Anderson, Aldrich Chemical Co.
##NAMES=HP
##CAS NAME=(1R,2R,3R,5S)-(-)-Isopinocampheol
##MOLFORM=C10H18O
##CAS REGISTRY NO=25465-65-0
##MP= -300
##BP= -300
##MW= 154
##$RETENTION INDEX=0
##$CONDENSED SPECTRUM=NO
##NPOINTS= 64
##XYDATA=(XY..XY) 1 
    26          0
    27         87
    28         12
    29        150
    30          5
    31         23
    38          6
    39        189
    40         36
    41        603
    42         91
    43        999
    44         31
    45         18
    50          7
    51         32
    52         12
    53         96
    54         21
    55        355
    56         42
    57         64
    58         12
    59          1
    63          3
    65         24
    66          8
    67        112
    68         24
    69        305
    70        546
    71         82
    72          7
    77         51
    78          9
    79         88
    80         24
    81        190
    82         31
    83        143
    84        228
    85         27
    91         34
    92         37
    93         87
    94         28
    95        118
    96         17
    97         21
    98         53
    99         21
   105          9
   106          5
   107         30
   108          7
   109          8
   110         55
   111         14
   112          3
   113          0
   121         71
   122          6
   136         18
   139          6