##TITLE=Library Entry 56432
##JCAMP-DX=Revision 4.10 
##DATA TYPE=MASS SPECTRUM
##SAMPLE DESCRIPTION=Div. of Experiment Therapeutics WRAIR, WRAMC, Washingto
n DC 20307
##NAMES=HP
##CAS NAME=6-Chloro-4-[diethylaminoethylamino]benzo-1,2,3-triazine
##MOLFORM=C13H18ClN5
##CAS REGISTRY NO=25465-40-1
##MP= -300
##BP= -300
##MW= 279
##$RETENTION INDEX=0
##$CONDENSED SPECTRUM=NO
##NPOINTS= 102
##XYDATA=(XY..XY) 1 
    41         18
    42         89
    43         26
    44         44
    45          2
    47          0
    49          4
    50         12
    51          7
    52          7
    54         10
    55          7
    56         85
    57         17
    58        132
    59          4
    61          4
    62          6
    63          8
    64          6
    65          2
    68          5
    69          7
    70         33
    71         59
    72         66
    73         12
    74         15
    75         39
    76         10
    77          2
    82          3
    84         60
    86        999
    87         60
    88          9
    89          7
    90          4
    96          2
    97         17
    98          8
    99        277
   100         66
   101          7
   102         13
   103          3
   109          3
   110         10
   111         10
   112          4
   113          5
   114          1
   115          3
   116          4
   117          4
   123          0
   124         12
   125          5
   126          7
   127          1
   136         26
   137         12
   138         25
   139          6
   140          5
   143          1
   144          1
   145          3
   150          2
   151         11
   152          9
   153          7
   154          4
   155          1
   164          5
   165          7
   166          4
   167          3
   177          2
   178          2
   179         47
   180         25
   181         21
   182          7
   183          2
   193          7
   194          3
   195          4
   197          0
   206          3
   207          5
   208          4
   209          2
   221          4
   222          4
   223          2
   236          0
   250          2
   252          0
   279         21
   280          2
   281          7