##TITLE=Library Entry 5486
##JCAMP-DX=Revision 4.10 
##DATA TYPE=MASS SPECTRUM
##SAMPLE DESCRIPTION=J.VOTH UNIV. OF CALIFORNIA, DAVIS, CALIFORNIA, 95616, U
SA
##NAMES=HP
##CAS NAME=1,4-Dioxin, 2,3-dihydro-5,6-dimethyl-
##MOLFORM=C6H10O2
##CAS REGISTRY NO=25465-18-3
##MP= -300
##BP= -300
##MW= 114
##$RETENTION INDEX=0
##$CONDENSED SPECTRUM=NO
##NPOINTS= 48
##XYDATA=(XY..XY) 1 
    12          2
    13          7
    14         34
    15        135
    16          2
    17          0
    18          2
    19          2
    24          0
    25          3
    26         31
    27         81
    28         38
    29         29
    30          5
    31          5
    36          0
    37          2
    38          4
    39         32
    40          3
    41         14
    42         38
    43        999
    44         25
    45         15
    46          0
    49          1
    50          7
    51         10
    52          7
    53         16
    54          9
    55          6
    56          6
    59          2
    67          1
    69         12
    70          1
    71          0
    86         16
    87          2
    99          1
   112          1
   113          1
   114        108
   115          7
   116          0