##TITLE=Library Entry 13879
##JCAMP-DX=Revision 4.10 
##DATA TYPE=MASS SPECTRUM
##SAMPLE DESCRIPTION=A.A.Kutin, Moscow, Russia
##NAMES=HP
##CAS NAME=Pyrimidine-4-ol, 2,6-diamino-5-benzylidenamino-
##MOLFORM=C11H11N5O
##CAS REGISTRY NO=25477-74-1
##MP= -300
##BP= -300
##MW= 229
##$RETENTION INDEX=0
##$CONDENSED SPECTRUM=NO
##NPOINTS= 111
##XYDATA=(XY..XY) 1 
    34         41
    35         35
    37         43
    38         25
    39        172
    40         75
    41        101
    42        202
    43        999
    44        170
    45        249
    46        109
    47         22
    48         52
    50         65
    51        245
    52         40
    53         94
    54         32
    55        140
    56        313
    57         17
    58          6
    59         14
    61        112
    62         77
    63        649
    64         46
    65         61
    66         16
    67         46
    68        124
    69        198
    70        116
    71         99
    74         28
    75         28
    76         55
    77        166
    78        351
    79         50
    80         38
    81         16
    82         23
    83         13
    84         91
    85         20
    86         74
    87         21
    88         22
    89        332
    90        129
    91         57
    92         11
    93         28
    96         32
    97         11
    98        772
    99        121
   103         80
   104        154
   105         52
   106         43
   107          6
   109         22
   110        110
   111         13
   113         19
   115         56
   116        208
   117         80
   118          7
   121         22
   123          9
   124         16
   125         21
   126        705
   127         36
   129         17
   131         29
   132         18
   134          4
   135        114
   136         12
   139          7
   141         77
   142         44
   143         85
   147          2
   149          6
   150          9
   151         14
   152        726
   153         26
   157          9
   169         51
   170         10
   171         16
   175         10
   185         22
   186         80
   187         16
   198          3
   200          6
   211         67
   213         23
   227         12
   228        231
   229        849
   230        159
   231         11