##TITLE=Library Entry 51782
##JCAMP-DX=Revision 4.10 
##DATA TYPE=MASS SPECTRUM
##SAMPLE DESCRIPTION=Exported from NIST MS Search
##NAMES=HP
##CAS NAME=Furo[2,3,4-gh]pyrrolizin-2(2aH)-one, hexahydro-, (2a.alpha.,7a.al
pha.,7b.alpha.)-
##MOLFORM=C8H11NO2
##CAS REGISTRY NO=25471-69-6
##MP= -300
##BP= -300
##MW= 153
##$RETENTION INDEX=1408
##$CONDENSED SPECTRUM=NO
##NPOINTS= 26
##XYDATA=(XY..XY) 1 
    26         42
    27        166
    28        221
    29         66
    39        175
    40         53
    41        281
    42        188
    53         66
    54         52
    55        118
    67         40
    68         55
    69         69
    80         81
    81         58
    82        999
    83         62
   106         58
   107         21
   108         37
   125         50
   133         29
   152        342
   153        343
   154         29