##TITLE=Library Entry 14416
##JCAMP-DX=Revision 4.10 
##DATA TYPE=MASS SPECTRUM
##SAMPLE DESCRIPTION=LAC, NIDDK, NIH, Bethesda, MD 20892
##NAMES=HP
##CAS NAME=4,6-Androstadien-3.beta.-ol-17-one, acetate
##MOLFORM=C21H28O3
##CAS REGISTRY NO=25485-36-3
##MP= -300
##BP= -300
##MW= 328
##$RETENTION INDEX=0
##$CONDENSED SPECTRUM=NO
##NPOINTS= 224
##XYDATA=(XY..XY) 1 
    41        297
    43        999
    45        186
    47         25
    49        186
    51        112
    53        131
    55        244
    57         58
    58          6
    60        112
    61          9
    63         15
    65         49
    67        145
    69        117
    71         52
    73         13
    77        147
    78         17
    79        212
    80         14
    81        155
    82         23
    84        132
    86        109
    88         20
    89         15
    91        186
    93        120
    94         35
    95         93
    97        138
    98         26
    99         21
   101          7
   103         31
   104          8
   105        200
   106         25
   107        198
   108         50
   109         52
   110         40
   111         28
   113         16
   115         87
   116         29
   117         72
   118         19
   119        253
   120         51
   121         89
   122         50
   123         91
   124         50
   125         28
   126          7
   127         25
   128         54
   129         69
   130         11
   131        109
   133        113
   134         51
   135         64
   136         85
   137         41
   138         20
   139         28
   141         81
   142         42
   143        108
   144         33
   145         57
   146         10
   147         55
   148         30
   149        110
   150         48
   151         32
   152         37
   153         27
   154         14
   155         34
   156         18
   157         62
   158         30
   159         73
   160         30
   161         60
   162         26
   163         22
   164          6
   165         28
   166         16
   167         27
   168         20
   169         44
   170         23
   171         47
   172         16
   173         36
   174         23
   175         38
   176         19
   177         37
   178         17
   179         22
   180         10
   181         19
   182         10
   183         32
   184         17
   185         42
   186         20
   187         42
   188         26
   189         19
   190          5
   191         12
   192         18
   193         18
   194          6
   195         37
   196          8
   197         49
   198          6
   199         37
   200         11
   201         21
   202         11
   203         19
   204          9
   205         11
   206          7
   207         13
   208          6
   209         22
   210          4
   211         48
   212         20
   213         41
   214         19
   215         27
   216         11
   217          9
   218          5
   219          7
   220          5
   221         11
   222          9
   223         21
   224         11
   225         32
   226         12
   227         41
   228         18
   229         30
   230         16
   231         18
   232         40
   233         16
   235         11
   237         12
   238          9
   239         23
   240         38
   241         37
   242         17
   243         33
   244         10
   245         18
   246          9
   247         10
   248          9
   249         11
   250          7
   251         22
   252          8
   253         30
   254         13
   255         38
   256         38
   257         22
   258         16
   259         15
   260          7
   261          5
   265          9
   266         22
   267         38
   268        166
   269         85
   270         23
   271         40
   272         27
   273         13
   274         10
   275          6
   276          5
   282         17
   283         20
   284        105
   285        109
   286        489
   287        104
   288         20
   289         14
   290          6
   296          5
   298         24
   299         11
   300        119
   301         49
   302         16
   312          2
   313         16
   314          7
   326          6
   327         12
   328         80
   329         18
   330          5