##TITLE=Library Entry 77973
##JCAMP-DX=Revision 4.10 
##DATA TYPE=MASS SPECTRUM
##SAMPLE DESCRIPTION=NIST Mass Spectrometry Data Center
##NAMES=HP
##CAS NAME=Methanone, [2-hydroxy-4-(2-propenyloxy)phenyl]phenyl-
##MOLFORM=C16H14O3
##CAS REGISTRY NO=2549-87-3
##MP= -300
##BP= -300
##MW= 254
##$RETENTION INDEX=0
##$CONDENSED SPECTRUM=NO
##NPOINTS= 70
##XYDATA=(XY..XY) 1 
    41        901
    43         63
    50         68
    51        297
    52         72
    53        127
    55         91
    63         84
    69        188
    76         48
    77        789
    78        106
    79         82
    81         95
    83         68
    91         57
   103         42
   105        999
   106        110
   107        191
   108         93
   115        116
   120         36
   121         72
   127         95
   128        229
   129        142
   131         34
   137        261
   139         55
   144         55
   145         65
   148         36
   149         63
   155         29
   157         97
   169         23
   170         31
   171        114
   177        369
   178         44
   183         46
   184         68
   185        333
   186         48
   197         72
   198         25
   199        127
   200         19
   207         14
   208         14
   211         82
   212        133
   213        367
   214         72
   225        112
   226        377
   227         68
   235         23
   236         10
   237         25
   239         80
   240         12
   242          2
   252          2
   253        820
   254        863
   255        214
   256         36
   257          2