##TITLE=Library Entry 24571
##JCAMP-DX=Revision 4.10 
##DATA TYPE=MASS SPECTRUM
##SAMPLE DESCRIPTION=Chemical Concepts
##NAMES=HP
##CAS NAME=6-Oxa-bicyclo[3.1.0]hexan-3-ol
##MOLFORM=C5H8O2
##CAS REGISTRY NO=25494-14-8
##MP= -300
##BP= -300
##MW= 100
##$RETENTION INDEX=0
##$CONDENSED SPECTRUM=NO
##NPOINTS= 55
##XYDATA=(XY..XY) 1 
    25          3
    26         41
    27        253
    28        100
    29        370
    30         14
    31         91
    33          0
    35          0
    36          1
    37          7
    38         14
    39        107
    40         12
    41         63
    42         43
    43        359
    44        405
    45        212
    46          5
    47          3
    48          0
    49          9
    50         16
    51         23
    52          8
    53         70
    54        167
    55        143
    56        274
    57        999
    58         94
    59         15
    60          6
    61          2
    62          2
    63          3
    64          1
    65          5
    66          2
    67          2
    68          2
    69         13
    70          5
    71         94
    72        129
    73         35
    74          4
    81         49
    82         37
    83         14
    85          5
    99          8
   100          7
   101          1