##TITLE=Library Entry 2861
##JCAMP-DX=Revision 4.10 
##DATA TYPE=MASS SPECTRUM
##SAMPLE DESCRIPTION=R.I.REED CHEMISTRY DEPT., UNIV. OF GLASGOW
##NAMES=HP
##CAS NAME=1H-3a,7-Methanoazulene, octahydro-1,4,9,9-tetramethyl-
##MOLFORM=C15H26
##CAS REGISTRY NO=25491-20-7
##MP= -300
##BP= -300
##MW= 206
##$RETENTION INDEX=1635
##$CONDENSED SPECTRUM=NO
##NPOINTS= 106
##XYDATA=(XY..XY) 1 
    26         11
    27        254
    29        413
    30          8
    38          3
    39        318
    40         59
    41        999
    42        221
    43        176
    44          5
    50          8
    51         52
    52         32
    53        350
    54         62
    55        589
    56         50
    57         35
    63         14
    64          5
    65        154
    66         57
    67        467
    68         72
    69        224
    70         13
    71          3
    77        388
    78         86
    79        516
    80         81
    81        386
    82        159
    83         38
    84          3
    89          7
    90          3
    91        510
    92         83
    93        440
    94         84
    95        233
    96         30
    97         11
   102          4
   103         35
   104         19
   105        228
   106         47
   107        359
   108         90
   109         78
   110         29
   111          5
   115         37
   116         16
   117         44
   118          8
   119         86
   120         23
   121        219
   122         82
   123         52
   124          7
   127          5
   128         12
   129         14
   130          6
   131         20
   132          5
   133         36
   134         10
   135         80
   136         17
   137          6
   145          8
   146          3
   147         18
   148          6
   149         36
   150         14
   151          4
   152          1
   159          1
   160          1
   161         14
   162          6
   163         57
   164         13
   165          3
   175          2
   176          1
   177          6
   178          1
   179          1
   189          6
   190          1
   191         59
   192          8
   193          1
   204          9
   205          4
   206         25
   207          4
   208          0