##TITLE=Library Entry 1292
##JCAMP-DX=Revision 4.10 
##DATA TYPE=MASS SPECTRUM
##SAMPLE DESCRIPTION=Japan AIST/NIMC Database- Spectrum MS-NW-1349
##NAMES=HP
##CAS NAME=1,4-Cyclohexanedimethanamine
##MOLFORM=C8H18N2
##CAS REGISTRY NO=2549-93-1
##MP= -300
##BP= -300
##MW= 142
##$RETENTION INDEX=0
##$CONDENSED SPECTRUM=NO
##NPOINTS= 72
##XYDATA=(XY..XY) 1 
    15          3
    16          1
    26          1
    27         16
    28         52
    29         16
    30        999
    31         25
    32         88
    33          1
    39         22
    40          3
    41         47
    42         10
    43         15
    44         12
    45          1
    47         10
    50          1
    51          4
    52          2
    53         13
    54         42
    55         46
    56         48
    57          9
    58         12
    59          5
    65          4
    66          7
    67         57
    68         33
    69          8
    70         15
    71          6
    72          1
    73          1
    77          7
    78          3
    79         28
    80         10
    81         41
    82         28
    83          3
    84          3
    85          1
    91          6
    92          1
    93         15
    94         11
    95         45
    96         49
    97          4
    98          2
   104          1
   105          2
   106          2
   107          4
   108         21
   109          3
   110          3
   111          1
   112         57
   113        157
   114         12
   120          2
   122          4
   123          3
   124          6
   125         83
   126          8
   142          3