##TITLE=Library Entry 22495
##JCAMP-DX=Revision 4.10 
##DATA TYPE=MASS SPECTRUM
##SAMPLE DESCRIPTION=Chemical Concepts
##NAMES=HP
##CAS NAME=2-Oxepanone, 4-methyl-
##MOLFORM=C7H12O2
##CAS REGISTRY NO=2549-60-2
##MP= -300
##BP= -300
##MW= 128
##$RETENTION INDEX=0
##$CONDENSED SPECTRUM=NO
##NPOINTS= 54
##XYDATA=(XY..XY) 1 
    26         32
    27        262
    28        188
    29        183
    30          8
    31         20
    37          5
    38         14
    39        183
    40         45
    41        527
    42        296
    43        175
    44         17
    45          9
    50         12
    51         18
    52          8
    53         47
    54         31
    55        599
    56        999
    57         74
    58          7
    59          7
    60          3
    65          4
    66          3
    67         39
    68         17
    69        685
    70        114
    71         28
    73          7
    74         22
    79          6
    80          3
    81         30
    82         28
    83         79
    84         36
    85          7
    87          8
    95          5
    97         15
    98        165
    99         21
   100         12
   101          4
   109          3
   110          3
   111          3
   128         83
   129         12