##TITLE=Library Entry 173
##JCAMP-DX=Revision 4.10 
##DATA TYPE=MASS SPECTRUM
##SAMPLE DESCRIPTION=Exported from NIST MS Search
##NAMES=HP
##CAS NAME=Aziridine, 2-ethyl-
##MOLFORM=C4H9N
##CAS REGISTRY NO=2549-67-9
##MP= -300
##BP= -300
##MW= 71
##$RETENTION INDEX=664
##$CONDENSED SPECTRUM=NO
##NPOINTS= 52
##XYDATA=(XY..XY) 1 
    12          4
    13          7
    14         33
    15        172
    16          7
    17          3
    18         11
    24          2
    25         10
    26         67
    27        235
    28        999
    29        128
    30        511
    31          7
    32          5
    33          1
    34          2
    35          1
    36          7
    37         18
    38         54
    39        178
    40        121
    41        318
    42        788
    43        388
    44         95
    45          3
    48          1
    49          3
    50          6
    51          7
    52         11
    53          7
    54         22
    55         13
    56        556
    57         24
    58          4
    59          1
    62          1
    63          1
    64          1
    65          1
    66          1
    67          3
    68         11
    69         11
    70        321
    71        121
    72          4