##TITLE=Library Entry 12104
##JCAMP-DX=Revision 4.10 
##DATA TYPE=MASS SPECTRUM
##SAMPLE DESCRIPTION=T.IIDA NIHON UNIVERSITY, KORIYAMA, FUKUSHIMA-KEN, JAPAN
##NAMES=HP
##CAS NAME=Cholestan-3-ol, 4,4-dimethyl-, (3.beta.,5.alpha.)-
##MOLFORM=C29H52O
##CAS REGISTRY NO=2550-84-7
##MP= -300
##BP= -300
##MW= 416
##$RETENTION INDEX=3265
##$CONDENSED SPECTRUM=NO
##NPOINTS= 161
##XYDATA=(XY..XY) 1 
    18         50
    27         50
    28         50
    29        180
    39         60
    40         20
    41        530
    42         50
    43        999
    44         50
    53         80
    54         30
    55        780
    56         90
    57        630
    58         30
    59         30
    65         30
    66         20
    67        440
    68        140
    69        750
    70         80
    71        370
    72         40
    77         80
    78         30
    79        330
    80         80
    81        790
    82        250
    83        390
    84         40
    85        110
    91        220
    92         60
    93        480
    94        170
    95        910
    96        170
    97        320
    98         50
    99         30
   105        240
   106         90
   107        490
   108        330
   109        790
   110        150
   111        290
   112         30
   113         30
   117         40
   118         30
   119        240
   120        130
   121        530
   122        310
   123        520
   124         90
   125        100
   126         20
   127         50
   128         10
   129         10
   131         60
   132         30
   133        200
   134        160
   135        970
   136        320
   137        240
   138         60
   139        130
   140         30
   145         70
   146         30
   147        260
   148        140
   149        360
   150         80
   151        100
   152        190
   153        110
   154         20
   159        220
   160         30
   161        200
   162         80
   163        190
   164         30
   165         90
   166         30
   167         30
   173        110
   174         50
   175        240
   176        130
   177        160
   178         30
   179         60
   187         60
   188         70
   189        130
   190         60
   191         70
   192         30
   193        400
   194         90
   201         80
   202         40
   203         70
   204         30
   205         30
   206         60
   207         40
   215         60
   216         30
   217         30
   219         30
   229        130
   230         40
   231         40
   233         30
   243        500
   244        300
   245        260
   246         50
   247        110
   248         30
   257        170
   258        170
   259         70
   260         30
   261        340
   262        320
   263        150
   264        160
   265         30
   275         20
   276        160
   277         30
   285         60
   287         50
   288         30
   289        120
   290         30
   305         10
   313         40
   355        100
   356         30
   381         20
   383        190
   384         50
   398        110
   399         40
   401        130
   402         50
   414         30
   416        290
   417         80