##TITLE=Library Entry 10913
##JCAMP-DX=Revision 4.10 
##DATA TYPE=MASS SPECTRUM
##SAMPLE DESCRIPTION=Japan AIST/NIMC Database- Spectrum MS-NW-4026
##NAMES=HP
##CAS NAME=2-Butanone, 4-phenyl-
##MOLFORM=C10H12O
##CAS REGISTRY NO=2550-26-7
##MP= -300
##BP= -300
##MW= 148
##$RETENTION INDEX=1218
##$CONDENSED SPECTRUM=NO
##NPOINTS= 84
##XYDATA=(XY..XY) 1 
    14          3
    15         36
    18          5
    26          6
    27         57
    28          9
    29          4
    31          2
    32          1
    37          4
    38         10
    39         73
    40          6
    41         19
    42          9
    43        999
    44         23
    45          6
    49          2
    50         39
    51        112
    52         26
    53         15
    54          1
    55         38
    56          1
    57          2
    58          1
    60          1
    61          4
    62         11
    63         39
    64          9
    65         90
    66          7
    69          1
    70          3
    71         10
    73          2
    74         13
    75         10
    76         10
    77        167
    78        111
    79        125
    80          8
    85          1
    86          2
    87          2
    89         20
    90          8
    91        600
    92         61
    93          2
    94          1
    98          2
   101          3
   102         12
   103         92
   104        108
   105        808
   106         91
   107          6
   115         35
   116          5
   117          5
   119          4
   120          3
   121          3
   127          4
   128          7
   129         24
   130         14
   131          9
   132          3
   133        138
   134         15
   135          1
   145          3
   146          2
   147         34
   148        724
   149         85
   150          6