##TITLE=Library Entry 68321
##JCAMP-DX=Revision 4.10 
##DATA TYPE=MASS SPECTRUM
##SAMPLE DESCRIPTION=CARL DJERASSI DEPT OF CHEM STANFORD UNIV STANFORD CALIF
 94305
##NAMES=HP
##CAS NAME=Cholest-7-ene-3,6-dione, (5.alpha.)-
##MOLFORM=C27H42O2
##CAS REGISTRY NO=2550-89-2
##MP= -300
##BP= -300
##MW= 398
##$RETENTION INDEX=0
##$CONDENSED SPECTRUM=NO
##NPOINTS= 116
##XYDATA=(XY..XY) 1 
    41        180
    42         30
    43        260
    53         40
    55        230
    56         30
    57        150
    67         80
    68         40
    69        150
    70         20
    71         50
    77         50
    78         20
    79         90
    80         10
    81        120
    82         20
    83        120
    91        110
    92         20
    93         80
    94        490
    95        999
    96         90
    97         40
   105        110
   106        110
   107         30
   108         70
   109         20
   110         90
   111         30
   117         30
   118         10
   119         60
   120         40
   121         60
   122         20
   123         40
   129         20
   130         30
   131         40
   132         20
   133         70
   134         50
   135         40
   136         20
   137         50
   138         20
   139         30
   143         20
   145         40
   146         20
   147         70
   148         50
   149         40
   157         20
   159         30
   161        260
   162         40
   171         30
   173         40
   174         20
   175        100
   176         30
   177         20
   187         40
   188         20
   189         30
   190         40
   191        100
   192         20
   193         40
   199         20
   201         70
   202         20
   203         20
   204         20
   209         20
   213         20
   215         40
   227         30
   229         50
   230         20
   231         30
   232         20
   243         40
   244         30
   245        100
   246         20
   258         40
   259        320
   260         90
   261         70
   262         20
   269         50
   270         20
   271         30
   272         30
   284         30
   285        470
   286        120
   287        100
   288         30
   313         20
   341         30
   366         20
   368         70
   369         20
   383        130
   384         60
   385         40
   398        490
   399        170
   400        130