##TITLE=Library Entry 11905
##JCAMP-DX=Revision 4.10 
##DATA TYPE=MASS SPECTRUM
##SAMPLE DESCRIPTION=NIST Mass Spectrometry Data Center
##NAMES=HP
##CAS NAME=1-Acetyl-4-piperidinecarboxylic acid
##MOLFORM=C8H13NO3
##CAS REGISTRY NO=25503-90-6
##MP= -300
##BP= -300
##MW= 171
##$RETENTION INDEX=0
##$CONDENSED SPECTRUM=NO
##NPOINTS= 79
##XYDATA=(XY..XY) 1 
    14         23
    15        240
    16         10
    17          2
    18         11
    26         27
    27        231
    28        294
    29        164
    30        152
    31         21
    36          8
    37         21
    38         21
    39        196
    40         51
    41        159
    42        451
    43        999
    44        144
    45        110
    50         19
    51         33
    52         25
    53         87
    54         86
    55        281
    56        615
    57        572
    58         25
    59         16
    60         35
    63         18
    65         21
    66         18
    67         69
    68         63
    69         36
    70         15
    71         29
    72         65
    73         30
    76         21
    77         18
    78         12
    79         19
    80         58
    82        517
    83        202
    84        245
    85         54
    86         48
    87         15
    94          3
    96         16
    97         23
    98         46
    99         35
   100         37
   101         52
   105         12
   109          1
   110         25
   111         15
   112         26
   114        179
   115         23
   121         15
   122         10
   126        233
   128        899
   129         85
   130         13
   135          5
   138         18
   149         11
   156         34
   171        324
   172         52