##TITLE=Library Entry 19421
##JCAMP-DX=Revision 4.10 
##DATA TYPE=MASS SPECTRUM
##SAMPLE DESCRIPTION=STANDARD OIL CO., WHITING, IND, USA
##NAMES=HP
##CAS NAME=Cyclohexanemethanethiol
##MOLFORM=C7H14S
##CAS REGISTRY NO=2550-37-0
##MP= -300
##BP= -300
##MW= 130
##$RETENTION INDEX=1028
##$CONDENSED SPECTRUM=NO
##NPOINTS= 73
##XYDATA=(XY..XY) 1 
    14          3
    15         36
    26         26
    27        285
    28         75
    29        157
    30          4
    32          4
    33         15
    34         10
    35         10
    37          3
    38         16
    39        282
    40         40
    41        612
    42         42
    43         60
    44          4
    45        102
    46         27
    47        133
    48         10
    49         12
    50         13
    51         27
    52         13
    53         93
    54        190
    55        999
    56         63
    57         12
    58         12
    59         16
    60         12
    61         16
    62          3
    63          7
    64          1
    65         18
    66         33
    67        364
    68        159
    69         24
    70          1
    71          9
    72          1
    73         12
    74          7
    75          3
    77         16
    78          4
    79         19
    80          6
    81        304
    82        132
    83        498
    84         31
    85          6
    87          6
    89          1
    90          7
    91          6
    92          1
    93          4
    95         30
    96        340
    97        120
    98          7
   101          3
   130        219
   131         15
   132         10