##TITLE=Library Entry 69877
##JCAMP-DX=Revision 4.10 
##DATA TYPE=MASS SPECTRUM
##SAMPLE DESCRIPTION=Chuck Anderson, Aldrich Chemical Co.
##NAMES=HP
##CAS NAME=Cyclohexane, (bromomethyl)-
##MOLFORM=C7H13Br
##CAS REGISTRY NO=2550-36-9
##MP= -300
##BP= -300
##MW= 176
##$RETENTION INDEX=0
##$CONDENSED SPECTRUM=NO
##NPOINTS= 101
##XYDATA=(XY..XY) 1 
    15          1
    25          0
    26          5
    27         62
    28         22
    29         45
    30          1
    31          0
    32          0
    33          0
    34          0
    36          0
    37          2
    38          9
    39        160
    40         26
    41        279
    42         24
    43         37
    44          1
    45          3
    46          8
    47          3
    48          0
    49          0
    50          9
    51         20
    52         10
    53         72
    54         73
    55        760
    56         35
    57          2
    58          0
    61          0
    62          2
    63          4
    64          1
    65         16
    66          8
    67        115
    68         34
    69         43
    70          2
    71          0
    72          0
    73          0
    74          0
    75          0
    76          0
    77         10
    78          2
    79         15
    80          2
    81         45
    82         34
    83        324
    84         21
    85          0
    86          0
    87          0
    89          0
    90          0
    91          3
    92          0
    93          8
    94          0
    95         26
    97        999
    98         70
    99          2
   100          0
   104          0
   105          0
   106          1
   107          4
   108          1
   109          3
   110          0
   117          0
   118          0
   119          4
   120          1
   121          3
   122          1
   123          0
   131          0
   132          0
   133          2
   134          0
   135          2
   136          0
   137          0
   148          0
   149          0
   150          0
   176         24
   177          1
   178         23
   179          1
   180          0