##TITLE=Library Entry 56857
##JCAMP-DX=Revision 4.10 
##DATA TYPE=MASS SPECTRUM
##SAMPLE DESCRIPTION=Div. of Experiment Therapeutics WRAIR, WRAMC, Washingto
n DC 20307
##NAMES=HP
##CAS NAME=4-[[3-[Diethylamino]propyl]amino]-2-methylpyrimido[1,2-a]benzimid
azole
##MOLFORM=C18H25N5
##CAS REGISTRY NO=25514-07-2
##MP= -300
##BP= -300
##MW= 311
##$RETENTION INDEX=0
##$CONDENSED SPECTRUM=NO
##NPOINTS= 151
##XYDATA=(XY..XY) 1 
    41         87
    42        187
    43         57
    44         65
    45          1
    49          4
    50          6
    51         16
    52         15
    53         11
    54         25
    55         12
    56        147
    57         56
    58        234
    59          8
    62          4
    63         19
    64         17
    65         18
    66         29
    67         10
    68          9
    69          5
    70         58
    71         60
    72        249
    73         15
    75          7
    76         12
    77         31
    78         16
    79          7
    80          5
    81          1
    82          3
    83          2
    84        114
    85         58
    86        999
    87         62
    88          3
    89          7
    90         68
    91         14
    92         17
    93          3
    94          0
    96          5
    97          1
    98        340
    99         43
   100         82
   101          3
   102         38
   103         21
   104         10
   105         23
   106          5
   107          1
   108          1
   111          5
   112         64
   113        119
   114         28
   115          5
   116          7
   117         12
   118         32
   119          8
   120          0
   122          7
   123          1
   127          4
   128          7
   129         26
   130          7
   131         11
   132          9
   133         17
   134          8
   139          0
   140          2
   141          2
   142         11
   143         12
   144         16
   145          3
   146          4
   148         61
   153          2
   154          2
   155         52
   156         26
   157         14
   158         22
   159          3
   162          1
   167          0
   168          2
   169          3
   170         30
   171         13
   172          2
   180          2
   181         19
   182        103
   183         74
   184         20
   185          4
   188          0
   195          5
   196          9
   197         38
   198         20
   199         30
   200          3
   207          0
   208          2
   209         30
   210         55
   211        434
   212        285
   213         35
   214          2
   220          0
   221          1
   222          2
   223         17
   224         21
   225        264
   226         36
   227          2
   229          1
   234          2
   235          2
   236          0
   237          8
   238         10
   239         27
   240         27
   241          4
   282         32
   283          6
   284          0
   296          1
   297          0
   311        163
   312         34
   313          9
   314          0