##TITLE=Library Entry 53636
##JCAMP-DX=Revision 4.10 
##DATA TYPE=MASS SPECTRUM
##SAMPLE DESCRIPTION=Div. of Experiment Therapeutics WRAIR, WRAMC, Washingto
n DC 20307
##NAMES=HP
##CAS NAME=2-Methyl-4-[[2-[1-methyl-2-pyrrolidinyl]ethyl]amino]pyrimidino[1,
2-a]benzimidazole
##MOLFORM=C18H23N5
##CAS REGISTRY NO=25514-06-1
##MP= -300
##BP= -300
##MW= 309
##$RETENTION INDEX=0
##$CONDENSED SPECTRUM=NO
##NPOINTS= 109
##XYDATA=(XY..XY) 1 
    41        128
    42        626
    43         33
    44        116
    47          4
    49         15
    50          8
    51         27
    52         20
    53         24
    54         36
    55         74
    56         34
    57         29
    58         15
    62          5
    63         22
    64         20
    65         22
    66         30
    67         37
    68         29
    69         25
    70         55
    71          1
    75          6
    76         16
    77         35
    78         16
    79          8
    80          9
    81          7
    82        164
    83         58
    84        999
    85         53
    86          3
    88          3
    89          6
    90         66
    91         13
    92         13
    94          6
    96         33
    97         36
    98        128
    99          7
   101          2
   102         32
   103         23
   104          8
   105         19
   108          2
   110        152
   111        331
   112         32
   114          5
   116          6
   117          9
   118         25
   119          2
   128          4
   129         27
   130          6
   131          9
   132          5
   133         10
   142          8
   143         10
   144         17
   155         46
   156         18
   157         11
   158         14
   170         28
   171          8
   181         18
   182         78
   183         37
   184         11
   187          1
   195          6
   196          7
   197         44
   198         37
   199         15
   204         11
   205         11
   209         26
   210         15
   211        153
   212        106
   213         12
   223          7
   224          5
   225         77
   226         10
   233         22
   235          7
   253          6
   257          3
   260          1
   283          1
   294          4
   295          1
   308         11
   309        188
   310         39
   311          3