##TITLE=Library Entry 29350
##JCAMP-DX=Revision 4.10 
##DATA TYPE=MASS SPECTRUM
##SAMPLE DESCRIPTION=Div. of Experiment Therapeutics WRAIR, WRAMC, Washingto
n DC 20307
##NAMES=HP
##CAS NAME=11-[[[3-[Dimethylamino]propyl]amino]-2,3-dihydro-1H-cyclopenta[4,
5]pyrimido[1,2-a]benzimidazole
##MOLFORM=C18H23N5
##CAS REGISTRY NO=25514-09-4
##MP= -300
##BP= -300
##MW= 309
##$RETENTION INDEX=0
##$CONDENSED SPECTRUM=NO
##NPOINTS= 141
##XYDATA=(XY..XY) 1 
    41         32
    42        108
    43         46
    44         92
    45         29
    50          4
    51         13
    52         11
    53         19
    54          7
    55          4
    56         29
    58        999
    59         21
    62          2
    63         15
    64         17
    65         40
    66          9
    67          3
    68          3
    70         72
    71         38
    72         35
    75          7
    76          9
    77         15
    78         12
    79          1
    80          7
    81          0
    82          1
    84        127
    85        273
    86         76
    87          2
    89          4
    90         32
    91         17
    92         13
    93          1
    94          2
    99          4
   100          2
   102         22
   103         11
   104          2
   105         16
   106          4
   107          0
   114          1
   115          4
   116          4
   117          3
   118         67
   119          6
   122          0
   127          3
   128          1
   129         11
   130          1
   131          5
   133         58
   134         12
   140          2
   141          3
   142          5
   143          7
   144          9
   145          6
   146          5
   147          0
   148          8
   149          1
   153          6
   155         39
   156          6
   157          3
   158          2
   161          3
   165          0
   167          6
   168         19
   169          6
   170          5
   171          0
   176          4
   177          2
   179          3
   180          8
   181          9
   182          7
   183          3
   184          2
   193          2
   194          8
   195         27
   196         24
   197          5
   198          2
   206         11
   207         18
   208         76
   209         50
   210         31
   211          6
   220          3
   221         18
   222         44
   223        305
   224         98
   225         74
   226         11
   233          4
   234          5
   235         42
   236         33
   237        400
   238        313
   239         40
   240          3
   246          2
   247          3
   248          3
   249         14
   250         26
   251        299
   252         56
   253          4
   263         11
   264         27
   265         22
   266         56
   267         10
   294         14
   295          3
   307          2
   308         17
   309        325
   310         62
   311         19