##TITLE=Library Entry 29340
##JCAMP-DX=Revision 4.10 
##DATA TYPE=MASS SPECTRUM
##SAMPLE DESCRIPTION=Div. of Experiment Therapeutics WRAIR, WRAMC, Washingto
n DC 20307
##NAMES=HP
##CAS NAME=7-[[3-[Dimethylamino]propyl]amino]-5-methyl-S-triazolo[1,5-a]pyri
midine
##MOLFORM=C11H18N6
##CAS REGISTRY NO=25514-01-6
##MP= -300
##BP= -300
##MW= 234
##$RETENTION INDEX=0
##$CONDENSED SPECTRUM=NO
##NPOINTS= 88
##XYDATA=(XY..XY) 1 
    41         51
    42        196
    43         47
    44         85
    45         18
    46          2
    47          0
    49          4
    50          2
    51          6
    52         21
    53         16
    54         27
    55         12
    56         35
    57         28
    58        999
    59         41
    64          7
    65         13
    66         53
    67         18
    68         20
    69          6
    70         45
    71         18
    72         46
    73          2
    77          3
    78          5
    79          4
    80          4
    81          5
    82          8
    83          4
    84         70
    85         30
    86          9
    91          1
    92          7
    93         10
    94          3
    95          6
    96          0
    97          0
    98          1
    99          0
   105          4
   106          2
   107         11
   108         12
   109         84
   110          5
   117          1
   119          1
   120          3
   121          8
   122         13
   123          2
   133          6
   134         20
   135          9
   136         10
   137          0
   147          1
   148          4
   149          6
   150         16
   151          1
   156          0
   160          0
   161          9
   162         49
   163         39
   164          4
   174          3
   175          1
   176         43
   177          5
   188          4
   189          2
   190         12
   191          8
   218          1
   233         12
   234        201
   235         24
   236          7