##TITLE=Library Entry 40525
##JCAMP-DX=Revision 4.10 
##DATA TYPE=MASS SPECTRUM
##SAMPLE DESCRIPTION=A.A.Kutin, Moscow, Russia
##NAMES=HP
##CAS NAME=3,3-Dichloropropyne
##MOLFORM=C3H2Cl2
##CAS REGISTRY NO=25523-14-2
##MP= -300
##BP= -300
##MW= 108
##$RETENTION INDEX=0
##$CONDENSED SPECTRUM=NO
##NPOINTS= 38
##XYDATA=(XY..XY) 1 
    26         18
    28          6
    29          1
    32          2
    35        290
    36        320
    37        657
    38        547
    39         20
    41          1
    47        249
    48         23
    49         76
    50          7
    53          6
    54          5
    55          1
    57          1
    59          6
    60          9
    61          3
    62          3
    70          7
    72        181
    73        999
    74         64
    75        332
    76         16
    82          3
    83          3
    84          2
    85          2
   106          1
   107         15
   108          2
   109         10
   110          1
   111          2