##TITLE=Library Entry 32807
##JCAMP-DX=Revision 4.10 
##DATA TYPE=MASS SPECTRUM
##SAMPLE DESCRIPTION=FDA, Los Angeles District Laboratory
##NAMES=HP
##CAS NAME=2-Chloroethyl linoleate
##MOLFORM=C20H35ClO2
##CAS REGISTRY NO=25525-76-2
##MP= -300
##BP= -300
##MW= 342
##$RETENTION INDEX=0
##$CONDENSED SPECTRUM=NO
##NPOINTS= 59
##XYDATA=(XY..XY) 1 
    41        230
    42         80
    52         30
    53        105
    54        534
    55        609
    62         80
    63        295
    64         45
    65        150
    66         90
    67        999
    68        519
    69        350
    70         40
    71         35
    76         30
    77        115
    78         55
    79        275
    80        210
    81        829
    82        495
    83        195
    84         30
    85         20
    91         80
    92         25
    93        135
    94        105
    95        529
    96        360
    97        135
    98         25
    99         40
   107         80
   108         90
   109        225
   110        180
   111         45
   119         25
   121         70
   122         70
   123        105
   124         65
   125         30
   133         20
   135         70
   136         50
   137         60
   138         45
   149         50
   150         55
   151         35
   152         30
   163         35
   164         40
   263         65
   342         20