##TITLE=Library Entry 72192
##JCAMP-DX=Revision 4.10 
##DATA TYPE=MASS SPECTRUM
##SAMPLE DESCRIPTION=NIST Mass Spectrometry Data Center
##NAMES=HP
##CAS NAME=2H-Pyran-2-one, tetrahydro-6-(2-pentenyl)-, (Z)-
##MOLFORM=C10H16O2
##CAS REGISTRY NO=25524-95-2
##MP= -300
##BP= -300
##MW= 168
##$RETENTION INDEX=1518
##$CONDENSED SPECTRUM=NO
##NPOINTS= 103
##XYDATA=(XY..XY) 1 
    15          2
    26          6
    27         71
    28         16
    29         40
    30          1
    31          2
    37          2
    38          8
    39        143
    40         24
    41        290
    42        127
    43        252
    44         14
    45          3
    49          1
    50         10
    51         24
    52         13
    53         70
    54         63
    55        415
    56         20
    57          6
    58          1
    59          1
    60          3
    61          1
    62          3
    63          7
    64          2
    65         24
    66         12
    67         98
    68        108
    69         51
    70         41
    71        895
    72         44
    73          5
    74          1
    75          1
    77         24
    78          9
    79         74
    80         22
    81        115
    82         15
    83         13
    84          9
    85          3
    86          1
    87          2
    89          1
    91         13
    92          3
    93         34
    94         20
    95         34
    96         12
    97         11
    99        999
   100         58
   101          7
   102          1
   103          1
   104          2
   105          2
   106          8
   107         15
   108        114
   109         19
   110          2
   111          2
   112          5
   113         10
   114          3
   115          1
   117          3
   118          1
   119          1
   121         13
   122         17
   123          5
   124          1
   125          1
   126         12
   127          2
   131          1
   132          6
   133          1
   135         14
   136          1
   139          4
   140          1
   150         70
   151          9
   152          1
   153          1
   168         60
   169          8
   170          1