##TITLE=Library Entry 11461
##JCAMP-DX=Revision 4.10 
##DATA TYPE=MASS SPECTRUM
##SAMPLE DESCRIPTION=VERN REINHOLD,A.D.LITTLE INC.,CAMBRIDGE,MASS
##NAMES=HP
##CAS NAME=D-Galactitol, 2,3,4-tri-O-methyl-, triacetate
##MOLFORM=C15H26O9
##CAS REGISTRY NO=25521-27-1
##MP= -300
##BP= -300
##MW= 350
##$RETENTION INDEX=0
##$CONDENSED SPECTRUM=NO
##NPOINTS= 68
##XYDATA=(XY..XY) 1 
    30          6
    31         40
    33         22
    39         19
    41         76
    42         63
    43        999
    44         63
    45        205
    47          9
    53         20
    54          7
    55         22
    56         18
    57         22
    58         88
    59         54
    60         10
    68          8
    69         29
    70         11
    71        126
    72         11
    73         50
    74         61
    75         52
    81         10
    83         21
    84          7
    85         27
    86         10
    87        320
    88         93
    89         39
    95          6
    98          7
    99        421
   100         39
   101        522
   102         29
   103         32
   104          6
   111         15
   113         56
   114          9
   115         16
   116          6
   117        537
   118         36
   119          8
   125          9
   127          6
   129        348
   130         45
   131         43
   139          8
   142          7
   143         12
   145         14
   147          8
   159         58
   160          6
   161         98
   162          9
   173         37
   189         68
   190          8
   233         58