##TITLE=Library Entry 19091
##JCAMP-DX=Revision 4.10 
##DATA TYPE=MASS SPECTRUM
##SAMPLE DESCRIPTION=S.A. Rang et al., IR & MS of Unsatd. Hydrocarbons, 1977
##NAMES=HP
##CAS NAME=5-Tridecene, (Z)-
##MOLFORM=C13H26
##CAS REGISTRY NO=25524-42-9
##MP= -300
##BP= -300
##MW= 182
##$RETENTION INDEX=1274
##$CONDENSED SPECTRUM=NO
##NPOINTS= 112
##XYDATA=(XY..XY) 1 
    15         11
    16          1
    24          1
    25          4
    26         28
    27         65
    28         58
    29        384
    30          9
    31         30
    37          3
    38          6
    39        200
    40         37
    41        865
    42        210
    43        730
    44         23
    45         18
    46          3
    49          1
    50          8
    51         15
    52         13
    53         97
    54        210
    55        999
    56        500
    57        458
    58         44
    59          9
    60          2
    61          0
    62          0
    63          2
    64          0
    65         22
    66         16
    67        184
    68         80
    69        538
    70        374
    71        226
    72         13
    73          6
    74          1
    75          0
    76          1
    77         25
    78         21
    79         37
    80         10
    81        102
    82         72
    83        331
    84        179
    85         72
    86         13
    87          3
    88          0
    91          9
    92          1
    93         10
    94          2
    95         73
    96         37
    97         40
    98         81
    99         22
   103          0
   105          1
   106          0
   107          3
   108          1
   109         11
   110         18
   111         91
   112         38
   113         51
   114          4
   115          1
   119          0
   121          1
   122          0
   123          7
   124          6
   125         28
   126         18
   127          5
   128          3
   129          1
   135          1
   137          5
   138          2
   139         10
   140          6
   141          9
   142          1
   143          0
   149          0
   151          1
   152          0
   153         11
   154          9
   155         11
   156          1
   157          1
   165          1
   166          0
   167          2
   168          2
   169          1