##TITLE=Library Entry 66938
##JCAMP-DX=Revision 4.10 
##DATA TYPE=MASS SPECTRUM
##SAMPLE DESCRIPTION=Mark Whitten, Florida Museum of Natural History, U. of
 Florida
##NAMES=HP
##CAS NAME=Bicyclo[2.2.1]heptane, 2-methyl-3-methylene-2-(4-methyl-3-penteny
l)-, (1S-endo)-
##MOLFORM=C15H24
##CAS REGISTRY NO=25532-78-9
##MP= -300
##BP= -300
##MW= 204
##$RETENTION INDEX=1448
##$CONDENSED SPECTRUM=NO
##NPOINTS= 71
##XYDATA=(XY..XY) 1 
    41        498
    42         25
    43         57
    44          2
    50          6
    51         34
    52         17
    53        100
    54         14
    55        146
    56          9
    57          8
    63          9
    65         64
    66         24
    67        155
    68         24
    69        127
    70          9
    77        145
    78         38
    79        232
    80         27
    81         61
    82         37
    83         17
    89          3
    91        204
    92         45
    93        266
    94        999
    95        103
    96          8
   103         12
   105         78
   106         29
   107         85
   108         16
   109         13
   110          2
   115          9
   116          3
   117         12
   118          3
   119         50
   120         27
   121         67
   122        285
   123         30
   124          2
   128          3
   129          2
   131          5
   133         36
   134         16
   135         14
   136          6
   137          4
   145          3
   147         14
   148         13
   149          2
   159          2
   161         53
   162          8
   163          3
   176          3
   189          9
   190          2
   204         20
   205          3