##TITLE=Library Entry 62441
##JCAMP-DX=Revision 4.10 
##DATA TYPE=MASS SPECTRUM
##SAMPLE DESCRIPTION=Exported from NIST MS Search
##NAMES=HP
##CAS NAME=[1,3]Dioxino[4',5':5,6]pyrano[3,2-d]oxazol-9-ol, 3a,4a,5,8a,9,9a-
hexahydro-2-methyl-7-phenyl-, (3aS,4aR,8aS,9R,9aS)-
##MOLFORM=C15H17NO5
##CAS REGISTRY NO=25539-42-8
##MP= -300
##BP= -300
##MW= 291
##$RETENTION INDEX=0
##$CONDENSED SPECTRUM=NO
##NPOINTS= 80
##XYDATA=(XY..XY) 1 
    50         28
    51         95
    52         33
    53        104
    54         95
    55        171
    56        114
    57        119
    58         33
    59         33
    60         38
    63         33
    64         28
    65         38
    66         33
    67         71
    68        128
    69        133
    70         90
    71         90
    72         85
    73         38
    74         38
    75         28
    76         38
    77        300
    78        180
    79        190
    80        133
    81         80
    82        123
    83        171
    84        504
    85         80
    86         38
    87         19
    89         76
    90        142
    91        999
    92        161
    94         38
    95         38
    96        171
    97         95
    98         61
    99         33
   100         90
   101         28
   103         28
   104         28
   105        609
   106        142
   107        219
   108         38
   109         38
   110         80
   111         33
   112         95
   113         28
   114        123
   115         38
   138         38
   139         47
   140        142
   141         71
   142        228
   143         38
   144         33
   145        200
   146         42
   147         38
   148         47
   149        771
   150        114
   151         71
   152         23
   250         42
   290        423
   291        361
   292         23