##TITLE=Library Entry 10280
##JCAMP-DX=Revision 4.10 
##DATA TYPE=MASS SPECTRUM
##SAMPLE DESCRIPTION=A.A.Kutin, Moscow, Russia
##NAMES=HP
##CAS NAME=Propane-1,2-dione, 1-(1-benzotriazolyl)-, 1-phenylhydrazone
##MOLFORM=C15H13N5O
##CAS REGISTRY NO=255375-24-7
##MP= -300
##BP= -300
##MW= 279
##$RETENTION INDEX=0
##$CONDENSED SPECTRUM=NO
##NPOINTS= 176
##XYDATA=(XY..XY) 1 
    33          8
    34          0
    37         18
    38         56
    39        223
    40         38
    41         37
    43        999
    45         32
    46          5
    50         88
    51        168
    52         57
    53         14
    54         47
    55         16
    56          0
    57          1
    59          2
    60          0
    61          5
    62         28
    63        112
    64        198
    65        720
    66         56
    67          4
    69          1
    70          1
    71          1
    72          1
    73          2
    74         15
    75         30
    77        793
    78         81
    79         13
    80         11
    81          3
    86          0
    87          1
    89         34
    90         90
    91        395
    92        810
    93        228
    94         10
    95          0
    99          1
   100          1
   102         44
   103         65
   104        132
   105        142
   106         84
   107         21
   108          8
   109         17
   110          1
   112          0
   114          2
   115          9
   116         23
   117         62
   118        144
   119         84
   120         43
   121          4
   125          1
   126          2
   127          6
   128         20
   129         10
   130         12
   131         24
   132        110
   133         29
   134         16
   135          1
   138          0
   139          4
   140          4
   141          2
   142          5
   143         36
   144         29
   145         35
   146        221
   147         63
   148         42
   149          4
   150          1
   151          5
   152         16
   153          8
   154          9
   155          3
   156          4
   157          6
   158          6
   159         48
   160         26
   161          4
   162          0
   164          1
   165          3
   166         11
   167         18
   168          9
   169         11
   170          2
   171          1
   174        129
   175         20
   176          2
   177          1
   178          6
   179         10
   180         20
   181         55
   182         23
   183          9
   184          2
   185          2
   186          1
   190          0
   191          4
   192          5
   193          5
   194         10
   195          6
   196          2
   197          2
   198          1
   203          0
   204          2
   205          7
   206         17
   207         88
   208        545
   209        135
   210         19
   211          2
   217          0
   219          0
   220          1
   221          5
   222         41
   223         38
   224          6
   225          0
   226          0
   228          0
   230          0
   231          0
   232          3
   233         21
   234         50
   235         36
   236         79
   237         13
   238          1
   246          0
   248          3
   249          5
   250         86
   251        442
   252         80
   253          7
   264          0
   276          1
   277          1
   279        202
   280         37
   281          3
   284          0