##TITLE=Library Entry 27031
##JCAMP-DX=Revision 4.10 
##DATA TYPE=MASS SPECTRUM
##SAMPLE DESCRIPTION=A.A.Kutin, Moscow, Russia
##NAMES=HP
##CAS NAME=Propenenitrile, 2-tert-butylsulfonyl-3-(3-formyl-2-thienyl)-
##MOLFORM=C12H13NO3S2
##CAS REGISTRY NO=255377-88-9
##MP= -300
##BP= -300
##MW= 283
##$RETENTION INDEX=0
##$CONDENSED SPECTRUM=NO
##NPOINTS= 176
##XYDATA=(XY..XY) 1 
    33          1
    34          1
    36          0
    37          5
    38         11
    39        104
    40         31
    41        326
    42         17
    43          9
    44         13
    45         73
    46          2
    47          4
    48          6
    49          2
    50          8
    51          8
    52          5
    53          8
    55         29
    57        999
    58         50
    59          5
    60          2
    61          6
    62         11
    63         62
    64         24
    65          3
    66          1
    67          1
    68          2
    69         20
    70          6
    71          5
    72          1
    73          2
    74          3
    75          6
    76          6
    77          2
    78          1
    79          0
    80          1
    81          7
    82         14
    83          6
    84         11
    85          2
    86          1
    87          4
    88         14
    89          7
    90         49
    91         13
    92          1
    93          5
    94          5
    95          4
    96          3
    97          1
    98          0
    99          3
   100          3
   101          2
   102          2
   103          1
   104          1
   105          2
   106          4
   107         21
   108         36
   109          7
   110          5
   111          4
   112          1
   113          0
   114          0
   115          0
   116          0
   117          1
   118          1
   119          1
   120          1
   121          2
   122          3
   123          0
   124          2
   125          1
   126          0
   127          1
   128          0
   129          0
   130          1
   131          0
   132          3
   133         18
   134         41
   135        147
   136        245
   137         28
   138         13
   139          3
   140          0
   141          1
   143          1
   145          0
   146          3
   147          2
   148          1
   149          5
   150          1
   151          0
   152          0
   153          0
   154          1
   155          2
   156          0
   157          0
   159          1
   162        417
   163        252
   164         41
   165         18
   166          2
   167          1
   171          0
   172          0
   174          0
   176          2
   177          1
   178          2
   179          1
   180          0
   182          2
   183          0
   184          0
   185          0
   186          1
   187          0
   188          0
   190          1
   191          2
   192          1
   193          1
   194          0
   195          0
   198          3
   199          0
   200          0
   203          0
   204          2
   205          0
   206          2
   207          1
   208          2
   210          6
   211          1
   212          1
   213          0
   219          2
   220          0
   228          0
   234          0
   236          1
   237          0
   244          0
   247          0
   256          0
   260          0
   262          0
   264          0
   283          4
   284          0
   285          0