##TITLE=Library Entry 57381
##JCAMP-DX=Revision 4.10 
##DATA TYPE=MASS SPECTRUM
##SAMPLE DESCRIPTION=Exported from NIST MS Search
##NAMES=HP
##CAS NAME=Octanoic acid, 4,6-dimethyl-, methyl ester, (4S,6S)-(+)-
##MOLFORM=C11H22O2
##CAS REGISTRY NO=2553-96-0
##MP= -300
##BP= -300
##MW= 186
##$RETENTION INDEX=1256
##$CONDENSED SPECTRUM=NO
##NPOINTS= 76
##XYDATA=(XY..XY) 1 
    14          8
    15         65
    26          8
    27         84
    28         29
    29        223
    30          8
    31         13
    39         84
    40         16
    41        303
    42         81
    43        319
    44         13
    45         29
    51          8
    53         19
    54         16
    55        419
    56         84
    57        565
    58         32
    59        137
    60          8
    67         32
    68          8
    69        226
    70         48
    71        258
    72         16
    73        113
    74        581
    75         35
    77          8
    79         13
    81         48
    82         16
    83        116
    84         16
    85         24
    87        999
    88        355
    89         16
    95         29
    96          8
    97        177
    98         32
    99          8
   101        177
   102         16
   107          3
   109          3
   110         40
   111         32
   112         29
   113        234
   114         24
   115         81
   116          8
   125         81
   126         19
   129         73
   130          3
   131          8
   136         16
   137         81
   138          3
   139         32
   143          2
   153          3
   155         48
   156          3
   157         40
   169         16
   171          8
   186          8