##TITLE=Library Entry 66457
##JCAMP-DX=Revision 4.10 
##DATA TYPE=MASS SPECTRUM
##SAMPLE DESCRIPTION=NIST Mass Spectrometry Data Center
##NAMES=HP
##CAS NAME=Cyclohexene, 4-[(1E)-1,5-dimethyl-1,4-hexadien-1-yl]-1-methyl-
##MOLFORM=C15H24
##CAS REGISTRY NO=25532-79-0
##MP= -300
##BP= -300
##MW= 204
##$RETENTION INDEX=1512
##$CONDENSED SPECTRUM=NO
##NPOINTS= 76
##XYDATA=(XY..XY) 1 
    26          1
    27         30
    28          4
    29         40
    30          1
    38          2
    39         88
    40         21
    41        225
    42         16
    43         70
    44          2
    50          5
    51         29
    52         15
    53        116
    54         12
    55        136
    56         22
    65         66
    66         21
    67        204
    68         49
    69         97
    70         12
    73          1
    77        189
    78         37
    79        253
    80        289
    81        106
    82         63
    84          4
    88          1
    91        217
    92        186
    93        999
    94        190
    95        133
    96         13
    97          4
    98          1
   103         19
   104          7
   105        152
   106         44
   107        211
   108         40
   109        268
   110         30
   111          3
   112          2
   119        354
   120         66
   121        342
   122         66
   123         12
   124          2
   134         30
   135         62
   136         94
   137         11
   138          1
   148         33
   149         14
   150          3
   161         45
   162         13
   163          2
   175         13
   176          5
   189         50
   190          7
   204        179
   205         28
   206          2