##TITLE=Library Entry 40908
##JCAMP-DX=Revision 4.10 
##DATA TYPE=MASS SPECTRUM
##SAMPLE DESCRIPTION=NIST Mass Spectrometry Data Center
##NAMES=HP
##CAS NAME=9-Oxononanoic acid
##MOLFORM=C9H16O3
##CAS REGISTRY NO=2553-17-5
##MP= -300
##BP= -300
##MW= 172
##$RETENTION INDEX=1483
##$CONDENSED SPECTRUM=NO
##NPOINTS= 61
##XYDATA=(XY..XY) 1 
    26         30
    27        239
    29        377
    30         26
    31         38
    39        275
    40         86
    41        855
    42        266
    43        505
    44        282
    45        347
    47         10
    50         19
    53         62
    54        108
    55        937
    56        152
    57        351
    59         48
    60        615
    61         63
    63         15
    66         23
    67        181
    68        325
    69        624
    70        127
    71         59
    73        999
    74         44
    81         80
    82        121
    83        666
    84        160
    85         77
    86         19
    87        140
    95        106
    96         28
    97         68
    98        193
   100         23
   101        143
   102         18
   108         26
   110         74
   111        466
   112         41
   115         42
   126         56
   129        176
   130         18
   134         19
   135         39
   136         73
   142         15
   143         16
   144        128
   154         44
   155         21