##TITLE=Library Entry 65813
##JCAMP-DX=Revision 4.10 
##DATA TYPE=MASS SPECTRUM
##SAMPLE DESCRIPTION=Exported from NIST MS Search
##NAMES=HP
##CAS NAME=Urea, N-(4-hydroxy-2-methylcyclohexyl)-N'-phenyl-
##MOLFORM=C14H20N2O2
##CAS REGISTRY NO=25546-05-8
##MP= -300
##BP= -300
##MW= 248
##$RETENTION INDEX=0
##$CONDENSED SPECTRUM=NO
##NPOINTS= 23
##XYDATA=(XY..XY) 1 
    15         30
    27         60
    29        120
    30         40
    31         30
    39         70
    40         30
    41        130
    42         50
    43        180
    55        130
    56         90
    57        160
    58         60
    65         40
    66         60
    77         70
    92         90
    93        999
    94        150
   119         70
   135         50
   248         90