##TITLE=Library Entry 57773
##JCAMP-DX=Revision 4.10 
##DATA TYPE=MASS SPECTRUM
##SAMPLE DESCRIPTION=NIST Mass Spectrometry Data Center
##NAMES=HP
##CAS NAME=Ethyl 6-bromohexanoate
##MOLFORM=C8H15BrO2
##CAS REGISTRY NO=25542-62-5
##MP= -300
##BP= -300
##MW= 222
##$RETENTION INDEX=0
##$CONDENSED SPECTRUM=NO
##NPOINTS= 104
##XYDATA=(XY..XY) 1 
    12          1
    14          5
    15         37
    16          2
    18          1
    19          5
    26         37
    27        304
    28        100
    29        409
    30         23
    31         23
    34          2
    35          1
    37          2
    38         10
    39        163
    40         38
    41        464
    42        203
    43        145
    44         13
    45        123
    46          3
    47          2
    48         16
    49          4
    50          2
    51          7
    52          4
    53         31
    54         20
    55        186
    56         13
    57         11
    58          2
    60        252
    61        143
    62          5
    63          2
    65          6
    66          2
    67         33
    68         20
    69        489
    70        193
    71         34
    73        147
    74          6
    75          1
    79          3
    80          2
    81          3
    82          1
    83          5
    85          1
    86          2
    88        999
    89         51
    90          5
    93          9
    95         12
    96          2
    97        103
    98          7
    99          3
   101         95
   102          5
   105          1
   106          2
   107         22
   108          3
   109         25
   113          3
   115        119
   116          6
   119          1
   121          3
   123          2
   132          1
   133          1
   134          2
   135          1
   137          1
   143        113
   144         10
   148          4
   149         13
   150          6
   151         14
   152          1
   177        115
   178         10
   179        112
   180          8
   181          1
   194          6
   195          2
   196          6
   197          2
   222          8
   223          1
   224          7
   225          1