##TITLE=Library Entry 58302
##JCAMP-DX=Revision 4.10 
##DATA TYPE=MASS SPECTRUM
##SAMPLE DESCRIPTION=V.G.Zaikin, Petrochem. Synth. Inst., Moscow
##NAMES=HP
##CAS NAME=Isobutyric acid, hexadecyl ester
##MOLFORM=C20H40O2
##CAS REGISTRY NO=25553-23-5
##MP= -300
##BP= -300
##MW= 312
##$RETENTION INDEX=0
##$CONDENSED SPECTRUM=NO
##NPOINTS= 74
##XYDATA=(XY..XY) 1 
    26         10
    27         61
    28         19
    29         94
    30          6
    31          6
    39         73
    40         25
    41        335
    42        104
    43        768
    44         37
    45          9
    50          6
    51          9
    53         22
    54         61
    55        353
    56        199
    57        428
    58         29
    65          5
    66          7
    67         78
    68         88
    69        282
    70        199
    71        554
    72         24
    73         18
    80          9
    81         39
    82        129
    83        309
    84        136
    85        137
    86         17
    88        142
    89        999
    90         45
    91         13
    95         19
    96         55
    97        238
    98         94
    99         31
   101         11
   105          5
   110         31
   111        116
   112         59
   113         16
   115          8
   124         12
   125         55
   126         36
   127          8
   139         23
   140         29
   141          8
   144         10
   153          9
   154         21
   168         10
   194          5
   196         38
   197          5
   223          3
   224         71
   225         12
   269         18
   270          3
   312         19
   313          5