##TITLE=Library Entry 50267
##JCAMP-DX=Revision 4.10 
##DATA TYPE=MASS SPECTRUM
##SAMPLE DESCRIPTION=Div. of Experiment Therapeutics WRAIR, WRAMC, Washingto
n DC 20307
##NAMES=HP
##CAS NAME=4-(Chloromethyl)cyclohexene
##MOLFORM=C7H11Cl
##CAS REGISTRY NO=2555-08-0
##MP= -300
##BP= -300
##MW= 130
##$RETENTION INDEX=0
##$CONDENSED SPECTRUM=NO
##NPOINTS= 62
##XYDATA=(XY..XY) 1 
    41        257
    42         44
    43         78
    44         30
    45         12
    46          5
    47          2
    49         45
    50         33
    51         85
    52         35
    53        216
    54        289
    55        113
    57        148
    58         20
    59          1
    60          1
    61          9
    62         16
    63         24
    64          2
    65         45
    66         27
    67        139
    68        134
    69         79
    70        135
    71         11
    73          5
    75         18
    77        110
    79        375
    81        999
    82         58
    83         19
    84         23
    85          3
    86          3
    88         21
    89         22
    90          3
    94         49
    95        105
    97         29
    98          8
    99         10
   100          1
   101          1
   102         15
   103          4
   104          2
   115          9
   116          2
   117          3
   118          1
   128          7
   129         23
   130        113
   131         33
   132         38
   133          8