##TITLE=Library Entry 29383
##JCAMP-DX=Revision 4.10 
##DATA TYPE=MASS SPECTRUM
##SAMPLE DESCRIPTION=Div. of Experiment Therapeutics WRAIR, WRAMC, Washingto
n DC 20307
##NAMES=HP
##CAS NAME=4-[[3-Dimethylaminopropyl]amino]thieno[2,3-b]pyridine-N-oxide
##MOLFORM=C12H17N3OS
##CAS REGISTRY NO=25557-56-6
##MP= -300
##BP= -300
##MW= 251
##$RETENTION INDEX=0
##$CONDENSED SPECTRUM=NO
##NPOINTS= 120
##XYDATA=(XY..XY) 1 
    41          7
    42        113
    43         40
    44         79
    45         80
    46          4
    50          4
    51          7
    52         13
    53          4
    54          7
    55          5
    56         25
    58        999
    59         26
    60          2
    62          1
    63         19
    64          4
    65          6
    66          4
    67          1
    68          1
    69         13
    70         55
    71        123
    72         79
    73          5
    75          3
    76          4
    77          4
    78          8
    79          6
    80          6
    81          3
    82          9
    83         10
    84         23
    85         27
    86         64
    87          4
    89          1
    90         17
    91          4
    93          6
    94          7
    95          7
    96         10
    97          7
    99          8
   100          5
   104          3
   105          5
   106          2
   107          4
   108          5
   109         12
   110          8
   111          2
   117         19
   118          2
   119          2
   120          6
   121          3
   122         21
   123         14
   124          2
   125          2
   126          3
   130          2
   133          6
   134         16
   135         18
   136          9
   137          3
   138          1
   148          5
   149          9
   150          6
   151         36
   152         13
   153          1
   160          7
   161          5
   162         23
   163         26
   164         14
   165         14
   166          9
   167          6
   172          5
   173          4
   174          3
   175          8
   176          4
   177         20
   178         28
   179         33
   180          5
   181          1
   188          3
   189         31
   190          6
   191          6
   192          3
   193          6
   195          4
   205          7
   206         23
   207          7
   208          4
   228          0
   234          4
   235          7
   250          6
   251        287
   252         73
   253         19
   254          2
   255          1