##TITLE=Library Entry 50766
##JCAMP-DX=Revision 4.10 
##DATA TYPE=MASS SPECTRUM
##SAMPLE DESCRIPTION=A.ZAMOJSKI POLISH ACADEMY OF SCIENCES, WARSAW, POLAND
##NAMES=HP
##CAS NAME=2H-Pyran-2-carboxylic acid, 6-ethoxy-3,6-dihydro-, butyl ester
##MOLFORM=C12H20O4
##CAS REGISTRY NO=25556-20-1
##MP= -300
##BP= -300
##MW= 228
##$RETENTION INDEX=0
##$CONDENSED SPECTRUM=NO
##NPOINTS= 33
##XYDATA=(XY..XY) 1 
    41        570
    42        120
    43        360
    44        120
    53        160
    54        120
    55        230
    56        110
    57        320
    69        150
    70        160
    71        145
    72         50
    81        999
    82        120
    83         70
    85        130
    97         70
    98        120
    99        390
   108        170
   109        200
   113         60
   126        170
   127        940
   128         85
   154        100
   155        150
   171          5
   182        230
   183        240
   227         20
   228          5