##TITLE=Library Entry 2997
##JCAMP-DX=Revision 4.10 
##DATA TYPE=MASS SPECTRUM
##SAMPLE DESCRIPTION=NIST Mass Spectrometry Data Center
##NAMES=HP
##CAS NAME=3-Methyl-2-pyrrolidinone
##MOLFORM=C5H9NO
##CAS REGISTRY NO=2555-05-7
##MP= -300
##BP= -300
##MW= 99
##$RETENTION INDEX=0
##$CONDENSED SPECTRUM=NO
##NPOINTS= 55
##XYDATA=(XY..XY) 1 
    14          1
    15         19
    16          1
    18          1
    25          3
    26         46
    27        184
    28        315
    29        129
    30        174
    31          3
    32          1
    33          1
    34          1
    36          1
    37         15
    38         32
    39        227
    40         93
    41        999
    42        235
    43         81
    44         28
    45          2
    46          1
    49          2
    50         14
    51         19
    52         17
    53         41
    54         43
    55        232
    56        844
    57         41
    58          5
    59          1
    64          1
    66          1
    67          1
    68         10
    69          9
    70         42
    71          4
    80          2
    81          2
    82          5
    83          1
    84         28
    85          1
    96          1
    97          1
    98        113
    99        797
   100         57
   101          3