##TITLE=Library Entry 77120
##JCAMP-DX=Revision 4.10 
##DATA TYPE=MASS SPECTRUM
##SAMPLE DESCRIPTION=D.HENNEBERG, MAX-PLANCK INSTITUTE, MULHEIM, WEST GERMAN
Y
##NAMES=HP
##CAS NAME=Cyclobutane, 1,3-diphenyl-, trans-
##MOLFORM=C16H16
##CAS REGISTRY NO=25558-23-0
##MP= -300
##BP= -300
##MW= 208
##$RETENTION INDEX=0
##$CONDENSED SPECTRUM=NO
##NPOINTS= 122
##XYDATA=(XY..XY) 1 
    27          2
    28          4
    29          0
    31          0
    32          0
    39          6
    40          1
    41          3
    42          0
    43          2
    44          0
    50          1
    51          6
    52          4
    53          2
    54          0
    55          1
    56          0
    57          0
    59          0
    63          2
    64          0
    65          8
    66          0
    67          0
    69          0
    70          0
    71          0
    75          0
    76          2
    77         34
    78         79
    79          6
    80          0
    81          0
    82          0
    83          0
    84          0
    89          3
    90          0
    91         28
    92          2
    93          4
    94          0
    95          2
    96          0
    97          0
   101          1
   102          9
   103         79
   104        999
   105         78
   106          3
   107          2
   108          0
   110          0
   111          7
   112          0
   113          0
   114          0
   115         17
   116          4
   117         25
   118          3
   119          2
   121          0
   122          0
   123          0
   125          0
   126          0
   127          2
   128          5
   129          5
   130          5
   131          1
   134          1
   135          1
   136          0
   137          1
   139          0
   141          0
   142          0
   143          0
   145          0
   146          0
   147          0
   148          0
   149          0
   150          0
   151          0
   152          1
   153          0
   154          0
   155          0
   157          0
   165         14
   166          1
   167          0
   177          3
   178          3
   179          1
   180          0
   181          0
   185          0
   189          1
   190          0
   191          2
   192          0
   193          1
   194          0
   195          0
   198          0
   199          0
   202          0
   203          0
   204          0
   205          0
   207          1
   208         37
   209          7
   210          0
   211          0