##TITLE=Library Entry 69424
##JCAMP-DX=Revision 4.10 
##DATA TYPE=MASS SPECTRUM
##SAMPLE DESCRIPTION=Chuck Anderson, Aldrich Chemical Co.
##NAMES=HP
##CAS NAME=2-Cyclopenten-1-one, 2-pentyl-
##MOLFORM=C10H16O
##CAS REGISTRY NO=25564-22-1
##MP= -300
##BP= -300
##MW= 152
##$RETENTION INDEX=1260
##$CONDENSED SPECTRUM=NO
##NPOINTS= 75
##XYDATA=(XY..XY) 1 
    15          6
    18          0
    26         20
    27        271
    28         56
    29        209
    30          3
    31          1
    36          0
    37          2
    38         18
    39        278
    40         65
    41        466
    42         41
    43         93
    44          4
    45          3
    50         19
    51         59
    52         50
    53        199
    54         74
    55        201
    56         24
    57         28
    62          5
    63         21
    64          6
    65        146
    66         93
    67        559
    68        257
    69         71
    70          7
    77        102
    78         28
    79        251
    80         36
    81        276
    82         61
    83         48
    84         33
    91         60
    92         14
    93         68
    94         22
    95        484
    96        999
    97        893
    98         56
    99          1
   103          3
   105         34
   106         10
   107         14
   108         41
   109        426
   110        224
   111         53
   112          2
   119         33
   121          6
   122          2
   123        373
   124         68
   125          4
   133          5
   134         35
   135          7
   137        161
   138         13
   151         67
   152        271
   153         31