##TITLE=Library Entry 16138
##JCAMP-DX=Revision 4.10 
##DATA TYPE=MASS SPECTRUM
##SAMPLE DESCRIPTION=Japan AIST/NIMC Database- Spectrum MS-NW-3028
##NAMES=HP
##CAS NAME=2H-Azepin-2-one, hexahydro-1-methyl-
##MOLFORM=C7H13NO
##CAS REGISTRY NO=2556-73-2
##MP= -300
##BP= -300
##MW= 127
##$RETENTION INDEX=0
##$CONDENSED SPECTRUM=NO
##NPOINTS= 57
##XYDATA=(XY..XY) 1 
    14          2
    15         33
    18          1
    26          9
    27         65
    28         51
    29         28
    30         24
    31          5
    37          1
    38          5
    39         61
    40         13
    41        142
    42        214
    43        262
    44        999
    45         27
    50          3
    51          4
    52          3
    53         10
    54         10
    55        247
    56         72
    57         52
    58         31
    59          2
    60          2
    65          2
    66          2
    67         17
    68         11
    69         13
    70        125
    71         22
    72         10
    73          5
    74          1
    81          4
    82          3
    83          8
    84         70
    85         41
    86          5
    95          2
    96          2
    97          1
    98         31
    99         53
   100          3
   112         17
   113          3
   126         21
   127        406
   128         33
   129          2