##TITLE=Library Entry 71475
##JCAMP-DX=Revision 4.10 
##DATA TYPE=MASS SPECTRUM
##SAMPLE DESCRIPTION=Chuck Anderson, Aldrich Chemical Co.
##NAMES=HP
##CAS NAME=1-(3-Aminopropyl)-2-pipecoline
##MOLFORM=C9H20N2
##CAS REGISTRY NO=25560-00-3
##MP= -300
##BP= -300
##MW= 156
##$RETENTION INDEX=0
##$CONDENSED SPECTRUM=NO
##NPOINTS= 70
##XYDATA=(XY..XY) 1 
    15          5
    26          3
    27         26
    28         52
    29         37
    30        148
    31          3
    38          1
    39         37
    40          9
    41        139
    42        115
    43         46
    44        203
    45          6
    51          2
    52          2
    53         14
    54         31
    55        142
    56         96
    57         55
    58         34
    59          2
    65          2
    66          1
    67         11
    68         21
    69         37
    70         99
    71         23
    72          8
    73          4
    77          1
    79          4
    80          5
    81         11
    82         26
    83         42
    84        115
    85         20
    86          2
    93          1
    94          4
    95          3
    96         48
    97         32
    98        999
    99         67
   100         35
   101          2
   108          0
   109          1
   110         17
   111         41
   112        618
   113         52
   114          3
   123          0
   124         12
   125          6
   126         28
   127          4
   139          4
   140          2
   141         28
   142          2
   155          1
   156         11
   157          1