##TITLE=Library Entry 43100
##JCAMP-DX=Revision 4.10 
##DATA TYPE=MASS SPECTRUM
##SAMPLE DESCRIPTION=Japan AIST/NIMC Database- Spectrum MS-NW-6773
##NAMES=HP
##CAS NAME=Bis(trimethylsilyl)trifluoroacetamide
##MOLFORM=C8H18F3NOSi2
##CAS REGISTRY NO=25561-30-2
##MP= -300
##BP= -300
##MW= 257
##$RETENTION INDEX=887
##$CONDENSED SPECTRUM=NO
##NPOINTS= 93
##XYDATA=(XY..XY) 1 
    15          4
    18          1
    27          2
    28         10
    29         11
    30          1
    31          4
    32          2
    40          1
    42          5
    43         44
    44         23
    45         94
    46          6
    47         10
    48          1
    49         11
    50          1
    53          2
    54          2
    55          6
    56          4
    57          8
    58         10
    59         19
    60          2
    61          2
    62          1
    63          7
    66          1
    68          1
    69          4
    70         12
    71          4
    72         30
    73        999
    74         88
    75         43
    76          5
    77         78
    78          6
    79          3
    81          2
    83          1
    84          2
    85          1
    86          4
    87          2
    88          1
    90          1
    91          1
   100         29
   101          3
   102          2
   103          2
   104          1
   105          2
   113          1
   115          2
   116          2
   117          2
   120          6
   121          1
   122          1
   130          1
   131          7
   132          1
   133          4
   134          1
   135          1
   143          1
   146          3
   147         34
   148          6
   149          3
   150          1
   151          3
   170          5
   176          4
   188        172
   189         31
   190         13
   191          2
   192        147
   193         25
   194         11
   195          1
   242         30
   243          6
   244          2
   257         25
   258          5
   259          2