##TITLE=Library Entry 99660
##JCAMP-DX=Revision 4.10 
##DATA TYPE=MASS SPECTRUM
##SAMPLE DESCRIPTION=Humboldt-Universitat zu Berlin, Department of Chemistry
, Analytical Group
##NAMES=HP
##CAS NAME=Benzamide, 4-methyl-N-methoxy-
##MOLFORM=C9H11NO2
##CAS REGISTRY NO=25563-06-8
##MP= -300
##BP= -300
##MW= 165
##$RETENTION INDEX=0
##$CONDENSED SPECTRUM=NO
##NPOINTS= 91
##XYDATA=(XY..XY) 1 
    14          3
    15         31
    16          5
    17         24
    18         83
    26          5
    27         20
    28         20
    29         33
    30         15
    31         10
    32          6
    37          6
    38         18
    39        102
    40          9
    41         27
    42          3
    43         10
    44          9
    45          4
    46          4
    49          2
    50         32
    51         50
    52         18
    53         11
    54          2
    55          5
    56          2
    57          6
    59          2
    60          1
    61          7
    62         22
    63         61
    64         21
    65        170
    66         11
    67          2
    69          3
    70          2
    71          3
    73          2
    74          7
    75          8
    76          8
    77         32
    78         20
    79         13
    80          1
    82          8
    84          2
    85          3
    86          4
    87          5
    88          4
    89         64
    90         47
    91        473
    92         51
    93          3
    94          3
    97          1
   102          2
   103          1
   104         28
   105          9
   106          5
   107          4
   108          2
   111          2
   112          2
   116         17
   117         16
   119        999
   120         94
   121          8
   132         38
   133          9
   134          6
   135         15
   136          5
   139          2
   149          2
   150          4
   151          4
   163          1
   165        176
   166         18
   167          2