##TITLE=Library Entry 18237
##JCAMP-DX=Revision 4.10 
##DATA TYPE=MASS SPECTRUM
##SAMPLE DESCRIPTION=NIST Mass Spectrometry Data Center, 1994
##NAMES=HP
##CAS NAME=2-Phenoxyphenylacetonitrile
##MOLFORM=C14H11NO
##CAS REGISTRY NO=25562-98-5
##MP= -300
##BP= -300
##MW= 209
##$RETENTION INDEX=0
##$CONDENSED SPECTRUM=NO
##NPOINTS= 94
##XYDATA=(XY..XY) 1 
    14          1
    26         33
    27        134
    28         27
    29          6
    37         32
    38        132
    39        556
    40         65
    41         29
    50        341
    51        999
    52        158
    53         40
    54          7
    55         22
    58         12
    61         28
    62        116
    63        344
    64        123
    65        206
    66         51
    67          6
    69          7
    71         15
    74         86
    75        103
    76        267
    77        760
    78        715
    79         47
    85          6
    86         17
    87         27
    88         56
    89        279
    90         88
    91         88
    93          6
    94         22
   100          6
   101          7
   102         28
   103        129
   104         89
   105         48
   106         68
   107          7
   113         13
   114         33
   115        112
   116        162
   117         17
   126         13
   127         20
   128         22
   129          8
   130          6
   131         29
   132         83
   133          9
   139         41
   140         24
   141         64
   142         10
   150          5
   151         21
   152         76
   153         70
   154         25
   155         17
   163          5
   164         19
   165        157
   166         49
   167         10
   168         46
   169         60
   170          7
   177          5
   178          7
   180        286
   181        867
   182        127
   183         31
   190         29
   191          8
   206          8
   207          7
   208         82
   209        847
   210        131
   211         14