##TITLE=Library Entry 62140
##JCAMP-DX=Revision 4.10 
##DATA TYPE=MASS SPECTRUM
##SAMPLE DESCRIPTION=Japan AIST/NIMC Database- Spectrum MS-IW-7964
##NAMES=HP
##CAS NAME=N-Benzyl-N-ethyl-p-toluenesulfonamide
##MOLFORM=C16H19NO2S
##CAS REGISTRY NO=25566-56-7
##MP= -300
##BP= -300
##MW= 289
##$RETENTION INDEX=0
##$CONDENSED SPECTRUM=NO
##NPOINTS= 82
##XYDATA=(XY..XY) 1 
    27          5
    28         19
    29         10
    30          2
    38          1
    39         18
    40          1
    41          9
    42          8
    45          1
    50          4
    51         14
    52          4
    53          1
    54          1
    55          3
    56         16
    57          1
    58          1
    62          2
    63         12
    64          4
    65         91
    66          5
    67          1
    75          1
    76          2
    77         27
    78          9
    79         19
    80          1
    89         19
    90         10
    91        999
    92        112
    93          6
   103          1
   104         33
   105          9
   106         24
   107          3
   108          1
   111          1
   117          3
   118        203
   119         23
   120         25
   121          2
   123          1
   132        198
   133        181
   134        656
   135         67
   136          3
   139         10
   140          2
   141          1
   150          4
   152          1
   155         93
   156          8
   157          9
   165          4
   166          2
   167          1
   181          3
   198         39
   199          4
   200          2
   212         18
   213          2
   214          1
   224          1
   274        144
   275         27
   276          9
   277          1
   288          3
   289         91
   290         18
   291          6
   292          1