##TITLE=Library Entry 62567
##JCAMP-DX=Revision 4.10 
##DATA TYPE=MASS SPECTRUM
##SAMPLE DESCRIPTION=A.A.Kutin, Moscow, Russia
##NAMES=HP
##CAS NAME=Pyridine-2-carbonitrile, 3,5,6-trichloro-4-(4-methylphenylsulfony
lamino)-
##MOLFORM=C13H8Cl3N3O2S
##CAS REGISTRY NO=255713-77-0
##MP= -300
##BP= -300
##MW= 375
##$RETENTION INDEX=0
##$CONDENSED SPECTRUM=NO
##NPOINTS= 230
##XYDATA=(XY..XY) 1 
    33          1
    34          3
    35          3
    36         13
    37          3
    38         15
    39        101
    40         38
    41         38
    42         10
    43          8
    44         11
    45         11
    46          3
    47         12
    48          7
    49          5
    50         19
    51         40
    52         11
    53          7
    54          1
    55          3
    56          1
    57          4
    58          1
    59          2
    60          1
    61          3
    62         23
    63         56
    64         23
    65        298
    66         18
    67          7
    69          5
    70          3
    71          8
    72          1
    73         10
    74         11
    75          8
    76         10
    77         34
    78          8
    79          4
    80          1
    81          1
    82          3
    83          3
    84          2
    85          7
    86         15
    87          5
    88          8
    89         57
    90         27
    91        999
    92         77
    94          6
    95          2
    96          2
    97         10
    98          4
    99          5
   100          6
   101          1
   102          2
   103          0
   104          0
   105          1
   106          5
   107          5
   108          8
   109          4
   110          3
   111          6
   112          2
   113          1
   114          1
   115          1
   116          2
   117          2
   118          1
   119          0
   120          2
   121          3
   122          3
   123          8
   124          4
   125          4
   126          1
   127          1
   128          1
   129          0
   130          0
   131          0
   132         18
   133          2
   134         13
   135          2
   136          2
   137          1
   138          0
   139         13
   140          2
   141          4
   142          0
   143          3
   144          0
   145          1
   146          0
   147          0
   148          1
   149          2
   150          1
   151          1
   152          1
   153          1
   155        845
   156         76
   157         46
   158          6
   159          4
   160          2
   161          2
   162          0
   163          1
   164          1
   165          0
   166          0
   167          0
   168          0
   169          0
   170          0
   171          2
   172          0
   173          0
   174          0
   175          0
   176          0
   177          0
   178          0
   179          1
   180          0
   183          0
   185          7
   186          2
   187          5
   188          2
   189          1
   190          1
   191          1
   193         12
   194          1
   195         11
   196          1
   197          3
   198          0
   199          0
   200          0
   201          0
   202          0
   203          0
   204          1
   205          1
   206          1
   207          0
   212          0
   213          0
   214          0
   215          0
   216          0
   217          0
   218          0
   219          0
   220          1
   221          8
   222          1
   223          7
   224          1
   225          2
   226          0
   227          0
   230          0
   231          0
   232          1
   233          0
   234          0
   235          0
   237          0
   240          1
   241          0
   242          0
   243          0
   245          0
   248          0
   249          0
   250          0
   251          0
   257          0
   261          0
   262          0
   263          0
   274          1
   275          0
   276          2
   277          1
   278          1
   279          0
   280          0
   283          0
   284          0
   285          0
   293          0
   310          5
   311          1
   312          5
   313          1
   314          1
   315          0
   341          0
   343          0
   375         14
   376          2
   377         14
   378          2
   379          5
   380          0
   381          0