##TITLE=Library Entry 38608
##JCAMP-DX=Revision 4.10 
##DATA TYPE=MASS SPECTRUM
##SAMPLE DESCRIPTION=ASES Database, Dalian Institute, P.R. China
##NAMES=HP
##CAS NAME=Ethane-1,1-diol dibutanoate
##MOLFORM=C10H18O4
##CAS REGISTRY NO=25572-25-2
##MP= -300
##BP= -300
##MW= 202
##$RETENTION INDEX=0
##$CONDENSED SPECTRUM=NO
##NPOINTS= 17
##XYDATA=(XY..XY) 1 
    39         78
    41        149
    42         90
    43        428
    44         39
    45         40
    55         59
    60        119
    69          9
    70         40
    71        999
    72         39
    73         40
    77         10
    89         10
   115        219
   116         10