##TITLE=Library Entry 75871
##JCAMP-DX=Revision 4.10 
##DATA TYPE=MASS SPECTRUM
##SAMPLE DESCRIPTION=A.A.Kutin, Moscow, Russia
##NAMES=HP
##CAS NAME=2-(Cyclohexylmethylidene)hydrazine-1-carbothioamide
##MOLFORM=C8H15N3S
##CAS REGISTRY NO=255715-64-1
##MP= -300
##BP= -300
##MW= 185
##$RETENTION INDEX=0
##$CONDENSED SPECTRUM=NO
##NPOINTS= 123
##XYDATA=(XY..XY) 1 
    33          9
    34          4
    35          0
    36          1
    37          2
    38          9
    39        139
    40         32
    41        222
    42         67
    43        361
    44         38
    45         22
    46          3
    47          8
    48         15
    49          1
    50          7
    51         15
    52         12
    53         55
    54         54
    55        147
    56         50
    57         17
    58         22
    59         24
    60        178
    61          9
    62         13
    63          3
    64          2
    65         12
    66         10
    67         80
    68         20
    69         29
    70         12
    71         31
    72          3
    73          2
    74          7
    75         22
    76         44
    77         28
    78          6
    79         26
    80         17
    81         35
    82         21
    83         52
    84          6
    85          4
    86          1
    87          1
    88          5
    89          0
    91          9
    92          4
    93         13
    94         10
    95         23
    96          7
    97          5
    98          3
    99          1
   102        999
   103         44
   104         45
   105          3
   106          1
   107          1
   108          7
   109          4
   110         28
   111          4
   112          1
   113          4
   114          1
   115          2
   116          0
   117          0
   119          0
   120          0
   121          0
   122          0
   123          1
   124          0
   125          2
   126          2
   127          1
   128          2
   129          1
   130          2
   131          0
   132          0
   133          0
   135          0
   136          0
   137          0
   138          0
   139          0
   140          0
   141          0
   142          0
   143          4
   144          0
   149          1
   150          0
   151          0
   152          1
   153          0
   154          0
   156          0
   163          0
   167          1
   168          0
   171          0
   183          1
   185        120
   186         14
   187          6
   188          0