##TITLE=Library Entry 100767
##JCAMP-DX=Revision 4.10 
##DATA TYPE=MASS SPECTRUM
##SAMPLE DESCRIPTION=NIST Mass Spectrometry Data Center
##NAMES=HP
##CAS NAME=(1aR,3aR,4R,7R,8aS)-1a,4,9,9-Tetramethyloctahydro-3a,7-methanoazu
leno[1,8a-b]oxirene
##MOLFORM=C15H24O
##CAS REGISTRY NO=25570-94-9
##MP= -300
##BP= -300
##MW= 220
##$RETENTION INDEX=1542
##$CONDENSED SPECTRUM=NO
##NPOINTS= 126
##XYDATA=(XY..XY) 1 
    26          1
    27         27
    29         38
    30          1
    31          1
    38          2
    39         83
    40         15
    41        244
    42         18
    43        317
    44          8
    45          5
    50          5
    51         28
    52         14
    53         83
    54         13
    55        149
    56         15
    57         24
    58          9
    59          3
    62          2
    63         12
    64          5
    65         62
    66         19
    67        107
    68         15
    69        111
    70          9
    71         38
    72         11
    73          2
    74          2
    75          2
    76          3
    77        140
    78         34
    79        153
    80         26
    81         78
    82         45
    83         24
    84          3
    86          1
    88          1
    89          5
    90          2
    91        220
    92         48
    93        156
    94         33
    95         80
    96         10
    97         11
    98          1
   101          1
   102          4
   103         25
   104         13
   105        266
   106         95
   107        186
   108         36
   109         52
   110         11
   111          5
   112          3
   115         37
   116         14
   117         78
   118         61
   119        999
   120        194
   121        226
   122         36
   123         66
   127          6
   129         18
   130         10
   133        137
   134         52
   135         68
   136         24
   137         17
   138          5
   143         19
   144          7
   147        184
   148         29
   149         71
   150         15
   151          5
   158         31
   159        161
   160         35
   161        164
   162        165
   163         87
   164         13
   165         11
   166          2
   171          1
   173         18
   174          6
   175          8
   176          2
   177         94
   178         14
   179          2
   187         42
   188          6
   189          6
   191         14
   193          1
   204         23
   205        408
   206         63
   207          6
   218         16
   219          5
   220         60
   221         10
   222          1