##TITLE=Library Entry 13759
##JCAMP-DX=Revision 4.10 
##DATA TYPE=MASS SPECTRUM
##SAMPLE DESCRIPTION=Chemical Concepts
##NAMES=HP
##CAS NAME=Ethyl 2-acetamido-3,3,3-trifluoro-2-(3,4-xylidino)propionate
##MOLFORM=C15H19F3N2O3
##CAS REGISTRY NO=255714-78-4
##MP= -300
##BP= -300
##MW= 332
##$RETENTION INDEX=0
##$CONDENSED SPECTRUM=NO
##NPOINTS= 146
##XYDATA=(XY..XY) 1 
    32         39
    33          1
    34          9
    37          1
    38          9
    39         82
    40        184
    41         51
    43        999
    44        166
    45         12
    47          5
    48          1
    50         21
    51         60
    52         33
    53         45
    54         14
    55          9
    56          5
    57          7
    59         72
    60         14
    61          4
    62          8
    63         37
    65         69
    66         11
    67          7
    69         42
    70          5
    71          4
    72          1
    73          3
    74          5
    75          9
    77        341
    78         87
    79        205
    80         19
    81          3
    82          1
    83          2
    85          3
    86          2
    87          4
    89         26
    90         12
    91         92
    92         17
    93         28
    94          8
    95          4
    96         17
    97          1
    98          1
   101          6
   102         21
   103        157
   105        667
   106        198
   107         48
   108          5
   109          1
   113          2
   114          2
   116         43
   117          9
   118         16
   119         16
   120        197
   121        281
   122         78
   123          8
   124          1
   125          3
   128          5
   129          3
   130         18
   131         25
   132        245
   133         28
   134          9
   136          1
   141          3
   142         10
   143          1
   144          1
   145         10
   146          6
   147         59
   148         11
   149          4
   151          1
   153          2
   157          3
   159          1
   160         54
   161          7
   163          4
   166          1
   168          1
   170          8
   171          2
   173          4
   175          1
   177          1
   180          4
   181          4
   182          1
   185          1
   186          1
   191          1
   193         17
   194          2
   195         10
   196          2
   198          2
   200        401
   201         48
   202          3
   204          2
   213          1
   214          1
   215        104
   217        823
   218         88
   219          6
   221         48
   222          6
   227          2
   229          2
   243          3
   244          3
   245          1
   251          2
   259        121
   260         15
   263          9
   271          2
   273        255
   274         28
   275          3
   332        118
   333         11
   334          2