##TITLE=Library Entry 56163
##JCAMP-DX=Revision 4.10 
##DATA TYPE=MASS SPECTRUM
##SAMPLE DESCRIPTION=Div. of Experiment Therapeutics WRAIR, WRAMC, Washingto
n DC 20307
##NAMES=HP
##CAS NAME=7-Chloro-4-[[2-[diethylamino]ethyl]amino]-2-methylpyrimido[1,2-a]
benzimidazole
##MOLFORM=C17H22ClN5
##CAS REGISTRY NO=25576-54-9
##MP= -300
##BP= -300
##MW= 331
##$RETENTION INDEX=0
##$CONDENSED SPECTRUM=NO
##NPOINTS= 103
##XYDATA=(XY..XY) 1 
    42         24
    43          7
    44         13
    49          0
    51          1
    52          2
    53          2
    54          4
    56         25
    58         53
    59          0
    61          0
    63          2
    64          1
    65          0
    66          5
    67          1
    70          3
    71          4
    72          5
    73          2
    74          0
    75          2
    76          1
    77          1
    78          0
    79          0
    84         10
    86        999
    87         10
    90          1
    91          0
    92          0
    98          1
    99          4
   100          3
   101          0
   103          1
   105          0
   111          0
   114          0
   115          1
   116          0
   124          8
   126          4
   127          0
   136          2
   137          1
   138          0
   139          0
   142          0
   152          2
   154          3
   155          0
   157          1
   158          0
   163          3
   165          2
   167          2
   177          0
   178          0
   180          2
   181          2
   182          1
   183          0
   189          5
   190          0
   191          2
   192          1
   194          0
   195          1
   196          2
   204          2
   205          1
   206          0
   207          0
   209          3
   210          1
   215          1
   216         11
   217          1
   218          4
   223          1
   224          0
   231          1
   232          1
   233          1
   239          1
   243          1
   245         27
   246          4
   247          8
   248          0
   257          1
   258          1
   259          4
   260          0
   261          1
   287          0
   331         29
   332         10
   333         10
   334          4