##TITLE=Library Entry 12061
##JCAMP-DX=Revision 4.10 
##DATA TYPE=MASS SPECTRUM
##SAMPLE DESCRIPTION=Albert Lebedev, Moscow State University, Russia
##NAMES=HP
##CAS NAME=Propenoic acid, 3-(2,6-dimethyl-furo[2,3-d]pyrimidin-4-yl)-
##MOLFORM=C11H10N2O3
##CAS REGISTRY NO=255869-36-4
##MP= -300
##BP= -300
##MW= 218
##$RETENTION INDEX=0
##$CONDENSED SPECTRUM=NO
##NPOINTS= 142
##XYDATA=(XY..XY) 1 
    29         29
    30          0
    31          2
    32         22
    36          0
    37          7
    38         47
    39         97
    40         20
    41         44
    42        246
    43        999
    44         39
    45        100
    46          2
    47          1
    49          0
    50         54
    51        302
    52        241
    53        121
    54         37
    55        122
    56         10
    57         11
    58          0
    61          4
    62         49
    63        151
    64         58
    65         49
    66         35
    67         29
    68         16
    69         20
    70          7
    71         13
    72          1
    73          1
    74          0
    75         14
    76         82
    77        235
    78        353
    79        143
    80         69
    81         31
    82         16
    83          1
    84          4
    86          5
    87         10
    88        105
    89         62
    90         81
    91         26
    92         28
    93         26
    94         11
    95         11
    96          1
    97          4
    98          3
    99          7
   100          4
   101          1
   102         31
   103         43
   104        114
   105         85
   106        145
   107        150
   108         20
   109          6
   110          0
   111          0
   112          0
   113          0
   114          0
   115          5
   116          9
   117         24
   118         21
   119          9
   120         56
   121         29
   122          6
   123          6
   124          3
   125          0
   128          3
   129         24
   130         56
   131        194
   132        729
   133        810
   134        131
   135         44
   136          3
   137          0
   143          8
   144          8
   145         35
   146         27
   147         44
   148        259
   149         92
   150          6
   153          0
   155          0
   156          0
   157         32
   158         32
   159         65
   160         59
   161         14
   162         71
   163          7
   164          0
   171          8
   172         27
   173        541
   174        537
   175         73
   176         13
   177          1
   185          0
   188          0
   189         17
   190          1
   191          0
   199          0
   200          2
   201         37
   202          3
   203          0
   216          8
   217         24
   218        800
   219        103
   220         19
   221          0