##TITLE=Library Entry 40727
##JCAMP-DX=Revision 4.10 
##DATA TYPE=MASS SPECTRUM
##SAMPLE DESCRIPTION=Chemical Concepts
##NAMES=HP
##CAS NAME=1,3-Dioxolane, 2-(6-heptynyl)-
##MOLFORM=C10H16O2
##CAS REGISTRY NO=25595-82-8
##MP= -300
##BP= -300
##MW= 168
##$RETENTION INDEX=0
##$CONDENSED SPECTRUM=NO
##NPOINTS= 59
##XYDATA=(XY..XY) 1 
    26          2
    27         32
    28          3
    29         16
    31          6
    38          2
    39         37
    40          5
    41         42
    42          5
    43         14
    44          6
    45        153
    46          2
    50          2
    51          6
    52          4
    53         15
    54          4
    55         20
    56          2
    57          6
    58          1
    62          1
    63          2
    65          6
    66          4
    67         19
    68          1
    69          2
    71          3
    73        999
    74         35
    75          5
    77         10
    78          2
    79         22
    80          8
    81         10
    82          1
    83          2
    85          1
    86          4
    87          1
    88          0
    91          6
    93          7
    95          5
    96          1
    99          7
   105          1
   107          1
   113          1
   123          1
   125          1
   141          1
   149          2
   167         21
   168          2