##TITLE=Library Entry 19979
##JCAMP-DX=Revision 4.10 
##DATA TYPE=MASS SPECTRUM
##SAMPLE DESCRIPTION=T.A.BLAZER DU PONT, GIBBSTOWN, N.J., USA
##NAMES=HP
##CAS NAME=1,3-Cyclobutanedicarboxylic acid, 1-chloro-, dimethyl ester
##MOLFORM=C8H11ClO4
##CAS REGISTRY NO=25596-64-9
##MP= -300
##BP= -300
##MW= 206
##$RETENTION INDEX=0
##$CONDENSED SPECTRUM=NO
##NPOINTS= 135
##XYDATA=(XY..XY) 1 
    25          8
    26        146
    27        573
    28        204
    29        143
    30         30
    31         52
    33          4
    35          2
    36          9
    37         13
    38         27
    39        151
    40         21
    41        228
    42         70
    43         68
    44         11
    45         85
    47          4
    49         24
    50         85
    51        243
    52        110
    53        545
    54         75
    55        999
    56         48
    57         24
    58         55
    59        818
    60         30
    61        138
    62         24
    63         55
    64          8
    65         17
    66          5
    67         46
    68         47
    69         55
    70          2
    71         24
    72          4
    73          9
    74         27
    75         63
    76         38
    77         20
    78         14
    79         58
    80         10
    81         74
    82         39
    83        103
    84         47
    85        231
    86         53
    87        360
    88        116
    89        387
    90         59
    91        107
    92         18
    93         12
    94          6
    95         22
    96         15
    97         66
    98         14
    99         24
   100         26
   101        144
   102        108
   103         27
   104         35
   105        100
   106         11
   107         51
   108          7
   109          6
   110         15
   111        304
   112        122
   113         25
   114         27
   115        187
   116         53
   117         75
   118         47
   119        288
   120        278
   121        138
   122         90
   123         24
   125         14
   127        283
   128         39
   129         28
   130         11
   131         52
   132         29
   133         39
   134         14
   135         12
   138         32
   139        451
   140         55
   141         13
   142         93
   143         17
   144         33
   145         20
   146        429
   147        507
   148        188
   149        167
   150         19
   155         13
   156          5
   159          4
   161          8
   162         20
   163          9
   164         15
   170         72
   171        196
   172         27
   174        199
   175        389
   176        109
   177        127
   191          5
   206         21
   208          8