##TITLE=Library Entry 34960
##JCAMP-DX=Revision 4.10 
##DATA TYPE=MASS SPECTRUM
##SAMPLE DESCRIPTION=NIST Mass Spectrometry Data Center
##NAMES=HP
##CAS NAME=1-Octyl trifluoroacetate
##MOLFORM=C10H17F3O2
##CAS REGISTRY NO=2561-21-9
##MP= -300
##BP= -300
##MW= 226
##$RETENTION INDEX=1059
##$CONDENSED SPECTRUM=NO
##NPOINTS= 83
##XYDATA=(XY..XY) 1 
    15          3
    26          8
    27        121
    28         25
    29        220
    30          7
    31          1
    33          5
    37          1
    38          5
    39        171
    40         40
    41        810
    42        309
    43        634
    46          1
    48          1
    50         11
    51         15
    52          6
    53         68
    54         86
    55        979
    56        822
    57        522
    58         22
    59          5
    60          1
    61          3
    62          1
    63          2
    64          1
    65         11
    66          6
    67        104
    68        232
    69        999
    70        780
    71        264
    72         14
    73          1
    77          7
    78         12
    79         11
    80          3
    81         18
    82        152
    83        605
    84        560
    85         40
    86          1
    91          2
    93          1
    95          7
    97        105
    98          7
    99         85
   100          2
   101          1
   109          1
   110          6
   111          6
   112         51
   113          8
   115          3
   125          2
   127         16
   137          1
   138          3
   139          4
   140          2
   141          3
   151          1
   152          1
   153          1
   155          8
   157         56
   158          6
   159          1
   165          1
   169          1
   179          1
   208          1