##TITLE=Library Entry 82677
##JCAMP-DX=Revision 4.10 
##DATA TYPE=MASS SPECTRUM
##SAMPLE DESCRIPTION=NIST Mass Spectrometry Data Center, 1990.
##NAMES=HP
##CAS NAME=1,2-Diphenylethylamine
##MOLFORM=C14H15N
##CAS REGISTRY NO=25611-78-3
##MP= -300
##BP= -300
##MW= 197
##$RETENTION INDEX=1660
##$CONDENSED SPECTRUM=NO
##NPOINTS= 67
##XYDATA=(XY..XY) 1 
    17          2
    18          3
    26          2
    27         17
    28        149
    29          5
    30          4
    38          6
    39         35
    40          3
    41         11
    42          4
    49          2
    50         16
    51         57
    52         20
    53          8
    54          3
    61          2
    62          7
    63         24
    64          7
    65         49
    66          4
    74          6
    75          6
    76         18
    77        135
    78         36
    79        255
    80         16
    81          1
    87          2
    88          2
    89         20
    90         11
    91         83
    92         13
   102          6
   103         15
   104         52
   105          2
   106        999
   107         76
   108          3
   115          4
   117          4
   118          6
   120          2
   127          2
   139          2
   150          2
   151          4
   152          5
   153          2
   165          8
   166          2
   167          2
   176          5
   177          5
   178         15
   179         10
   180          5
   181          2
   194          3
   195          3
   196          3