##TITLE=Library Entry 50262
##JCAMP-DX=Revision 4.10 
##DATA TYPE=MASS SPECTRUM
##SAMPLE DESCRIPTION=JE WILKINSON S-CUBED
##NAMES=HP
##CAS NAME=Cyclohexene, 1-nitro-
##MOLFORM=C6H9NO2
##CAS REGISTRY NO=2562-37-0
##MP= -300
##BP= -300
##MW= 127
##$RETENTION INDEX=1174
##$CONDENSED SPECTRUM=NO
##NPOINTS= 60
##XYDATA=(XY..XY) 1 
    41        526
    42         30
    43         23
    44          6
    45          1
    46         55
    48          0
    49          6
    50        120
    51        203
    52        134
    53        555
    54         49
    55        164
    56         12
    57         16
    58          0
    60          2
    61          6
    62         14
    63         34
    64          5
    65        114
    66         81
    67         40
    68         18
    69         31
    70          4
    71          0
    72          0
    73          4
    74         17
    75          9
    77        249
    78         55
    79        735
    80        110
    81        999
    82         76
    83          6
    84          1
    86          0
    91          0
    92          6
    93          6
    94          0
    95          5
    96          0
    97        204
    98         19
    99          0
   108          0
   110          7
   111          3
   112          0
   123          0
   126          0
   127         58
   128         13
   129          0