##TITLE=Library Entry 27406
##JCAMP-DX=Revision 4.10 
##DATA TYPE=MASS SPECTRUM
##SAMPLE DESCRIPTION=Chemical Concepts
##NAMES=HP
##CAS NAME=Ethyl 3,3,3-trifluoro-2-propionamido-2-(2,3,4-trifluoroanilino)pr
opionate
##MOLFORM=C14H14F6N2O3
##CAS REGISTRY NO=256326-06-4
##MP= -300
##BP= -300
##MW= 372
##$RETENTION INDEX=0
##$CONDENSED SPECTRUM=NO
##NPOINTS= 185
##XYDATA=(XY..XY) 1 
    33          6
    34          3
    35          1
    37         11
    38         13
    39         51
    40         67
    41        161
    42         62
    43        157
    44         91
    45         16
    46          5
    48          4
    49          2
    50         22
    51         26
    52         18
    53         17
    54         20
    55        182
    56         98
    57        999
    58         41
    59          3
    60          8
    61          7
    62          4
    63          4
    64          3
    65          6
    67         28
    68         25
    69        149
    70        111
    71         95
    72         23
    73         17
    74         10
    75          9
    76         10
    77         29
    78         69
    79         15
    80         13
    81         35
    82         13
    83         59
    84         41
    85         13
    86          1
    87          7
    88          2
    91          4
    93          7
    94          3
    95         12
    96         23
    97         19
    98         11
    99         10
   100          7
   101          9
   102          1
   103          2
   104          9
   106         18
   107          7
   108          4
   109          6
   110          9
   111         14
   112         48
   113         18
   114          8
   115          9
   116          3
   118          1
   119         19
   120         10
   121          2
   122          4
   123          6
   124          6
   125         10
   126          8
   127          8
   128          9
   129         16
   130          5
   131         15
   132          5
   133          4
   135          3
   136          3
   137          3
   138          7
   139          2
   141          3
   142          9
   143          9
   144          5
   146         35
   147        247
   148         21
   149          3
   150          3
   151          4
   152          9
   153          6
   154          3
   155          5
   156          3
   157         15
   158         48
   159          5
   160          3
   161          1
   167          2
   169          1
   170          9
   171         57
   172         11
   173         16
   174          4
   175          2
   176          2
   181          3
   183          2
   185          3
   186         14
   188          2
   189          4
   199          6
   202          3
   203          6
   204          1
   207          4
   208          1
   211          1
   219          7
   221          3
   223         28
   224          8
   226        110
   227         11
   228          2
   231          1
   239          1
   240          5
   241          9
   242         19
   243        378
   244         33
   245          1
   247         17
   248          3
   252          1
   255          7
   256          3
   257          1
   259          2
   268          1
   269          9
   270          3
   272          2
   277          1
   282          2
   283          9
   286          1
   296          6
   297          3
   299        155
   300         25
   301          8
   303          3
   304          1
   311          1
   313          3
   326          1
   328          1
   357          1
   370          1
   372         44
   373          6