##TITLE=Library Entry 99686
##JCAMP-DX=Revision 4.10 
##DATA TYPE=MASS SPECTRUM
##SAMPLE DESCRIPTION=Chemical Concepts
##NAMES=HP
##CAS NAME=N-[2,2,2-Trifluoro-1-(2-fluoroanilino)-1-(trifluoromethyl)ethyl]-
p-toluamide
##MOLFORM=C17H13F7N2O
##CAS REGISTRY NO=256325-93-6
##MP= -300
##BP= -300
##MW= 394
##$RETENTION INDEX=0
##$CONDENSED SPECTRUM=NO
##NPOINTS= 142
##XYDATA=(XY..XY) 1 
    33          3
    34          1
    36          1
    37          2
    38          8
    39         45
    40         17
    41         18
    43          9
    44         12
    46          7
    47          1
    50         14
    51         16
    52          7
    53          5
    54          2
    55          6
    56          6
    57         18
    58          2
    59          3
    61          4
    62          9
    63         32
    64         17
    65        107
    66          6
    67          2
    68          3
    69         33
    70          4
    71          4
    72          2
    73          1
    74          5
    75         28
    76          7
    77          5
    78          3
    79          2
    80          1
    81          4
    82          6
    83         33
    84         10
    85          2
    86          1
    87          2
    88          3
    89         38
    90         43
    91        306
    92         28
    93          5
    94          9
    95         66
    96          9
    97          2
    98          1
   100          1
   101          1
   102          4
   103          2
   104          3
   105          1
   106          5
   107          1
   108          1
   109          4
   110         14
   111         76
   112          8
   114          2
   116          5
   117          9
   119        999
   120         79
   121          9
   122          2
   124          1
   125          1
   129          1
   133          2
   134          2
   135         49
   136          6
   137          3
   138          1
   140          2
   145          2
   147          1
   149          1
   151          1
   153          1
   157          1
   161          1
   163          2
   167          2
   170          2
   171          3
   185          2
   186          2
   187         11
   188          3
   190        160
   191         13
   192          1
   197          6
   199          1
   205          3
   206          1
   208          1
   210          1
   227          2
   228          2
   229          6
   230          1
   233          1
   236          1
   237          1
   241          1
   255          1
   256          2
   258          2
   259        108
   260         10
   261          1
   264          2
   275          1
   276          2
   283          2
   284          3
   285          1
   306          1
   325         22
   326          4
   391          1
   392          2
   394         90
   395         14
   396          2