##TITLE=Library Entry 82494
##JCAMP-DX=Revision 4.10 
##DATA TYPE=MASS SPECTRUM
##SAMPLE DESCRIPTION=Chemical Concepts
##NAMES=HP
##CAS NAME=N-[1-(3-Chloroanilino)-2,2,2-trifluoro-1-(trifluoromethyl)ethyl]n
icotinamide
##MOLFORM=C15H10ClF6N3O
##CAS REGISTRY NO=256325-88-9
##MP= -300
##BP= -300
##MW= 397
##$RETENTION INDEX=0
##$CONDENSED SPECTRUM=NO
##NPOINTS= 173
##XYDATA=(XY..XY) 1 
    33          5
    34          3
    35          3
    36         11
    37         21
    38         40
    39         71
    40         47
    41         23
    42          6
    43         10
    44         42
    46         28
    47          3
    48          2
    49         22
    50        156
    51        367
    52         83
    53         25
    54          6
    55          8
    56          6
    57         10
    58          2
    60          6
    62         33
    63         57
    64         52
    65         83
    66         11
    67          4
    69         58
    70          6
    71          6
    72          5
    73         17
    74         19
    75         88
    76         51
    78        797
    79         49
    80          3
    81          2
    82          3
    83          6
    84          5
    85          8
    86          2
    87          5
    88          2
    89          3
    90         13
    91         29
    92         62
    93          8
    94          4
    95          5
    96         11
    97          4
    99         33
   100         28
   101         14
   102         10
   103          2
   104         12
   106        999
   107         60
   108          6
   109          6
   111        158
   112         16
   113         44
   114          4
   115          2
   116          1
   117          1
   118          4
   119          2
   120          2
   122         37
   123          9
   124          2
   125          6
   127        252
   128         23
   129         78
   130          5
   131          1
   132          1
   135          2
   137          5
   138          2
   140          4
   141          1
   142          4
   143          1
   145          1
   147          2
   150          2
   152          4
   153          5
   154          2
   155          1
   161          1
   162          1
   163          1
   164          1
   165          1
   166          2
   167          1
   168          2
   170          2
   171          6
   172          3
   173          1
   177          1
   179          1
   181          1
   184          1
   186          2
   187          2
   190          3
   199          3
   201          4
   203          4
   205          5
   206        210
   208         86
   209          7
   213          1
   220          3
   221         10
   222          3
   223          8
   224          3
   231          2
   232          3
   233          1
   236          1
   241          1
   249          1
   251          4
   252          1
   256          3
   258          2
   266          1
   270          3
   271          3
   272          2
   273          1
   274          7
   275        301
   276         31
   277         93
   278          9
   279          1
   292          1
   294          1
   311          1
   324          1
   326          1
   328         19
   329          4
   330          8
   362          4
   363          1
   367          1
   395          3
   397         72
   398         11
   399         20
   400          4