##TITLE=Library Entry 90906
##JCAMP-DX=Revision 4.10 
##DATA TYPE=MASS SPECTRUM
##SAMPLE DESCRIPTION=Chemical Concepts
##NAMES=HP
##CAS NAME=2-Morpholino-6-(3-pyridyl)-4,4-bis(trifluoromethyl)-4H-1,3,5-oxad
iazine
##MOLFORM=C14H12F6N4O2
##CAS REGISTRY NO=256325-90-3
##MP= -300
##BP= -300
##MW= 382
##$RETENTION INDEX=0
##$CONDENSED SPECTRUM=NO
##NPOINTS= 175
##XYDATA=(XY..XY) 1 
    33          1
    34          1
    36          1
    37          2
    38          4
    39          9
    40         23
    41         35
    42        285
    43         27
    44         17
    45         34
    46          2
    47          8
    48          1
    50         53
    51         93
    52         17
    53         14
    54         41
    55        117
    56        429
    57         44
    58          8
    59          2
    62          1
    63          3
    64          4
    65          2
    66          1
    67          5
    68          9
    69         69
    70        431
    71         22
    72          7
    73          1
    74          3
    75          8
    76         34
    77         61
    78        118
    79          8
    80          1
    81          2
    82          2
    83          7
    84         29
    85         60
    86        246
    87         11
    88          2
    89          1
    92         97
    93          3
    95          3
    96          8
    97          3
    98          1
    99          4
   100          8
   101          2
   104         74
   105         95
   106        114
   107          8
   108          2
   109          3
   110          2
   112         25
   114        999
   115         53
   116          5
   117          1
   119          1
   122          3
   123          3
   124         20
   125          2
   126          1
   127          2
   128          2
   129          1
   130          1
   131          2
   132          1
   133          1
   135          2
   137          2
   139          1
   140          2
   142        106
   143          4
   145          2
   146          2
   150          2
   151         17
   152          3
   153         15
   154          2
   158          2
   159          3
   160          3
   161          1
   164          1
   165          3
   166          4
   171          4
   172          2
   173          4
   176          1
   177          2
   178          9
   179         41
   180          4
   181         19
   182          2
   184          1
   185          3
   187          1
   189          2
   191          9
   192         95
   193          4
   194          2
   201          3
   204          1
   205          1
   206          1
   207          2
   209         67
   210          5
   213          1
   214          1
   216          1
   219          1
   221         13
   222          1
   223          1
   227          7
   228          4
   229          3
   232          1
   234          4
   235          6
   236          2
   238          8
   247          3
   248          2
   249         12
   250          2
   254          1
   255          1
   258          6
   259          3
   263          4
   269          2
   271          1
   274          1
   276          4
   277          6
   278        216
   279         20
   280          2
   283          1
   296          4
   310          2
   311          2
   313        191
   314         28
   315          3
   339          2
   382         42
   383          7
   384          1