##TITLE=Library Entry 63806
##JCAMP-DX=Revision 4.10 
##DATA TYPE=MASS SPECTRUM
##SAMPLE DESCRIPTION=Chemical Concepts
##NAMES=HP
##CAS NAME=Ethyl 2-(4-chloroanilino)-3,3,3-trifluoro-2-(2-phenylacetamido)pr
opionate
##MOLFORM=C19H18ClF3N2O3
##CAS REGISTRY NO=256332-42-0
##MP= -300
##BP= -300
##MW= 414
##$RETENTION INDEX=0
##$CONDENSED SPECTRUM=NO
##NPOINTS= 188
##XYDATA=(XY..XY) 1 
    33          1
    34          1
    35          2
    36          7
    37          3
    38          9
    39         48
    40         19
    41         20
    42          5
    43          9
    44         28
    45         10
    47          3
    48          1
    50         22
    51         26
    52          9
    53          4
    54          2
    55          4
    57          9
    59          2
    60          2
    61          4
    62         10
    63         35
    64         17
    65        126
    66          9
    68          1
    69         12
    71          7
    72          3
    73          7
    74          9
    75         58
    76         18
    77         11
    78          4
    79          2
    80          1
    81          1
    83          2
    84          4
    85          5
    86          2
    87          4
    88          4
    89         35
    91        999
    92        128
    93         10
    94          1
    95          2
    96          7
    97          2
    99         16
   100          7
   101          7
   102          8
   103          2
   104          2
   105          3
   106          3
   107          2
   108          1
   110          7
   111        137
   112         15
   113         36
   114          4
   115          1
   116          4
   117          9
   118         27
   119         11
   120          2
   122          1
   123          1
   125          6
   126         19
   127        123
   128         17
   129         36
   130          5
   131          2
   132          1
   133          1
   134          1
   135          9
   136          6
   137          9
   138         60
   139          8
   140         19
   141          2
   142          4
   147          1
   150          1
   151          3
   152          6
   153         18
   154          5
   155          8
   156          1
   161          1
   163          4
   164          2
   166         19
   167          3
   168          4
   169          1
   170          2
   171          6
   172          2
   179          3
   180          2
   181          2
   182          2
   187          5
   188          5
   189          2
   192          1
   193          1
   199          9
   200          4
   201          6
   202          2
   203          3
   204          3
   206        148
   207         16
   208         44
   209          6
   210          4
   212          2
   214          1
   216          3
   217          2
   219          2
   221         35
   223        445
   224         40
   225        131
   226         13
   227         29
   228          4
   229          8
   230          1
   232          1
   233          1
   234          1
   235          1
   245          2
   248          1
   249          7
   250          1
   251          5
   252          1
   257          2
   260          2
   277          3
   279        126
   280         19
   281         38
   282          6
   283          1
   287          1
   294          1
   324          1
   337          2
   339          1
   340          4
   341         84
   342         18
   343         33
   344          7
   345          4
   346          2
   347          2
   380          1
   410          1
   411          1
   412          1
   414         73
   416         34
   417          4