##TITLE=Library Entry 82528
##JCAMP-DX=Revision 4.10 
##DATA TYPE=MASS SPECTRUM
##SAMPLE DESCRIPTION=Japan AIST/NIMC Database- Spectrum MS-NW-3288
##NAMES=HP
##CAS NAME=Isonicotinic acid allyl ester
##MOLFORM=C9H9NO2
##CAS REGISTRY NO=25635-24-9
##MP= -300
##BP= -300
##MW= 163
##$RETENTION INDEX=0
##$CONDENSED SPECTRUM=NO
##NPOINTS= 67
##XYDATA=(XY..XY) 1 
    15          4
    25          1
    26          9
    27         15
    28          7
    29          8
    31          5
    37          4
    38          9
    39         68
    40         12
    41        153
    42          7
    43          1
    44          1
    45          1
    49          6
    50         53
    51        183
    52         20
    53          4
    54          1
    55          2
    57         38
    58          1
    59          1
    65          1
    66          1
    69          1
    75          3
    76          4
    77          7
    78        317
    79         55
    80          7
    85          1
    90          1
    91          5
    92          1
    93          2
    94          1
    96          2
   105          3
   106        999
   107         78
   108          5
   116          1
   117          9
   118         10
   119          1
   121          6
   123         16
   124         19
   125          2
   134          4
   135          9
   136          1
   137          1
   144          1
   145          1
   146          1
   148          7
   149          1
   162          9
   163         64
   164          9
   165          3