##TITLE=Library Entry 82605
##JCAMP-DX=Revision 4.10 
##DATA TYPE=MASS SPECTRUM
##SAMPLE DESCRIPTION=Chemical Concepts
##NAMES=HP
##CAS NAME=Ethyl 2-(2-benzothiazolylamino)-3,3,3-trifluoro-2-nicotinamidopro
pionate
##MOLFORM=C18H15F3N4O3S
##CAS REGISTRY NO=256325-80-1
##MP= -300
##BP= -300
##MW= 424
##$RETENTION INDEX=0
##$CONDENSED SPECTRUM=NO
##NPOINTS= 162
##XYDATA=(XY..XY) 1 
    33          1
    34          1
    36          1
    37          7
    38         12
    39         25
    40          9
    41          4
    42          3
    43          7
    44         15
    45         22
    46          1
    47          2
    49          8
    50         61
    51        201
    52         35
    53         12
    54          3
    55          2
    56          2
    57          6
    58          9
    59          2
    60          5
    61          4
    62         10
    63         29
    64         11
    65          6
    66          2
    67          2
    69         53
    70         10
    71          5
    72          1
    73          2
    74          5
    75         19
    76         15
    78        499
    79         30
    80          3
    81          7
    82         16
    83          4
    84          3
    85          1
    86          1
    87          1
    88          1
    90         24
    91          7
    92          2
    93          5
    94          5
    95         10
    96         61
    97          6
    98          2
    99          1
   101          1
   102          1
   103          3
   106        999
   107         69
   108         24
   109          6
   110          2
   111          1
   112          1
   113          1
   115          1
   116          1
   117          2
   118          9
   119          1
   121          5
   122         42
   123         44
   124          5
   125          3
   127          1
   128          1
   129          1
   131          1
   132          2
   134         78
   135         37
   136          6
   137          2
   147          1
   148          4
   149         18
   150        223
   151         22
   152          9
   153          1
   160          5
   161         17
   162          4
   163          1
   168          1
   171          2
   175          1
   176          5
   177          3
   183          2
   185          1
   188          2
   189          5
   190          1
   192          1
   199          2
   201          1
   210          1
   211          1
   212          2
   222          2
   223          2
   224          1
   226          3
   227          2
   229         28
   230          5
   231          3
   238          1
   243          1
   245          1
   246          2
   247          9
   248          1
   254          3
   255          2
   256          1
   257          3
   258          1
   272          1
   273          2
   274          2
   275          4
   281          1
   283          1
   299          1
   301          1
   302         36
   303          6
   304          2
   348          1
   349          2
   350          3
   351        112
   352         19
   353          7
   354          1
   355          3
   379          2
   380          1
   424         27
   425          5
   426          2