##TITLE=Library Entry 98998
##JCAMP-DX=Revision 4.10 
##DATA TYPE=MASS SPECTRUM
##SAMPLE DESCRIPTION=Chemical Concepts
##NAMES=HP
##CAS NAME=N-[2,2,2-Trifluoro-1-(2-pyridylamino)-1-(trifluoromethyl)ethyl]-p
-toluamide
##MOLFORM=C16H13F6N3O
##CAS REGISTRY NO=256325-96-9
##MP= -300
##BP= -300
##MW= 377
##$RETENTION INDEX=0
##$CONDENSED SPECTRUM=NO
##NPOINTS= 136
##XYDATA=(XY..XY) 1 
    33          2
    34          2
    36          1
    37         10
    38         24
    39         97
    40         34
    41         37
    42          4
    43         11
    44         18
    45         12
    47          3
    50         43
    51        109
    52         32
    53         10
    54          4
    55          8
    56          4
    57         10
    58          2
    59          4
    60          2
    61          4
    62         12
    63         41
    64         23
    65        142
    66         24
    67         73
    68          8
    69         33
    70          5
    71          5
    73          1
    74          4
    75          6
    76         17
    78        388
    79         27
    80          1
    81          2
    82          2
    83          5
    84          2
    85          1
    86          2
    87          4
    89         50
    90         48
    91        354
    92         28
    94        194
    95         11
    96          4
    98          2
    99          1
   100          3
   101          1
   103          1
   104          3
   105          3
   106          4
   107          3
   109          1
   111          2
   112          4
   113          2
   114          2
   116          8
   117         14
   119        999
   120         85
   121          7
   122          1
   123          1
   124          1
   126          1
   127          1
   129          1
   132          1
   134          2
   135         65
   136          7
   137          1
   141          1
   142          1
   143          1
   144          2
   145          1
   152          2
   153          1
   154          5
   155          2
   157          1
   164          1
   167          1
   168          1
   170          1
   171          5
   172          2
   173         31
   174          2
   181          2
   183          9
   184          2
   188          4
   189          3
   191          2
   196          1
   210          1
   211          4
   212          1
   214          1
   221          1
   223         17
   224          2
   239          2
   240          1
   241          6
   242         74
   243         34
   244          5
   259          1
   264          1
   282          2
   283          3
   284          1
   305          1
   306          3
   308        138
   309         20
   310          2
   377         25
   378          4