##TITLE=Library Entry 63615
##JCAMP-DX=Revision 4.10 
##DATA TYPE=MASS SPECTRUM
##SAMPLE DESCRIPTION=Chemical Concepts
##NAMES=HP
##CAS NAME=Ethyl 3,3,3-trifluoro-2-(4-fluoroanilino)-2-(2-phenylacetamido)pr
opionate
##MOLFORM=C19H18F4N2O3
##CAS REGISTRY NO=256326-16-6
##MP= -300
##BP= -300
##MW= 398
##$RETENTION INDEX=0
##$CONDENSED SPECTRUM=NO
##NPOINTS= 150
##XYDATA=(XY..XY) 1 
    33          2
    34          3
    36          1
    37          2
    38          9
    39         45
    40         43
    41         19
    42          5
    43         17
    44         45
    45         10
    46          2
    49          3
    50         14
    51         23
    52          9
    53          1
    54          1
    55         12
    56          6
    57         22
    58          4
    59          2
    60          1
    61          3
    62          9
    63         25
    64         20
    65        108
    66          9
    67          3
    69         25
    70          9
    71          9
    73          4
    74          6
    75         43
    76          7
    77          9
    78          4
    79          3
    80          2
    81          4
    83         46
    84         22
    85          6
    86          1
    87          4
    89         40
    91        999
    92        104
    93          7
    95        207
    96         21
    97          3
   102          2
   104          3
   105          3
   106          3
   108          2
   109         10
   110         36
   111        163
   112         22
   113          2
   114          1
   116          6
   117          9
   118         29
   119         15
   120          5
   121         14
   122         74
   123          8
   124          2
   129          3
   134          3
   135         15
   136          8
   137         29
   138          4
   139          1
   142          3
   145          2
   147          6
   148          2
   149          3
   150         16
   151          4
   152          1
   163          5
   165          2
   166          1
   167          1
   170          4
   171          8
   172          1
   181          2
   183         15
   184          2
   185          5
   186          3
   187          2
   188          4
   190        200
   191         19
   192          4
   194          4
   195          1
   200          4
   201          2
   203          2
   205         49
   207        677
   208         61
   209          5
   210          1
   211         45
   212          5
   213          2
   214          2
   217          1
   218          2
   219          4
   229          1
   230          1
   233         11
   234          1
   236          3
   241          4
   244          1
   257          1
   260          3
   261          3
   263        128
   264         16
   265          2
   280          1
   287          1
   307          1
   323          4
   325        175
   326         30
   327          4
   329          8
   330          2
   396          1
   398         89
   399         17