##TITLE=Library Entry 82563
##JCAMP-DX=Revision 4.10 
##DATA TYPE=MASS SPECTRUM
##SAMPLE DESCRIPTION=Chemical Concepts
##NAMES=HP
##CAS NAME=N-[2,2,2-Trifluoro-1-[(6-methyl-2-pyridyl)amino]-1-(trifluorometh
yl)ethyl]nicotinamide
##MOLFORM=C15H12F6N4O
##CAS REGISTRY NO=256325-84-5
##MP= -300
##BP= -300
##MW= 378
##$RETENTION INDEX=0
##$CONDENSED SPECTRUM=NO
##NPOINTS= 151
##XYDATA=(XY..XY) 1 
    33          3
    34          2
    37         25
    38         53
    39        172
    40         56
    41         48
    42         39
    43         13
    44         31
    45          3
    46          2
    47          2
    49         27
    50        162
    51        383
    52         89
    53         70
    54         20
    55          7
    56          4
    57          9
    58          1
    59          1
    60          1
    61          5
    62          9
    63         23
    64         45
    65        148
    66         58
    67         10
    68         13
    69         62
    70          4
    71          4
    72          1
    73          1
    75         19
    76         37
    78        710
    79         57
    80        180
    81        132
    82          9
    83          3
    84          2
    85          1
    87          1
    88          2
    89          2
    90          9
    91         69
    92        353
    93         37
    94          5
    95          3
    96          9
    97          2
    98          1
   100          4
   101          2
   103          6
   104         16
   106        999
   107        102
   108        428
   109         34
   110          4
   112          2
   114          2
   116          2
   117          2
   118          2
   119          3
   120          4
   121          4
   122         63
   123          8
   124          1
   125          2
   126          1
   127          1
   128          1
   129          1
   130          1
   131          2
   133          2
   134          6
   135          3
   140          1
   141          1
   142          6
   143          1
   144          1
   145          1
   146          1
   147          1
   149          1
   151          1
   152          1
   154          1
   157          2
   158          1
   162          1
   164          1
   167          1
   168          3
   169          1
   170          3
   171          4
   173          1
   182          1
   184          6
   185          5
   187         18
   188          3
   189          4
   197          2
   198          1
   201          2
   202          2
   203          2
   204          2
   205         17
   206          2
   212          3
   213          3
   215          1
   223          4
   229          1
   232          2
   235          2
   237         15
   238          2
   251          2
   256         84
   257         28
   258          3
   270          3
   271          8
   272          2
   273          1
   300          2
   307          2
   309        113
   310         15
   311          1
   358          1
   378         24
   379          4