##TITLE=Library Entry 82514
##JCAMP-DX=Revision 4.10 
##DATA TYPE=MASS SPECTRUM
##SAMPLE DESCRIPTION=Chemical Concepts
##NAMES=HP
##CAS NAME=Ethyl 2-(3-chloro-4-fluoroanilino)-3,3,3-trifluoro-2-nicotinamido
propionate
##MOLFORM=C17H14ClF4N3O3
##CAS REGISTRY NO=256325-75-4
##MP= -300
##BP= -300
##MW= 419
##$RETENTION INDEX=0
##$CONDENSED SPECTRUM=NO
##NPOINTS= 165
##XYDATA=(XY..XY) 1 
    33          1
    35          1
    36          5
    37          2
    38          4
    39          6
    40          5
    41          4
    42          2
    43          5
    44         11
    45          2
    46          1
    47          1
    50         32
    51        126
    52         20
    53          6
    54          3
    55          4
    56          3
    57          9
    58          1
    60          1
    61          2
    62          4
    63          7
    64          2
    65          1
    66          1
    67          3
    68          3
    69         11
    70          2
    71          2
    72          4
    74          6
    75          5
    76          7
    78        402
    79         28
    80          3
    81          5
    82          8
    83         18
    84          3
    85          1
    88          1
    89          2
    90          4
    91          2
    92          1
    93          9
    94          9
    95          3
    96          5
    97          1
    98          1
    99          1
   100          1
   103          2
   104          6
   106        999
   107         64
   108          9
   109         13
   110          9
   111          4
   112          1
   113          1
   116          1
   117          8
   118          5
   119          3
   120          4
   121          2
   122          9
   123          6
   124          1
   125          1
   126          1
   127          1
   129         49
   130          5
   131         14
   132          1
   133          1
   136          4
   137          1
   142          1
   143          2
   144          9
   145         58
   146          7
   147         18
   148          2
   149          1
   155          5
   156         22
   157          3
   158          7
   159          1
   169          1
   170          3
   171          8
   172          2
   173          3
   174          1
   182          1
   184          8
   185          1
   186          3
   187          1
   188          1
   197          1
   199          1
   204          1
   205          1
   207          1
   214          1
   218          1
   219          2
   221          1
   222          1
   224         50
   226         20
   227          2
   228          1
   229          1
   230          1
   234          1
   239         15
   240          2
   241          5
   242          2
   246          1
   250          1
   251          1
   253          1
   255          1
   267          1
   269          1
   275          2
   276          1
   297         34
   298          5
   299          9
   300          1
   328          1
   329          1
   342          1
   343          1
   344          2
   346         96
   347         16
   348         30
   349          5
   350          5
   351          1
   352          2
   417          1
   419         23
   420          5
   421          8
   422          1