##TITLE=Library Entry 99316
##JCAMP-DX=Revision 4.10 
##DATA TYPE=MASS SPECTRUM
##SAMPLE DESCRIPTION=Chemical Concepts
##NAMES=HP
##CAS NAME=N-(2,2,2-Trifluoro-1-[(6-methyl-2-pyridyl)amino]-1-(trifluorometh
yl)ethyl)-p-toluamide
##MOLFORM=C17H15F6N3O
##CAS REGISTRY NO=256326-13-3
##MP= -300
##BP= -300
##MW= 391
##$RETENTION INDEX=0
##$CONDENSED SPECTRUM=NO
##NPOINTS= 149
##XYDATA=(XY..XY) 1 
    33          1
    34          1
    36          1
    37          7
    38         22
    39        120
    40         31
    41         34
    42         16
    43          8
    44         15
    45         11
    46          1
    50         23
    51         29
    52         18
    53         18
    54          7
    55          5
    56          2
    57          6
    58          1
    59          5
    60          2
    62         15
    63         43
    64         40
    65        225
    66         32
    67          5
    69         28
    70          3
    71          3
    73          1
    74          3
    75          6
    76          7
    77          8
    78          8
    79          6
    80         60
    81         51
    82          4
    83          3
    84          2
    85          2
    86          3
    87          2
    89         44
    90         48
    91        368
    92        295
    93         24
    94          2
    95          1
    96          4
    97          1
    99          2
   100          2
   101          2
   103          2
   104          2
   105          3
   106          6
   108        242
   109         14
   110          2
   112          3
   113          2
   114          2
   115          1
   116          5
   117         11
   119        999
   120         81
   121          5
   122          1
   126          1
   127          1
   128          1
   129          1
   131          1
   133          2
   134         10
   135         43
   136          5
   137          1
   139          1
   140          1
   141          1
   142          1
   143          1
   144          1
   145          1
   153          1
   154          1
   156          1
   158          1
   164          1
   167          1
   168          3
   169          1
   171          3
   172          1
   182          1
   183          1
   184          1
   186          1
   187         12
   188          2
   189          1
   196          7
   197          5
   198          2
   201          1
   202          3
   204          1
   205          5
   206          1
   225          2
   226          1
   230          1
   232          1
   235          1
   236          2
   237         13
   238          2
   244          1
   252          1
   253          1
   254          1
   256         66
   257         37
   258          4
   264          1
   270          1
   273          1
   282          1
   283          2
   284          1
   300          1
   319          1
   321          5
   322        143
   323         25
   324          4
   391         29
   392          5
   393          1