##TITLE=Library Entry 64013
##JCAMP-DX=Revision 4.10 
##DATA TYPE=MASS SPECTRUM
##SAMPLE DESCRIPTION=Chemical Concepts
##NAMES=HP
##CAS NAME=Ethyl 2-(3-chloro-4-fluoroanilino)-3,3,3-trifluoro-2-(2-phenylace
tamido)propionate
##MOLFORM=C19H17ClF4N2O3
##CAS REGISTRY NO=256326-01-9
##MP= -300
##BP= -300
##MW= 432
##$RETENTION INDEX=0
##$CONDENSED SPECTRUM=NO
##NPOINTS= 198
##XYDATA=(XY..XY) 1 
    33          1
    34          1
    35          2
    36          9
    37          3
    38          9
    39         38
    40         13
    41         15
    42          5
    44         34
    45          6
    47          1
    49          2
    50         11
    51         20
    52          9
    53          3
    54          2
    55          6
    57         14
    58          1
    61          3
    62          7
    63         25
    65        116
    66          6
    67          3
    68          4
    69         15
    70          4
    71          4
    73          4
    74          8
    75          6
    76          4
    77          8
    78          9
    79          4
    80          1
    81          6
    82          5
    83         14
    84          3
    85          2
    86          2
    87          2
    88          4
    89         35
    91        999
    92        118
    93         13
    94         14
    96         13
    97          2
    98          2
    99          1
   100          2
   101          1
   102          1
   103          1
   104          1
   105          2
   106          3
   107          1
   108          6
   109         17
   110          7
   111          9
   112          3
   114          2
   115          1
   116          5
   117         13
   118         46
   119         21
   120          6
   121          1
   122          1
   123          1
   124          1
   125          1
   126          1
   127          2
   129         85
   130          8
   131         23
   132          3
   133          1
   134          2
   135          9
   136          8
   137          2
   138          1
   142          3
   143          5
   144         10
   145         81
   146          9
   147         25
   148          4
   149          1
   151          1
   154          2
   155          7
   156         39
   157          6
   158         12
   159          1
   160          1
   167          1
   168          1
   169          2
   170          7
   171         15
   172          3
   173          5
   174          1
   181          2
   182          1
   183          1
   184         12
   185          2
   186          5
   187          1
   188          1
   189          1
   190          1
   194          1
   197          4
   198          2
   199          2
   200          2
   201          1
   204          1
   205          3
   206          4
   207          2
   208          1
   212          1
   214          2
   217          6
   218          1
   219          4
   220          1
   222          3
   224        109
   225         14
   226         33
   227          4
   228          2
   232          1
   233          1
   234          2
   238          3
   239         25
   241        378
   242         39
   243        111
   244         11
   245         21
   246          3
   247          7
   248          1
   251          1
   253          1
   255          1
   257          1
   263          1
   267          6
   268          2
   269          3
   270          2
   271          1
   275          2
   277          1
   278          2
   280          1
   287          1
   294          2
   295          2
   297         60
   298         10
   299         17
   300          4
   301          1
   356          1
   359         99
   360         16
   361         27
   362          5
   363          4
   364          1
   365          1
   432         43
   433          9
   434         11
   435          3