##TITLE=Library Entry 82672
##JCAMP-DX=Revision 4.10 
##DATA TYPE=MASS SPECTRUM
##SAMPLE DESCRIPTION=Chemical Concepts
##NAMES=HP
##CAS NAME=Ethyl 3,3,3-trifluoro-2-nicotinamido-2-[2-(trifluoromethyl)anilin
o]propionate
##MOLFORM=C18H15F6N3O3
##CAS REGISTRY NO=256326-04-2
##MP= -300
##BP= -300
##MW= 435
##$RETENTION INDEX=0
##$CONDENSED SPECTRUM=NO
##NPOINTS= 175
##XYDATA=(XY..XY) 1 
    33          2
    34          1
    36          1
    37          3
    38          5
    39         11
    40         16
    41          6
    42          2
    43          8
    44         18
    45          4
    46          2
    47          2
    49          3
    50         30
    51        115
    52         22
    53          7
    54          2
    55          5
    56          2
    57          7
    58          1
    61          1
    62          2
    63          6
    64          4
    65          3
    66          3
    67          2
    68          4
    69         14
    70          5
    71          4
    72          1
    73          2
    74          4
    75          8
    76          9
    78        406
    79         27
    80          2
    81          1
    82          1
    83          4
    84          2
    85          1
    87          1
    88          3
    89          1
    90          1
    91          3
    92          2
    94          4
    95         10
    96          5
    97          2
    98          1
    99          2
   100          2
   101          2
   102          7
   103          3
   106        999
   107         61
   108          5
   109          1
   111          1
   113          9
   114         30
   115          4
   119          1
   120          3
   121          3
   122          9
   123          7
   124          1
   125          6
   126          6
   127          3
   128          1
   129          1
   131          1
   132          1
   133          2
   134          1
   139          2
   140          5
   141         22
   142          6
   143          2
   145         42
   146          3
   147          3
   148          1
   149          1
   151          1
   152          6
   153          1
   159          1
   160          3
   161         35
   162          3
   163          1
   165          1
   166          2
   167         10
   168          2
   170          2
   171          2
   172         19
   173          2
   180          1
   185          1
   187         11
   188          2
   190          1
   197          4
   198          1
   199          1
   200          9
   201          2
   202          1
   204          1
   210          1
   215          2
   216          1
   217          2
   218         10
   219          6
   220          1
   221          2
   222          1
   224          1
   230          1
   234          1
   235          8
   236          2
   237          1
   238          4
   239          2
   240         40
   241          5
   242          1
   249          1
   252          1
   255          4
   256          1
   257          1
   258          1
   262          1
   264          1
   265          2
   266          3
   269          1
   274          1
   275          4
   276          1
   291          1
   294          2
   313         13
   314          2
   345          1
   359          2
   360          3
   361          4
   362        134
   363         21
   364          2
   366          5
   367          1
   416          1
   435         16
   436          3