##TITLE=Library Entry 99715
##JCAMP-DX=Revision 4.10 
##DATA TYPE=MASS SPECTRUM
##SAMPLE DESCRIPTION=Chemical Concepts
##NAMES=HP
##CAS NAME=N-[1-(2,4-Difluoroanilino)-2,2,2-trifluoro-1-(trifluoromethyl)eth
yl]-p-toluamide
##MOLFORM=C17H12F8N2O
##CAS REGISTRY NO=256325-91-4
##MP= -300
##BP= -300
##MW= 412
##$RETENTION INDEX=0
##$CONDENSED SPECTRUM=NO
##NPOINTS= 154
##XYDATA=(XY..XY) 1 
    33          2
    34          2
    37          2
    38          6
    39         42
    40         19
    41         17
    42          3
    43          7
    44         12
    45          3
    46          3
    50         14
    51         22
    52          7
    53          4
    54          1
    55          5
    56          5
    57         10
    58          1
    59          2
    61          3
    62         12
    63         45
    64         13
    65        118
    66          7
    67          1
    68          4
    69         76
    70          3
    71          3
    72          1
    73          2
    75         12
    76          5
    77          6
    78          2
    79          3
    80          2
    81          6
    82          7
    83          3
    84          2
    85          1
    86          2
    87          3
    88          6
    89         39
    90         40
    91        300
    92         24
    93          6
    94          4
    96          5
    97          1
    98          1
    99          3
   100          6
   101         31
   102          8
   103          2
   104          1
   105          2
   106          5
   107          3
   108          4
   109          4
   110          1
   112          9
   113         28
   114          4
   115          2
   116          5
   117         14
   119        999
   120         83
   121          6
   126          2
   127          4
   128         22
   129         72
   130          5
   131          1
   132          1
   134          3
   135         58
   136          7
   137          1
   138          1
   139          5
   140          2
   143          1
   144          1
   153          1
   154          1
   155          2
   157          1
   158          5
   159          1
   163          2
   170          1
   171          3
   172          1
   178          1
   181          1
   185          2
   186          1
   188          2
   189          1
   201          1
   203          1
   204          2
   205         12
   206          5
   207          3
   208        155
   209         13
   210          1
   214          1
   216          1
   223          1
   226          1
   228          1
   230          1
   232          1
   241          1
   244          1
   245          2
   246          1
   247          5
   248          1
   251          1
   255          1
   256          1
   258          1
   264          2
   274          1
   275          3
   277        103
   278         10
   279          1
   282          1
   284          5
   342          1
   343         15
   344          3
   392          6
   393          2
   410          1
   412         81
   413         13
   414          1