##TITLE=Library Entry 82522
##JCAMP-DX=Revision 4.10 
##DATA TYPE=MASS SPECTRUM
##SAMPLE DESCRIPTION=Chemical Concepts
##NAMES=HP
##CAS NAME=Ethyl 2-(5-chloro-2-methoxyanilino)-3,3,3-trifluoro-2-nicotinamid
opropionate
##MOLFORM=C18H17ClF3N3O4
##CAS REGISTRY NO=256325-78-7
##MP= -300
##BP= -300
##MW= 431
##$RETENTION INDEX=0
##$CONDENSED SPECTRUM=NO
##NPOINTS= 194
##XYDATA=(XY..XY) 1 
    33          1
    34          3
    35          1
    36          7
    37          4
    38          9
    39         14
    40         22
    41          9
    42          4
    43          9
    44         23
    45          3
    46          1
    47          2
    48          1
    49          5
    50         48
    51        162
    52         36
    53         11
    54          4
    55          7
    56          3
    57          9
    59          1
    61          3
    62          8
    63         20
    64          4
    65          7
    66          3
    67          3
    69         13
    70          4
    71          6
    73          8
    75         17
    76         14
    78        479
    79         35
    80          3
    81          1
    82          1
    83          4
    84          3
    85          2
    86          1
    87          6
    88          3
    89          4
    90          8
    91          4
    92          5
    93          9
    94          2
    95          2
    96          5
    97          3
    98          8
    99          9
   100          3
   101          5
   102          2
   103          4
   106        999
   107         59
   108          5
   109          1
   110          4
   111         14
   112          6
   113         12
   114         53
   116         22
   117          2
   120          1
   121          2
   122         14
   123          7
   124          4
   125          5
   126         17
   127          4
   128          7
   129          4
   131          1
   133          2
   134          1
   136          2
   137          1
   138          2
   139          4
   140          3
   141          7
   142         86
   143          7
   144         25
   145          3
   146          1
   152          2
   153          3
   154          5
   155          4
   156          5
   157         64
   158          7
   159         19
   160          2
   161          4
   162          1
   163          1
   165          1
   166          3
   167          9
   168         15
   169          5
   170          7
   171          5
   172          2
   173          1
   179          1
   180          2
   181          3
   182          1
   183          2
   184          2
   185          1
   186          1
   187          1
   188          2
   189          9
   190          2
   191          2
   195          1
   196          5
   199          1
   200          1
   201          6
   202          3
   203          2
   204          1
   208          1
   210          3
   217          1
   219          1
   220          1
   221         20
   222          5
   223          7
   224          2
   229          1
   230          1
   231          2
   234          1
   236         48
   237          5
   238         13
   239          2
   240          2
   242          1
   245          1
   250          1
   251          1
   253          1
   254          6
   256          2
   258          2
   260          2
   261          1
   262          1
   265          1
   274          2
   276          1
   280          1
   308          3
   309         46
   310          8
   311         15
   312          4
   355          1
   356          1
   357          2
   358         60
   359         10
   360         18
   361          3
   362          8
   363          1
   364          3
   431         39
   432          9
   433         11
   434          2