##TITLE=Library Entry 99216
##JCAMP-DX=Revision 4.10 
##DATA TYPE=MASS SPECTRUM
##SAMPLE DESCRIPTION=Chemical Concepts
##NAMES=HP
##CAS NAME=N-(2,2,2-Trifluoro-1-[(5-methyl-3-isoxazolyl)amino]-1-(trifluorom
ethyl)ethyl)-p-toluamide
##MOLFORM=C15H13F6N3O2
##CAS REGISTRY NO=256325-95-8
##MP= -300
##BP= -300
##MW= 381
##$RETENTION INDEX=0
##$CONDENSED SPECTRUM=NO
##NPOINTS= 150
##XYDATA=(XY..XY) 1 
    33          1
    34          1
    36          1
    37          3
    38          9
    39         56
    40         17
    41         19
    42          9
    43         91
    44         12
    45          6
    50         13
    51         22
    52          9
    53          6
    54         13
    55         17
    56          4
    57          6
    58          1
    59          3
    61          2
    62          7
    63         24
    64         10
    65        103
    66         10
    67          8
    68          9
    69         57
    70          3
    71          3
    72          1
    73          1
    74          2
    75          3
    76          5
    77          7
    78          9
    79          3
    80          2
    81          1
    82          2
    83          3
    84          3
    85          1
    86          1
    87          2
    89         35
    91        291
    92         22
    93          3
    94          1
    96          4
    97          9
    98         95
    99          6
   100          2
   103          1
   104          2
   105          1
   106          4
   107          1
   108          1
   111          1
   112          2
   113          1
   114          1
   115          2
   116          6
   119        999
   120         78
   121          6
   123          1
   124          2
   125          1
   127          1
   128          1
   129          1
   130          1
   132          1
   133          1
   134          3
   135         25
   136          3
   137          1
   140          1
   141          1
   142          2
   144          1
   145          1
   146          3
   147          1
   149          1
   150          1
   151          1
   152          1
   154          1
   156          1
   157          1
   158          2
   159          1
   164          1
   165          1
   171          3
   172          1
   173          4
   174          1
   175          1
   176          2
   177         30
   178          8
   179          2
   182          1
   187          1
   188          3
   189          1
   191          1
   192          1
   193          1
   196          1
   199          1
   201          2
   203          1
   214          2
   215         11
   216         11
   217          2
   220          1
   225          1
   227          1
   237          1
   241          2
   244          1
   245          3
   246         19
   247          8
   248          1
   264          1
   270          1
   282          2
   284          8
   285          1
   310          1
   312         18
   313          3
   381         32
   382          5
   383          1