##TITLE=Library Entry 99629
##JCAMP-DX=Revision 4.10 
##DATA TYPE=MASS SPECTRUM
##SAMPLE DESCRIPTION=Chemical Concepts
##NAMES=HP
##CAS NAME=N-[1-(2-Benzothiazolylamino)-2,2,2-trifluoro-1-(trifluoromethyl)e
thyl]-p-toluamide
##MOLFORM=C18H13F6N3OS
##CAS REGISTRY NO=256325-92-5
##MP= -300
##BP= -300
##MW= 433
##$RETENTION INDEX=0
##$CONDENSED SPECTRUM=NO
##NPOINTS= 163
##XYDATA=(XY..XY) 1 
    33          1
    34          1
    36          2
    37         12
    38         27
    39        110
    40         15
    41         27
    42          3
    43          7
    44         18
    45         53
    46         14
    47          3
    49          5
    50         43
    51         52
    52         18
    53         10
    54          6
    55          3
    56          2
    57          9
    58         19
    59          8
    60          9
    61         12
    62         34
    63        106
    64         38
    65        197
    66         11
    67          2
    69        132
    70         17
    71          8
    72          1
    73          3
    74         12
    75         26
    76         15
    77         11
    78         17
    79          6
    81         15
    82         29
    83          6
    84          5
    85          4
    86          5
    87          5
    88          7
    89         61
    90        100
    91        428
    92         35
    93          9
    94          6
    95         12
    96         71
    97          8
    98          4
    99          2
   100          2
   101          1
   102          1
   103          1
   104          3
   105         15
   106         14
   107         21
   108         30
   109          6
   110          3
   111          1
   112          1
   113          1
   114          1
   115          2
   116          7
   119        999
   120         81
   121          9
   122         20
   123         51
   124          6
   125          3
   126          1
   127          1
   130          1
   131          1
   132          3
   134        247
   135        100
   136         18
   137          1
   139          1
   140          1
   142          1
   144          1
   147          1
   148          4
   149         26
   150        284
   151         26
   152         14
   153          1
   158          2
   160          4
   161          4
   164          1
   171          1
   172          1
   175          1
   176          3
   177          1
   179          1
   184          1
   185          1
   195          2
   198          1
   199          1
   209          1
   210          9
   211          1
   216          3
   227          1
   229         98
   230          9
   231          5
   232          1
   236          2
   239          1
   240          3
   241          1
   244          1
   245          1
   247          1
   248          1
   264          3
   268         20
   269          3
   270          2
   277          1
   279         18
   280          3
   281          1
   282          1
   283          3
   284          1
   295          1
   296          3
   298        208
   299         32
   300         10
   301          1
   364          8
   365          2
   366          1
   431          1
   433         36
   434          6
   435          2