##TITLE=Library Entry 82553
##JCAMP-DX=Revision 4.10 
##DATA TYPE=MASS SPECTRUM
##SAMPLE DESCRIPTION=Chemical Concepts
##NAMES=HP
##CAS NAME=Ethyl 2-anilino-3,3,3-trifluoro-2-nicotinamidopropionate
##MOLFORM=C17H16F3N3O3
##CAS REGISTRY NO=256325-81-2
##MP= -300
##BP= -300
##MW= 367
##$RETENTION INDEX=0
##$CONDENSED SPECTRUM=NO
##NPOINTS= 136
##XYDATA=(XY..XY) 1 
    33          1
    34          1
    37          3
    38          8
    39         25
    40         10
    41          8
    42          2
    43          6
    44         10
    45          3
    46          2
    47          5
    49          3
    50         36
    51        163
    52         25
    53          9
    54          4
    55          3
    56          2
    57          3
    60          1
    61          2
    62          3
    63          7
    64          7
    65         31
    66         32
    67          5
    68          2
    69          6
    70          2
    71          2
    73          1
    74          2
    75          4
    76         15
    77        181
    78        406
    79         26
    80          2
    81          1
    82          1
    83          1
    84          1
    85          1
    88          1
    89          1
    90          2
    91          6
    92         24
    93         92
    94          8
    95          1
    96          4
   101          1
   102          3
   104         66
   106        999
   107         61
   108          4
   109          1
   111          1
   112          1
   115          1
   117          1
   118          4
   119         10
   120          2
   121          1
   122          8
   123          5
   125          1
   126          1
   127          1
   129          1
   130          1
   132         12
   133          2
   140          1
   142          1
   145          1
   146          1
   147          1
   149          1
   152          1
   153          1
   154          1
   167          5
   168          2
   169          1
   171          2
   172         65
   173          7
   174          1
   175          1
   176          5
   177          1
   181          1
   185          1
   187         26
   188          5
   190         11
   191          2
   194          2
   195          1
   197          3
   198          2
   199          1
   201          1
   203          1
   215          1
   224          2
   226          1
   229          1
   230          1
   243          1
   245         37
   246          4
   274          1
   276          1
   277          1
   291          2
   292          2
   293          5
   294        171
   295         25
   296          3
   298          9
   299          2
   364          1
   365          1
   367         37
   368          6
   369          1