##TITLE=Library Entry 82641
##JCAMP-DX=Revision 4.10 
##DATA TYPE=MASS SPECTRUM
##SAMPLE DESCRIPTION=Chemical Concepts
##NAMES=HP
##CAS NAME=N-[2,2,2-Trifluoro-1-(m-toluidino)-1-(trifluoromethyl)ethyl]nicot
inamide
##MOLFORM=C16H13F6N3O
##CAS REGISTRY NO=256325-89-0
##MP= -300
##BP= -300
##MW= 377
##$RETENTION INDEX=0
##$CONDENSED SPECTRUM=NO
##NPOINTS= 166
##XYDATA=(XY..XY) 1 
    33          1
    34          1
    36          3
    37         12
    38         32
    39         96
    40         19
    41         23
    42          7
    43          8
    44         15
    45          2
    46          1
    47          1
    49         18
    50        148
    51        336
    52        108
    53         45
    54         11
    55          5
    56          4
    57          6
    58          1
    61          6
    62          9
    63         30
    64         15
    65         79
    66         10
    67          4
    69         51
    70          3
    71          4
    73          3
    74         15
    75         14
    76         38
    77        180
    78        805
    79        100
    80         12
    81          3
    82          1
    83          2
    84          1
    85          1
    86          1
    87          1
    89         28
    91        261
    92         22
    93          4
    94          3
    95          3
    96          8
    97          9
    98          1
    99          1
   100          3
   102          2
   104         12
   106        999
   107        217
   108         18
   109          4
   112          1
   113          1
   114          1
   115          3
   116          4
   117          2
   118          3
   119          2
   120          1
   121          3
   122         27
   123         10
   124          1
   126          2
   127          1
   128          1
   129          1
   131          2
   132          2
   133          3
   134          2
   135          1
   136          1
   138          1
   140          1
   141          1
   142          3
   143          2
   144          1
   145          1
   147          4
   148          1
   149          3
   151          1
   152          1
   154          1
   156          1
   159          1
   164          1
   165          1
   166          3
   167          2
   168          1
   171          2
   179          1
   181          2
   182          4
   183          3
   185          4
   186        259
   187         26
   188          4
   192          1
   193          1
   196          1
   197          1
   200          1
   201         15
   202          2
   203          1
   204          5
   205          1
   211          2
   212          1
   213          1
   216          2
   219          8
   220          1
   222          1
   223          2
   229          2
   232          2
   233          1
   234          1
   236          4
   238          1
   244          1
   251          2
   252          3
   253          7
   255        437
   256         47
   257          2
   269          1
   270          2
   271          2
   272          2
   273          1
   288          3
   289          1
   290          1
   291          1
   306          1
   308         21
   309          3
   374          1
   376          2
   377         97
   378         15
   379          2