##TITLE=Library Entry 82519
##JCAMP-DX=Revision 4.10 
##DATA TYPE=MASS SPECTRUM
##SAMPLE DESCRIPTION=Chemical Concepts
##NAMES=HP
##CAS NAME=Ethyl 3,3,3-trifluoro-2-nicotinamido-2-[3-(trifluoromethyl)anilin
o]propionate
##MOLFORM=C18H15F6N3O3
##CAS REGISTRY NO=256326-03-1
##MP= -300
##BP= -300
##MW= 435
##$RETENTION INDEX=0
##$CONDENSED SPECTRUM=NO
##NPOINTS= 161
##XYDATA=(XY..XY) 1 
    34          1
    37          2
    38          5
    39          9
    40         10
    41          5
    42          3
    43          6
    44         11
    45          2
    46          1
    47          1
    49          4
    51        135
    52         17
    53          6
    54          2
    55          4
    56          3
    57          6
    58          1
    61          2
    62          3
    63          5
    64          5
    65          7
    66          2
    67          1
    68          1
    69         10
    70          3
    71          3
    72          1
    73          2
    75         10
    76          9
    78        363
    79         24
    80          2
    81          3
    82          1
    83          5
    84          3
    87          1
    88          2
    89          1
    90          1
    91          3
    92          2
    93          2
    94          2
    95         11
    96          5
    97          1
    98          1
    99          1
   100          2
   101          1
   102          1
   103          2
   104          8
   106        999
   107         61
   108          4
   109          1
   110          1
   111          9
   113          7
   114         14
   115          2
   116          1
   118          2
   119          1
   120          3
   121          3
   122         12
   123          4
   125          8
   126          5
   127          2
   129          1
   132          2
   133          3
   134          2
   139          1
   140          5
   141          4
   142         10
   143          2
   145         64
   146          5
   149          1
   151          1
   152          2
   157          1
   159          2
   160          9
   161         50
   162          5
   163          1
   166          1
   167          2
   168          1
   169          1
   170          2
   171          4
   172         17
   173          2
   183          1
   185          1
   186          2
   187          6
   188          2
   189          1
   195          1
   200          8
   201          1
   213          1
   215          2
   217          1
   219          1
   221          2
   222          1
   229          1
   230          2
   235          8
   236          2
   237          1
   238          2
   240         40
   241          5
   247          1
   255         12
   256          2
   257          2
   258          1
   265          1
   266          1
   274          1
   275          3
   276          1
   283          1
   286          1
   292          1
   294          4
   295          1
   313         12
   314          2
   345          1
   358          1
   360          2
   362        115
   363         18
   364          1
   366          4
   367          1
   416          4
   417          1
   434          1
   435         14
   436          3