##TITLE=Library Entry 74400
##JCAMP-DX=Revision 4.10 
##DATA TYPE=MASS SPECTRUM
##SAMPLE DESCRIPTION=Exported from NIST MS Search
##NAMES=HP
##CAS NAME=1,3-Dioxolane, 4,5-dimethyl-2-(trichloromethyl)-
##MOLFORM=C6H9Cl3O2
##CAS REGISTRY NO=25630-47-1
##MP= -300
##BP= -300
##MW= 218
##$RETENTION INDEX=0
##$CONDENSED SPECTRUM=NO
##NPOINTS= 120
##XYDATA=(XY..XY) 1 
    14          7
    15         57
    16          2
    17          3
    18         15
    19         17
    25          2
    26         29
    27        199
    28        112
    29        264
    30          6
    31        122
    32         15
    35          6
    36         11
    37          3
    38          6
    39         78
    40          6
    41        143
    42         27
    43        514
    44         44
    45        325
    46          7
    47         51
    48         30
    49         26
    50         12
    51          8
    52          1
    53         25
    54          7
    55        767
    56         48
    57         88
    58         14
    59          3
    60         38
    61          9
    62         12
    63        120
    64          2
    65         39
    69          3
    70          2
    71         22
    72         16
    73        890
    74         42
    75         57
    76         21
    77         27
    78          9
    79          3
    82         60
    83        186
    84         41
    85        118
    86          8
    87         30
    88          6
    89          4
    91         82
    92          3
    93         26
    94          5
    95         78
    96          6
    97         49
    98          2
    99          9
   100          1
   101        999
   102         55
   103          9
   105          3
   107         15
   109         11
   110         23
   111         90
   112        380
   113         66
   114        242
   115         25
   116         39
   117         51
   118          4
   119         48
   120          3
   121         17
   122          2
   123          2
   125          2
   127          2
   129          2
   130        248
   131          9
   132        236
   133          6
   134         75
   135          4
   136          8
   138          4
   139        284
   140         16
   141        184
   142          8
   143         30
   147          7
   148          3
   149          6
   164          3
   174          3
   176          4
   178          1
   217          6
   219          6
   221          2