##TITLE=Library Entry 90840
##JCAMP-DX=Revision 4.10 
##DATA TYPE=MASS SPECTRUM
##SAMPLE DESCRIPTION=Chemical Concepts
##NAMES=HP
##CAS NAME=2-Morpholino-6-(p-tolyl)-4,4-bis(trifluoromethyl)-4H-1,3,5-oxadia
zine
##MOLFORM=C16H15F6N3O2
##CAS REGISTRY NO=256326-15-5
##MP= -300
##BP= -300
##MW= 395
##$RETENTION INDEX=0
##$CONDENSED SPECTRUM=NO
##NPOINTS= 169
##XYDATA=(XY..XY) 1 
    33          6
    34          3
    36          1
    38          7
    39         34
    40         58
    41         40
    42        219
    43         35
    44         40
    45         32
    46          2
    47          9
    48          1
    49          1
    50         14
    51         13
    52          8
    54         34
    55         92
    56        340
    57         43
    58          9
    59          4
    60          2
    61          2
    63         37
    64         14
    65         50
    66          4
    67          4
    68          6
    69         44
    70        339
    71         18
    72         10
    73          2
    74          3
    75          7
    76          8
    77          6
    78          7
    79          3
    82          4
    83          8
    84         33
    85         75
    86        142
    87         13
    89         76
    90         65
    91         91
    92         68
    93          3
    95          1
    96          3
    98          1
    99          2
   100          8
   102          4
   103          2
   105          1
   109          4
   111          1
   112         13
   113         43
   114        999
   115         66
   116         70
   117        110
   118         81
   119         83
   120          9
   122          5
   123          4
   124         14
   127          3
   129          2
   131          2
   133          1
   134          1
   137          2
   141          4
   142         74
   143          6
   144          1
   145          3
   146          1
   148          5
   149          2
   150          1
   151         15
   152          2
   153         23
   154          1
   157          1
   159          2
   161          1
   163          1
   164          2
   165          3
   166          2
   171          5
   173          4
   174          1
   176          1
   178          7
   179         40
   180          5
   181         26
   182          2
   183          1
   184          1
   185          1
   190          2
   191         33
   192        111
   193          9
   194          1
   199          1
   201          4
   202          1
   204          1
   208          3
   209        118
   210          9
   219          1
   221         15
   222          2
   226          3
   227          2
   228          3
   229          2
   232          1
   233          1
   234          6
   235         20
   236          3
   240          7
   241          1
   246          1
   247          7
   248          6
   249         18
   250          1
   258         15
   259          2
   262          1
   263          1
   267          1
   269          1
   276          7
   277         14
   278        239
   279         25
   280          2
   282          6
   290          1
   309         13
   310          3
   324          3
   326        211
   327         33
   328          5
   376          1
   393          1
   395         30
   396          3
   397          1