##TITLE=Library Entry 47025
##JCAMP-DX=Revision 4.10 
##DATA TYPE=MASS SPECTRUM
##SAMPLE DESCRIPTION=ASES Database, Dalian Institute, P.R. China
##NAMES=HP
##CAS NAME=3-Phenyl-4-methyl-5-methoxy-isoxazole
##MOLFORM=C11H11NO2
##CAS REGISTRY NO=25632-75-1
##MP= -300
##BP= -300
##MW= 189
##$RETENTION INDEX=0
##$CONDENSED SPECTRUM=NO
##NPOINTS= 50
##XYDATA=(XY..XY) 1 
    39        141
    50        208
    51        460
    55         90
    56         40
    59         40
    61         20
    62         50
    63        128
    64         29
    65         29
    74         60
    75         80
    76         90
    77        999
    78         90
    87         19
    88         19
    89         70
    91         89
    93         19
   102         29
   103        310
   104        198
   105        916
   106         89
   115        128
   116         79
   117         30
   118         30
   119         40
   120        138
   128         70
   129         39
   130        419
   131        119
   132         30
   134         29
   146        138
   147         20
   158        207
   159         30
   160         88
   161         79
   174         99
   175          9
   188         59
   189        338
   190         49
   191         10