##TITLE=Library Entry 48231
##JCAMP-DX=Revision 4.10 
##DATA TYPE=MASS SPECTRUM
##SAMPLE DESCRIPTION=Chemical Concepts
##NAMES=HP
##CAS NAME=N-[2,2,2-Trifluoro-1-(2-pyridylamino)-1-(trifluoromethyl)ethyl]ni
cotinamide
##MOLFORM=C14H10F6N4O
##CAS REGISTRY NO=256326-11-1
##MP= -300
##BP= -300
##MW= 364
##$RETENTION INDEX=0
##$CONDENSED SPECTRUM=NO
##NPOINTS= 129
##XYDATA=(XY..XY) 1 
    33          4
    34          4
    35          1
    36          8
    37         23
    38         46
    39        101
    40         69
    41         67
    42          9
    43         15
    44         34
    45          3
    46          1
    47         11
    49         22
    50        168
    51        398
    52         84
    53         31
    54          7
    55         11
    56          5
    57         12
    58          2
    61          2
    62          5
    63          7
    64         11
    65         12
    66         39
    67        181
    68         16
    69         63
    70          9
    71          6
    73          3
    74          5
    75         16
    76         32
    78        999
    79         59
    80          3
    81          3
    82          4
    83          3
    84          5
    85          2
    87          1
    88          1
    91          6
    92         11
    94        367
    95         21
    96          9
    97          2
    98          2
   100          5
   102          1
   103          4
   104         22
   106        793
   107         48
   108          4
   109          2
   111          1
   112          5
   113          5
   114          2
   115          1
   119          3
   120          9
   122         65
   123          8
   125          2
   128          1
   129          3
   131          1
   142          7
   143          2
   144          1
   152          1
   154          5
   155          1
   156          1
   157          1
   170          6
   171         11
   173         39
   174          4
   183          2
   185          1
   186          1
   189          1
   190          2
   191          7
   192          1
   197          1
   198          5
   199          3
   200          2
   201          2
   203          1
   207          2
   216          1
   221          1
   222          1
   223         16
   224          3
   232          2
   239          1
   242         70
   243         27
   244          2
   251          3
   256          2
   259          1
   270          3
   271         10
   272          1
   283          2
   286          2
   293          1
   295         93
   296         11
   297          2
   301          1
   364         11
   365          2