##TITLE=Library Entry 99798
##JCAMP-DX=Revision 4.10 
##DATA TYPE=MASS SPECTRUM
##SAMPLE DESCRIPTION=Chemical Concepts
##NAMES=HP
##CAS NAME=N-[2,2,2-Trifluoro-1-(4-fluoroanilino)-1-(trifluoromethyl)ethyl]-
p-toluamide
##MOLFORM=C17H13F7N2O
##CAS REGISTRY NO=256325-94-7
##MP= -300
##BP= -300
##MW= 394
##$RETENTION INDEX=0
##$CONDENSED SPECTRUM=NO
##NPOINTS= 144
##XYDATA=(XY..XY) 1 
    33          6
    34          2
    37          3
    38          9
    39         58
    40         53
    41         28
    42          5
    43          9
    44         36
    45          8
    46          3
    47          1
    48          1
    50         19
    51         25
    52          9
    53          6
    54          2
    55         12
    56         10
    57         30
    58          2
    59          3
    60          1
    61          5
    63         52
    64         18
    65        146
    66          9
    67          3
    68          6
    69         27
    70          7
    71          5
    72          2
    73          1
    74          8
    75         42
    76          9
    77          7
    78          4
    79          4
    80          2
    81          7
    82          9
    83         49
    84         24
    85          4
    86          2
    87          2
    89         14
    90         94
    91        390
    92         32
    93          6
    95        183
    96         16
    97          3
    99          1
   100          1
   101          1
   102          1
   104          2
   106          9
   107          3
   108          1
   109          7
   110         28
   111         89
   112          8
   113          3
   115          2
   116          7
   117         14
   119        999
   120         79
   121          9
   122          3
   125          1
   127          2
   129          1
   133          2
   134          6
   135         54
   136          9
   137          9
   138          2
   140          2
   141          1
   142          1
   143          1
   144          1
   145          3
   147          2
   148          1
   151          1
   153          1
   158          1
   160          1
   163          2
   164          1
   170          2
   171          6
   172          1
   184          2
   185          3
   186          2
   188          3
   190        257
   191         21
   192          1
   197          7
   198          2
   200          1
   205         14
   206          3
   213          1
   214          1
   215          1
   227          3
   228          2
   229          2
   240          2
   241          3
   256          2
   257          3
   259        354
   260         33
   261          2
   264          2
   270          1
   283          3
   284          5
   285          1
   325         22
   326          4
   373          1
   374         31
   375          6
   392          1
   394        114
   395         20
   396          2