##TITLE=Library Entry 46554
##JCAMP-DX=Revision 4.10 
##DATA TYPE=MASS SPECTRUM
##SAMPLE DESCRIPTION=A.A.Kutin, Moscow, Russia
##NAMES=HP
##CAS NAME=1,2,4-Triazole, 3-(2-methyl-2-propenyl)thio-5-methyl-4-phenyl-
##MOLFORM=C13H15N3S
##CAS REGISTRY NO=256407-78-0
##MP= -300
##BP= -300
##MW= 245
##$RETENTION INDEX=0
##$CONDENSED SPECTRUM=NO
##NPOINTS= 156
##XYDATA=(XY..XY) 1 
    33          2
    34          1
    35          1
    39        432
    40         62
    41        130
    42        121
    45        120
    46         42
    47         33
    51        493
    53        155
    55        249
    56         29
    57         21
    58         43
    59         58
    61         15
    63         67
    64         59
    65        100
    66         14
    68         25
    69         43
    70         11
    71         21
    72         10
    73          6
    74         25
    77        999
    78         47
    79          4
    80          2
    81          3
    82          7
    83          5
    84         12
    85         22
    87        187
    89         22
    91        107
    92         19
    93          7
    95         14
    96         14
    97         33
    98          3
    99          6
   100          4
   101         11
   103         36
   104         28
   105         14
   106          2
   108          8
   109         15
   110          8
   112         15
   113          1
   114          1
   115          7
   118        328
   119         22
   121         15
   122         14
   123         13
   124          2
   125          0
   126          0
   127          4
   128          8
   129         15
   130         17
   131         42
   132         12
   135        159
   136         82
   137          9
   138          3
   139          0
   140          0
   142          3
   143          5
   144         11
   145         12
   146          8
   147          3
   149         65
   150          7
   151          3
   152          1
   154         21
   156        125
   157         14
   158          9
   159          3
   160         10
   161          2
   162          3
   163          3
   164          0
   165          0
   166          0
   168          7
   169         18
   171        161
   172         36
   173          6
   174          1
   175          1
   176          2
   177          1
   178          0
   182          0
   183          0
   184          2
   185          2
   186          5
   187          4
   189         31
   190         47
   191         11
   192          8
   193          1
   194          0
   196          1
   197          9
   198         25
   199          3
   200          3
   203         71
   204        102
   205         15
   206          5
   207          0
   208          0
   212        142
   213         15
   214          1
   216          7
   217          0
   218          0
   225          0
   227          6
   230        334
   231         38
   232         16
   233          1
   234          0
   241          2
   242          3
   244         37
   245        114
   246         16
   247          6
   248          0