##TITLE=Library Entry 35098
##JCAMP-DX=Revision 4.10 
##DATA TYPE=MASS SPECTRUM
##SAMPLE DESCRIPTION=Japan AIST/NIMC Database- Spectrum MS-IW-7690
##NAMES=HP
##CAS NAME=1-Piperidinyloxy, 2,2,6,6-tetramethyl-
##MOLFORM=C9H18NO
##CAS REGISTRY NO=2564-83-2
##MP= -300
##BP= -300
##MW= 156
##$RETENTION INDEX=0
##$CONDENSED SPECTRUM=NO
##NPOINTS= 101
##XYDATA=(XY..XY) 1 
    15         12
    26          4
    27         82
    28         34
    29        100
    30         24
    31          2
    32          1
    34          2
    37          1
    38          3
    39        130
    40         29
    41        535
    42        183
    43        139
    44         10
    45          3
    46          6
    47          1
    50          3
    51          9
    52          6
    53         55
    54         24
    55        641
    56        840
    57        225
    58         63
    59          5
    60          8
    62          1
    63          3
    65          9
    66          5
    67         85
    68         54
    69        999
    70        461
    71         59
    72         44
    73        135
    74        271
    75          9
    76          1
    77          9
    78          2
    79         20
    80          6
    81        209
    82         72
    83        216
    84         74
    85         14
    86         56
    87          6
    88         17
    89          1
    91          5
    92          1
    93          8
    94          7
    95         26
    96         42
    97         34
    98         57
    99         11
   100         16
   101          1
   105          2
   106          2
   107          8
   108          9
   109         68
   110         13
   111         44
   112          9
   113         11
   114         82
   115          6
   120          1
   121          3
   122          4
   123        157
   124         80
   125         20
   126        135
   127         11
   128          2
   136          1
   137          1
   138          9
   139         10
   140          6
   141        287
   142         91
   143          7
   154          1
   156        490
   157         64
   158          4