##TITLE=Library Entry 67696
##JCAMP-DX=Revision 4.10 
##DATA TYPE=MASS SPECTRUM
##SAMPLE DESCRIPTION=A.A.Kutin, Moscow, Russia
##NAMES=HP
##CAS NAME=Pyridazin-3(2H)-one, 4-(1-benzotriazolyl)-6-(2-furoyl)-2-phenyl-
##MOLFORM=C21H13N5O3
##CAS REGISTRY NO=256421-54-2
##MP= -300
##BP= -300
##MW= 383
##$RETENTION INDEX=0
##$CONDENSED SPECTRUM=NO
##NPOINTS= 46
##XYDATA=(XY..XY) 1 
    33        117
    38         10
    39         88
    40        160
    41         10
    43         14
    44         32
    50         29
    51         39
    52          3
    53          2
    55          3
    57          7
    58         13
    59          9
    63         24
    64         30
    65         11
    67         19
    72          2
    75          5
    76         29
    77        110
    78          7
    88         20
    91         27
    92         42
    93          5
    95        999
    96         43
    98          3
   102         10
   103          2
   105         13
   114          9
   128          5
   129         19
   130         10
   140          2
   157         15
   158          9
   259          2
   355        133
   356         28
   383         69
   384         15