##TITLE=Library Entry 67839
##JCAMP-DX=Revision 4.10 
##DATA TYPE=MASS SPECTRUM
##SAMPLE DESCRIPTION=A.A.Kutin, Moscow, Russia
##NAMES=HP
##CAS NAME=Acetamide, N-[2,3-dihydro-6-(2-furoyl)-3-oxo-2-phenyl]-
##MOLFORM=C17H13N3O4
##CAS REGISTRY NO=256421-52-0
##MP= -300
##BP= -300
##MW= 323
##$RETENTION INDEX=0
##$CONDENSED SPECTRUM=NO
##NPOINTS= 132
##XYDATA=(XY..XY) 1 
    33         16
    37          7
    38         45
    39        284
    40         44
    41         27
    43        860
    45         34
    50         19
    51        112
    52         39
    53         42
    54          7
    55         18
    57          0
    60          6
    62          6
    63         39
    64         85
    65         80
    66         36
    67         85
    68         13
    69          7
    74          2
    75          8
    77        508
    78         43
    79          8
    80          6
    81          6
    82          0
    83          4
    89          5
    91        135
    92         98
    93         69
    95        999
    96         48
    97          5
   101          0
   102          7
   103         19
   104         54
   105         52
   106         11
   107          5
   111          5
   115          6
   116          6
   117          8
   118          5
   119         24
   120         35
   121         34
   122          6
   128          9
   129         13
   130         43
   131         19
   132         15
   133         13
   134          9
   135          1
   141          2
   142          4
   143         12
   144         30
   145          6
   146          0
   147          1
   148         14
   149          6
   150          1
   156          6
   157         24
   158         42
   159         20
   160         23
   161          8
   162          0
   167          2
   168          4
   169         19
   170         25
   171         11
   172         17
   176          5
   180          2
   181          6
   182          4
   183          0
   184         13
   185         14
   186         84
   187         10
   196         97
   197         36
   198         11
   199         10
   202          0
   207         20
   208         24
   209          9
   210          5
   212          2
   213         14
   214          2
   224        106
   225         23
   226          1
   236         64
   237         13
   238          1
   240          3
   252         46
   253         34
   254          6
   266          0
   278          1
   279          8
   280         25
   281        530
   282         93
   283         10
   297          0
   308          2
   319          5
   321          5
   323        525
   324        103
   325         13