##TITLE=Library Entry 82093
##JCAMP-DX=Revision 4.10 
##DATA TYPE=MASS SPECTRUM
##SAMPLE DESCRIPTION=A.A.Kutin, Moscow, Russia
##NAMES=HP
##CAS NAME=Acetamide, N-(2,3-dihydro-6-benzoyl-2-phenyl-4-pyridazinyl)-
##MOLFORM=C19H15N3O3
##CAS REGISTRY NO=256421-50-8
##MP= -300
##BP= -300
##MW= 333
##$RETENTION INDEX=0
##$CONDENSED SPECTRUM=NO
##NPOINTS= 187
##XYDATA=(XY..XY) 1 
    33          3
    34          0
    36          0
    37          1
    38          5
    39         15
    40         11
    41         11
    43        418
    45         31
    49          0
    50         25
    51        116
    52         16
    53         19
    54          3
    55          1
    57          0
    60         18
    61          1
    62          1
    63         12
    64         29
    65         33
    66         11
    67         15
    68          1
    69          0
    72          0
    74          6
    75         10
    77        661
    78         42
    79          3
    80          1
    82          0
    87          0
    88          1
    89          4
    91         67
    92         33
    93         56
    94          5
    95          0
   100          0
   101          2
   102         18
   103         14
   105        999
   106         68
   107          4
   109          0
   110          0
   113          0
   114          3
   115          4
   116          4
   117          4
   119         18
   120          7
   121          1
   122          1
   127          0
   128          3
   129          4
   130         15
   131         15
   132          3
   133          0
   135          1
   137          0
   139          0
   140          1
   141          1
   142          4
   143         19
   144         19
   145         40
   146          5
   147          0
   150          0
   151          1
   152          1
   153          1
   154          0
   155          2
   156          2
   157          5
   158         11
   159          3
   160          4
   161          0
   165          0
   166          1
   167          7
   168          6
   169          4
   170         16
   171         33
   172         11
   173          1
   178          1
   179          0
   180          1
   181          0
   182          0
   184          0
   185          4
   186         38
   187          4
   188          1
   189          0
   190          0
   191          0
   192          0
   193          0
   194          0
   195          1
   196          1
   197          1
   198          3
   199          5
   200          0
   202          0
   205          0
   206          0
   207          2
   208          2
   209          0
   210          0
   212          4
   213          2
   214          6
   215          2
   216          0
   217          0
   218          4
   219          5
   220          1
   221          0
   228          0
   231          0
   232          0
   234         21
   235          9
   236          4
   237          1
   240          1
   241          0
   245          1
   246          7
   247          4
   248          1
   249          0
   254          0
   257          0
   258          0
   259          1
   260          2
   262        163
   263         50
   264          8
   265          0
   273          0
   274          2
   275          6
   276          5
   277          0
   286          0
   287          2
   288          9
   290        135
   291        768
   292        151
   293         16
   294          1
   304          0
   305          0
   318          4
   319          0
   329          1
   330          4
   331          6
   333        609
   334        120
   335         16
   336          1