##TITLE=Library Entry 47097
##JCAMP-DX=Revision 4.10 
##DATA TYPE=MASS SPECTRUM
##SAMPLE DESCRIPTION=A.A.Kutin, Moscow, Russia
##NAMES=HP
##CAS NAME=2-Oxo-5-benzoyl-4,6-diphenyl-1,2,3,4-tetrahydropyrimidine
##MOLFORM=C23H18N2O2
##CAS REGISTRY NO=25652-49-7
##MP= -300
##BP= -300
##MW= 354
##$RETENTION INDEX=0
##$CONDENSED SPECTRUM=NO
##NPOINTS= 117
##XYDATA=(XY..XY) 1 
    33          2
    38          6
    39         37
    40         52
    41         29
    42          7
    43         33
    44         71
    45         13
    50         53
    51        230
    52         35
    53         13
    55         17
    56          5
    57         11
    62          7
    63         24
    64          7
    65         21
    67          6
    68          7
    69         18
    70         10
    71         22
    73          7
    74         14
    75         38
    77        999
    78         85
    79         17
    81          3
    82          6
    88          7
    89         38
    90         16
    91         31
    92          2
    93          5
    94          2
    96         18
    97          4
   101         22
   102         60
   103         74
   104        278
   105        661
   106         60
   107          6
   114          4
   115         13
   116         26
   117         31
   118         10
   122          2
   125          2
   126         10
   128         69
   129         54
   130         32
   131         22
   132         28
   133          2
   135         10
   137          2
   138          8
   139          9
   140          5
   146         12
   147          8
   149         21
   150          5
   151         18
   152         23
   153          6
   156         13
   163          4
   164          6
   165         24
   171         20
   172          5
   176         23
   177         23
   178         54
   179         21
   180          9
   189         11
   191         13
   192          2
   193          6
   199          9
   203          7
   204         29
   205         11
   206         28
   207         10
   208          7
   219          7
   220          3
   231         17
   232         23
   234          6
   247         82
   248         30
   249        419
   250         78
   251          7
   275         37
   277        247
   278         44
   336         12
   337          4
   352         14
   353        265
   354        405
   355         92
   356         12