##TITLE=Library Entry 53555
##JCAMP-DX=Revision 4.10 
##DATA TYPE=MASS SPECTRUM
##SAMPLE DESCRIPTION=A.A.Kutin, Moscow, Russia
##NAMES=HP
##CAS NAME=Pyrrolidine, 1-(3-chloro-4,4,4-trifluoro-2-phenyl-2-butenyl)-
##MOLFORM=C14H15ClF3N
##CAS REGISTRY NO=256529-22-3
##MP= -300
##BP= -300
##MW= 289
##$RETENTION INDEX=0
##$CONDENSED SPECTRUM=NO
##NPOINTS= 213
##XYDATA=(XY..XY) 1 
    33          1
    35          0
    37          2
    38          0
    39         43
    40          1
    41         76
    42        236
    43         15
    44          0
    46          0
    47          0
    48          0
    49          1
    50         14
    51         29
    52          7
    53          8
    54         17
    55         75
    56         23
    57          7
    59          0
    60          0
    61          1
    62          5
    63         12
    64          2
    65          4
    67          5
    68          7
    69         12
    70         14
    71          1
    72          0
    73          3
    74          8
    75         12
    76          5
    77         15
    78         10
    79          1
    80          3
    81          1
    82         14
    84        999
    85         68
    86          2
    87          4
    88          3
    89          6
    90          2
    91          8
    92          2
    93          3
    94          1
    95          0
    96          1
    97          1
    98          1
    99          5
   100          3
   101          6
   102          5
   103          4
   104          2
   105          0
   107          3
   108          1
   109          2
   110          1
   111          1
   112          1
   113          4
   114          1
   115         35
   116          6
   117          2
   118          1
   119          2
   120          5
   121          1
   122          0
   123          2
   125          4
   126          0
   127          5
   128          3
   129          1
   130          1
   131          2
   133         37
   134          6
   135          1
   136          4
   137          1
   138          2
   139          0
   140          0
   141          1
   142          1
   143          6
   144          2
   145          5
   146          2
   147          0
   148          0
   149          4
   150          3
   151         17
   152          2
   153          0
   154          1
   155          0
   156          2
   157          1
   158          1
   159          1
   160          0
   161          0
   162          0
   163          7
   164         32
   165          8
   166          1
   167          1
   169         14
   170          9
   171          2
   172          1
   173          0
   174          0
   176          4
   177          2
   178          0
   179          1
   180          2
   181          0
   182         10
   183         17
   184          5
   185         15
   186          2
   187          4
   188          0
   189          0
   190          0
   191          0
   192          1
   193          0
   194          0
   195          0
   196          0
   197          0
   198          0
   199          5
   200          1
   201          2
   202          0
   203          0
   204          0
   205          0
   206          0
   207          0
   208          0
   209          0
   210          1
   211          1
   212          1
   213          0
   214          0
   215          0
   216          0
   217          0
   218          0
   219          0
   220          0
   221          0
   222          0
   224          1
   225          0
   226          1
   227          0
   228          1
   229          0
   230          0
   231          0
   232          0
   233          0
   234          0
   235          0
   238          0
   246          0
   248          0
   250          0
   251          0
   252          2
   253          0
   254          3
   255          0
   260          0
   261          0
   262          0
   270          4
   271          0
   272          1
   273          0
   286          0
   288          7
   289         10
   290          4
   291          3
   292          0