##TITLE=Library Entry 86922
##JCAMP-DX=Revision 4.10 
##DATA TYPE=MASS SPECTRUM
##SAMPLE DESCRIPTION=V.G. Zaikin, TIPS RAS, Moscow, Russia
##NAMES=HP
##CAS NAME=2-Cyclohexylethanol, TMS derivative
##MOLFORM=C11H24OSi
##CAS REGISTRY NO=256521-81-0
##MP= -300
##BP= -300
##MW= 200
##$RETENTION INDEX=0
##$CONDENSED SPECTRUM=NO
##NPOINTS= 84
##XYDATA=(XY..XY) 1 
    26         13
    27        148
    28         30
    29        129
    30          8
    31         15
    38          8
    39        161
    40         27
    41        424
    42         54
    43        141
    44         45
    45        209
    46         15
    47         79
    48          4
    50          8
    51         18
    52          8
    53         69
    54         59
    55        278
    56         49
    57         22
    58         65
    59        148
    60         29
    61         96
    62          9
    63          7
    64          9
    65         18
    66         12
    67        411
    68         49
    69         39
    70          6
    71         15
    72         25
    73        415
    74         45
    75        418
    76         29
    77         28
    78          9
    79         37
    80         13
    81        142
    82        145
    83         74
    84          6
    85         12
    86          3
    87         33
    88         11
    89        129
    90          9
    91         27
    92          6
    93         12
    94          4
    95         19
    96          4
    97          9
    98          4
    99         49
   100          4
   101         59
   102         39
   103        148
   104         14
   105          6
   109          8
   110        999
   111        166
   112         12
   127          6
   184          8
   185        299
   186         49
   187         12
   200         12
   201          3