##TITLE=Library Entry 79910
##JCAMP-DX=Revision 4.10 
##DATA TYPE=MASS SPECTRUM
##SAMPLE DESCRIPTION=V.A. KOPTYUG, ATLAS OF MS OF ORG. CMPDS., ED. 2
##NAMES=HP
##CAS NAME=2-Oxo-5-benzoyl-6-phenyl-4-(4-tolyl)-1,2,3,4-tetrahydropyrimidine
##MOLFORM=C24H20N2O2
##CAS REGISTRY NO=25652-52-2
##MP= -300
##BP= -300
##MW= 368
##$RETENTION INDEX=0
##$CONDENSED SPECTRUM=NO
##NPOINTS= 119
##XYDATA=(XY..XY) 1 
    44         76
    45         23
    50         23
    51         74
    52         22
    53         19
    55         84
    56         41
    57         74
    60         25
    63         17
    64         21
    65         59
    67         42
    68         25
    69         57
    70         24
    71         46
    73         25
    74         14
    75         17
    76         32
    77        796
    78         77
    79         30
    81         32
    82         24
    83         48
    84         17
    85         23
    89         26
    90         22
    91        142
    92         27
    93         27
    95         33
    96         20
    97         27
    98         21
   101         17
   102         33
   103         60
   104        253
   105        999
   106         84
   109         20
   110         13
   111         18
   115         77
   116         43
   117         58
   118        120
   119         28
   128         58
   129         65
   130         54
   131         28
   132         24
   141         18
   142         30
   143         42
   144         21
   145         25
   146         48
   152         16
   155         21
   156         34
   165         23
   169         24
   171         28
   175         54
   176         19
   178         41
   179         17
   187         33
   188         25
   189         20
   190         15
   191         33
   192         15
   193         19
   203         24
   204         30
   205         20
   206         32
   217         20
   218         24
   219         17
   220         40
   245         20
   246         44
   247         90
   248         31
   261         78
   262         31
   263        792
   264        165
   265         25
   275         54
   276         18
   277        326
   278         65
   289         41
   291         94
   292         35
   323         40
   324         23
   341         30
   342         20
   343         36
   353        164
   354         48
   361         14
   362         44
   366         21
   367        438
   368        679
   369        192
   370         34