##TITLE=Library Entry 70821
##JCAMP-DX=Revision 4.10 
##DATA TYPE=MASS SPECTRUM
##SAMPLE DESCRIPTION=A.A.Kutin, Moscow, Russia
##NAMES=HP
##CAS NAME=Piperidine, 1-(3-chloro-4,4,4-trifluoro-2-phenyl-2-butenyl)-
##MOLFORM=C15H17ClF3N
##CAS REGISTRY NO=256529-21-2
##MP= -300
##BP= -300
##MW= 303
##$RETENTION INDEX=0
##$CONDENSED SPECTRUM=NO
##NPOINTS= 205
##XYDATA=(XY..XY) 1 
    33          0
    35          0
    36          0
    37          1
    39         53
    41        164
    42        177
    43         19
    44         38
    46          0
    47          0
    49          0
    50         13
    51         28
    52          7
    53         12
    54         25
    55        105
    56         25
    59          0
    60          0
    61          1
    62          4
    63         11
    64          2
    65          5
    67          8
    68         10
    69         32
    70         37
    71          2
    72          0
    73          3
    74          6
    75         11
    76          5
    77         16
    78         12
    79          2
    80          3
    81          3
    82         10
    83         11
    84          6
    85          2
    86          2
    87          3
    88          3
    89          6
    90          1
    91          7
    92          1
    93          2
    94          2
    96         21
    98        999
    99         83
   100          3
   101          5
   102          4
   103          4
   104          2
   105          1
   106          1
   107          2
   108          0
   109          2
   110          1
   111          1
   112          1
   113          4
   114          1
   115         34
   116          5
   117          2
   118          1
   119          1
   120          5
   121          1
   122          0
   123          2
   125          2
   126          0
   127          4
   128          2
   129          1
   130          2
   133         36
   134          5
   135          1
   136          3
   137          1
   138          2
   139          0
   140          0
   141          2
   142          2
   143          6
   144          2
   145          4
   146          2
   147          0
   148          0
   149          4
   150          1
   151         14
   152          2
   153          0
   154          0
   155          0
   156          2
   157          1
   158          1
   159          1
   160          0
   161          1
   162          1
   163          7
   164         30
   165          7
   166          1
   167          1
   169         12
   170          8
   171          2
   172          1
   173          0
   174          0
   175          0
   176          0
   177          1
   178          1
   179          1
   180          2
   182          8
   183         16
   184          4
   185         14
   186          2
   187          4
   188          0
   190          4
   191          1
   192          1
   193          0
   194          0
   195          0
   196          1
   197          1
   198          2
   199          5
   200          1
   201          1
   202          0
   203          0
   204          0
   205          1
   206          0
   207          0
   208          0
   209          0
   210          1
   211          1
   212          2
   213          0
   214          0
   217          0
   218          0
   219          0
   220          0
   221          0
   222          0
   224          1
   225          0
   226          0
   228          0
   229          0
   230          0
   231          0
   232          0
   234          0
   238          0
   239          0
   240          0
   246          1
   248          0
   249          0
   250          0
   260          0
   262          0
   264          0
   266          1
   268          2
   269          0
   274          0
   276          0
   284          4
   285          0
   286          1
   287          0
   302          8
   303          8
   304          4
   305          2
   306          0