##TITLE=Library Entry 10520
##JCAMP-DX=Revision 4.10 
##DATA TYPE=MASS SPECTRUM
##SAMPLE DESCRIPTION=Chemical Concepts
##NAMES=HP
##CAS NAME=4-Hexen-2-one
##MOLFORM=C6H10O
##CAS REGISTRY NO=25659-22-7
##MP= -300
##BP= -300
##MW= 98
##$RETENTION INDEX=0
##$CONDENSED SPECTRUM=NO
##NPOINTS= 45
##XYDATA=(XY..XY) 1 
    26          9
    27         71
    28         12
    29         84
    30          2
    31          0
    32          1
    37          4
    38          7
    39         67
    40          5
    41         27
    42         18
    43        999
    44         29
    45          3
    49          2
    50         14
    51         14
    52          6
    53         31
    54         19
    55        157
    56         22
    57          1
    58          2
    61          0
    62          0
    63          1
    65          0
    67          1
    69          0
    70          0
    74          0
    77          1
    79          1
    81          3
    82          0
    83         20
    84          0
    95          0
    97          0
    98        181
    99         14
   100          0