##TITLE=Library Entry 81248
##JCAMP-DX=Revision 4.10 
##DATA TYPE=MASS SPECTRUM
##SAMPLE DESCRIPTION=Q. Pu, LBC, NIDDK, NIH, Bethesda, MD 20892
##NAMES=HP
##CAS NAME=L-Phenylalanine, N-benzoyl-
##MOLFORM=C16H15NO3
##CAS REGISTRY NO=2566-22-5
##MP= -300
##BP= -300
##MW= 269
##$RETENTION INDEX=0
##$CONDENSED SPECTRUM=NO
##NPOINTS= 154
##XYDATA=(XY..XY) 1 
    41         16
    42          5
    43         16
    44         14
    45         22
    46          1
    47          0
    48          0
    49          1
    50         33
    51        121
    52         19
    53          9
    54          3
    55         12
    56          6
    57          9
    58          2
    59          1
    60          3
    61          1
    62          5
    63         17
    64          8
    65         67
    66          7
    67          5
    68          9
    69          9
    70          3
    71          4
    73          4
    74          8
    75         10
    76         29
    77        475
    78         47
    79         15
    80          3
    81          3
    82          4
    83          5
    84          2
    85          3
    86          1
    87          1
    88          0
    89         17
    90         12
    91        202
    92         30
    93          6
    94          8
    95          4
    96          2
    97          5
    98          3
    99          1
   100          0
   101          1
   102          9
   103         21
   104         85
   105        999
   106         79
   107          9
   108          6
   109          3
   110          2
   112         14
   113          2
   115          2
   116          2
   117          8
   118         18
   119          8
   120         13
   121          8
   122         60
   123          6
   124          4
   125          2
   126          0
   127          0
   128          3
   129          2
   130          5
   131         13
   132          4
   133         10
   134         18
   135          2
   136         15
   137          2
   138          1
   139          2
   140          1
   141          0
   143          0
   145          1
   146          2
   147        202
   148        597
   149         60
   150         17
   151          2
   152          4
   153          1
   154          0
   157          0
   161          0
   162          0
   163          1
   164         28
   165          8
   166          3
   167          1
   168         10
   169          1
   171          2
   177          0
   178          8
   179          8
   180          2
   181          1
   182         31
   183         18
   184          2
   185          0
   194          0
   195          1
   196          0
   197         41
   198          4
   199          0
   204          0
   206          0
   207          0
   210          2
   211          0
   222          1
   223         12
   224         35
   225         72
   226         11
   227          0
   251          1
   252          1
   253          0
   256          0
   268          0
   269         42
   270         10
   271          1