##TITLE=Library Entry 4393
##JCAMP-DX=Revision 4.10 
##DATA TYPE=MASS SPECTRUM
##SAMPLE DESCRIPTION=A.Pleshkova, Nesmeyanov Inst.Org.Elem.Cpds, Moscow
##NAMES=HP
##CAS NAME=1-Methyl-2-carbomethoxyaziridine
##MOLFORM=C5H9NO2
##CAS REGISTRY NO=25662-13-9
##MP= -300
##BP= -300
##MW= 115
##$RETENTION INDEX=0
##$CONDENSED SPECTRUM=NO
##NPOINTS= 33
##XYDATA=(XY..XY) 1 
    27        238
    28        946
    29        182
    30        126
    31         14
    40         28
    41        137
    42        999
    43         73
    44         36
    45        476
    46         19
    54         56
    55         59
    56        272
    57        101
    58         14
    59         42
    60          7
    70         56
    71          9
    72         28
    73          4
    84         70
    85         17
    87         50
    88         15
   100        224
   101         14
   114         11
   115         93
   116          6
   117          1