##TITLE=Library Entry 48976
##JCAMP-DX=Revision 4.10 
##DATA TYPE=MASS SPECTRUM
##SAMPLE DESCRIPTION=NIST Mass Spectrometry Data Center
##NAMES=HP
##CAS NAME=4,7,10,13,16,19-Docosahexaenoic acid, methyl ester, (all-Z)-
##MOLFORM=C23H34O2
##CAS REGISTRY NO=2566-90-7
##MP= -300
##BP= -300
##MW= 342
##$RETENTION INDEX=2471
##$CONDENSED SPECTRUM=NO
##NPOINTS= 245
##XYDATA=(XY..XY) 1 
    15          8
    26          1
    27         24
    28          3
    29         34
    30          1
    31          2
    33          1
    38          1
    39         79
    40         14
    41        317
    42         20
    43         57
    44          2
    45         12
    50          5
    51         26
    52         19
    53        118
    54         44
    55        238
    56         14
    57         20
    59         99
    60          4
    61          3
    62          1
    63          9
    64          4
    65        138
    66        119
    67        540
    68         51
    69         80
    70         16
    71         26
    72          3
    73          7
    74         91
    75          9
    77        403
    78        214
    79        999
    80        296
    81        197
    82         43
    83         25
    84          8
    85         75
    86          5
    87         22
    88         44
    89          9
    91        933
    92        317
    93        491
    94        138
    95        156
    96         20
    97         20
    98          7
    99          9
   100          2
   101          9
   102          9
   103         59
   104         93
   105        480
   106        245
   107        167
   108        318
   109         75
   110         11
   111          9
   112          1
   113          5
   114          2
   115         81
   116         41
   117        361
   118        108
   119        412
   120        118
   121        100
   122         41
   123         18
   124          3
   125          2
   126          2
   127         23
   128         42
   129        105
   130         62
   131        256
   132        128
   133        208
   134         87
   135         65
   136         14
   137          7
   138          2
   139          2
   140          6
   141         26
   142         14
   143         68
   144         32
   145        152
   146         64
   147        109
   148         63
   149         24
   150          4
   151          4
   152          8
   153          9
   154          6
   155         17
   156          9
   157         53
   158         20
   159        113
   160         35
   161         67
   162         22
   163          8
   164          2
   165          8
   166         63
   167         16
   168          4
   169         20
   170          7
   171         41
   172         15
   173         62
   174         24
   175         30
   176          8
   177          6
   178          6
   179          7
   180         11
   181         11
   182          4
   183         18
   184          6
   185         32
   186         14
   187         31
   188         15
   189          8
   190          2
   191          5
   192          5
   193          9
   194          6
   195          5
   196          2
   197         11
   198          3
   199         31
   200         10
   201         30
   202          9
   203          3
   204          2
   205          6
   206         27
   207          7
   208          3
   209          4
   210          1
   211          5
   212          3
   213         15
   214          6
   215         20
   216          4
   217          3
   218          2
   219          6
   220          6
   221          3
   222          1
   223          8
   224          2
   225          4
   226          2
   227         10
   228          3
   229          2
   230          1
   231          3
   232          2
   233          6
   234          4
   235          2
   237          1
   239          4
   240          1
   241         15
   242          3
   243          1
   244          1
   245          3
   246          4
   247          2
   248          1
   249          1
   251          1
   253          2
   254          1
   255          6
   256          1
   257          2
   258          1
   259          3
   260          3
   261          1
   262          1
   263          1
   267          2
   268          1
   269          2
   271          2
   272          1
   273          8
   274          3
   275          1
   281          1
   282          1
   285          2
   286          1
   287          1
   288          2
   293          1
   299          3
   300          1
   301          1
   311          3
   312          1
   313          4
   314          1