##TITLE=Library Entry 49085
##JCAMP-DX=Revision 4.10 
##DATA TYPE=MASS SPECTRUM
##SAMPLE DESCRIPTION=Chemical Concepts
##NAMES=HP
##CAS NAME=Bicyclo[2.2.1]heptan-7-ol
##MOLFORM=C7H12O
##CAS REGISTRY NO=2566-48-5
##MP= -300
##BP= -300
##MW= 112
##$RETENTION INDEX=0
##$CONDENSED SPECTRUM=NO
##NPOINTS= 72
##XYDATA=(XY..XY) 1 
    26         20
    27        250
    28         27
    29        269
    30         10
    31        100
    37          7
    38         23
    39        327
    40         52
    41        401
    42         93
    43        188
    44         32
    45         37
    46          1
    47          1
    48          1
    49          2
    50         23
    51         52
    52         21
    53        148
    54        118
    55        303
    56        148
    57        531
    58         45
    59          2
    61          1
    62          5
    63         12
    64          1
    65         46
    66        130
    67        216
    68        416
    69         93
    70        438
    71        120
    72          5
    73          0
    74          1
    75          2
    76          1
    77         82
    78         31
    79        999
    80        113
    81        468
    82         66
    83        243
    84        103
    85          5
    86          1
    89          1
    90          1
    91         28
    92          2
    93         72
    94        816
    95         96
    96          3
    97        108
    98          8
    99          0
   109          0
   110          1
   111         17
   112        121
   113         12
   114          1