##TITLE=Library Entry 48776
##JCAMP-DX=Revision 4.10 
##DATA TYPE=MASS SPECTRUM
##SAMPLE DESCRIPTION=Chemical Concepts
##NAMES=HP
##CAS NAME=Bicyclo[4.1.0]hept-2-ene
##MOLFORM=C7H10
##CAS REGISTRY NO=2566-57-6
##MP= -300
##BP= -300
##MW= 94
##$RETENTION INDEX=0
##$CONDENSED SPECTRUM=NO
##NPOINTS= 51
##XYDATA=(XY..XY) 1 
    24          1
    26         10
    27         34
    28          2
    31          2
    36          0
    37          6
    38         16
    39         95
    40         19
    41         22
    43          0
    44          0
    45          4
    46          2
    48          0
    49          3
    50         28
    51         52
    52         30
    53         50
    57          0
    59          3
    60          1
    61          7
    62         15
    63         35
    64          6
    65        104
    66        162
    71          0
    72          0
    74          4
    75          2
    76          1
    77        461
    78         70
    79        999
    80         62
    84          0
    85          1
    86          2
    87          1
    88          0
    89          6
    90          1
    91        180
    92         17
    93        113
    94        295
    95         16