##TITLE=Library Entry 23807
##JCAMP-DX=Revision 4.10 
##DATA TYPE=MASS SPECTRUM
##SAMPLE DESCRIPTION=A.Pleshkova, Nesmeyanov Inst.Org.Elem.Cpds, Moscow
##NAMES=HP
##CAS NAME=1-Tert.-butyl-2-carbomethoxyaziridine
##MOLFORM=C8H15NO2
##CAS REGISTRY NO=25662-14-0
##MP= -300
##BP= -300
##MW= 157
##$RETENTION INDEX=0
##$CONDENSED SPECTRUM=NO
##NPOINTS= 53
##XYDATA=(XY..XY) 1 
    26         24
    27        109
    28        136
    29        411
    30         61
    31         10
    39         51
    40         34
    41        765
    42        622
    43        136
    44         18
    45        391
    46         19
    53         17
    54         41
    55        221
    56        340
    57        999
    58        112
    59        119
    60         17
    68        282
    69        418
    70        119
    71         17
    72         51
    73         71
    74         17
    81         34
    82        350
    83         34
    84        187
    85         71
    86         44
    87         44
    88         11
    98        272
    99         17
   100        133
   101        619
   102        187
   103         37
   104          9
   110        112
   111         17
   126         44
   142        653
   143         68
   144         11
   157         78
   158          7
   159          1