##TITLE=Library Entry 32448
##JCAMP-DX=Revision 4.10 
##DATA TYPE=MASS SPECTRUM
##SAMPLE DESCRIPTION=R.T.HOLMAN,UNIVERSITY OF MINNESOTA
##NAMES=HP
##CAS NAME=9,12-Octadecadienoic acid, methyl ester, (E,E)-
##MOLFORM=C19H34O2
##CAS REGISTRY NO=2566-97-4
##MP= -300
##BP= -300
##MW= 294
##$RETENTION INDEX=1980
##$CONDENSED SPECTRUM=NO
##NPOINTS= 199
##XYDATA=(XY..XY) 1 
    26         22
    27        220
    29        380
    30         15
    31         28
    33          7
    37          8
    38         13
    39        230
    40         41
    41        890
    42        120
    43        420
    44         99
    45         38
    50         10
    51         26
    52         23
    53        170
    54        360
    55        750
    56         80
    57         85
    58         35
    59        220
    60         13
    61          6
    63         10
    64          5
    65         72
    66         72
    67        999
    68        350
    69        340
    70         40
    71         37
    72         10
    73         32
    74        150
    75         19
    76          7
    77        150
    78         48
    79        390
    80        220
    81        770
    82        390
    83        180
    84         39
    85         39
    86          6
    87         87
    88         14
    89          6
    90          5
    91        110
    92         26
    93        150
    94        100
    95        500
    96        330
    97        110
    98         30
    99         20
   100          7
   101         24
   102          6
   103          8
   104          8
   105         34
   106         17
   107         77
   108         69
   109        240
   110        100
   111         54
   112         12
   113         12
   114          8
   115         33
   116          7
   117         11
   118          7
   119         23
   120         18
   121         75
   122         58
   123        120
   124        110
   125         32
   126         10
   127         13
   128         10
   129         23
   130          7
   131         18
   132          7
   133         23
   134         14
   135         68
   136         78
   137         72
   138         61
   139         21
   140         15
   141         21
   142          7
   143         20
   144          6
   145         13
   146          8
   147         18
   148          8
   149         59
   150        110
   151         49
   152         36
   153         16
   154         17
   155         13
   156          6
   157         11
   158          6
   159         11
   160          6
   161         10
   162          6
   163         36
   164         63
   165         33
   166         21
   167         14
   168         16
   169          8
   171          8
   173         15
   174          6
   175          7
   176          5
   177         21
   178         44
   179         21
   180         12
   181         14
   182         13
   183          6
   185          6
   187         10
   188          5
   189          6
   191         15
   192         18
   193         12
   194          7
   195         13
   196         13
   197          5
   199          5
   201          6
   205         11
   206         11
   207          7
   208          6
   209         12
   210         12
   211          5
   213          5
   215          5
   218          7
   219          8
   220         34
   221         11
   222          5
   223         12
   224          9
   225          5
   227          5
   233         10
   234         15
   235          6
   236          4
   237         10
   238          7
   245          6
   251          5
   252          5
   261          5
   262         69
   263         95
   264         22
   265          8
   266          5
   279          5
   290          4
   292          8
   293          5
   294        300
   295         58
   296         10