##TITLE=Library Entry 48985
##JCAMP-DX=Revision 4.10 
##DATA TYPE=MASS SPECTRUM
##SAMPLE DESCRIPTION=NIST Mass Spectrometry Data Center
##NAMES=HP
##CAS NAME=5,8,11,14-Eicosatetraenoic acid, methyl ester, (all-Z)-
##MOLFORM=C21H34O2
##CAS REGISTRY NO=2566-89-4
##MP= -300
##BP= -300
##MW= 318
##$RETENTION INDEX=2274
##$CONDENSED SPECTRUM=NO
##NPOINTS= 234
##XYDATA=(XY..XY) 1 
    15          9
    26          2
    27         39
    28          8
    29         85
    30          2
    31          4
    33          1
    39         87
    40         16
    41        370
    42         36
    43        152
    44          7
    45         13
    50          4
    51         22
    52         18
    53        107
    54         84
    55        342
    56         29
    57         64
    58          5
    59        109
    60          5
    61          3
    62          1
    63          7
    64          3
    65        128
    66        135
    67        630
    68         77
    69        129
    70         15
    71         42
    72          4
    73         17
    74        153
    75         11
    77        366
    78        237
    79        999
    80        673
    81        368
    82         70
    83         55
    84         22
    85         62
    86          4
    87         74
    88         31
    89          8
    91        848
    92        249
    93        605
    94        227
    95        200
    96         82
    97         49
    98         12
    99         21
   100          3
   101         17
   102         10
   103         45
   104         88
   105        465
   106        436
   107        251
   108         57
   109         79
   110         28
   111         13
   112          3
   113          5
   114          3
   115         57
   116         25
   117        171
   118         55
   119        329
   120        192
   121        178
   122         44
   123         43
   124         19
   125          9
   126          3
   127         13
   128         22
   129         50
   130         44
   131        139
   132         51
   133        241
   134         75
   135        108
   136         41
   137         22
   138          5
   139          3
   140         10
   141         26
   142          9
   143         19
   144         19
   145         59
   146         47
   147        138
   148         54
   149         59
   150        267
   151         40
   152          7
   153          4
   154         10
   155         10
   156          3
   157         33
   158          7
   159         39
   160         29
   161         79
   162         34
   163         31
   164         74
   165         15
   166          9
   167          7
   168          3
   169         12
   170          4
   171         13
   172          3
   173         33
   174         15
   175         94
   176         34
   177         68
   178         15
   179          8
   180         92
   181         19
   182          3
   183         29
   184          5
   185          6
   186          2
   187         32
   188         12
   189         30
   190         23
   191         13
   192          4
   193          9
   194         20
   195          5
   196          1
   197          9
   198          2
   199          3
   200          1
   201         25
   202          7
   203         89
   204         18
   205          8
   206          8
   207         32
   208         10
   209          2
   210          1
   211          3
   212          1
   213          2
   214          1
   215         13
   216          3
   217         35
   218          9
   219          9
   220         37
   221         11
   222          2
   224          1
   225          1
   227          2
   228          1
   229          4
   230          2
   231          8
   232          2
   233         14
   234          7
   235          3
   236          1
   237          1
   238          8
   239          2
   241          1
   242          1
   243          2
   244          5
   245          4
   246          1
   247         17
   248          7
   249          2
   250         10
   251          2
   252          1
   257          2
   258          2
   259          1
   261          8
   262          3
   263          1
   264         10
   265          2
   268          1
   269          6
   270          1
   275          4
   276          1
   277          3
   278          1
   286          3
   287          2
   289          2
   290          2
   318         10
   319          2