##TITLE=Library Entry 32304
##JCAMP-DX=Revision 4.10 
##DATA TYPE=MASS SPECTRUM
##SAMPLE DESCRIPTION=NIST Mass Spectrometry Data Center
##NAMES=HP
##CAS NAME=Cyclopropaneethanol
##MOLFORM=C5H10O
##CAS REGISTRY NO=2566-44-1
##MP= -300
##BP= -300
##MW= 86
##$RETENTION INDEX=0
##$CONDENSED SPECTRUM=NO
##NPOINTS= 45
##XYDATA=(XY..XY) 1 
    11          6
    12          3
    13          4
    14         19
    15         41
    16          4
    17          1
    18          4
    19         25
    26        109
    27        599
    28        250
    29        722
    30         80
    31        581
    32         14
    37         57
    38        107
    39        776
    40        191
    41        562
    42        130
    43        176
    44        354
    45         43
    49         14
    50         71
    51         88
    52         34
    53        413
    54         90
    55        647
    56        244
    57        570
    58         75
    61          4
    62          8
    63         11
    65         24
    67        999
    68        649
    69         42
    71         23
    85          5
    86         19