##TITLE=Library Entry 85531
##JCAMP-DX=Revision 4.10 
##DATA TYPE=MASS SPECTRUM
##SAMPLE DESCRIPTION=A. A. POLYAKOVA MOSCOW LOMONOSOV STATE UNIV., MOSCOW, U
SSR
##NAMES=HP
##CAS NAME=1-Propene, 1,1,3-trichloro-
##MOLFORM=C3H3Cl3
##CAS REGISTRY NO=2567-14-8
##MP= -300
##BP= -300
##MW= 144
##$RETENTION INDEX=840
##$CONDENSED SPECTRUM=NO
##NPOINTS= 33
##XYDATA=(XY..XY) 1 
    26        424
    27        630
    35        404
    37        137
    39        485
    43        129
    49        174
    51         52
    73        266
    75         95
    83        174
    85         79
   101          4
   105         18
   107         32
   108         18
   109        999
   110         37
   111        595
   112         22
   113         46
   114          2
   119          4
   123          5
   124          4
   125          3
   142          6
   143          8
   144         84
   145          7
   146         82
   147         19
   148         29