##TITLE=Library Entry 56668
##JCAMP-DX=Revision 4.10 
##DATA TYPE=MASS SPECTRUM
##SAMPLE DESCRIPTION=Insect Chem. Ecol. Lab., USDA, Beltsville, MD 20705
##NAMES=HP
##CAS NAME=Acetamide, N,N-dibutyl-2-chloro-
##MOLFORM=C10H20ClNO
##CAS REGISTRY NO=2567-59-1
##MP= -300
##BP= -300
##MW= 205
##$RETENTION INDEX=0
##$CONDENSED SPECTRUM=NO
##NPOINTS= 148
##XYDATA=(XY..XY) 1 
    41        550
    42        488
    43        311
    44        621
    45         25
    46          0
    47          5
    48          8
    49        159
    50          9
    51         62
    52          8
    53         31
    54         37
    55        143
    56        139
    57        417
    58         50
    59          3
    60          4
    61          4
    62          1
    63          4
    64          4
    65          9
    66          2
    67          6
    68         14
    69         29
    70         45
    71         21
    72         74
    73          8
    74          3
    75          4
    76         18
    77        180
    78         17
    79         64
    80          5
    81          2
    82          7
    83         10
    84        100
    85         20
    86        999
    87         61
    88          3
    89          4
    90          3
    91         39
    92         14
    93          3
    94         19
    95          2
    96         12
    97          4
    98         46
    99         11
   100        250
   101         13
   102          3
   103          9
   104         39
   105         86
   106         91
   107         38
   108         36
   109         13
   110          4
   111          1
   112         25
   113          5
   114        235
   115         17
   116          2
   117          2
   118          1
   119          2
   120        694
   121         65
   122        236
   123         20
   124          2
   125          0
   126         19
   127          7
   128         81
   129         10
   130          2
   131          2
   132          2
   133          8
   134          9
   135          4
   136          3
   137          0
   140         12
   141          0
   142         15
   143          1
   144          4
   145          1
   146          1
   147          3
   148          7
   149          1
   150         23
   151          1
   152          7
   154         46
   155          2
   156        683
   157         65
   158          7
   159          0
   160          1
   161          0
   162        500
   163         43
   164        165
   165         13
   166          1
   168          2
   169          1
   170        395
   171         45
   172          3
   176         28
   177          3
   178         10
   179          1
   184          0
   186          0
   187          1
   188          1
   190          7
   191          0
   192          2
   193          0
   199          0
   204         17
   205         55
   206         50
   207         24
   208         15
   209          2
   210          0