##TITLE=Library Entry 50428
##JCAMP-DX=Revision 4.10 
##DATA TYPE=MASS SPECTRUM
##SAMPLE DESCRIPTION=Chemical Concepts
##NAMES=HP
##CAS NAME=Bicyclo[3.3.1]nonan-2-ol
##MOLFORM=C9H16O
##CAS REGISTRY NO=2568-14-1
##MP= -300
##BP= -300
##MW= 140
##$RETENTION INDEX=0
##$CONDENSED SPECTRUM=NO
##NPOINTS= 63
##XYDATA=(XY..XY) 1 
    26         13
    27        172
    29        165
    30         10
    31         54
    38         10
    39        297
    40         47
    41        461
    42         50
    43         82
    44         56
    45         16
    50         13
    51         52
    52         19
    53        141
    54        280
    55        631
    56         52
    57        255
    58        267
    59         19
    65         53
    66         81
    67        666
    68        271
    69         93
    70         91
    71         30
    72          9
    77        120
    78         75
    79        601
    80        678
    81        999
    82        184
    83        318
    84         34
    85          7
    91         68
    92         22
    93        356
    94        820
    95        145
    96        649
    97        136
    98         14
    99         18
   105         15
   106          7
   107        222
   108         34
   109        139
   110         16
   111         38
   112         55
   121         29
   122        734
   123         69
   139         12
   140        131
   141         10