##TITLE=Library Entry 21471
##JCAMP-DX=Revision 4.10 
##DATA TYPE=MASS SPECTRUM
##SAMPLE DESCRIPTION=Philip Morris R&D
##NAMES=HP
##CAS NAME=2-Hydroxy-3-propyl-2-cyclopenten-1-one
##MOLFORM=C8H12O2
##CAS REGISTRY NO=25684-04-2
##MP= -300
##BP= -300
##MW= 140
##$RETENTION INDEX=1188
##$CONDENSED SPECTRUM=NO
##NPOINTS= 39
##XYDATA=(XY..XY) 1 
    38         71
    39        224
    40         53
    41        349
    42        236
    43        408
    45        153
    51         65
    52          5
    53        195
    54        100
    55        999
    56         76
    57        142
    58         11
    65         35
    66         17
    67          5
    68         35
    69        218
    70         88
    71         65
    77         47
    79         29
    81         23
    83        449
    84         47
    89         35
    91         11
    94          5
    97        207
    98        124
    99        213
   111        396
   112        538
   113          5
   125        627
   140        526
   141         17