##TITLE=Library Entry 26007
##JCAMP-DX=Revision 4.10 
##DATA TYPE=MASS SPECTRUM
##SAMPLE DESCRIPTION=Exported from NIST MS Search
##NAMES=HP
##CAS NAME=Propane, 1,1'-[methylenebis(oxy)]bis[2-methyl-
##MOLFORM=C9H20O2
##CAS REGISTRY NO=2568-91-4
##MP= -300
##BP= -300
##MW= 160
##$RETENTION INDEX=937
##$CONDENSED SPECTRUM=NO
##NPOINTS= 65
##XYDATA=(XY..XY) 1 
    12          1
    13          1
    14          5
    15         34
    16          4
    17          1
    18          3
    19          1
    26         10
    27        134
    28         32
    29        224
    30          9
    31         40
    32          2
    33          3
    37          5
    38          5
    39         92
    40         15
    41        250
    42         34
    43         93
    44         78
    45         17
    46          1
    47          2
    52          1
    53          6
    54          2
    55         24
    56         49
    57        999
    58         46
    59          9
    60          2
    61          2
    69          3
    70          1
    71          5
    72          8
    73         26
    74          2
    75          2
    85          2
    86          4
    87        381
    88         22
    89          3
    91          1
   101          4
   102          1
   103          4
   104          1
   105         12
   106          1
   112          2
   116          1
   117         31
   118          2
   131         34
   132          2
   145          1
   159          6
   160          1