##TITLE=Library Entry 95431
##JCAMP-DX=Revision 4.10 
##DATA TYPE=MASS SPECTRUM
##SAMPLE DESCRIPTION=A.A.Kutin, Moscow, Russia
##NAMES=HP
##CAS NAME=Piperidine, 1-(3-phenyl-2-propynyl)-
##MOLFORM=C14H17N
##CAS REGISTRY NO=2568-57-2
##MP= -300
##BP= -300
##MW= 199
##$RETENTION INDEX=0
##$CONDENSED SPECTRUM=NO
##NPOINTS= 100
##XYDATA=(XY..XY) 1 
    39        212
    40         46
    41        261
    42        259
    43         58
    44         23
    45          2
    48          5
    50         37
    51         56
    52         24
    53         32
    54         68
    55        201
    56         73
    57         40
    58         17
    59          4
    61          5
    62         31
    63        102
    64         28
    65         61
    66          7
    67         13
    68         16
    69         34
    70         10
    71          9
    74         20
    75         31
    76         19
    77         26
    78         18
    79         12
    80         22
    82         32
    83         22
    84        136
    85         24
    86         16
    87         27
    88         34
    89        129
    90         11
    91         23
    94         15
    96         25
    97         26
    98         17
   101          4
   102         20
   103         15
   104         10
   105          3
   108          3
   110          4
   113         41
   114         51
   115        999
   116        187
   117         50
   118         10
   119          2
   120         11
   121          5
   122         94
   123         19
   124          1
   127         12
   128         40
   129         34
   130         26
   131          4
   132          1
   133          0
   136          0
   141         12
   142         26
   143         78
   144         18
   145          3
   148          0
   156        370
   157        257
   158         44
   159          3
   170         79
   171         23
   172          0
   182          3
   183          1
   184         13
   185          1
   186          0
   197          5
   198        479
   199        386
   200         62
   201          5