##TITLE=Library Entry 26010
##JCAMP-DX=Revision 4.10 
##DATA TYPE=MASS SPECTRUM
##SAMPLE DESCRIPTION=Exported from NIST MS Search
##NAMES=HP
##CAS NAME=Butane, 2,2'-[methylenebis(oxy)]bis-
##MOLFORM=C9H20O2
##CAS REGISTRY NO=2568-92-5
##MP= -300
##BP= -300
##MW= 160
##$RETENTION INDEX=949
##$CONDENSED SPECTRUM=NO
##NPOINTS= 65
##XYDATA=(XY..XY) 1 
    12          2
    13          2
    14         11
    15         67
    16          4
    17          3
    18          8
    19          8
    26         30
    27        229
    28        112
    29        435
    30         17
    31         71
    32          2
    37          3
    38          5
    39         92
    40         14
    41        282
    42         30
    43        126
    44         13
    45        534
    46         13
    47          4
    51          5
    52          2
    53         12
    54          5
    55         45
    56         62
    57        999
    58        108
    59        158
    60          7
    61          1
    69          5
    70          1
    71         11
    72          8
    73         35
    74          3
    75         86
    76          3
    83         21
    84          2
    85          3
    86          9
    87        544
    88         29
    89         10
    90          1
    97          1
   101         76
   102          4
   103         13
   104          1
   115          6
   117          1
   131         95
   132          5
   145          4
   159          1
   160          1