##TITLE=Library Entry 6880
##JCAMP-DX=Revision 4.10 
##DATA TYPE=MASS SPECTRUM
##SAMPLE DESCRIPTION=Exported from NIST MS Search
##NAMES=HP
##CAS NAME=Propane, 2,2'-[methylenebis(oxy)]bis-
##MOLFORM=C7H16O2
##CAS REGISTRY NO=2568-89-0
##MP= -300
##BP= -300
##MW= 132
##$RETENTION INDEX=742
##$CONDENSED SPECTRUM=NO
##NPOINTS= 53
##XYDATA=(XY..XY) 1 
    12          3
    13          5
    14         22
    15        137
    16          6
    17          3
    18          8
    19          1
    26         26
    27        207
    28         55
    29         86
    30          9
    31         69
    32          2
    37          5
    38         12
    39        104
    40         20
    41        185
    42         86
    43        999
    44         42
    45        635
    46         14
    47         18
    51         50
    55         22
    56          2
    57          5
    58         21
    59        100
    60          4
    61          3
    69         10
    72         29
    73        535
    74         24
    75         30
    76          1
    87         38
    88          2
    89         52
    90          2
    91          1
   101          2
   102          1
   103          2
   117        159
   118          9
   119          1
   131         24
   132          1