##TITLE=Library Entry 60162
##JCAMP-DX=Revision 4.10 
##DATA TYPE=MASS SPECTRUM
##SAMPLE DESCRIPTION=A.A.Kutin, Moscow, Russia
##NAMES=HP
##CAS NAME=3(2H)-Pyridazinone,4,6-dichloro-2-phenyl-
##MOLFORM=C10H6Cl2N2O
##CAS REGISTRY NO=2568-51-6
##MP= -300
##BP= -300
##MW= 240
##$RETENTION INDEX=0
##$CONDENSED SPECTRUM=NO
##NPOINTS= 134
##XYDATA=(XY..XY) 1 
    33         42
    35         17
    36         20
    37         94
    38        116
    39        156
    40         48
    41         57
    43         17
    44         11
    45          0
    47         19
    51        638
    52         60
    53         39
    55         20
    56          8
    57          4
    59          3
    60         31
    61         19
    62         50
    63        145
    64        232
    65         83
    67         11
    69         15
    71         29
    72         74
    73         28
    74         57
    75         33
    77        874
    78         48
    79          5
    80          3
    81          2
    82          2
    83          1
    86         96
    87         14
    88         36
    89         30
    91        999
    92         48
    93         10
    95          6
    97          4
    98          3
    99          5
   100          3
   101          2
   102          6
   104         44
   105         72
   107        140
   109         92
   111         21
   112         11
   114         42
   115         12
   116         45
   117          4
   119         20
   120         15
   121         72
   122         53
   123         13
   124          4
   125          4
   126          3
   127          1
   128          1
   129          0
   134          0
   135          7
   136          1
   137          4
   138          1
   139          1
   141         18
   142         66
   143          9
   144          1
   145          0
   146          1
   148          7
   149         27
   150         21
   151         13
   152         10
   153          1
   154          2
   155          0
   161          0
   162          1
   163          0
   165         10
   166          4
   167          1
   169         11
   170          2
   171          1
   176          6
   177         16
   178          9
   179          6
   180          2
   183          0
   185          1
   186          4
   187          0
   188          2
   193          0
   203          1
   205         71
   206         26
   207         21
   208          8
   209          0
   212         32
   214         23
   215          2
   216          3
   235          1
   236          5
   237          9
   239        448
   240        542
   241        296
   242        348
   243         71
   244         57
   245          6