##TITLE=Library Entry 40708
##JCAMP-DX=Revision 4.10 
##DATA TYPE=MASS SPECTRUM
##SAMPLE DESCRIPTION=D.H.WILLIAMS CHEMISTRY DEPT., UNIVERSITY OF CAMBRIDGE
##NAMES=HP
##CAS NAME=1,3-Dioxolane, 2-ethyl-
##MOLFORM=C5H10O2
##CAS REGISTRY NO=2568-96-9
##MP= -300
##BP= -300
##MW= 102
##$RETENTION INDEX=787
##$CONDENSED SPECTRUM=NO
##NPOINTS= 30
##XYDATA=(XY..XY) 1 
    14         20
    15         70
    17         25
    18        105
    19         45
    26         40
    27        140
    28        180
    29        120
    31         40
    32         40
    38         20
    39         70
    40         35
    41         90
    42         80
    43        115
    44         40
    45        410
    46         25
    55         20
    57        110
    58         35
    69         20
    71         35
    72         70
    73        999
    74         40
   101         65
   102         15