##TITLE=Library Entry 71020
##JCAMP-DX=Revision 4.10 
##DATA TYPE=MASS SPECTRUM
##SAMPLE DESCRIPTION=Chemical Concepts
##NAMES=HP
##CAS NAME=3-(2-Oxocyclohexyl)propionaldehyde
##MOLFORM=C9H14O2
##CAS REGISTRY NO=2568-20-9
##MP= -300
##BP= -300
##MW= 154
##$RETENTION INDEX=0
##$CONDENSED SPECTRUM=NO
##NPOINTS= 75
##XYDATA=(XY..XY) 1 
    26         17
    27        144
    28         20
    29        156
    30         10
    31         18
    38         13
    39        162
    40         60
    41        297
    42        152
    43        105
    45         14
    50         11
    51         31
    52         19
    53         80
    54        200
    55        488
    56         87
    57         82
    58         23
    60         10
    62          7
    63         13
    65         30
    66         39
    67        194
    68         80
    69        121
    70        206
    71         50
    72         10
    73         11
    77         39
    78         18
    79         92
    80         67
    81        101
    82        152
    83        296
    84        110
    85         23
    86          9
    91         30
    92         26
    94         35
    96         27
    97        190
    98        999
    99        102
   100         15
   102         10
   105          9
   107         84
   108         63
   109         39
   110        112
   111        225
   112         45
   113         10
   118          8
   120          8
   121         22
   123          8
   125         36
   126        105
   127         18
   135         60
   136         89
   137         20
   153          7
   154        351
   155         75
   156          8