##TITLE=Library Entry 109871
##JCAMP-DX=Revision 4.10 
##DATA TYPE=MASS SPECTRUM
##SAMPLE DESCRIPTION=Philip Morris R&D
##NAMES=HP
##CAS NAME=3-(1-Methylpropyl)-2-hydroxy-2-cyclopenten-1-one
##MOLFORM=C9H14O2
##CAS REGISTRY NO=25684-05-3
##MP= -300
##BP= -300
##MW= 154
##$RETENTION INDEX=0
##$CONDENSED SPECTRUM=NO
##NPOINTS= 31
##XYDATA=(XY..XY) 1 
    39        174
    41        249
    42         14
    43        181
    45         60
    53         71
    55        181
    56          3
    57        113
    65          3
    66         14
    67         74
    68          3
    69        142
    70         17
    77         10
    79         28
    80          3
    81          3
    83         39
    95          3
    97        135
    98         14
    99         74
   111         17
   112          3
   125        999
   126         46
   139        181
   154        370
   155          3