##TITLE=Library Entry 76055
##JCAMP-DX=Revision 4.10 
##DATA TYPE=MASS SPECTRUM
##SAMPLE DESCRIPTION=NIST Mass Spectrometry Data Center
##NAMES=HP
##CAS NAME=Methyl aminoacetate, TMS derivative
##MOLFORM=C6H15NO2Si
##CAS REGISTRY NO=25688-72-6
##MP= -300
##BP= -300
##MW= 161
##$RETENTION INDEX=971
##$CONDENSED SPECTRUM=NO
##NPOINTS= 69
##XYDATA=(XY..XY) 1 
    14          1
    15         16
    27          3
    28         14
    29         25
    30         11
    31         17
    33          1
    39          1
    41          3
    42         24
    43        113
    44         51
    45        139
    46         11
    47         11
    51          1
    53          8
    54          5
    55         20
    56         29
    57         25
    58         96
    59        257
    60         23
    61         23
    62          1
    63          1
    66          1
    67          1
    68          1
    69          1
    70          9
    71          7
    72         44
    73        696
    74         63
    75         68
    76          4
    77          2
    84          1
    85          2
    86         36
    87         38
    88        134
    89        767
    90         70
    91         30
    92          1
    98          1
    99          1
   100         13
   102        999
   103        102
   104         36
   105          2
   115          1
   116          4
   118        291
   119         29
   120         12
   121          1
   130          7
   131          1
   146        160
   147         18
   148          6
   160          1
   161          2