##TITLE=Library Entry 25997
##JCAMP-DX=Revision 4.10 
##DATA TYPE=MASS SPECTRUM
##SAMPLE DESCRIPTION=Exported from NIST MS Search
##NAMES=HP
##CAS NAME=Dibutoxymethane
##MOLFORM=C9H20O2
##CAS REGISTRY NO=2568-90-3
##MP= -300
##BP= -300
##MW= 160
##$RETENTION INDEX=1028
##$CONDENSED SPECTRUM=NO
##NPOINTS= 68
##XYDATA=(XY..XY) 1 
    12          1
    13          1
    14          5
    15         31
    16          3
    17          1
    18          3
    19          2
    26         15
    27        162
    28         62
    29        277
    30         14
    31         60
    32          2
    33          2
    37          3
    38          5
    39         83
    40         14
    41        256
    42         30
    43         60
    44         56
    45         21
    46          1
    47          2
    51          3
    52          1
    53          7
    54          3
    55         32
    56         77
    57        999
    58         52
    59          6
    60          1
    61          2
    69          5
    70          3
    71         11
    72          8
    73         20
    74          2
    75          3
    85          9
    86         10
    87        461
    88         25
    89          3
    91          1
    99          2
   100          1
   101          8
   102          1
   103         17
   104          1
   105          4
   106          1
   112          1
   113          1
   117         29
   118          2
   131         14
   132          1
   133          1
   159         13
   160          1