##TITLE=Library Entry 60031
##JCAMP-DX=Revision 4.10 
##DATA TYPE=MASS SPECTRUM
##SAMPLE DESCRIPTION=LAC, NIDDK, NIH, Bethesda, MD 20892
##NAMES=HP
##CAS NAME=Benzylidene-l-ornithine
##MOLFORM=C12H16N2O2
##CAS REGISTRY NO=25693-00-9
##MP= -300
##BP= -300
##MW= 220
##$RETENTION INDEX=0
##$CONDENSED SPECTRUM=NO
##NPOINTS= 159
##XYDATA=(XY..XY) 1 
    41        303
    42        233
    43        580
    44        176
    45        142
    46         76
    47          5
    48         92
    49          6
    50         67
    51        183
    52         55
    53         59
    54         76
    55         55
    56        323
    57        127
    58         97
    59         23
    60          6
    61          5
    62         21
    63         90
    64        220
    65        152
    66         22
    67         17
    68        122
    69        114
    70        899
    71         71
    72        306
    73         36
    74        116
    75        104
    76         47
    77        303
    78        126
    79        130
    80         18
    81          7
    82         11
    83         15
    84         15
    85         14
    86         29
    87        117
    88         20
    89        226
    90        188
    91        999
    92        106
    93          7
    94          1
    95          4
    96         13
    97         13
    98         19
    99         48
   100         15
   101          5
   102         15
   103        130
   104        849
   105        369
   106        651
   107        128
   108          9
   109          5
   111          4
   112          1
   113          1
   114        119
   115         85
   116         64
   117        282
   118        475
   119        108
   120        487
   121         48
   122          9
   123          1
   124          7
   125          3
   126          4
   127         13
   128         30
   129         44
   130        235
   131        220
   132        754
   133        254
   134         25
   141         10
   142          7
   143         23
   144         70
   145         31
   146        305
   147        143
   148         46
   149          8
   150          4
   151          4
   152          6
   153          1
   154          5
   155          4
   156         32
   157         45
   158        342
   159        321
   160        198
   161         28
   162          6
   163          7
   164          8
   165         17
   166          5
   167          6
   168          4
   171          5
   172          2
   173         50
   174         53
   175        246
   176         52
   177         10
   178          1
   179          1
   180          3
   181          3
   184          2
   185          3
   186          2
   187          2
   188          2
   190          3
   191          2
   192          2
   193          1
   194          4
   195          3
   196          2
   197          2
   201          1
   202        134
   203        661
   204        104
   205         46
   206          9
   207          1
   211          2
   217          5
   218          1
   219         20
   220         68
   221         53
   222         10