##TITLE=Library Entry 68182
##JCAMP-DX=Revision 4.10 
##DATA TYPE=MASS SPECTRUM
##SAMPLE DESCRIPTION=Chemical Concepts
##NAMES=HP
##CAS NAME=2,3-Bornanediol
##MOLFORM=C10H18O2
##CAS REGISTRY NO=25696-56-4
##MP= -300
##BP= -300
##MW= 170
##$RETENTION INDEX=0
##$CONDENSED SPECTRUM=NO
##NPOINTS= 116
##XYDATA=(XY..XY) 1 
    26          4
    27        101
    28         25
    29        110
    30          3
    31         34
    37          1
    38          4
    39        126
    40         21
    41        380
    42         31
    43        221
    44         12
    45         24
    46          1
    47          3
    50          6
    51         23
    52         10
    53         99
    54         23
    55        269
    56         43
    57        103
    58         19
    59        111
    60        228
    61         12
    62          3
    63          7
    64          2
    65         36
    66         14
    67        241
    68         44
    69        390
    70        138
    71        127
    72         96
    73         10
    74          1
    75          2
    76          1
    77         60
    78         14
    79        142
    80        108
    81        436
    82        209
    83        180
    84        274
    85        176
    86         24
    87         66
    88         23
    89          3
    90          1
    91         57
    92         20
    93         83
    94        240
    95        999
    96        143
    97         91
    98         21
    99        136
   100         49
   101         13
   102          1
   103          3
   104          2
   105         19
   106         11
   107         53
   108         62
   109        222
   110         94
   111        361
   112         74
   113         28
   114          4
   115          3
   117          3
   118          1
   119         46
   120          9
   121        156
   122         19
   123        174
   124         39
   125         11
   126          8
   127         10
   128          2
   129          1
   133          1
   134         32
   135          7
   136          9
   137        149
   138         16
   139         60
   140         10
   141          6
   142          7
   143          1
   151          2
   152        174
   153         26
   154          2
   155         26
   156          3
   169          1
   170          5
   171          1