##TITLE=Library Entry 49050
##JCAMP-DX=Revision 4.10 
##DATA TYPE=MASS SPECTRUM
##SAMPLE DESCRIPTION=JACSAT, 100(2)520(1978); R. G. SALOMON ET AL.
##NAMES=HP
##CAS NAME=Bicyclo[6.1.0]non-1-ene
##MOLFORM=C9H14
##CAS REGISTRY NO=2570-06-1
##MP= -300
##BP= -300
##MW= 122
##$RETENTION INDEX=0
##$CONDENSED SPECTRUM=NO
##NPOINTS= 18
##XYDATA=(XY..XY) 1 
    53        290
    54        150
    55        160
    65        140
    66        210
    67        540
    68        430
    77        360
    78        150
    79        999
    80        650
    81        590
    91        380
    92        120
    93        890
    94        610
   107        640
   122        250