##TITLE=Library Entry 1044
##JCAMP-DX=Revision 4.10 
##DATA TYPE=MASS SPECTRUM
##SAMPLE DESCRIPTION=Japan AIST/NIMC Database- Spectrum MS-NW-4172
##NAMES=HP
##CAS NAME=Pentadecylamine
##MOLFORM=C15H33N
##CAS REGISTRY NO=2570-26-5
##MP= -300
##BP= -300
##MW= 227
##$RETENTION INDEX=2025
##$CONDENSED SPECTRUM=NO
##NPOINTS= 63
##XYDATA=(XY..XY) 1 
    16          2
    27         14
    28          4
    29         34
    30        999
    31         16
    39          8
    40          2
    41         63
    42         14
    43         73
    44         65
    45         74
    46          2
    53          4
    54          4
    55         50
    56         23
    57         28
    58          5
    59         21
    67          4
    68          5
    69         27
    70         11
    71          8
    72         16
    73          8
    81          2
    82          5
    83         16
    84          8
    85          4
    86         42
    87          6
    96          2
    97         10
    98          5
   100         20
   101          2
   110          2
   111          5
   112          3
   114          9
   115          1
   124          1
   125          2
   126          1
   128          7
   129          1
   139          1
   140          1
   142          8
   143          1
   156          6
   157          1
   170          4
   184          4
   198          5
   212          2
   226          4
   227          8
   228          1