##TITLE=Library Entry 71810
##JCAMP-DX=Revision 4.10 
##DATA TYPE=MASS SPECTRUM
##SAMPLE DESCRIPTION=Exported from NIST MS Search
##NAMES=HP
##CAS NAME=2H-Pyran, 2-ethoxytetrahydro-4-methyl-
##MOLFORM=C8H16O2
##CAS REGISTRY NO=25724-34-9
##MP= -300
##BP= -300
##MW= 144
##$RETENTION INDEX=0
##$CONDENSED SPECTRUM=NO
##NPOINTS= 93
##XYDATA=(XY..XY) 1 
    12          6
    13          8
    14         38
    15        183
    16         11
    17         11
    18         37
    19         28
    24          1
    25          5
    26         73
    27        653
    28        184
    29        783
    30         55
    31        288
    33          2
    37          8
    38         21
    39        312
    40         64
    41        589
    42        939
    43        717
    44        334
    45        135
    46         20
    47        602
    48          8
    49          4
    50         10
    51         21
    52         10
    53         79
    54         39
    55        933
    56         77
    57         88
    58          8
    59         12
    60          6
    61          3
    62          1
    63          2
    64          1
    65          6
    66          6
    67         24
    68         15
    69        191
    70        446
    71        146
    72        191
    73         59
    74          8
    75        755
    76         27
    77          7
    78          2
    79          8
    80          3
    81        111
    82         10
    83         97
    84          8
    85          7
    86          6
    87          3
    88          4
    89          1
    91          1
    95          2
    96          2
    97         17
    98         38
    99        999
   100         82
   101         18
   102         30
   103          3
   111          1
   112          1
   113          2
   114          4
   115         19
   116          3
   117          1
   127          1
   129          2
   144        148
   145         37
   146          6
   147          1