##TITLE=Library Entry 18708
##JCAMP-DX=Revision 4.10 
##DATA TYPE=MASS SPECTRUM
##SAMPLE DESCRIPTION=J.E. WILKINSON S-CUBED, SAN DIEGO, CA.
##NAMES=HP
##CAS NAME=2H-Pyran, 2,5-diethenyltetrahydro-
##MOLFORM=C9H14O
##CAS REGISTRY NO=25724-33-8
##MP= -300
##BP= -300
##MW= 138
##$RETENTION INDEX=0
##$CONDENSED SPECTRUM=NO
##NPOINTS= 31
##XYDATA=(XY..XY) 1 
    41        119
    42          5
    43          3
    44         20
    49          3
    50          1
    51         15
    52          5
    53         59
    54        999
    55         83
    56         10
    57          5
    65         17
    66         37
    67        173
    68          5
    69          1
    77          6
    78         10
    79        112
    80         51
    81         11
    83          1
    84          6
    91          1
    93         35
    96          1
    97         59
   109         20
   110          1