##TITLE=Library Entry 41848
##JCAMP-DX=Revision 4.10 
##DATA TYPE=MASS SPECTRUM
##SAMPLE DESCRIPTION=Exported from NIST MS Search
##NAMES=HP
##CAS NAME=L-lisine, N,N'-bis(trimethylsilyl)-, methyl ester
##MOLFORM=C13H32N2O2Si2
##CAS REGISTRY NO=25737-21-7
##MP= -300
##BP= -300
##MW= 304
##$RETENTION INDEX=0
##$CONDENSED SPECTRUM=NO
##NPOINTS= 96
##XYDATA=(XY..XY) 1 
    28         18
    29         29
    30         37
    31         20
    32         58
    41         16
    42         12
    43         41
    44         41
    45        122
    46         14
    47         14
    55         18
    56         37
    57         60
    58         47
    59        170
    60         25
    61         14
    68         29
    70         27
    72         37
    73        999
    74        247
    75        137
    76         16
    77         25
    82         66
    83         16
    84        766
    85         56
    86         39
    87         16
    88         66
    89        108
    90         25
    93         37
    94         12
    95         22
   100        108
   101         16
   102        770
   103         89
   104         33
   105         14
   114         50
   115         85
   116         37
   117         14
   126         16
   128        254
   129         47
   130         66
   131         22
   132         12
   133         25
   140         27
   141         16
   142         79
   143         20
   144        116
   145         16
   146         37
   147         45
   154         25
   155         25
   156        408
   157         87
   158         37
   159         16
   160        187
   161         58
   162         25
   166         25
   167         39
   172        145
   173         29
   174         47
   183         16
   184         12
   185         25
   186         20
   200        350
   201         79
   202         35
   215         29
   232         29
   245         18
   257         39
   258         12
   272         22
   289         37
   290          8
   304        204
   305         52
   306         18