##TITLE=Library Entry 10878
##JCAMP-DX=Revision 4.10 
##DATA TYPE=MASS SPECTRUM
##SAMPLE DESCRIPTION=Chemical Concepts
##NAMES=HP
##CAS NAME=5(4H)-Oxazolone, 4,4'-(1,4-phenylenedimethylidyne)bis[2-phenyl-
##MOLFORM=C26H16N2O4
##CAS REGISTRY NO=25744-09-6
##MP= -300
##BP= -300
##MW= 420
##$RETENTION INDEX=0
##$CONDENSED SPECTRUM=NO
##NPOINTS= 48
##XYDATA=(XY..XY) 1 
    34          8
    36         10
    37         11
    38         21
    39         44
    40        116
    41         99
    43        999
    45        734
    47          5
    50         87
    51        138
    53          6
    54          6
    55         14
    56          9
    57         17
    60        326
    62         10
    63         12
    64          5
    65          6
    69          6
    70          6
    71          7
    73          9
    74         22
    75         30
    77        460
    78         24
    83          4
    87          6
    88          4
    89          4
    91          5
   101          6
   102         11
   103         35
   105        846
   106         53
   115          4
   121         22
   122          6
   127          5
   263          6
   277          5
   420         35
   421          7