##TITLE=Library Entry 78560
##JCAMP-DX=Revision 4.10 
##DATA TYPE=MASS SPECTRUM
##SAMPLE DESCRIPTION=Japan AIST/NIMC Database- Spectrum MS-NW-7308
##NAMES=HP
##CAS NAME=S-Benzoyl(thiohydroxylamine)
##MOLFORM=C7H7NOS
##CAS REGISTRY NO=25740-80-1
##MP= -300
##BP= -300
##MW= 153
##$RETENTION INDEX=0
##$CONDENSED SPECTRUM=NO
##NPOINTS= 64
##XYDATA=(XY..XY) 1 
    16          3
    18          1
    26          2
    27         13
    28          3
    32          3
    33          1
    34          1
    36          1
    37          9
    38         13
    39         19
    40          1
    44          7
    45          3
    46          3
    47          8
    48         25
    49          9
    50         76
    51        193
    52         12
    53          3
    56          1
    57          1
    58          1
    59          1
    60          2
    61          3
    62          5
    63          5
    64          4
    65          9
    66          2
    69          7
    70          1
    71          1
    73          6
    74         24
    75         16
    76         23
    77        634
    78         50
    79          2
    80          1
    81          1
    82          2
    83          1
    92          1
    93          1
    97          1
   103          4
   104          3
   105        999
   106         77
   107          5
   108          3
   109         10
   110          1
   111          2
   121         46
   122          6
   153          5
   154          1