##TITLE=Library Entry 11151
##JCAMP-DX=Revision 4.10 
##DATA TYPE=MASS SPECTRUM
##SAMPLE DESCRIPTION=W.V. BROWN, CSIRO, BLACK MOUNTAIN, CANBERRA CITY, AUSTR
ALIA
##NAMES=HP
##CAS NAME=Decanoic acid, 9-oxo-, methyl ester
##MOLFORM=C11H20O3
##CAS REGISTRY NO=2575-07-7
##MP= -300
##BP= -300
##MW= 200
##$RETENTION INDEX=1516
##$CONDENSED SPECTRUM=NO
##NPOINTS= 105
##XYDATA=(XY..XY) 1 
    39         42
    40         11
    41        234
    42         44
    43        999
    44         22
    45         43
    51          5
    53         19
    54         14
    55        407
    56         72
    57        184
    58        320
    59        189
    60         11
    61          7
    63          8
    65          8
    66          5
    67         55
    68         34
    69        241
    70         70
    71        145
    72         17
    73         27
    74        173
    75         11
    77          8
    79         16
    80         11
    81         50
    82         49
    83        424
    84         86
    85         27
    87        201
    88         19
    91          6
    92          4
    93         17
    94         10
    95         22
    96         14
    97        139
    98         70
    99         13
   100         11
   101         51
   102          6
   107         16
   108         14
   109         74
   110         78
   111        491
   112         45
   113         11
   114         15
   115         41
   116         10
   121         10
   122          5
   123         38
   124         16
   125         64
   126         24
   127         33
   128         19
   129         50
   130         23
   131          4
   132          5
   133         11
   135         11
   137          7
   138         10
   139         10
   140         22
   141         11
   142         71
   143        258
   144         31
   145          4
   149          6
   150         11
   151         11
   152         34
   153         11
   154          7
   155         11
   156          6
   157         16
   158         14
   166          5
   167          4
   168         31
   169         93
   170         11
   171         11
   184          6
   185         27
   186          5
   199          4
   200         11