##TITLE=Library Entry 55089
##JCAMP-DX=Revision 4.10 
##DATA TYPE=MASS SPECTRUM
##SAMPLE DESCRIPTION=Exported from NIST MS Search
##NAMES=HP
##CAS NAME=Phosphoramidous difluoride
##MOLFORM=F2H2NP
##CAS REGISTRY NO=25757-74-8
##MP= -300
##BP= -300
##MW= 85
##$RETENTION INDEX=0
##$CONDENSED SPECTRUM=NO
##NPOINTS= 11
##XYDATA=(XY..XY) 1 
    31         40
    46         20
    47        190
    50         20
    64         10
    65         20
    66         60
    69        380
    84        290
    85        999
    86         10