##TITLE=Library Entry 4089
##JCAMP-DX=Revision 4.10 
##DATA TYPE=MASS SPECTRUM
##SAMPLE DESCRIPTION=Exported from NIST MS Search
##NAMES=HP
##CAS NAME=Isoxazole, 5-(butylthio)-3-phenyl-
##MOLFORM=C13H15NOS
##CAS REGISTRY NO=25755-81-1
##MP= -300
##BP= -300
##MW= 233
##$RETENTION INDEX=0
##$CONDENSED SPECTRUM=NO
##NPOINTS= 69
##XYDATA=(XY..XY) 1 
    40        100
    41        999
    42        110
    43        100
    44        180
    45        150
    46         70
    47         30
    48         30
    49         30
    50        200
    51        330
    52         90
    53        100
    54         60
    55        350
    56        650
    57        190
    58         30
    59         60
    60        100
    61         50
    62         50
    63        180
    64         30
    65         60
    68         30
    69         40
    74         80
    75         80
    76        180
    77        450
    78         50
    87         40
    88         80
    89        270
    90        110
    91         70
   102        100
   103        320
   104        460
   105        190
   109         50
   116        450
   117        130
   119         70
   120         80
   121        330
   122        100
   123         50
   129         50
   135        150
   136         70
   144        550
   145        150
   146        750
   147        100
   148         40
   149        150
   150         40
   176         60
   177        450
   178        100
   179         40
   190         50
   200         40
   233        200
   234         40
   235         40