##TITLE=Library Entry 57517
##JCAMP-DX=Revision 4.10 
##DATA TYPE=MASS SPECTRUM
##SAMPLE DESCRIPTION=E.UCCIANI UNIV. OF PROVENCE, MARSEILLES, FRANCE
##NAMES=HP
##CAS NAME=Tridecanedioic acid, 2-hexyl-, dimethyl ester
##MOLFORM=C21H40O4
##CAS REGISTRY NO=25751-93-3
##MP= -300
##BP= -300
##MW= 356
##$RETENTION INDEX=0
##$CONDENSED SPECTRUM=NO
##NPOINTS= 155
##XYDATA=(XY..XY) 1 
    27        154
    28         58
    29        288
    31         29
    39        106
    40         29
    41        625
    42        135
    43        596
    44         29
    45         96
    50         10
    51         10
    53         67
    54         77
    55        808
    56        135
    57        288
    58         48
    59        240
    60         19
    61         10
    65         19
    66         10
    67        173
    68         77
    69        500
    70         77
    71        115
    72         19
    73         58
    74        375
    75         38
    77         29
    78         10
    79         38
    80         29
    81        163
    82         67
    83        317
    84        250
    85         87
    86         10
    87        999
    88         77
    89         10
    91         29
    93         29
    94         29
    95        144
    96         67
    97        202
    98        712
    99         77
   100         19
   101         77
   102         19
   105         38
   107         29
   108         19
   109         67
   110         38
   111         87
   112        212
   113         67
   114         19
   115        125
   116         29
   117         10
   119         48
   120         10
   121         29
   122         19
   123         48
   124         29
   125         58
   126        240
   127         48
   128         38
   129         67
   130         19
   133         10
   134         10
   135         19
   136         10
   137         29
   138         19
   139         29
   140         19
   141         19
   143         29
   149         29
   150         10
   151         10
   152         10
   153         10
   154         10
   155         10
   156         10
   157         38
   158        837
   159         96
   160         10
   161         10
   162         10
   163         10
   164         10
   165         19
   166         19
   167         29
   168         58
   169         19
   171         48
   172         10
   180         29
   181         10
   182         48
   183         10
   184         19
   185         29
   186         19
   195         10
   196         29
   197         10
   198         10
   199         67
   200         19
   207         10
   208         38
   209         10
   210         10
   222         19
   227         19
   239         10
   240         87
   241         29
   242         19
   250         10
   251         10
   263         10
   264         29
   265         19
   272        154
   273         29
   282         10
   283         67
   284         19
   292         19
   296         10
   297         67
   298         19
   324         19
   325         38
   326         10
   356          1