##TITLE=Library Entry 1207
##JCAMP-DX=Revision 4.10 
##DATA TYPE=MASS SPECTRUM
##SAMPLE DESCRIPTION=Japan AIST/NIMC Database- Spectrum MS-NW-2057
##NAMES=HP
##CAS NAME=Glycine, N-(N-glycyl-L-leucyl)-
##MOLFORM=C10H19N3O4
##CAS REGISTRY NO=2576-67-2
##MP= -300
##BP= -300
##MW= 245
##$RETENTION INDEX=0
##$CONDENSED SPECTRUM=NO
##NPOINTS= 200
##XYDATA=(XY..XY) 1 
    12         11
    13          6
    14         26
    15         43
    16         27
    17         30
    18        143
    24          2
    25          7
    26         63
    27        286
    28        366
    29        133
    30        999
    31         22
    32          6
    33          3
    34          8
    36          4
    37         13
    38         28
    39        139
    40         73
    41        354
    42        186
    43        490
    44        303
    45         15
    46          3
    48          1
    49          3
    50         12
    51         26
    52         28
    53         49
    54         66
    55        103
    56         99
    57         63
    58         20
    59         12
    60          6
    61          2
    62          2
    63          7
    64          9
    65         15
    66         23
    67         40
    68         53
    69         41
    70         91
    71         22
    72         12
    73          7
    74          6
    75         11
    76         15
    77         14
    78         10
    79         10
    80         23
    81         32
    82         34
    83         22
    84         96
    85        195
    86        787
    87         48
    88          4
    89          3
    90          2
    91         10
    92          9
    93         22
    94         20
    95         18
    96         31
    97         40
    98         33
    99         38
   100         10
   101          4
   102          1
   103          7
   104          8
   105          7
   106          9
   107         11
   108         16
   109         17
   110         23
   111         20
   112         18
   113         84
   114        345
   115         20
   116          5
   117         10
   118          5
   119         17
   120          6
   121          9
   122         13
   123         13
   124         24
   125         41
   126         15
   127         45
   128          7
   129          2
   130          3
   131          3
   132          4
   133          8
   134          6
   135          9
   136          9
   137         15
   138         14
   139          9
   140          9
   141         19
   142          7
   143          6
   144          2
   145          2
   146          3
   147          2
   148          5
   149          8
   150          8
   151         13
   152         13
   153         84
   154         12
   155         10
   156          7
   157          3
   158          3
   159          2
   160          4
   161          2
   162          5
   163          5
   164         12
   165         11
   166         23
   167          9
   168         21
   169         16
   170          7
   171          9
   172          2
   173          1
   174          1
   175          2
   176          2
   177          3
   178          3
   179          4
   180          5
   181          5
   182          5
   183          3
   184          4
   185          2
   187          1
   188          3
   189          2
   190          3
   191          3
   192          6
   193          4
   194          5
   195         13
   196          3
   197          3
   198          2
   201          1
   202          2
   204          2
   205          1
   206          2
   207          9
   208          5
   209         11
   210         28
   211          5
   212          3
   213          2
   218          1
   220          2
   221          2
   222          5
   223          2
   224          2
   225          2
   226          4
   227          3