##TITLE=Library Entry 40100
##JCAMP-DX=Revision 4.10 
##DATA TYPE=MASS SPECTRUM
##SAMPLE DESCRIPTION=A.A.Kutin, Moscow, Russia
##NAMES=HP
##CAS NAME=Acetamide, 2-(indolo[2,3-d]pyrimidin-2-yl)thio-N,N-diethyl-
##MOLFORM=C16H18N4OS
##CAS REGISTRY NO=257633-04-8
##MP= -300
##BP= -300
##MW= 314
##$RETENTION INDEX=0
##$CONDENSED SPECTRUM=NO
##NPOINTS= 196
##XYDATA=(XY..XY) 1 
    33          2
    34          1
    36          0
    37          6
    38         12
    39         47
    40         25
    41         69
    42        252
    43        199
    44        444
    45         67
    46         12
    47          9
    48          1
    50         23
    51         38
    52         17
    53         16
    54         23
    55         26
    56        138
    57         57
    58        240
    59         12
    61          9
    62         28
    63         41
    64         17
    65          9
    66          4
    67          3
    68         10
    69         48
    70         56
    71        129
    72        999
    73         58
    74         89
    75         41
    76         29
    77         39
    78          7
    79          2
    80          3
    81          5
    82          7
    83          7
    85         94
    86        116
    87         42
    88         32
    89         44
    90         12
    91         10
    93         21
    94         12
    95          7
    96          5
    98         40
   100        604
   101         55
   102         33
   103         19
   104         11
   105          4
   106          3
   107          3
   108          4
   109          1
   110          1
   112          9
   113         36
   114         90
   115        117
   116         33
   117         14
   118          7
   119          9
   120         37
   121         23
   122          4
   123          2
   124          1
   125          1
   126          3
   127         13
   128         25
   129         33
   130         21
   131          5
   132          7
   133          7
   134          3
   135          0
   136          0
   138          0
   139          5
   140         11
   141         21
   142         40
   143         13
   144          8
   145         13
   146         88
   147         22
   148         29
   149          4
   150          1
   151          0
   152          1
   153          5
   154          6
   155         13
   156         18
   157         17
   159         26
   160         22
   161         25
   162          4
   163          1
   166          3
   167         46
   168         13
   169          7
   170          5
   171          9
   172         32
   173        179
   174        127
   175         28
   176         17
   177          2
   178          1
   179          1
   180          2
   181          4
   182          7
   183          3
   184          3
   185         15
   186         32
   187         24
   188         10
   189          2
   190          1
   196          4
   197          6
   198          6
   199         21
   200         72
   201         55
   202         25
   203          4
   204          0
   208          0
   209          4
   210         26
   211          5
   212          8
   213         26
   214         40
   215         17
   216          4
   217          0
   225          0
   226          0
   227          0
   228          2
   229          2
   230          0
   236          0
   238          1
   239          2
   241         32
   242         20
   243          6
   244          1
   245          1
   256          1
   257          0
   261          0
   268          0
   272          6
   273          8
   274          1
   281          6
   290          1
   305          0
   306          3
   307          0
   310          0
   312          1
   314         83
   315         15
   316          4