##TITLE=Library Entry 21939
##JCAMP-DX=Revision 4.10 
##DATA TYPE=MASS SPECTRUM
##SAMPLE DESCRIPTION=Japan AIST/NIMC Database- Spectrum MS-NW-6926
##NAMES=HP
##CAS NAME=dl-2,6-Diaminoheptanedioic acid
##MOLFORM=C7H14N2O4
##CAS REGISTRY NO=2577-62-0
##MP= -300
##BP= -300
##MW= 190
##$RETENTION INDEX=0
##$CONDENSED SPECTRUM=NO
##NPOINTS= 165
##XYDATA=(XY..XY) 1 
    12         11
    13          1
    14          7
    15         42
    16         17
    17         29
    18         49
    19          6
    25          3
    26         41
    27        177
    28        573
    29        109
    30        208
    31          7
    32          1
    34          1
    35          2
    36          6
    37         12
    38         28
    39        151
    40         44
    41        172
    42        216
    43        426
    44        167
    45         56
    46         47
    47          3
    48          1
    49          5
    50         23
    51         32
    52         40
    53         54
    54        162
    55        197
    56        999
    57        161
    58         16
    59          7
    60          2
    61          3
    62          3
    63          6
    64          6
    65         18
    66         19
    67         67
    68        178
    69         96
    70        183
    71        103
    72        128
    73         23
    74         92
    75         23
    76          4
    77          6
    78         12
    79         19
    80         80
    81         59
    82        499
    83        396
    84        288
    85         28
    86         10
    87          6
    88          9
    89          6
    90          2
    91          5
    92          9
    93         15
    94         13
    95         10
    96         18
    97         67
    98         43
    99         39
   100         40
   101          9
   102          6
   103          8
   104          5
   105          4
   106          4
   107          7
   108         13
   109         82
   110         41
   111         41
   112         16
   113          5
   114          3
   115         19
   116         17
   117          6
   118          3
   119          4
   120          5
   121          4
   122          5
   123         15
   124          7
   125          6
   126        109
   127        136
   128        553
   129         88
   130         11
   131          3
   132          2
   133          3
   134          3
   135          5
   136          8
   137          8
   138          7
   139          4
   140          3
   141          2
   142          1
   143         28
   144         24
   145         35
   146          6
   147          3
   148          4
   149          6
   150          5
   151         13
   152          9
   153          5
   154        230
   155         31
   156          6
   157          2
   158          1
   159          2
   160          3
   161          4
   162          4
   163          6
   164          5
   165          6
   166          4
   167          5
   168          3
   169          1
   170          2
   171          2
   172         51
   173         14
   174         12
   175          5
   176          4
   187          2
   188          4
   189          4
   190          7
   191          7
   192          4