##TITLE=Library Entry 56368
##JCAMP-DX=Revision 4.10 
##DATA TYPE=MASS SPECTRUM
##SAMPLE DESCRIPTION=Exported from NIST MS Search
##NAMES=HP
##CAS NAME=L-Isoleucine, methyl ester
##MOLFORM=C7H15NO2
##CAS REGISTRY NO=2577-46-0
##MP= -300
##BP= -300
##MW= 145
##$RETENTION INDEX=0
##$CONDENSED SPECTRUM=NO
##NPOINTS= 38
##XYDATA=(XY..XY) 1 
    27         60
    28         49
    29        121
    30        316
    31         13
    33        110
    39         49
    40          8
    41        159
    42         33
    43         22
    44        170
    45         11
    46         19
    51         13
    53         22
    54         22
    55         22
    56        101
    57        124
    58         22
    59         11
    60         41
    67         11
    68         11
    69        137
    70         44
    71         11
    72         22
    74        154
    75         11
    84         22
    86        999
    87         63
    88        454
    89         71
    90         11
   145         13