##TITLE=Library Entry 59299
##JCAMP-DX=Revision 4.10 
##DATA TYPE=MASS SPECTRUM
##SAMPLE DESCRIPTION=V.A.Korolev, Moscow, Russia
##NAMES=HP
##CAS NAME=3-Benzyl-1,2,3-triazol-4-amine
##MOLFORM=C9H10N4
##CAS REGISTRY NO=25784-58-1
##MP= -300
##BP= -300
##MW= 174
##$RETENTION INDEX=0
##$CONDENSED SPECTRUM=NO
##NPOINTS= 67
##XYDATA=(XY..XY) 1 
    35          2
    36          2
    37         13
    38         54
    39        282
    40        117
    41        242
    42        135
    43         68
    44         67
    45          4
    47          3
    49          2
    50         82
    51        158
    52         53
    53         37
    54         23
    55        532
    56         15
    57          3
    59          3
    61          6
    62         38
    63        113
    64         35
    65        396
    66         20
    68          3
    69         39
    74         11
    75         11
    76         14
    77         63
    78         29
    79          7
    86          2
    87          5
    89         94
    90         53
    91        999
    92        111
    93          5
    96          3
    97          7
   102          7
   103         25
   104        200
   105         37
   106          7
   116          7
   117        101
   118         89
   119         17
   120          9
   121          3
   129         14
   130         35
   131         46
   132         15
   144          3
   145        351
   146        136
   147         10
   174         99
   175         11
   176          1