##TITLE=Library Entry 14199
##JCAMP-DX=Revision 4.10 
##DATA TYPE=MASS SPECTRUM
##SAMPLE DESCRIPTION=A.A.Kutin, Moscow, Russia
##NAMES=HP
##CAS NAME=Furazano[3,4-E]indole, 8-acetyl-6-methoxy-7-methyl-, 3-oxide
##MOLFORM=C12H11N3O4
##CAS REGISTRY NO=257869-88-8
##MP= -300
##BP= -300
##MW= 261
##$RETENTION INDEX=0
##$CONDENSED SPECTRUM=NO
##NPOINTS= 181
##XYDATA=(XY..XY) 1 
    33          5
    34          2
    37         23
    38         40
    39         96
    40         55
    41         27
    43        999
    44         32
    46          3
    50        141
    51        148
    52         70
    53         36
    54         10
    55         16
    56          6
    57         11
    58          6
    59          5
    60          7
    61         44
    62         93
    63        141
    64         59
    65         44
    66         28
    67         22
    68          6
    69          5
    70          4
    71          3
    72          5
    74        184
    75        244
    76        138
    77        113
    78         45
    79         25
    80         12
    81          4
    82          4
    83          5
    84          6
    85         43
    86         97
    87        105
    88        100
    89         93
    90         36
    91         23
    92         11
    93          9
    94         11
    95          3
    96          2
    97          8
    98         53
    99         96
   100        240
   101        234
   102        114
   103         59
   104         29
   105         14
   106          7
   108          7
   109          5
   110         10
   111         12
   112         13
   113         40
   114        116
   115        348
   116        170
   117         46
   118         19
   119          6
   120          4
   121          2
   122          3
   123          8
   124          8
   126         59
   127        210
   128        133
   129         85
   130        122
   131         33
   132         11
   133          4
   134          3
   135          1
   137          0
   138          2
   140        103
   141        140
   142        217
   143         98
   144         96
   145         21
   146         12
   147          3
   148          1
   150          0
   151          1
   152          3
   153          7
   154         29
   155        147
   156         79
   157         77
   158         75
   159         32
   160          9
   161          4
   162          0
   164          0
   166          3
   167         12
   168         22
   170        498
   171        240
   172         84
   173        112
   174         22
   175          2
   176          0
   180          0
   181          4
   182         17
   183         43
   184         57
   185        213
   186        277
   187         46
   188         12
   189          2
   190          0
   194          7
   195          6
   196         25
   197         33
   198         18
   199         51
   200         79
   201        500
   202        106
   203         24
   204          3
   209          0
   210          1
   213        217
   214         99
   215         40
   216          6
   217          1
   218          0
   219          0
   220          0
   226          1
   227          4
   228          4
   229          9
   230         71
   231         17
   232          5
   233          1
   234          0
   241          3
   244        692
   245        128
   246         28
   247          4
   250          0
   257          2
   258          3
   261        821
   262        106
   263         15
   264          1