##TITLE=Library Entry 59850
##JCAMP-DX=Revision 4.10 
##DATA TYPE=MASS SPECTRUM
##SAMPLE DESCRIPTION=Asinex Ltd, Moscow, Russia
##NAMES=HP
##CAS NAME=1H-1,2,3-Triazole-4-carboxylic acid, 5-amino-1-benzyl-
##MOLFORM=C10H10N4O2
##CAS REGISTRY NO=25784-56-9
##MP= -300
##BP= -300
##MW= 218
##$RETENTION INDEX=0
##$CONDENSED SPECTRUM=NO
##NPOINTS= 122
##XYDATA=(XY..XY) 1 
    33          4
    34         13
    37         11
    38         58
    39        149
    40         20
    41         89
    42         60
    43         54
    44        118
    45         57
    46          5
    47          7
    48          5
    49          3
    50         47
    51         99
    52         34
    53         41
    54         26
    55         88
    56         12
    57         19
    58          9
    59          1
    60         11
    61          5
    62         20
    63         68
    64         29
    65        263
    67         31
    68         33
    69         50
    70         10
    71         12
    72          8
    73         15
    74          9
    75         11
    76         14
    77         63
    78         32
    79         16
    80          5
    81          3
    82          6
    83         29
    84         12
    85         55
    86         12
    87         12
    89         76
    91        999
    92         97
    93         10
    95         20
    96          2
    97          5
    99         95
   100          4
   101          3
   102          9
   103         15
   104         70
   105         40
   106         24
   107          5
   108          7
   109          6
   110          9
   111          2
   112         17
   113          5
   115          4
   116         31
   117         67
   118         40
   119         18
   121         18
   122          1
   123          9
   128         38
   129         55
   130         11
   131          9
   132          5
   133          8
   134         12
   135          7
   136          0
   139          1
   140          6
   141          9
   142          1
   143         38
   144         98
   145        157
   146         33
   147          6
   148          3
   149          6
   151          0
   156          3
   160          2
   161          7
   162          0
   171        182
   172         59
   173         16
   174         11
   176          1
   184          2
   185          0
   189        128
   190         14
   191          0
   201          7
   202          8
   212          7
   218        144
   219         16