##TITLE=Library Entry 29903
##JCAMP-DX=Revision 4.10 
##DATA TYPE=MASS SPECTRUM
##SAMPLE DESCRIPTION=A.A.Kutin, Moscow, Russia
##NAMES=HP
##CAS NAME=1,3-Dithiane-4-carboxylic acid, 2-methyl-5-oxo-, methyl ester
##MOLFORM=C7H10O3S2
##CAS REGISTRY NO=25785-58-4
##MP= -300
##BP= -300
##MW= 206
##$RETENTION INDEX=0
##$CONDENSED SPECTRUM=NO
##NPOINTS= 46
##XYDATA=(XY..XY) 1 
    41        246
    42        152
    43        231
    44        213
    45        871
    46        345
    47        123
    54         27
    55         79
    57         38
    58        130
    59        999
    60        474
    61        159
    62         11
    69        206
    70         57
    71         77
    72        424
    73        205
    74        185
    75         46
    85         55
    87        323
    89         43
   100        168
   101        137
   103         84
   104        164
   105         13
   113         10
   114        490
   115         48
   118         17
   133         23
   141         20
   146        512
   147         71
   148        105
   149         11
   173         98
   174        241
   175         26
   206        736
   207         58
   208         55