##TITLE=Library Entry 19070
##JCAMP-DX=Revision 4.10 
##DATA TYPE=MASS SPECTRUM
##SAMPLE DESCRIPTION=NIST Mass Spectrometry Data Center, 1990.
##NAMES=HP
##CAS NAME=8-Heptadecene
##MOLFORM=C17H34
##CAS REGISTRY NO=2579-04-6
##MP= -300
##BP= -300
##MW= 238
##$RETENTION INDEX=0
##$CONDENSED SPECTRUM=NO
##NPOINTS= 48
##XYDATA=(XY..XY) 1 
    27        216
    28        151
    29        470
    39        189
    41        997
    42        196
    43        840
    44         34
    53         99
    54        313
    55        999
    56        544
    57        693
    58         29
    65         31
    66         36
    67        259
    68        155
    69        802
    70        510
    71        275
    72         16
    77         21
    79         50
    80         17
    81        116
    82        192
    83        720
    84        286
    85        155
    95         48
    96        128
    97        573
    98        162
    99         45
   110         65
   111        320
   112         96
   113         20
   124         38
   125        146
   126         52
   138         20
   139         45
   140         32
   153         19
   238        165
   239         31