##TITLE=Library Entry 36613
##JCAMP-DX=Revision 4.10 
##DATA TYPE=MASS SPECTRUM
##SAMPLE DESCRIPTION=Div. of Experiment Therapeutics WRAIR, WRAMC, Washingto
n DC 20307
##NAMES=HP
##CAS NAME=2-[Cyclopentylcarbonylhydrazino]-1,4-naphthoquinone
##MOLFORM=C16H16N2O3
##CAS REGISTRY NO=25799-86-4
##MP= -300
##BP= -300
##MW= 284
##$RETENTION INDEX=0
##$CONDENSED SPECTRUM=NO
##NPOINTS= 96
##XYDATA=(XY..XY) 1 
    41        392
    42         19
    43          8
    44          6
    50         22
    51         27
    52          6
    53         32
    54          5
    55         45
    56          2
    57          0
    59          0
    62          4
    63         14
    64          2
    65         11
    66          4
    67         54
    68         35
    69        999
    70         55
    71          0
    72          3
    74         10
    75         28
    76         69
    77         50
    78          4
    82          0
    83          4
    85          1
    86          1
    87          2
    88          6
    89         48
    90          5
    91          1
    95          4
    96          6
    97        171
    98          9
    99          1
   100          1
   101         19
   102         61
   103         21
   104         44
   105         30
   106          2
   112          1
   113         10
   114         13
   115         14
   116         15
   117          3
   118          1
   126          1
   128          3
   129          6
   130          4
   131         13
   132          7
   133          2
   141          0
   142         80
   143         18
   144          9
   145          2
   146         12
   147          1
   154          2
   158          1
   159         11
   160         11
   161          1
   171         16
   172         12
   173          4
   174          4
   186          1
   187         35
   188        495
   189         61
   190          5
   210          4
   215          2
   227          0
   229          0
   238          2
   239          0
   256          3
   284         87
   285         23
   286          8
   287          0