##TITLE=Library Entry 27984
##JCAMP-DX=Revision 4.10 
##DATA TYPE=MASS SPECTRUM
##SAMPLE DESCRIPTION=Div. of Experiment Therapeutics WRAIR, WRAMC, Washingto
n DC 20307
##NAMES=HP
##CAS NAME=4-[5-Dimethylamino-2-hydroxy-2-pentyl]-2-phenylquinonine
##MOLFORM=C22H26N2O
##CAS REGISTRY NO=25791-69-9
##MP= -300
##BP= -300
##MW= 334
##$RETENTION INDEX=0
##$CONDENSED SPECTRUM=NO
##NPOINTS= 90
##XYDATA=(XY..XY) 1 
    41         14
    42         49
    43        103
    44         59
    45         15
    46          6
    47          1
    49          7
    50          3
    51         14
    52          2
    53          1
    55          3
    56         10
    57         15
    58        999
    59         45
    60          4
    61          4
    63          3
    65          2
    68          1
    69          2
    70          7
    71         75
    72          5
    74          3
    75         15
    76          4
    77         11
    78          1
    81          0
    82          2
    83          0
    84         32
    85         16
    86          5
    87         38
    88          3
    89          2
    91          2
    95          0
    98          2
   100          0
   101         10
   102          6
   103          2
   104          1
   105          2
   114          1
   115          5
   116         10
   125          0
   126          1
   127          3
   128         26
   129          4
   130          9
   131          0
   139          0
   140          1
   151          2
   152          2
   165          1
   176          3
   177          1
   178          1
   202          1
   203          5
   204         17
   205          7
   206         11
   207          1
   217          2
   218          2
   219         36
   220          7
   230          2
   232          2
   243          1
   244          0
   246          2
   247          1
   248          9
   249          3
   274          3
   289          0
   319          1
   334          1
   335          0