##TITLE=Library Entry 68449
##JCAMP-DX=Revision 4.10 
##DATA TYPE=MASS SPECTRUM
##SAMPLE DESCRIPTION=RADIAN CORP
##NAMES=HP
##CAS NAME=1,3-Butanedione, 1-(2-furanyl)-
##MOLFORM=C8H8O3
##CAS REGISTRY NO=25790-35-6
##MP= -300
##BP= -300
##MW= 152
##$RETENTION INDEX=0
##$CONDENSED SPECTRUM=NO
##NPOINTS= 42
##XYDATA=(XY..XY) 1 
    15         15
    26         14
    27         81
    29         72
    31         15
    37         38
    38        108
    39        328
    40         26
    41         47
    42         77
    43        534
    44          3
    50         31
    51         39
    52         23
    53        134
    54         31
    55         63
    62         20
    63         27
    64          2
    65         39
    66         16
    67         56
    68         73
    69        449
    70          8
    81         73
    82          7
    85         32
    95        999
    96         54
    98          5
   110        572
   111         36
   123          5
   124         87
   137        235
   138          3
   152        343
   153         27