##TITLE=Library Entry 1291
##JCAMP-DX=Revision 4.10 
##DATA TYPE=MASS SPECTRUM
##SAMPLE DESCRIPTION=Japan AIST/NIMC Database- Spectrum MS-NW-1351
##NAMES=HP
##CAS NAME=1,3-Cyclohexanedimethanamine
##MOLFORM=C8H18N2
##CAS REGISTRY NO=2579-20-6
##MP= -300
##BP= -300
##MW= 142
##$RETENTION INDEX=0
##$CONDENSED SPECTRUM=NO
##NPOINTS= 64
##XYDATA=(XY..XY) 1 
    15          3
    16          1
    26          1
    27         18
    28         49
    29         15
    30        999
    31         22
    32         96
    33          1
    38          1
    39         23
    40          3
    41         47
    42          9
    43         27
    44         27
    45          2
    47          7
    50          1
    51          3
    52          2
    53         12
    54         65
    55         47
    56         44
    57          6
    58          3
    59          8
    65          4
    66          6
    67         63
    68         33
    69         13
    70         13
    71          4
    77          6
    78          3
    79         23
    80         10
    81         46
    82         41
    83          5
    84          2
    91          5
    92          1
    93         15
    94          8
    95         40
    96         44
    97          4
   105          1
   107          3
   108         52
   109          5
   110          2
   112         25
   113        137
   114         11
   122          3
   123          3
   124          6
   125         79
   126          9