##TITLE=Library Entry 29572
##JCAMP-DX=Revision 4.10 
##DATA TYPE=MASS SPECTRUM
##SAMPLE DESCRIPTION=Chemical Concepts
##NAMES=HP
##CAS NAME=2-Butanol, 1-mercapto-
##MOLFORM=C4H10OS
##CAS REGISTRY NO=25807-94-7
##MP= -300
##BP= -300
##MW= 106
##$RETENTION INDEX=0
##$CONDENSED SPECTRUM=NO
##NPOINTS= 70
##XYDATA=(XY..XY) 1 
    25          3
    26         39
    27        274
    29        225
    30         93
    31        958
    33         11
    34         13
    35         10
    36          1
    37          5
    38         10
    39         90
    40         13
    41        567
    42         61
    43        150
    44         36
    45        159
    46        104
    47        317
    48        406
    49        260
    50         23
    51         16
    52          2
    53         27
    54         63
    55        206
    56         11
    57         98
    58        215
    59        999
    60         88
    61         36
    62          5
    63          6
    64          0
    65          0
    67          0
    68          0
    69          3
    70          0
    71         32
    72         16
    73         31
    74         33
    75         49
    76         35
    77        310
    78         11
    79         14
    80          0
    81          0
    82          0
    85          3
    86          0
    87         10
    88        450
    89         37
    90         18
    91          3
    92          1
   101          0
   104          0
   105          8
   106        297
   107         18
   108         14
   109          0