##TITLE=Library Entry 42680
##JCAMP-DX=Revision 4.10 
##DATA TYPE=MASS SPECTRUM
##SAMPLE DESCRIPTION=NIST Mass Spectrometry Data Center, 2010
##NAMES=HP
##CAS NAME=Myo-Inositol, 6TMS derivative
##MOLFORM=C24H60O6Si6
##CAS REGISTRY NO=2582-79-8
##MP= -300
##BP= -300
##MW= 612
##$RETENTION INDEX=2113
##$CONDENSED SPECTRUM=NO
##NPOINTS= 239
##XYDATA=(XY..XY) 1 
    29          1
    39          1
    41          2
    43          4
    44          5
    45         38
    46          3
    47          3
    53          5
    54          3
    55          9
    56          1
    57          1
    58          2
    59         17
    60          2
    61          2
    65          1
    66          1
    67          2
    68          1
    69          2
    70          1
    71          1
    72         13
    73        999
    74         83
    75         53
    76          3
    77          2
    79          1
    81          5
    82          1
    83          4
    85          3
    86          1
    87          3
    88          1
    89          2
    97          1
    98          1
    99          3
   100          1
   101          8
   102          4
   103         75
   104          7
   105          5
   109          2
   111          4
   112          1
   113          6
   114          1
   115          3
   116          6
   117         12
   118          2
   119          7
   120          1
   121          1
   125          1
   126          1
   127          7
   128          2
   129        131
   130         15
   131         47
   132          7
   133        130
   134         18
   135         11
   136          1
   137          1
   139          1
   141          3
   142          3
   143         29
   144          4
   145          5
   146          3
   147        683
   148        105
   149         60
   150          6
   151          3
   153          2
   154          1
   155          3
   156          2
   157          9
   158          1
   159          3
   160          1
   161         13
   162          2
   163          4
   164          1
   167          1
   169          2
   171          1
   173          3
   174          1
   175          6
   176          1
   177          6
   178          1
   179          1
   181          1
   183          1
   185          1
   187          1
   189         17
   190         18
   191        357
   192         64
   193         30
   194          4
   195          1
   199          1
   201          3
   202          1
   203          7
   204        153
   205         36
   206         15
   207         14
   208          3
   209          2
   213          1
   215          5
   217        565
   218        112
   219         49
   220          7
   221         37
   222          8
   223          4
   224          1
   227          1
   228          1
   229          2
   230         10
   231          6
   232          2
   233          1
   235          1
   239          1
   241          1
   243          6
   244          1
   245          2
   246          1
   249          1
   255          1
   257          1
   263          1
   264          1
   265        116
   266         29
   267         15
   268          3
   269          1
   271          2
   277          3
   278          3
   279          2
   280          1
   289          1
   290          1
   291         51
   292         16
   293         22
   294          5
   295          2
   303          2
   304          8
   305        541
   306        158
   307         79
   308         16
   309          4
   310          1
   316          1
   317          5
   318        311
   319        129
   320         55
   321         14
   322          3
   323          1
   327          1
   329          1
   331          3
   332          1
   343          7
   344          2
   345          3
   346          1
   365          1
   367         43
   368         15
   369          8
   370          2
   371          1
   378          1
   379          4
   380          1
   381          1
   391          1
   392          3
   393         28
   394         10
   395          6
   396          1
   404          1
   405          1
   406          2
   407          2
   408          1
   417          3
   418          1
   419          8
   420          3
   421          2
   432         64
   433         51
   434         24
   435          9
   436          2
   437          1
   507         17
   508          8
   509          5
   510          1
   511          1
   522          1
   612          2
   613          1
   614          1