##TITLE=Library Entry 15516
##JCAMP-DX=Revision 4.10 
##DATA TYPE=MASS SPECTRUM
##SAMPLE DESCRIPTION=Organic Synthesis Lab, MSU, Moscow.TRC 919
##NAMES=HP
##CAS NAME=Allylmalonic acid
##MOLFORM=C6H8O4
##CAS REGISTRY NO=2583-25-7
##MP= -300
##BP= -300
##MW= 144
##$RETENTION INDEX=0
##$CONDENSED SPECTRUM=NO
##NPOINTS= 79
##XYDATA=(XY..XY) 1 
    22          0
    25          4
    26         98
    27        431
    28        150
    29        218
    30          3
    31         14
    34          0
    37         23
    38         48
    39        477
    40         34
    41        341
    42         85
    43        234
    44        999
    45        133
    46          5
    49         20
    50         89
    51        106
    52         53
    53        308
    54        337
    55        734
    56         91
    57         86
    58        117
    59          3
    60         68
    62          0
    63          5
    64          0
    65          2
    66          0
    67         11
    68          3
    69         26
    70        114
    71         30
    72         11
    73         53
    74          2
    77         27
    78          4
    79          9
    80         16
    81        140
    82        346
    83         72
    84          5
    85         13
    86         27
    87          9
    89          3
    91          3
    93          1
    94          4
    95          7
    96          3
    97        188
    98        475
    99         89
   100        201
   101          9
   103          2
   104          6
   108        118
   109         21
   115          5
   116          3
   126         49
   127          2
   128          1
   130          1
   139          1
   140          0
   141          2