##TITLE=Library Entry 95175
##JCAMP-DX=Revision 4.10 
##DATA TYPE=MASS SPECTRUM
##SAMPLE DESCRIPTION=A.A.Kutin, Moscow, Russia
##NAMES=HP
##CAS NAME=Pent-3-ene-2-one, 3-phenyl-, oxime
##MOLFORM=C11H13NO
##CAS REGISTRY NO=258345-37-8
##MP= -300
##BP= -300
##MW= 175
##$RETENTION INDEX=0
##$CONDENSED SPECTRUM=NO
##NPOINTS= 132
##XYDATA=(XY..XY) 1 
    33          3
    34          1
    35          1
    36          4
    37         11
    38         47
    39        298
    40         65
    41        115
    42        263
    43        266
    44         26
    45         18
    46          2
    47          3
    48          1
    50        109
    51        241
    52         62
    53         45
    54         28
    55        226
    56         58
    57         72
    58         40
    60         22
    61         14
    62         57
    63        172
    64         57
    65        179
    66         33
    67         20
    68          8
    69         11
    70         27
    72         53
    73         24
    74         52
    75         61
    76         73
    77        224
    78        107
    79         69
    80         24
    81         10
    82         12
    83         10
    84          8
    85         12
    86         20
    87         48
    88         35
    89        147
    90         56
    91        649
    92         73
    93          8
    94          5
    95         10
    96         36
    97         38
    98         27
    99          6
   100          6
   101         21
   102        104
   103         87
   104        149
   105        184
   106         23
   107          6
   108          2
   109          3
   110          4
   111          7
   112          8
   113         41
   114        152
   115        999
   116        321
   117        437
   118         66
   119        119
   120         11
   121          1
   123          1
   124          0
   125          2
   126         12
   127         58
   128        148
   129         85
   130        131
   131        119
   132        501
   133        195
   134         40
   135          3
   136          0
   137          0
   138          1
   139          8
   140         27
   141         71
   142         68
   143        654
   144        107
   145         15
   146         28
   147          8
   148          4
   149          1
   151          0
   153          1
   154          9
   155          6
   156         64
   157         93
   158        466
   159         73
   160        297
   161         34
   162          2
   168          0
   170          0
   172          1
   173          4
   174         92
   175        750
   176         93
   177          8