##TITLE=Library Entry 28958
##JCAMP-DX=Revision 4.10 
##DATA TYPE=MASS SPECTRUM
##SAMPLE DESCRIPTION=Div. of Experiment Therapeutics WRAIR, WRAMC, Washingto
n DC 20307
##NAMES=HP
##CAS NAME=4-[7-Dimethylamino-2-hydroxy-2-heptyl]-2-phenylquinoline
##MOLFORM=C24H30N2O
##CAS REGISTRY NO=25840-52-2
##MP= -300
##BP= -300
##MW= 362
##$RETENTION INDEX=0
##$CONDENSED SPECTRUM=NO
##NPOINTS= 89
##XYDATA=(XY..XY) 1 
    41         14
    42         24
    43         69
    44         18
    45         11
    46         16
    49          9
    50         29
    51         21
    52          6
    53         35
    54          4
    55          8
    56          8
    57         10
    58        999
    59         34
    61         26
    62         78
    63         30
    64         10
    65          2
    66         10
    67          6
    68          4
    69         11
    70          8
    71          9
    74          3
    75         13
    76          9
    77         27
    78         12
    79          7
    80         19
    81          3
    84         22
    86          2
    87          8
    89          4
    90         11
    91         60
    92         12
    94          2
    98          7
   100          3
   101          8
   102          5
   105         14
   106          3
   114        102
   115         17
   119          1
   120          3
   127          4
   128         10
   136          5
   137          3
   142          1
   144          6
   152          6
   155          2
   156         11
   157          4
   171          3
   176          2
   199          9
   202          1
   203          5
   204         20
   205         10
   206         94
   207         15
   217          3
   218          5
   219         20
   220          6
   229         54
   230          9
   232          9
   233          3
   246          6
   248          7
   249         68
   250         12
   258          1
   262          4
   304          4
   344          4