##TITLE=Library Entry 56937
##JCAMP-DX=Revision 4.10 
##DATA TYPE=MASS SPECTRUM
##SAMPLE DESCRIPTION=Div. of Experiment Therapeutics WRAIR, WRAMC, Washingto
n DC 20307
##NAMES=HP
##CAS NAME=4-Chloro-5-[.beta.,.beta.-dimethyl-.alpha.-styryl]-6-[4-diethylam
ino-1-methyl-n-butylamino]pyrimidine
##MOLFORM=C23H33ClN4
##CAS REGISTRY NO=25844-59-1
##MP= -300
##BP= -300
##MW= 400
##$RETENTION INDEX=0
##$CONDENSED SPECTRUM=NO
##NPOINTS= 231
##XYDATA=(XY..XY) 1 
    41        157
    42        105
    43         69
    44        104
    45         28
    46         49
    51         10
    52          5
    53         11
    54         10
    55         21
    56         65
    57         10
    58        155
    59         33
    60          4
    63          3
    65         10
    67         11
    68         11
    69         35
    70         26
    71         24
    72         32
    73         16
    74         52
    75          3
    77         21
    78          5
    79          4
    82          7
    83          4
    84         50
    86        999
    87         82
    89         28
    90         17
    91         63
    92          8
    93          4
    94          4
    96          7
    97          3
    98         28
    99         15
   100          7
   101         11
   102         11
   103         13
   104          7
   105         15
   106          4
   110         11
   111          9
   112        101
   113          8
   114         35
   115         22
   116          8
   117          8
   118          3
   119          9
   120         14
   121          3
   124          8
   125          4
   126         14
   127         12
   128         32
   129         30
   130         14
   131         32
   132          6
   133          3
   134          3
   136          3
   138          6
   139         25
   140         30
   141         18
   142         35
   143         10
   145          5
   146          3
   147          7
   148         12
   150         25
   151          3
   152          3
   153          5
   154          9
   155         22
   156         14
   157         17
   158          6
   159          6
   161          3
   162         13
   163          3
   164         12
   166          4
   167          6
   168         10
   169          8
   170          6
   171          9
   172          4
   173          4
   174          3
   175          4
   176         13
   178          5
   180          3
   181          6
   182          8
   183         13
   184          6
   185         28
   186          7
   187         15
   188          4
   189          4
   190          8
   195          4
   196          6
   197          6
   198         10
   199          5
   200          4
   201          3
   202          6
   203          5
   208          4
   209          4
   210          5
   211          5
   212          8
   216          4
   223          3
   224         15
   225          8
   226         40
   227          8
   228          5
   237          3
   238          7
   239          3
   240         19
   241         21
   242         29
   243          5
   251          3
   252          7
   253          4
   254         13
   256          5
   258          5
   266          8
   268        145
   269         38
   270         14
   271          3
   280         10
   281         19
   282         45
   283         11
   284          4
   286          4
   289          3
   292          4
   294          9
   295          9
   296         19
   297          6
   303          3
   306          3
   308        256
   309         97
   310        163
   311         43
   312          6
   313          5
   315          7
   318          3
   319          3
   323          3
   325          3
   326          5
   327          4
   328          3
   329          6
   330          7
   331         15
   332          3
   334          4
   335          3
   337          6
   341          9
   342          5
   343         13
   344          3
   347          3
   349         13
   350          4
   353         42
   354         20
   355         47
   356         14
   357          3
   359          7
   363          4
   364          4
   365         17
   366          5
   367         15
   368          5
   369         10
   370         53
   371         92
   372         20
   373         30
   375          8
   384         60
   385        114
   386         24
   387         37
   399          3
   400         20
   401          5
   402          7
   403          1