##TITLE=Library Entry 14923
##JCAMP-DX=Revision 4.10 
##DATA TYPE=MASS SPECTRUM
##SAMPLE DESCRIPTION=Div. of Experiment Therapeutics WRAIR, WRAMC, Washingto
n DC 20307
##NAMES=HP
##CAS NAME=6,8-Dichloro-2-[3,4-dichlorophenyl]-4-quinolyl-.alpha.-bromoethyl
 ketone
##MOLFORM=C17H8BrCl4NO
##CAS REGISTRY NO=25840-28-2
##MP= -300
##BP= -300
##MW= 461
##$RETENTION INDEX=0
##$CONDENSED SPECTRUM=NO
##NPOINTS= 209
##XYDATA=(XY..XY) 1 
    41         56
    42         66
    43        999
    44        127
    45         14
    47          3
    49         37
    50         34
    51         41
    52         14
    53          3
    54         11
    55         31
    56         82
    57         31
    58         77
    59         12
    61         14
    62         21
    63         24
    65         26
    66          3
    67         13
    68         19
    69         19
    70         50
    71         30
    72         29
    73         31
    74         98
    75         63
    76          8
    77         17
    78         15
    79         36
    80         23
    81         19
    82         30
    83         26
    84         72
    85         52
    86         59
    87         44
    88         12
    89          3
    91        159
    92         28
    93         50
    94         20
    95         15
    96         18
    97         47
    98        141
    99        169
   100         42
   101         12
   103         16
   104         27
   105         23
   106         76
   107         41
   108         29
   109         86
   110         46
   111         69
   112         37
   113         35
   114         19
   115          3
   117         78
   119          9
   120         32
   121         29
   122         26
   123         36
   124         46
   125         32
   126         30
   127          7
   128          7
   129          4
   130          3
   131          4
   132         10
   133        184
   134        134
   135        150
   136         73
   137         21
   138         18
   139         21
   140         16
   141         12
   142          9
   143         25
   144          8
   145         31
   146         18
   147         33
   148         27
   149         27
   150         12
   151          3
   152        143
   153        130
   155         54
   156          4
   157         16
   159         18
   160         22
   161         19
   162          7
   163          3
   165          4
   167         15
   169         45
   170         23
   171         45
   172         21
   173         25
   174         30
   175         29
   176          7
   177         24
   182          3
   183         12
   184         45
   185         61
   186         34
   187         13
   189          5
   191         31
   192         41
   193          9
   194         22
   195         19
   196         11
   198          7
   199         46
   200         28
   201         17
   203         13
   208         16
   209         11
   212          3
   214         17
   220         10
   233         14
   234          5
   235        120
   236         28
   237         35
   238          3
   244          3
   248         15
   250         16
   269         69
   270         62
   271         67
   272         44
   273         24
   274          8
   284         20
   285         15
   286         14
   287         11
   304          8
   305        368
   307        358
   308         71
   309         91
   310         28
   311         14
   320          7
   321          5
   340        262
   342        325
   343         93
   344        162
   345         25
   346         37
   347          9
   348         46
   349          4
   350         45
   351         11
   352         10
   355        254
   357        332
   358         59
   359        168
   360         26
   361         38
   368        168
   370        236
   371         73
   372        119
   373         11
   374         21
   383        636
   385        860
   386        317
   387        434
   389         94
   390          8
   461         18
   463         39
   465         34
   467         14