##TITLE=Library Entry 65849
##JCAMP-DX=Revision 4.10 
##DATA TYPE=MASS SPECTRUM
##SAMPLE DESCRIPTION=Div. of Experiment Therapeutics WRAIR, WRAMC, Washingto
n DC 20307
##NAMES=HP
##CAS NAME=2,4-Dihydroxy-3,3-dimethyl-N-[2-[phenylsulfamoyl]ethyl]valeramide
##MOLFORM=C15H24N2O5S
##CAS REGISTRY NO=25840-64-6
##MP= -300
##BP= -300
##MW= 344
##$RETENTION INDEX=0
##$CONDENSED SPECTRUM=NO
##NPOINTS= 120
##XYDATA=(XY..XY) 1 
    41        110
    42         49
    43        332
    44        215
    45        120
    46          7
    47          1
    48          2
    50          3
    51          8
    52          7
    53         16
    54         11
    55         99
    56         15
    57         78
    58         12
    59          6
    62          0
    63         14
    64         20
    65        145
    66         35
    67         20
    68          4
    69         27
    70         45
    71         49
    72         92
    73         89
    74          7
    77         17
    78          4
    79          5
    80          3
    81         17
    82         43
    83        140
    84         12
    85        131
    86          8
    87          9
    91         16
    92        146
    93        999
    94        226
    95         13
    96          1
    97          4
    98          4
    99         44
   100         26
   101         13
   102          2
   103          4
   104          3
   105          1
   106         15
   107         11
   108         14
   109         15
   110          4
   111          2
   112          3
   117         22
   118          8
   119          5
   120         21
   121          1
   124          3
   125          1
   126         21
   127         14
   128          3
   129          0
   134          2
   136          9
   140          1
   152          5
   157          2
   163          0
   164          6
   165         52
   166          3
   167          2
   170          1
   171          6
   182          4
   183          0
   188          0
   189          8
   190         58
   191          5
   192          5
   200        116
   201         21
   202          7
   206         11
   216         13
   226         13
   227          6
   228          5
   234         57
   235          6
   236          7
   252        236
   253         25
   254         13
   256         20
   257          3
   258         25
   259          3
   261          6
   282          9
   283          3
   326          4
   327          3
   344         67
   345         24
   346          6