##TITLE=Library Entry 23180
##JCAMP-DX=Revision 4.10 
##DATA TYPE=MASS SPECTRUM
##SAMPLE DESCRIPTION=RADIAN CORP
##NAMES=HP
##CAS NAME=Diazene, dimethyl-, 1-oxide
##MOLFORM=C2H6N2O
##CAS REGISTRY NO=25843-45-2
##MP= -300
##BP= -300
##MW= 74
##$RETENTION INDEX=0
##$CONDENSED SPECTRUM=NO
##NPOINTS= 16
##XYDATA=(XY..XY) 1 
    15         27
    27         54
    28        280
    29         40
    30        731
    31         11
    42        236
    43        138
    44        117
    45        475
    46         87
    57        999
    58         44
    59        378
    73         12
    74        345