##TITLE=Library Entry 56039
##JCAMP-DX=Revision 4.10 
##DATA TYPE=MASS SPECTRUM
##SAMPLE DESCRIPTION=Div. of Experiment Therapeutics WRAIR, WRAMC, Washingto
n DC 20307
##NAMES=HP
##CAS NAME=Furano[2,3-d]pyrimidin-4-amine, N-(4-diethylamino-1-methylbutyl)-
2,3-dihydro-2,2-dimethyl-3-phenyl-
##MOLFORM=C23H34N4O
##CAS REGISTRY NO=25844-57-9
##MP= -300
##BP= -300
##MW= 382
##$RETENTION INDEX=0
##$CONDENSED SPECTRUM=NO
##NPOINTS= 170
##XYDATA=(XY..XY) 1 
    41        104
    42         75
    43         42
    44         70
    45         28
    46         22
    49          7
    51         10
    52          4
    53          9
    54          9
    55         18
    56         52
    57         20
    58        123
    59          9
    63          4
    65          7
    66          1
    67         10
    68          9
    69         29
    70         25
    71         27
    72         33
    73         27
    74         25
    77         21
    78          5
    79          4
    80          3
    81          3
    82          7
    83          2
    84         38
    86        999
    87         47
    88          1
    89          9
    91         33
    92          3
    94          3
    95          1
    96          7
    97          1
    98         15
    99         11
   100          4
   101          8
   102          7
   103          7
   104          2
   105         10
   106          4
   108          1
   110          6
   111          5
   112         44
   114         21
   115         14
   116          6
   117          7
   119          7
   120          1
   121          2
   124          9
   125          2
   126          9
   128         28
   129         13
   130          3
   131         18
   132          2
   133          2
   134          1
   136          1
   138          4
   139         14
   140         17
   141         12
   142         19
   143          6
   145          4
   148          3
   150         13
   152          3
   153          4
   154          6
   155         12
   156          8
   157          5
   158          1
   162          9
   164          7
   166          3
   167          4
   168          6
   169          5
   170          5
   171          5
   175          1
   176          9
   178          2
   180          3
   181          4
   182          4
   183          7
   184          1
   185          6
   187          1
   190          5
   192          1
   194          1
   195          4
   196          3
   197          3
   198          6
   200          2
   202          3
   204          1
   207          1
   208          3
   209          1
   210          3
   211          3
   212          4
   222          1
   224          8
   226         25
   227          2
   237          1
   238          4
   239          3
   240          9
   241         10
   242          8
   243          1
   250          1
   252          5
   254          5
   256          1
   266          8
   268         46
   269         11
   280          4
   281          4
   282         18
   283          4
   294          7
   295          4
   296          5
   297          8
   308         69
   309         20
   310         36
   311         11
   312          1
   313          1
   353         24
   354          8
   355          2
   356          4
   357          1
   367          5
   370          0
   371          0
   381         14
   382         28
   383          9
   384          4