##TITLE=Library Entry 69162
##JCAMP-DX=Revision 4.10 
##DATA TYPE=MASS SPECTRUM
##SAMPLE DESCRIPTION=Div. of Experiment Therapeutics WRAIR, WRAMC, Washingto
n DC 20307
##NAMES=HP
##CAS NAME=N-[2-[[2-Pyrazinyl]sulfamoyl]ethyl]-2,4-dihydroxy-3,3-dimethylbut
yramide
##MOLFORM=C12H20N4O5S
##CAS REGISTRY NO=25840-67-9
##MP= -300
##BP= -300
##MW= 332
##$RETENTION INDEX=0
##$CONDENSED SPECTRUM=NO
##NPOINTS= 103
##XYDATA=(XY..XY) 1 
    41        121
    42         70
    43        493
    44        266
    45         64
    46          8
    47          5
    48          2
    51          2
    52         10
    53         18
    54         10
    55         92
    56         36
    57         73
    58         14
    59         31
    60          1
    61          7
    64          4
    65          4
    66         10
    67         58
    68        100
    69         34
    70         49
    71         80
    72         55
    73         23
    74          4
    79         19
    80          2
    81          6
    82         52
    83         59
    85         38
    86          6
    87          5
    89          1
    91          5
    95        343
    96        999
    97         51
    98          3
    99          2
   100          8
   101         11
   103         29
   106          3
   108         19
   109         11
   110         16
   112          4
   113          3
   120          9
   121          7
   122         13
   123          2
   124          3
   125         17
   126         10
   134          7
   136         11
   138          4
   139         13
   141          6
   142         18
   144          1
   155          1
   156          1
   158          8
   159          4
   164          9
   166          7
   173          5
   174          9
   176          3
   183          1
   186         12
   189         10
   190         18
   192          1
   196         11
   202         18
   203         17
   206          1
   211          2
   220          6
   229         73
   230        113
   231         14
   232          7
   238         49
   239          5
   240          2
   242          1
   250          7
   259         31
   260         32
   261          4
   284          7
   332          8
   333          3