##TITLE=Library Entry 81970
##JCAMP-DX=Revision 4.10 
##DATA TYPE=MASS SPECTRUM
##SAMPLE DESCRIPTION=Exported from NIST MS Search
##NAMES=HP
##CAS NAME=Isoxazole, 3-(m-methoxyphenyl)-5-phenyl-
##MOLFORM=C16H13NO2
##CAS REGISTRY NO=25856-12-6
##MP= -300
##BP= -300
##MW= 251
##$RETENTION INDEX=0
##$CONDENSED SPECTRUM=NO
##NPOINTS= 25
##XYDATA=(XY..XY) 1 
    77        470
    78         30
    89         30
    92         40
   103         20
   105        999
   106         80
   107         10
   119         20
   133         20
   135        120
   136         10
   146         70
   149        110
   150         10
   174        130
   175         10
   208         30
   210         20
   220         30
   236         60
   250         50
   251        760
   252        110
   253         10