##TITLE=Library Entry 36890
##JCAMP-DX=Revision 4.10 
##DATA TYPE=MASS SPECTRUM
##SAMPLE DESCRIPTION=NIST Mass Spectrometry Data Center, 2010
##NAMES=HP
##CAS NAME=3-Methylcatechol, bis(trifluoroacetate)
##MOLFORM=C11H6F6O4
##CAS REGISTRY NO=25854-50-6
##MP= -300
##BP= -300
##MW= 316
##$RETENTION INDEX=1065
##$CONDENSED SPECTRUM=NO
##NPOINTS= 163
##XYDATA=(XY..XY) 1 
    26          5
    27         11
    28          5
    29          1
    31          7
    37          6
    38         24
    39        163
    40         69
    41          3
    42          1
    43          6
    44          2
    47          2
    49          3
    50         72
    51        135
    52         67
    53         28
    54          6
    55          6
    56          1
    57          3
    59          2
    60          1
    61          6
    62         19
    63         61
    64         24
    65        190
    66        301
    67         20
    69        999
    70         14
    71          5
    73          2
    74          9
    75         11
    76         16
    77        673
    78        287
    79         33
    80          2
    81          1
    83         29
    84          3
    85          4
    86          1
    87          1
    88          1
    89         13
    90          2
    91          1
    92          7
    93         32
    94         71
    95         57
    96         17
    97        154
    98          8
    99          1
   101          3
   103          1
   105        613
   106         85
   107         15
   108         54
   109        370
   110         30
   111          1
   113          2
   114          2
   115         13
   116          2
   119          2
   120          1
   121         10
   122         39
   123         11
   124          2
   125          9
   126          4
   127         42
   128          4
   132          2
   133         29
   134          5
   135          3
   136          1
   137          1
   139          1
   143          3
   144          2
   145          7
   146          2
   147          4
   149          4
   150         19
   151          2
   153         66
   154         23
   155         12
   156          1
   161          1
   162         11
   163         60
   164          5
   165          1
   167          1
   171        261
   172         32
   173          4
   174         21
   175        244
   176         23
   177          2
   179          1
   181          2
   182          1
   183          1
   189          3
   191         92
   192          9
   193          4
   194          1
   198          1
   199          3
   200          1
   201          4
   202        207
   203        538
   204         57
   205          5
   213          1
   217          2
   219        663
   220         73
   221         10
   222          1
   229          1
   241          1
   245          8
   246          4
   247         51
   248          8
   249          2
   259         21
   260         11
   261          1
   265          2
   269         17
   270          4
   277          2
   287          1
   288          2
   294          1
   296          1
   298         27
   299          4
   316        762
   317        100
   318         12
   319          1