##TITLE=Library Entry 52967
##JCAMP-DX=Revision 4.10 
##DATA TYPE=MASS SPECTRUM
##SAMPLE DESCRIPTION=V.G.Zaikin, TIPS RAS, Moscow, Russia
##NAMES=HP
##CAS NAME=3-Methyl,2-butenoic acid, isopropyl ester
##MOLFORM=C8H14O2
##CAS REGISTRY NO=25859-51-2
##MP= -300
##BP= -300
##MW= 142
##$RETENTION INDEX=940
##$CONDENSED SPECTRUM=NO
##NPOINTS= 47
##XYDATA=(XY..XY) 1 
    25          7
    26         49
    27        338
    28         38
    29        231
    30          7
    31         11
    36          7
    37         29
    38         55
    39        365
    40         69
    41        215
    42         79
    43        321
    44         88
    45         25
    49         12
    50         47
    51         58
    52         51
    53        102
    54         61
    55        292
    56         39
    57         28
    58         11
    59         91
    60          6
    67         21
    68          3
    69         12
    72          9
    78          6
    79         41
    82        261
    83        999
    84         73
    85        155
    86          9
    97          4
    99          7
   100        475
   101         61
   113          7
   127         45
   142         27