##TITLE=Library Entry 109770
##JCAMP-DX=Revision 4.10 
##DATA TYPE=MASS SPECTRUM
##SAMPLE DESCRIPTION=J.WOLINSKY DEPT. CHEM., PURDUE UNIV., LAFAYETTE, IND.,
 USA
##NAMES=HP
##CAS NAME=Bicyclo[2.2.2]octane-2,3-dicarboxylic acid, 1-hydroxy-8,8-dimethy
l-5-oxo-, dimethyl ester
##MOLFORM=C14H20O6
##CAS REGISTRY NO=25864-66-8
##MP= -300
##BP= -300
##MW= 284
##$RETENTION INDEX=0
##$CONDENSED SPECTRUM=NO
##NPOINTS= 32
##XYDATA=(XY..XY) 1 
    41        330
    43        410
    53        190
    55        290
    59        370
    69        330
    81        290
    83        400
    95        380
   109        370
   113        690
   119        200
   125        999
   126        160
   127        240
   137        250
   140        870
   141        230
   145        450
   165        150
   168        150
   169        600
   192        110
   193        150
   206         90
   209        110
   221        250
   224        160
   237        110
   252        190
   253        440
   284        370