##TITLE=Library Entry 56615
##JCAMP-DX=Revision 4.10 
##DATA TYPE=MASS SPECTRUM
##SAMPLE DESCRIPTION=NIST Mass Spectrometry Data Center
##NAMES=HP
##CAS NAME=2-(2-Diethylaminoethyl)pyridine
##MOLFORM=C11H18N2
##CAS REGISTRY NO=25877-30-9
##MP= -300
##BP= -300
##MW= 178
##$RETENTION INDEX=0
##$CONDENSED SPECTRUM=NO
##NPOINTS= 75
##XYDATA=(XY..XY) 1 
    15          2
    26          3
    27         28
    29         47
    30         91
    31          1
    38          3
    39         24
    40          3
    41         13
    42         55
    43          8
    44         11
    50          8
    51         33
    52         20
    53         14
    54         11
    55          4
    56         53
    57         20
    58        122
    59          4
    62          1
    63          5
    64          4
    65         29
    66         12
    67          7
    68          1
    70         22
    71          3
    72         30
    73          2
    74          6
    75          1
    76          2
    77         17
    78         64
    79         26
    80          7
    84         24
    85         10
    86        999
    87         68
    88          1
    91          2
    92         18
    93         38
    94         49
    95          3
   104         10
   105          5
   106        189
   107         32
   108          2
   117          2
   118          5
   119          8
   120          3
   121          2
   131          1
   132          2
   133          9
   134          3
   135          2
   147          4
   148          1
   149         28
   150          3
   163         11
   164          1
   177          1
   178         13
   179          1