##TITLE=Library Entry 8210
##JCAMP-DX=Revision 4.10 
##DATA TYPE=MASS SPECTRUM
##SAMPLE DESCRIPTION=Div. of Experiment Therapeutics WRAIR, WRAMC, Washingto
n DC 20307
##NAMES=HP
##CAS NAME=Robenidine
##MOLFORM=C15H13Cl2N5
##CAS REGISTRY NO=25875-51-8
##MP= -300
##BP= -300
##MW= 333
##$RETENTION INDEX=0
##$CONDENSED SPECTRUM=NO
##NPOINTS= 121
##XYDATA=(XY..XY) 1 
    41          5
    42         35
    43        999
    44         35
    45         20
    47          1
    49          6
    50         78
    51         82
    52         12
    53          4
    54          1
    57          8
    59        966
    60         22
    61         12
    62         53
    63        156
    64         13
    65         13
    66          2
    68          3
    70          6
    72          3
    73         24
    74         17
    75        170
    76         50
    77         57
    78          6
    83          1
    84         12
    85        436
    86         23
    87         19
    88          6
    89        561
    90         73
    91         14
    92         16
    93          2
    97          6
    99         36
   100          6
   101          8
   102         39
   103         11
   104          6
   105          2
   111        256
   112         62
   113        105
   114         23
   115          4
   116          4
   117         18
   118         26
   119         50
   120          4
   123         17
   124        210
   125        341
   126         91
   127        109
   128          8
   129          9
   131         42
   132         23
   133          3
   136          1
   137         13
   138        311
   139         76
   140        185
   141         33
   142         23
   143          3
   150         10
   151          9
   152         32
   153        164
   154        227
   155         54
   156         65
   157          6
   160          2
   163          2
   165         21
   166         23
   167         22
   168         14
   178          4
   179          1
   180         49
   181          4
   182         14
   184          1
   193          1
   194         22
   195        333
   196         41
   197        109
   198          9
   221          2
   222        128
   223         13
   224         42
   225          4
   243          2
   262          1
   277          3
   279          3
   331          2
   332         49
   333        488
   334        136
   335        340
   336         89
   337         62
   338         18
   339          1