##TITLE=Library Entry 80167
##JCAMP-DX=Revision 4.10 
##DATA TYPE=MASS SPECTRUM
##SAMPLE DESCRIPTION=NIST Mass Spectrometry Data Center, 1994
##NAMES=HP
##CAS NAME=1,3,5-Tribenzoylbenzene
##MOLFORM=C27H18O3
##CAS REGISTRY NO=25871-69-6
##MP= -300
##BP= -300
##MW= 390
##$RETENTION INDEX=0
##$CONDENSED SPECTRUM=NO
##NPOINTS= 29
##XYDATA=(XY..XY) 1 
    50         17
    51         98
    75         18
    77        520
    78         35
   105        999
   106         77
   150          7
   151         11
   152         15
   180          6
   207         10
   226          7
   228         10
   229          7
   257         19
   267          8
   285        175
   286         38
   287          5
   311          5
   313        263
   314         63
   315          9
   361         12
   362          9
   390        336
   391         96
   392         16