##TITLE=Library Entry 73056
##JCAMP-DX=Revision 4.10 
##DATA TYPE=MASS SPECTRUM
##SAMPLE DESCRIPTION=Humboldt-Universitat zu Berlin, Department of Chemistry
, Analytical Group
##NAMES=HP
##CAS NAME=1-(4-Fluorophenyl)-3-morpholino-propan-1-one
##MOLFORM=C13H16FNO2
##CAS REGISTRY NO=25872-70-2
##MP= -300
##BP= -300
##MW= 237
##$RETENTION INDEX=0
##$CONDENSED SPECTRUM=NO
##NPOINTS= 138
##XYDATA=(XY..XY) 1 
    12          0
    14          3
    15         54
    16          1
    17          4
    18         14
    19          2
    20          1
    25          0
    26         14
    27         85
    28        250
    29        106
    30         50
    31         16
    32          0
    33          0
    39         16
    40          6
    41         66
    42        205
    43         52
    44         29
    45         13
    46          0
    49          1
    50         22
    51         17
    52          4
    53          6
    54         43
    55         92
    56        436
    57         71
    58         10
    59         14
    60          1
    61          1
    62          3
    63          6
    64          1
    65          0
    66          0
    67          2
    68         18
    69         29
    70         68
    71         51
    72         23
    73          3
    74         13
    75        111
    76         11
    77          6
    78          1
    79          0
    80          1
    81          3
    82          7
    83         13
    84         40
    85          8
    86         29
    87          7
    88          2
    89          2
    90          0
    91          0
    92          1
    93          4
    94         18
    95        269
    96         27
    97          5
    98         71
    99        258
   100        999
   101         70
   102          6
   104         10
   105          1
   107          3
   108          1
   109         29
   110          3
   111          0
   112         10
   113          3
   114         60
   115          5
   116          0
   120          2
   121          7
   122          7
   123        281
   124         24
   125          3
   129          1
   131          1
   132          1
   133          6
   134          2
   135          4
   136          1
   137          0
   138          6
   139          1
   140          1
   142          1
   148          1
   149          3
   150          7
   151         51
   152          8
   153          1
   162          1
   163          0
   164          1
   165          1
   171          0
   176          0
   178          2
   179          2
   180          1
   190          6
   191          1
   192          1
   194         96
   195         12
   196          1
   206          7
   207          1
   208          2
   220          2
   236          2
   237         18
   238          2
   239          0