##TITLE=Library Entry 25922
##JCAMP-DX=Revision 4.10 
##DATA TYPE=MASS SPECTRUM
##SAMPLE DESCRIPTION=NIST Mass Spectrometry Data Center, 1994
##NAMES=HP
##CAS NAME=1-Phenyl-2-hexanone
##MOLFORM=C12H16O
##CAS REGISTRY NO=25870-62-6
##MP= -300
##BP= -300
##MW= 176
##$RETENTION INDEX=0
##$CONDENSED SPECTRUM=NO
##NPOINTS= 61
##XYDATA=(XY..XY) 1 
    14          0
    15          8
    26         14
    27        126
    28         40
    29        327
    30          5
    37          3
    38         17
    39        167
    40          3
    41        414
    42         36
    43         22
    44          1
    46          7
    50         18
    51         49
    52         15
    53         11
    54          1
    55         58
    56          1
    57        999
    58         43
    61          3
    62         14
    63         54
    64          3
    65        229
    66         13
    67          2
    74          3
    75          4
    76          3
    77         14
    78          5
    79          3
    85        831
    86         46
    87          5
    88          3
    89         52
    90          3
    91        427
    92         69
    93          3
   103          3
   104          1
   105          5
   115          7
   116          5
   117          3
   118          2
   119          5
   129          3
   134          3
   147          2
   176         74
   177         10
   178          0