##TITLE=Library Entry 14958
##JCAMP-DX=Revision 4.10 
##DATA TYPE=MASS SPECTRUM
##SAMPLE DESCRIPTION=NIST Mass Spectrometry Data Center, 1994
##NAMES=HP
##CAS NAME=Diazene, bis[4-(hexyloxy)phenyl]-, 1-oxide
##MOLFORM=C24H34N2O3
##CAS REGISTRY NO=2587-42-0
##MP= -300
##BP= -300
##MW= 398
##$RETENTION INDEX=0
##$CONDENSED SPECTRUM=NO
##NPOINTS= 85
##XYDATA=(XY..XY) 1 
    27         58
    28         12
    29        125
    39         72
    41        360
    43        999
    44         32
    50         12
    51         14
    52         44
    53         33
    54         12
    55        286
    56         22
    57         99
    63         19
    64         28
    65        141
    66         15
    67         13
    69         20
    76         42
    77         21
    78         23
    79         71
    80         46
    81         40
    83         13
    85         75
    90          8
    91         17
    93        256
    94         60
    95         43
    96         10
   104          8
   105          8
   107        517
   108        159
   109         84
   110         15
   119          9
   121         54
   122         26
   123        223
   124        107
   125          9
   127         11
   128         11
   131         11
   133         13
   157         10
   173         13
   174         11
   177        294
   178         47
   184         10
   185         20
   186         18
   191         54
   192         13
   201        105
   202         64
   203         11
   204         11
   205         57
   206         11
   207         32
   208         14
   213         42
   214         14
   229         47
   230         58
   285         11
   286         39
   297         12
   298         18
   313         47
   314         99
   315         26
   382        144
   383         43
   398        619
   399        188
   400         24