##TITLE=Library Entry 702
##JCAMP-DX=Revision 4.10 
##DATA TYPE=MASS SPECTRUM
##SAMPLE DESCRIPTION=J. SHAW, BORRISTON RESEARCH, ROCKVILLE, MD, USA
##NAMES=HP
##CAS NAME=O,O-Diethyl S-eththionylmethyl phosphorothioate
##MOLFORM=C7H17O4PS2
##CAS REGISTRY NO=2588-05-8
##MP= -300
##BP= -300
##MW= 260
##$RETENTION INDEX=1833
##$CONDENSED SPECTRUM=NO
##NPOINTS= 137
##XYDATA=(XY..XY) 1 
    12          3
    13          3
    14         18
    15         74
    16         27
    17        158
    18        572
    19         24
    20          5
    25          4
    26         72
    27        537
    28        165
    29        999
    30         41
    31         42
    32         16
    33         10
    34         13
    35         31
    36          2
    37          1
    38          1
    39         10
    41         49
    42         15
    43         78
    44         25
    45        295
    46        219
    47        257
    48         31
    49         21
    50         23
    51          7
    52          1
    53          1
    54          1
    55          9
    56          4
    57         20
    58         14
    59         48
    60         40
    61         76
    62         16
    63         81
    64         12
    65        141
    66          4
    67          2
    68          1
    69          4
    70          3
    71          4
    72          4
    73         17
    74         38
    75        224
    76         16
    77         75
    78         72
    79         30
    81        547
    82         44
    83         21
    84          2
    85          2
    87          1
    88          1
    89          2
    91        181
    92          7
    93         45
    94          5
    95          9
    96         12
    97         83
    99         91
   100          1
   101          1
   105          3
   106          4
   107         14
   109        892
   110         29
   111        113
   112          5
   113         17
   114         24
   115         30
   116          1
   117          1
   121          4
   122          1
   123          6
   125         29
   126         12
   127        163
   128          7
   129         10
   130          1
   135          1
   137        204
   139        222
   140         12
   141         13
   142          7
   143          9
   149          4
   153         57
   155        156
   156          8
   157          8
   159          2
   169          3
   170         13
   171         10
   172          1
   175          1
   181          1
   183        252
   184         16
   185         12
   186          1
   187          2
   197          4
   199          2
   201         15
   202          1
   203          1
   214          1
   215          5
   230          1
   243          1
   244          1
   261          3