##TITLE=Library Entry 390
##JCAMP-DX=Revision 4.10 
##DATA TYPE=MASS SPECTRUM
##SAMPLE DESCRIPTION=J. SHAW, BORRISTON RESEARCH, ROCKVILLE, MD, USA
##NAMES=HP
##CAS NAME=Phoratoxon sulfone
##MOLFORM=C7H17O5PS2
##CAS REGISTRY NO=2588-06-9
##MP= -300
##BP= -300
##MW= 276
##$RETENTION INDEX=1847
##$CONDENSED SPECTRUM=NO
##NPOINTS= 91
##XYDATA=(XY..XY) 1 
    12          5
    15        153
    16         10
    18         66
    19         36
    27        882
    29        999
    31         86
    32         11
    33         11
    34         13
    35          9
    36          1
    37          1
    39         16
    41         55
    43        145
    45        549
    46        415
    47        337
    48         44
    49         22
    50          7
    51          2
    53          1
    55          5
    57         15
    59         67
    60         23
    61         28
    63         49
    65        281
    66         19
    67          6
    68          1
    69          1
    73         22
    75        460
    77        165
    79         40
    81        606
    82         45
    83         19
    87          2
    89          2
    91        201
    93         86
    95         38
    97         91
    99         49
   105          2
   107          8
   109        632
   111        137
   113         38
   114         13
   115         11
   121          5
   123          9
   125         28
   127        177
   128          7
   129          7
   130          1
   137        191
   139        278
   140         16
   141         14
   142          5
   143          4
   146         14
   148          1
   153         54
   155        207
   156         10
   157         10
   169          5
   170          5
   171          3
   173          1
   174          1
   183        379
   184         22
   185         33
   186          2
   231         13
   232          1
   249          8
   250          1
   277        122
   278         19