##TITLE=Library Entry 48526
##JCAMP-DX=Revision 4.10 
##DATA TYPE=MASS SPECTRUM
##SAMPLE DESCRIPTION=F. TURECEK,HEYROVSKY INST PHYS CHEM & ELECTROCHEM,PRAGU
E,CZECH
##NAMES=HP
##CAS NAME=cis-4,5-Bis(cyanomethyl)cyclohexene
##MOLFORM=C10H12N2
##CAS REGISTRY NO=25886-61-7
##MP= -300
##BP= -300
##MW= 160
##$RETENTION INDEX=0
##$CONDENSED SPECTRUM=NO
##NPOINTS= 57
##XYDATA=(XY..XY) 1 
    26         20
    27        130
    29         30
    38         20
    39        210
    40         40
    41        210
    42        700
    43        300
    44         10
    46         20
    50         30
    51         80
    52         50
    53        110
    54        140
    55         40
    56         10
    57         20
    63         30
    64         20
    65         70
    66        110
    67         40
    68         10
    69         10
    70          5
    71         10
    76         10
    77        190
    78         80
    79        999
    80        150
    81         30
    89         10
    91        170
    92        190
    93        420
    94         50
    95         10
   102         20
   103         10
   104         20
   105         30
   106         40
   107         10
   116         20
   117         10
   118         20
   119         50
   120        200
   121         20
   132         50
   133        130
   134         20
   160         70
   161         10