##TITLE=Library Entry 57803
##JCAMP-DX=Revision 4.10 
##DATA TYPE=MASS SPECTRUM
##SAMPLE DESCRIPTION=Chemical Concepts
##NAMES=HP
##CAS NAME=4,13-Diaza-1,7,10,15-tetraoxapentadecane, 4,13-dimethyl-
##MOLFORM=C12H28N2O4
##CAS REGISTRY NO=258856-75-6
##MP= -300
##BP= -300
##MW= 264
##$RETENTION INDEX=0
##$CONDENSED SPECTRUM=NO
##NPOINTS= 154
##XYDATA=(XY..XY) 1 
    26          0
    27         11
    29          9
    30         21
    31          7
    36          0
    39          0
    41          7
    42         81
    43         45
    44        210
    45         95
    46          2
    47          0
    51          0
    54          2
    55          3
    56         29
    57         50
    58        157
    59         13
    60          0
    61          0
    67          0
    68          0
    69          1
    70         60
    71         63
    72        211
    73         13
    74          9
    75         14
    76          1
    77          0
    79          0
    81          0
    82          2
    83          3
    84          9
    85          7
    86         13
    87          5
    88        999
    89         47
    90          4
    91          1
    93          0
    94          1
    95          0
    96          0
    97          0
    98          0
    99          4
   100        111
   101        116
   102        101
   103          6
   104          0
   105          0
   107          0
   108          1
   109          0
   110          0
   111          0
   112          0
   113          0
   114         16
   115         12
   116         24
   117          2
   118          1
   119          0
   120          1
   123          0
   126          1
   127          0
   128          1
   129          0
   130          9
   131          1
   132         39
   133         12
   134         50
   135          3
   136          0
   141          4
   142          6
   143          0
   144         15
   145          6
   146         43
   147          3
   148          1
   149          0
   153          0
   154          7
   155          0
   156          0
   157          0
   158          7
   159          2
   160          1
   161          2
   162         11
   163         10
   164         28
   165          3
   166          0
   171          1
   172          2
   173          0
   174          0
   176          4
   177          0
   184          0
   186          0
   187          1
   188          1
   189          1
   190          1
   191          0
   192          0
   201          0
   202          0
   203          7
   204          1
   205          0
   211          0
   215          2
   216          1
   217          0
   218          0
   219          0
   221          4
   222          0
   226          0
   228          0
   229          1
   230          0
   231          0
   232          0
   233        100
   234         12
   235          1
   236          0
   239          0
   240          0
   246          1
   247          0
   250          0
   259          0
   263          2
   264          0
   265          0