##TITLE=Library Entry 57925
##JCAMP-DX=Revision 4.10 
##DATA TYPE=MASS SPECTRUM
##SAMPLE DESCRIPTION=Div. of Experiment Therapeutics WRAIR, WRAMC, Washingto
n DC 20307
##NAMES=HP
##CAS NAME=1,4-S,S-2,5-Bis[carbethoxy]phenylene bis[N,N-dimethyldithiocarbam
ate]
##MOLFORM=C18H24N2O4S4
##CAS REGISTRY NO=25902-98-1
##MP= -300
##BP= -300
##MW= 460
##$RETENTION INDEX=0
##$CONDENSED SPECTRUM=NO
##NPOINTS= 82
##XYDATA=(XY..XY) 1 
    41          4
    42         47
    43          9
    44         20
    45         12
    46          2
    47         18
    49          4
    50          1
    51          3
    52          1
    55          1
    56         31
    57          2
    58          1
    59          1
    61          5
    62          1
    63          3
    64          1
    69          6
    70          1
    72         17
    73         31
    74          2
    75          2
    76          1
    77          4
    78          6
    79          0
    82          1
    84          1
    86          1
    88        999
    89         37
    90         51
    91          2
    93          1
    95          2
    96          0
    97          1
   101          1
   105          1
   108          1
   120          1
   127          1
   136          1
   138          1
   139          1
   152          1
   170          2
   171          4
   183          1
   194          1
   195          2
   196          1
   202          2
   216          1
   227          6
   228          1
   230          0
   254          0
   267          4
   268          1
   286          0
   296          1
   315          0
   340         10
   341          1
   342          1
   387         38
   388          8
   389          8
   390          1
   415          6
   416          1
   417          1
   459          1
   460         26
   461          7
   462          5
   463          0