##TITLE=Library Entry 70670
##JCAMP-DX=Revision 4.10 
##DATA TYPE=MASS SPECTRUM
##SAMPLE DESCRIPTION=J.E. WILKINSON S-CUBED, SAN DIEGO, CA.
##NAMES=HP
##CAS NAME=Chlorothiophos sulfone 2,5-isomer
##MOLFORM=C11H15Cl2O5PS2
##CAS REGISTRY NO=25900-20-3
##MP= -300
##BP= -300
##MW= 392
##$RETENTION INDEX=0
##$CONDENSED SPECTRUM=NO
##NPOINTS= 207
##XYDATA=(XY..XY) 1 
    40          0
    41          1
    43         25
    44          3
    45         86
    46          5
    47         82
    48          4
    53         23
    57          0
    58          0
    59          7
    60         16
    61         27
    62         48
    63        263
    64         26
    65        220
    66          0
    67          0
    69         13
    71          0
    72          4
    73         21
    74         19
    75         10
    79        115
    80         28
    81         86
    85          9
    86          3
    87          4
    89          4
    90          2
    91         23
    92          2
    93         68
    94          1
    95         19
    96         29
    97        999
    98         14
    99         73
   100          3
   101          0
   103          2
   105          2
   106          0
   107          5
   108          7
   109        132
   110          1
   111          8
   112          1
   113         22
   114          1
   115          4
   116          1
   117          5
   118          0
   119          2
   120          1
   121         30
   122          0
   123          2
   125        253
   126         13
   127         12
   129         13
   130          4
   131         10
   132          9
   133         34
   135         12
   136          2
   137          9
   138          0
   139          2
   140          1
   141         12
   142          6
   143          7
   144          6
   145          5
   147          5
   148          1
   149         11
   150          0
   151          9
   152          0
   153         33
   155          1
   156          0
   157         12
   158          6
   159          9
   160          5
   161         17
   162          4
   163          4
   164          6
   167          1
   168          1
   169          1
   171          0
   172          1
   173          9
   174          1
   175         10
   177         75
   178          2
   179         42
   182          0
   183          0
   187          4
   188          0
   189          6
   190          2
   191          5
   192          3
   193         16
   195          7
   196          0
   197          1
   203          0
   204          3
   205          4
   206          0
   207          4
   209         21
   211         14
   212          0
   213          1
   219          1
   221          8
   222         48
   223         23
   224         21
   225         32
   227         11
   228          0
   229          2
   233          0
   235          0
   237          6
   238          1
   239          9
   240         29
   241          8
   242         15
   244          1
   249          0
   250          4
   251          3
   252          1
   253          1
   255          4
   256         36
   257         21
   258         22
   259          9
   261          1
   267          0
   269          1
   271          2
   273          0
   278          3
   280          0
   283          3
   284          0
   285          7
   286          0
   287         20
   288          0
   289          9
   291          0
   300          5
   301        439
   302         38
   303        178
   304         10
   305          9
   306          0
   313          4
   315          3
   317          0
   319         20
   320          0
   321         14
   323          2
   329        102
   330          7
   331         38
   335          0
   337          2
   339          0
   341          0
   347          1
   349          1
   351          0
   357        272
   358         31
   359        109
   360          8
   361          2
   363          0
   393          0