##TITLE=Library Entry 73416
##JCAMP-DX=Revision 4.10 
##DATA TYPE=MASS SPECTRUM
##SAMPLE DESCRIPTION=Patti Price, Georgia Bureau of Investigation, Decatur,
 Georgia
##NAMES=HP
##CAS NAME=Minaprine
##MOLFORM=C17H22N4O
##CAS REGISTRY NO=25905-77-5
##MP= -300
##BP= -300
##MW= 298
##$RETENTION INDEX=2854
##$CONDENSED SPECTRUM=NO
##NPOINTS= 113
##XYDATA=(XY..XY) 1 
    41         21
    42         52
    43          9
    44         11
    45          1
    50          4
    51         25
    52          6
    53          6
    54         20
    55         61
    56        141
    57         30
    58          3
    59          1
    63          6
    64          2
    65          3
    66          4
    67          4
    68         13
    69         22
    70         44
    71         10
    72         13
    73          1
    74          2
    75          3
    76          9
    77         76
    78          8
    79          2
    80          5
    81          3
    82         14
    83         34
    84         19
    85          9
    86          4
    87          3
    88          1
    89          5
    90          1
    91          3
    92          1
    93          4
    94          1
    95         10
    96          2
    98         68
    99          8
   100        999
   101         61
   102         16
   103          8
   104          8
   105          4
   106          3
   107          1
   111          5
   112         32
   113        588
   114         99
   115         16
   116          2
   117          6
   118          1
   126          2
   127         14
   128         26
   129         20
   130          3
   131          1
   139          2
   140          6
   141          4
   142          8
   143          2
   144          1
   154          6
   155          3
   156          7
   157          6
   158          1
   168          3
   169         13
   170          5
   171          2
   172          1
   184          2
   185         79
   186        531
   187         63
   188          4
   196          3
   197          2
   198        105
   199         18
   200          2
   207          1
   208          1
   209          2
   210         20
   211          7
   212         20
   213         43
   214          6
   223          1
   224          1
   235          1
   280          1
   281          1
   298          1