##TITLE=Library Entry 84229
##JCAMP-DX=Revision 4.10 
##DATA TYPE=MASS SPECTRUM
##SAMPLE DESCRIPTION=NIST Mass Spectrometry Data Center, 2012
##NAMES=HP
##CAS NAME=N-(.alpha.-Linolenoyl)tyrosine
##MOLFORM=C27H39NO4
##CAS REGISTRY NO=259143-19-6
##MP= -300
##BP= -300
##MW= 441
##$RETENTION INDEX=0
##$CONDENSED SPECTRUM=NO
##NPOINTS= 209
##XYDATA=(XY..XY) 1 
    26          3
    27         10
    28         17
    29         19
    31          1
    33          1
    35          1
    36          4
    38          4
    39         22
    40          5
    41         99
    42          7
    43         28
    44          8
    51          6
    52          6
    53         28
    54         13
    55        104
    56          8
    57          8
    58          2
    59          3
    62          2
    63          5
    65         24
    66         19
    67        137
    68         15
    69         33
    70          4
    71          2
    77         91
    78         34
    79        169
    80         55
    81         46
    82         11
    83          9
    84          4
    85          2
    86          2
    88          2
    89          5
    91        102
    92         17
    93         78
    94         22
    95         92
    96          8
    97          6
    98          3
    99          2
   100          1
   102          2
   103          6
   104          3
   105         34
   107        999
   108        166
   109         23
   110          6
   111          2
   112          3
   113          1
   114          1
   115          5
   117          9
   118          3
   119         54
   120         47
   121         36
   122          9
   123         61
   124          9
   125          3
   126          2
   127          2
   128          3
   130          2
   131         10
   132          7
   133         19
   134         15
   135         63
   136        500
   137         39
   138          6
   140          2
   142          2
   143          2
   144          8
   145          5
   146          6
   147         43
   148         10
   149          5
   150          4
   151          4
   152          2
   154          2
   155          2
   156          1
   159          7
   160          7
   161          8
   162          4
   163          4
   165        159
   166         19
   167          2
   168          1
   170          1
   171          5
   172          6
   173          6
   174          5
   176          3
   177          3
   178          2
   179          2
   181          2
   182          2
   183          2
   185          6
   186          4
   187          1
   188          3
   189          3
   191          7
   192          3
   193          6
   194          3
   195          2
   196          1
   197          2
   198          2
   199          3
   200          2
   201          2
   202          1
   203          2
   204          3
   205          3
   209          5
   211          3
   212          1
   213          8
   214          4
   215          1
   216          3
   218          1
   220          3
   225          3
   226          1
   227          2
   228          1
   230          1
   231          1
   232          5
   233          2
   234          1
   235          1
   239          3
   241          1
   242          1
   243          1
   244          1
   246          1
   253          4
   258          7
   259          1
   260          3
   261          1
   262          1
   265          2
   266          1
   268          1
   270          1
   271          2
   272          4
   273          1
   276          1
   285          1
   286          2
   288         25
   294          1
   295          1
   298          2
   302          1
   312          1
   316         15
   317          3
   324          1
   326          6
   327          2
   335          1
   339          2
   343          1
   350          1
   354          2
   366          2
   378          2
   379          1
   380          1
   395          5
   423          9
   424          3