##TITLE=Library Entry 16852
##JCAMP-DX=Revision 4.10 
##DATA TYPE=MASS SPECTRUM
##SAMPLE DESCRIPTION=V.Zaikin,Topchiev Inst.Petrochem.Synth.,Moscow
##NAMES=HP
##CAS NAME=Methoxyacetic acid, decyl ester
##MOLFORM=C13H26O3
##CAS REGISTRY NO=259141-02-1
##MP= -300
##BP= -300
##MW= 230
##$RETENTION INDEX=0
##$CONDENSED SPECTRUM=NO
##NPOINTS= 61
##XYDATA=(XY..XY) 1 
    27        190
    28         10
    29        324
    30          5
    31         36
    33          5
    34          3
    39        114
    40         26
    41        379
    42        143
    43        552
    44         44
    45        999
    46         16
    47          4
    51          7
    53         18
    54         27
    55        333
    56        146
    57        457
    58         15
    59          2
    60         32
    61         71
    63         66
    65          5
    66         10
    67         31
    68         44
    69        166
    70         94
    71        230
    72          9
    75          9
    77          3
    81         15
    82         46
    83         84
    84         79
    85        172
    86         12
    89          7
    90         19
    91        101
    95          4
    96          4
    97         70
    98         41
    99         13
   109          8
   110         10
   111         30
   112         44
   113          7
   114          3
   140         78
   141          5
   185         31
   186          4