##TITLE=Library Entry 53354
##JCAMP-DX=Revision 4.10 
##DATA TYPE=MASS SPECTRUM
##SAMPLE DESCRIPTION=Japan AIST/NIMC Database- Spectrum MS-IW-1994
##NAMES=HP
##CAS NAME=7-Piperidino-1H-1,2,3-triazolo(4,5-d)pyridazine
##MOLFORM=C9H12N6
##CAS REGISTRY NO=25910-77-4
##MP= -300
##BP= -300
##MW= 204
##$RETENTION INDEX=0
##$CONDENSED SPECTRUM=NO
##NPOINTS= 133
##XYDATA=(XY..XY) 1 
    14          5
    15         22
    25          2
    26         29
    27        182
    28        291
    29        171
    30         99
    31          2
    36          3
    37         14
    38         55
    39        218
    40        106
    41        681
    42        695
    43        149
    44         22
    45          3
    50          9
    51         44
    52        255
    53        112
    54        145
    55        662
    56        340
    57         49
    58          3
    60          2
    61          1
    62          2
    63         10
    64         52
    65        182
    66        257
    67        286
    68        203
    69        164
    70         40
    71          6
    73          1
    75          2
    76          7
    77         46
    78         77
    79        118
    80         88
    81         56
    82        365
    83        999
    84        796
    85         51
    86          1
    88          7
    89          1
    90          4
    91         29
    92         57
    93         92
    94        148
    95        100
    96        117
    97         14
    98          3
    99          1
   102          1
   103          4
   104         10
   105         35
   106         69
   107         82
   108         45
   109         35
   110         30
   111         57
   112          4
   116          2
   117          5
   118         14
   119         80
   120        184
   121        215
   122        173
   123         83
   124         10
   125         17
   126          2
   129          1
   130          9
   131         15
   132         24
   133         55
   134         89
   135         90
   136         57
   137         12
   138          4
   139          2
   143          2
   144          4
   145          8
   146         16
   147        218
   148        168
   149        222
   150         33
   151          4
   157          2
   158         13
   159         17
   160         29
   161         71
   162         25
   163         16
   164          2
   171          2
   172          6
   173          8
   174         10
   175        245
   176        508
   177         61
   178          6
   186         16
   187          9
   188          8
   189         17
   190          2
   202          5
   203         65
   204        955
   205        119
   206          7