##TITLE=Library Entry 90028
##JCAMP-DX=Revision 4.10 
##DATA TYPE=MASS SPECTRUM
##SAMPLE DESCRIPTION=Japan AIST/NIMC Database- Spectrum MS-NW-8315
##NAMES=HP
##CAS NAME=1-Piperidinecarboxaldehyde
##MOLFORM=C6H11NO
##CAS REGISTRY NO=2591-86-8
##MP= -300
##BP= -300
##MW= 113
##$RETENTION INDEX=1145
##$CONDENSED SPECTRUM=NO
##NPOINTS= 64
##XYDATA=(XY..XY) 1 
    14          3
    15         49
    16          1
    17          3
    18         28
    26         27
    27        187
    28        142
    29        438
    30        244
    31          5
    32          4
    36          1
    37          3
    38          9
    39        146
    40         27
    41        282
    42        490
    43        232
    44        232
    45         14
    46         34
    49          1
    50          7
    51         13
    52         11
    53         40
    54         73
    55        176
    56        651
    57        257
    58         84
    59         58
    60          4
    65          5
    66          2
    67         54
    68         69
    69         55
    70        196
    71        136
    72        185
    73          8
    78          1
    80         12
    81          2
    82         25
    83          7
    84        525
    85        121
    86          7
    94          2
    95          1
    96         56
    97          4
    98        349
    99         20
   100          1
   111          2
   112        326
   113        999
   114        102
   115          6