##TITLE=Library Entry 99237
##JCAMP-DX=Revision 4.10 
##DATA TYPE=MASS SPECTRUM
##SAMPLE DESCRIPTION=A.A.Kutin, Moscow, Russia
##NAMES=HP
##CAS NAME=Piperazine-2,5-dione, 4-(4-methylbenzoyl)-
##MOLFORM=C12H12N2O3
##CAS REGISTRY NO=259228-04-1
##MP= -300
##BP= -300
##MW= 232
##$RETENTION INDEX=0
##$CONDENSED SPECTRUM=NO
##NPOINTS= 32
##XYDATA=(XY..XY) 1 
    39         34
    40         13
    41         37
    42         93
    43          6
    44          2
    46          1
    50          7
    51         20
    55          2
    56          3
    62          6
    63         25
    65        137
    66          3
    70          1
    75          3
    76          3
    77         14
    79          3
    89         39
    91        330
    92         14
   105         41
   106          2
   118          4
   119        999
   120         63
   121          3
   146          3
   232         92
   233         11