##TITLE=Library Entry 31785
##JCAMP-DX=Revision 4.10 
##DATA TYPE=MASS SPECTRUM
##SAMPLE DESCRIPTION=Japan AIST/NIMC Database- Spectrum MS-NW-1187
##NAMES=HP
##CAS NAME=1H-Benzotriazole, 1-hydroxy-
##MOLFORM=C6H5N3O
##CAS REGISTRY NO=2592-95-2
##MP= -300
##BP= -300
##MW= 135
##$RETENTION INDEX=0
##$CONDENSED SPECTRUM=NO
##NPOINTS= 108
##XYDATA=(XY..XY) 1 
    12          7
    13          2
    14         23
    15          5
    16          9
    17          5
    18         27
    24          4
    25         14
    26         68
    27        100
    28        521
    29         38
    30        296
    31         16
    32          5
    34          2
    36         24
    37        271
    38        348
    39        597
    40         78
    41        156
    42          9
    43         14
    44         53
    45         46
    46          4
    48          9
    49         54
    50        388
    51        543
    52        956
    53        126
    54         11
    55         19
    56          6
    57         15
    58          2
    59          7
    60         22
    61        114
    62        185
    63        841
    64        999
    65        223
    66         21
    67          7
    68          6
    69          9
    70          5
    71          9
    72          3
    73         26
    74         96
    75         70
    76        205
    77        918
    78        385
    79        123
    80         15
    81          7
    82          4
    83          8
    84          3
    85          7
    86          9
    87         23
    88         32
    89         18
    90        789
    91        978
    92         72
    93         18
    94         31
    95          6
    96          3
    97          7
    98          3
    99          2
   100          1
   101          2
   102          3
   103          5
   104          3
   105          8
   106         31
   107        900
   108         64
   109          9
   110          2
   111          4
   112          2
   113          2
   114          1
   115          4
   116          2
   117          2
   118          2
   119        961
   120         75
   121          3
   123         11
   124          2
   125          2
   135        174
   136         14
   137          2