##TITLE=Library Entry 80424
##JCAMP-DX=Revision 4.10 
##DATA TYPE=MASS SPECTRUM
##SAMPLE DESCRIPTION=Div. of Experiment Therapeutics WRAIR, WRAMC, Washingto
n DC 20307
##NAMES=HP
##CAS NAME=3-O-Acetyl-6-O-benzoyl-1,2-O-isopropylidene-5-O-toluenesulfonyl-.
alpha.-
##MOLFORM=C25H28O10S
##CAS REGISTRY NO=2592-45-2
##MP= -300
##BP= -300
##MW= 520
##$RETENTION INDEX=0
##$CONDENSED SPECTRUM=NO
##NPOINTS= 232
##XYDATA=(XY..XY) 1 
    41          8
    42          1
    43         85
    44          0
    45         11
    48         18
    49          5
    50         35
    51         58
    52         26
    53         37
    54          5
    55         16
    56          3
    57          6
    58         28
    59         21
    60          7
    61         17
    62         55
    63        155
    64         75
    65        309
    66          1
    67          8
    68          9
    69         21
    70          6
    71         11
    72          0
    73         23
    74         29
    75         25
    76         23
    77        212
    78         36
    79        125
    80         51
    81         96
    82          8
    83         17
    84          0
    85         78
    86         25
    87         16
    89        173
    90         55
    91        817
    92          1
    93          7
    94          8
    95          6
    97         15
    98          9
    99         14
   100         11
   101         14
   102          3
   103         10
   104         26
   105        999
   106         31
   107         14
   108         26
   110          5
   111          7
   112          3
   113         17
   114          0
   115         21
   116         18
   117         12
   118          5
   119          6
   121          7
   122         33
   123         13
   125        112
   126         17
   127         40
   128          0
   129         20
   131         11
   132         15
   133          6
   134          5
   135          2
   136          1
   137          2
   139         16
   141         37
   143        198
   144         27
   145         18
   146          8
   147          3
   148          1
   149          2
   150          1
   151          2
   152          2
   153          2
   155        228
   156         23
   157         15
   158          3
   159          2
   160         17
   161          3
   162          2
   163          4
   165          6
   166          4
   167          6
   169         10
   170          3
   171        215
   172        562
   173         70
   174         26
   176         16
   177         37
   178          4
   179          1
   180          1
   181          0
   182          1
   183          1
   184          1
   185          2
   186          1
   187         15
   188         12
   189          4
   190          3
   191          1
   192          0
   193          0
   195          3
   196          0
   197          7
   198          1
   199          0
   201        243
   202         33
   203          9
   204          2
   206         12
   207          1
   208          3
   209          0
   211          0
   213          4
   215         16
   216          2
   217          1
   218          2
   219          3
   220          2
   221          1
   222          2
   223          1
   224          1
   225          0
   227         18
   228          2
   230         18
   231         79
   232         12
   234          3
   235          1
   236          1
   239          1
   241          1
   242          0
   244         47
   245          5
   247         12
   248          3
   249          1
   251          8
   252          1
   253          0
   255          0
   257          0
   259         21
   260          3
   261          1
   262          0
   263          0
   265          0
   267          1
   269          2
   270         16
   271          8
   272          3
   273          1
   274         26
   275          4
   276          1
   277          1
   280          1
   281          3
   282          0
   283          0
   285          0
   287          2
   288         43
   289          4
   290          0
   291          1
   297          2
   307          0
   309          4
   310          0
   315          0
   316         25
   317          8
   319         11
   320          0
   323          0
   326          0
   327          1
   333          1
   335          0
   349          5
   350          0
   351          0
   358          1
   391          0
   505          1
   506          0