##TITLE=Library Entry 78296
##JCAMP-DX=Revision 4.10 
##DATA TYPE=MASS SPECTRUM
##SAMPLE DESCRIPTION=V.A.Korolev, Moscow, Russia
##NAMES=HP
##CAS NAME=3-(4-Bromophenyl)-3H-2-benzofuran-1-one
##MOLFORM=C14H9BrO2
##CAS REGISTRY NO=25933-36-2
##MP= -300
##BP= -300
##MW= 288
##$RETENTION INDEX=0
##$CONDENSED SPECTRUM=NO
##NPOINTS= 119
##XYDATA=(XY..XY) 1 
    37         15
    38         56
    39        105
    40         20
    41         12
    42          2
    43         12
    44         38
    45          5
    49         19
    50        477
    51        374
    52         29
    53         14
    55         11
    56          4
    57          7
    61         24
    62        103
    63        185
    64         17
    65         13
    66          2
    67          3
    68          2
    70         23
    71          1
    73         21
    74        233
    75        348
    76        656
    77        581
    78         42
    79         10
    80          4
    82         34
    83         30
    84          1
    85         14
    86         61
    87         72
    88         29
    89         40
    90         14
    91          4
    97          1
    98         31
    99         25
   100          8
   101         15
   102         14
   103         13
   104        590
   105        999
   106         77
   107          6
   109          4
   110         14
   111         21
   112          6
   113         31
   114         14
   115         47
   116          5
   117          2
   119          4
   122          5
   123          3
   124          1
   125         10
   126         31
   127         11
   128          1
   129          4
   130          3
   131          6
   132         48
   133        146
   134         13
   135          1
   137         22
   138         17
   139         56
   140          6
   149          1
   150         22
   151         51
   152        152
   153         45
   154          3
   155         65
   156          9
   157         65
   158          8
   161          3
   162         15
   163        146
   164         95
   165        321
   166         43
   167          1
   180         42
   181         18
   183        155
   184         16
   185        153
   186         16
   208          2
   209        347
   210         52
   211          4
   244          7
   246          7
   287          5
   288        228
   289         41
   290        226
   291         41
   292          3