##TITLE=Library Entry 73072
##JCAMP-DX=Revision 4.10 
##DATA TYPE=MASS SPECTRUM
##SAMPLE DESCRIPTION=Div. of Experiment Therapeutics WRAIR, WRAMC, Washingto
n DC 20307
##NAMES=HP
##CAS NAME=7-Chloro-8-[3-[morpholino]propylamino]-5,6-quinolinedione
##MOLFORM=C16H18ClN3O3
##CAS REGISTRY NO=25943-55-9
##MP= -300
##BP= -300
##MW= 335
##$RETENTION INDEX=0
##$CONDENSED SPECTRUM=NO
##NPOINTS= 186
##XYDATA=(XY..XY) 1 
    41         74
    42        120
    43         70
    44         33
    45         12
    47          4
    49         15
    50          8
    51         19
    52         10
    53          4
    54         23
    55         41
    56        160
    57         17
    58          3
    59          1
    61          2
    62          5
    63          9
    64          5
    65          4
    66          1
    67          1
    68         21
    69         21
    70         44
    71         15
    72         14
    73          2
    74          9
    75         12
    76         14
    77         12
    78         18
    79          7
    80          1
    81          2
    82         22
    84         35
    85          9
    86         32
    88          9
    89          5
    90          8
    91          3
    92          5
    93          2
    94          3
    95          1
    96         21
    97         37
    98         78
   100        999
   101         35
   102         38
   103         18
   104         26
   105         14
   106          1
   107          2
   108          2
   109          1
   110          4
   111          1
   112         50
   114         32
   116         16
   117         11
   118          1
   124         19
   125         27
   126        108
   127          9
   128          3
   129          2
   130         25
   131          9
   132          7
   133          0
   134          1
   136         10
   137         17
   138          9
   139          7
   140          2
   141          3
   142          3
   143          3
   144          8
   145          4
   146          2
   147          3
   151          4
   152          1
   153          2
   154          3
   155          4
   156          2
   157         15
   158         12
   159         13
   160         11
   161          1
   163          1
   164          3
   165          5
   166         13
   168          5
   171          6
   172          7
   173          9
   175          3
   176          2
   179          2
   180          9
   181          4
   182          4
   183          7
   184          5
   185         26
   186         14
   187         17
   188         13
   189          6
   190          0
   191          1
   192          6
   193         12
   194          9
   195          7
   196          5
   197          3
   198          1
   199          8
   200          0
   201          2
   203          3
   205          7
   206          1
   207          7
   208          3
   209          9
   210          4
   211          5
   212          4
   213         49
   214        148
   215          8
   216          1
   217          0
   219          1
   220          2
   221         11
   222         18
   223          8
   224          7
   225          2
   226          0
   227          1
   232          0
   234          2
   235          6
   236          3
   237         10
   238          1
   239          5
   241          2
   242          5
   243          2
   248          0
   250          1
   257          2
   258          0
   269          1
   270          3
   271          2
   277          2
   299         10
   300          8
   301          7
   302          2
   335         18
   336          7
   337          6
   338          3