##TITLE=Library Entry 30921
##JCAMP-DX=Revision 4.10 
##DATA TYPE=MASS SPECTRUM
##SAMPLE DESCRIPTION=E. Zissis, LC, NIDDK, NIH, Bethesda, MD 20892
##NAMES=HP
##CAS NAME=D-Allose
##MOLFORM=C6H12O6
##CAS REGISTRY NO=2595-97-3
##MP= -300
##BP= -300
##MW= 180
##$RETENTION INDEX=0
##$CONDENSED SPECTRUM=NO
##NPOINTS= 68
##XYDATA=(XY..XY) 1 
    41         94
    42        181
    43        183
    44        100
    45        100
    46          2
    47         82
    49          0
    50          2
    51          6
    52          1
    53         18
    54          2
    55        127
    56        155
    57        454
    58         25
    60        999
    61         58
    62          5
    67          1
    69        100
    70        117
    71         97
    72         81
    73        386
    74         62
    75          7
    77          2
    78          4
    80         10
    81         10
    83          4
    84          4
    85         19
    86          4
    87          9
    88         10
    89         32
    90          4
    91          5
    95          0
    97         52
    98         90
    99         21
   100          0
   101         25
   102         20
   103          7
   105          0
   106          5
   109          0
   110          1
   114          1
   115         19
   116         11
   119          4
   124          3
   126          9
   127          5
   129          0
   138          3
   144         63
   145          8
   152          0
   163         12
   164          1
   180          0