##TITLE=Library Entry 1526
##JCAMP-DX=Revision 4.10 
##DATA TYPE=MASS SPECTRUM
##SAMPLE DESCRIPTION=Japan AIST/NIMC Database- Spectrum MS-NW-3183
##NAMES=HP
##CAS NAME=D(+)-Talose
##MOLFORM=C6H12O6
##CAS REGISTRY NO=2595-98-4
##MP= -300
##BP= -300
##MW= 180
##$RETENTION INDEX=0
##$CONDENSED SPECTRUM=NO
##NPOINTS= 100
##XYDATA=(XY..XY) 1 
    12          5
    13         14
    14         57
    15        226
    16          4
    17         43
    18        153
    19         78
    24          3
    25         10
    26         43
    27         99
    28        118
    29        574
    30        162
    31        999
    32        292
    33         31
    34          1
    36          9
    37          6
    38          6
    39         31
    40          7
    41         37
    42        291
    43        598
    44        221
    45        104
    46          5
    47         31
    49          4
    50          1
    51          3
    52          2
    53          9
    54         18
    55         91
    56        117
    57        135
    58         30
    59         18
    60        731
    61        466
    62         30
    63          3
    65          1
    67          2
    68          9
    69         33
    70         19
    71        200
    72        212
    73        674
    74         73
    75          8
    76          1
    77          4
    79          1
    80          1
    81          4
    82          2
    83          9
    84         10
    85         45
    86         26
    87         18
    88          5
    89         22
    90         18
    91         77
    92          3
    94          1
    95          6
    96          9
    97         17
    98         14
    99          3
   100          1
   101         56
   102         49
   103         36
   104          3
   107          1
   110          1
   112          1
   113          6
   114          4
   115          6
   116          6
   119         58
   120          4
   121          2
   126          4
   131         30
   132          3
   133         11
   134          1
   144          4
   149          6