##TITLE=Library Entry 75207
##JCAMP-DX=Revision 4.10 
##DATA TYPE=MASS SPECTRUM
##SAMPLE DESCRIPTION=Institute of Organic Chemistry, Novosibirsk, USSR 1988
##NAMES=HP
##CAS NAME=Methyl 2,4,6-tri-O-acetyl-3-acetamido-3-deoxy-.alpha.-D-glucopyra
noside
##MOLFORM=C15H23NO9
##CAS REGISTRY NO=2595-38-2
##MP= -300
##BP= -300
##MW= 361
##$RETENTION INDEX=0
##$CONDENSED SPECTRUM=NO
##NPOINTS= 93
##XYDATA=(XY..XY) 1 
    55         29
    56         59
    57         29
    58         59
    59        339
    60        379
    61         69
    68         99
    69         79
    70         59
    72         99
    73         69
    74        209
    80         30
    81         33
    82         22
    83         99
    84        399
    85        159
    86        179
    87         59
    88         49
    96        139
    97        139
    98        169
    99         69
   101        999
   102        449
   103         79
   109        159
   110         39
   111         59
   112         59
   114        109
   115        279
   116         99
   117         31
   122         25
   124         23
   125         23
   126        129
   127         79
   128        169
   129         46
   130         53
   138        489
   139        279
   140        189
   141         39
   143        239
   144        349
   145         59
   154         18
   156         85
   157         31
   158         64
   159         24
   167         16
   168        119
   169        129
   170         39
   181        149
   182         31
   186         69
   199         69
   200         99
   201         15
   202          2
   204          2
   209         17
   210          7
   214          5
   215          4
   216         13
   228         59
   229         14
   238          0
   241         93
   242        149
   243         32
   244          7
   258        319
   259         41
   260          2
   270          2
   287          7
   288         15
   301         33
   302         15
   318         15
   319         25
   330         41
   331          7