##TITLE=Library Entry 18836
##JCAMP-DX=Revision 4.10 
##DATA TYPE=MASS SPECTRUM
##SAMPLE DESCRIPTION=Japan AIST/NIMC Database- Spectrum MS-NW-5842
##NAMES=HP
##CAS NAME=.alpha.-Bromo-.gamma.-valerolactone
##MOLFORM=C5H7BrO2
##CAS REGISTRY NO=25966-39-6
##MP= -300
##BP= -300
##MW= 178
##$RETENTION INDEX=0
##$CONDENSED SPECTRUM=NO
##NPOINTS= 72
##XYDATA=(XY..XY) 1 
    13          2
    14          5
    15         17
    16          1
    18          1
    25          4
    26         39
    27        197
    28         17
    29        112
    30          3
    32          1
    36          1
    37          5
    38          8
    39         82
    40          5
    41         27
    42          9
    43        109
    44          6
    45          3
    49          3
    50          8
    51          8
    52          3
    53         35
    54         10
    55        999
    56         46
    57          2
    66          1
    67          5
    68          4
    69          2
    70          1
    71          1
    79          6
    80          6
    81          7
    82          7
    83          7
    84          5
    85          7
    92          2
    93          3
    94          1
    95          2
    98          3
    99          2
   105          5
   106         13
   107         33
   108         13
   109         29
   110          1
   117          1
   119         21
   120          2
   121         21
   122          2
   133          9
   134          9
   135         18
   136          9
   137         11
   163          8
   165          8
   177          3
   178          1
   179          2
   180          1