##TITLE=Library Entry 618
##JCAMP-DX=Revision 4.10 
##DATA TYPE=MASS SPECTRUM
##SAMPLE DESCRIPTION=J. SHAW, BORRISTON RESEARCH, ROCKVILLE, MD, USA
##NAMES=HP
##CAS NAME=Ethylmercurichlorendimide
##MOLFORM=C11H7Cl6HgNO2
##CAS REGISTRY NO=2597-93-5
##MP= -300
##BP= -300
##MW= 597
##$RETENTION INDEX=0
##$CONDENSED SPECTRUM=NO
##NPOINTS= 226
##XYDATA=(XY..XY) 1 
    12          6
    14         25
    15         35
    16         10
    17         40
    18        129
    19          1
    24          1
    26        176
    27        528
    28        179
    29        999
    30         24
    31          1
    32          1
    35         20
    36         18
    37         14
    38         10
    39          6
    40         21
    41         10
    42          9
    43         27
    44         12
    45          5
    47         11
    48          2
    49         11
    50         10
    51          8
    52          5
    53         14
    54         25
    55          7
    56          4
    57          4
    58          1
    59          2
    60         15
    61         17
    62         11
    63         28
    64          1
    65          9
    68          4
    70        553
    71         21
    72         15
    73         22
    74         13
    75          7
    76          1
    77         19
    78          5
    79          2
    80          5
    82          8
    83         16
    84         20
    85         30
    86         25
    87          6
    88          1
    89         11
    90          6
    91          3
    92          1
    94          5
    95         21
    96         38
    97         21
    98          8
    99          7
   100          4
   101          2
   106         11
   107         34
   108         17
   109         28
   110          6
   111          6
   112          2
   113          5
   114          4
   115          2
   117         14
   118          5
   119         18
   120         18
   121         27
   122          7
   123          8
   124         13
   125          1
   126          5
   127          1
   128          2
   129          1
   130         21
   131         20
   132         17
   133         13
   134          5
   135          3
   136          1
   141         29
   142          2
   143         25
   144          3
   145         10
   146          2
   147          2
   149          2
   154          1
   155          8
   156          4
   157          6
   158          2
   159          1
   164          7
   165         10
   166          5
   167         15
   168          3
   169          8
   170          2
   171          2
   172          1
   177          1
   178          1
   179          4
   180          2
   181          3
   182          1
   183          1
   191         56
   192          5
   193         50
   194          4
   195         15
   196          1
   197          1
   198          7
   199          9
   200         14
   201         13
   202         15
   203          8
   204          4
   205          6
   206          1
   207          4
   208          1
   209          2
   211          1
   212          1
   213          2
   214          3
   215          2
   216          4
   217          2
   218          2
   219          2
   221          1
   225          5
   226         14
   227         14
   228         26
   229         17
   230         17
   231         14
   232          3
   233          4
   234          3
   235         20
   236          5
   237         30
   238          5
   239         19
   240          3
   241          6
   242          2
   243          1
   244          1
   252          4
   253          1
   254          8
   255          1
   256          5
   257          1
   258          2
   261         77
   262          8
   263        106
   264         10
   265         65
   266          7
   267         19
   268         10
   269          4
   270         13
   271          1
   272          8
   274          3
   288          1
   290          3
   291          1
   292          1
   295          1
   296         28
   297          5
   298         37
   299          5
   300         19
   301          2
   302          4
   303          1
   331         12
   332          5
   333         19
   334          7
   335         11
   336          4
   337          3
   338          1