##TITLE=Library Entry 50386
##JCAMP-DX=Revision 4.10 
##DATA TYPE=MASS SPECTRUM
##SAMPLE DESCRIPTION=NIST Mass Spectrometry Data Center, 1998.
##NAMES=HP
##CAS NAME=1-Hydroxychlordene
##MOLFORM=C10H6Cl6O
##CAS REGISTRY NO=2597-11-7
##MP= -300
##BP= -300
##MW= 352
##$RETENTION INDEX=1953
##$CONDENSED SPECTRUM=NO
##NPOINTS= 278
##XYDATA=(XY..XY) 1 
    15          1
    26         10
    27         74
    29         53
    30          4
    31         17
    35          6
    36          7
    37         13
    38         22
    39        158
    40         13
    41          8
    42         14
    43         13
    44          2
    47         12
    48          2
    49         20
    50         46
    51         69
    52         24
    53        199
    54        100
    55        112
    56         17
    57          9
    58          1
    59          1
    60         18
    61         46
    62         45
    63         68
    64         15
    65         56
    66         10
    67         13
    68         28
    69          5
    70          1
    71         12
    72         20
    73         85
    74         69
    75         61
    76          8
    77         15
    78          7
    79         10
    80         13
    81        999
    82        988
    83         77
    84         45
    85         69
    86         57
    87         44
    88         12
    89         50
    90         11
    91         76
    92         18
    93         21
    94         14
    95         33
    96         42
    97         75
    98         52
    99         47
   100         10
   101         15
   102         17
   103          6
   104         12
   105          8
   106         43
   107         58
   108         67
   109         88
   110         48
   111         43
   112         10
   113         60
   114         26
   115         21
   116         39
   117         81
   118         30
   119         61
   120         45
   121         56
   122         25
   123         59
   124         28
   125         21
   126          6
   127          5
   128          5
   129          4
   130         39
   131         32
   132         45
   133         53
   134         20
   135         28
   136         24
   137         10
   138          7
   139          3
   140          3
   141         78
   142         30
   143         89
   144         18
   145         43
   146         13
   147         88
   148         57
   149         87
   150         25
   151         22
   152          4
   153          5
   154          4
   155         17
   156          7
   157         34
   158         13
   159         30
   160         23
   161         10
   162          7
   163          2
   164          2
   165         44
   166          5
   167         52
   168          9
   169         30
   170         20
   171         16
   172         13
   173          5
   174          3
   175          2
   176         10
   177          8
   178         10
   179         15
   180         12
   181         40
   182         51
   183        219
   184         52
   185        131
   186         22
   187         21
   188          6
   189          1
   190          5
   191         31
   192          9
   193         39
   194         26
   195         23
   196         16
   197          8
   198          3
   199          8
   200          5
   201         19
   202          6
   203         22
   204         16
   205         16
   206         14
   207          8
   208          5
   209          3
   210          9
   211         11
   212         26
   213         12
   214         46
   215         20
   216         57
   217        417
   218         98
   219        395
   220         72
   221        126
   222         23
   223         16
   224          3
   225          6
   226          4
   227         15
   228         10
   229         15
   230         14
   231          9
   232          9
   233          4
   234          3
   235         88
   236         60
   237        139
   238         93
   239         97
   240         62
   241         37
   242         22
   243         10
   244          5
   245         24
   246         44
   247         31
   248         49
   249         67
   250         30
   251         94
   252         21
   253        115
   254         19
   255         82
   256         12
   257         34
   258          4
   259          7
   261          8
   262          1
   263         12
   264         12
   265         10
   266         15
   267          5
   268          7
   269          2
   270         22
   271          2
   272         40
   273          2
   274         33
   275          3
   276         15
   277          3
   278          4
   279          2
   280         23
   281         64
   282         37
   283         78
   284         24
   285         39
   286          8
   287         11
   288          8
   289          5
   290         14
   291          5
   292          8
   293          3
   294          3
   295          1
   299          1
   301          2
   302          1
   303          1
   316         30
   317         99
   318         60
   319        161
   320         49
   321        104
   322         20
   323         33
   324          5
   325          6