##TITLE=Library Entry 23319
##JCAMP-DX=Revision 4.10 
##DATA TYPE=MASS SPECTRUM
##SAMPLE DESCRIPTION=Chemical Concepts
##NAMES=HP
##CAS NAME=t-Butyldichlorophosphine
##MOLFORM=C4H9Cl2P
##CAS REGISTRY NO=25979-07-1
##MP= -300
##BP= -300
##MW= 158
##$RETENTION INDEX=0
##$CONDENSED SPECTRUM=NO
##NPOINTS= 82
##XYDATA=(XY..XY) 1 
    25          0
    26         15
    27        129
    28         18
    29        534
    30          8
    31          0
    32          4
    35          3
    37          7
    38         10
    39        161
    40         16
    41        571
    42         24
    43         11
    44          5
    45         24
    46          3
    48          0
    49          1
    50          8
    51          8
    52          1
    53         11
    54          2
    55         54
    56          9
    57        999
    58         39
    59          2
    60          0
    61          0
    62          1
    66         19
    67          3
    68          9
    69          9
    70          1
    71          8
    72          0
    77          5
    79          2
    80          1
    81         18
    84          0
    85          1
    86          0
    87          2
    88          1
    91          0
    96          0
    97          1
    99          0
   101         47
   103         24
   104          0
   105          6
   107         13
   108          1
   109          3
   113          0
   116          1
   118          9
   119          0
   120          4
   121          0
   122          3
   123         23
   124          2
   125          7
   126          0
   143          4
   145          3
   146          0
   148          0
   157          1
   158         15
   159          1
   160         13
   161          0
   162          3