##TITLE=Library Entry 76831
##JCAMP-DX=Revision 4.10 
##DATA TYPE=MASS SPECTRUM
##SAMPLE DESCRIPTION=Chemical Concepts
##NAMES=HP
##CAS NAME=Benzeneethanol, .alpha.,.alpha.-dimethyl-.beta.-methylene-
##MOLFORM=C11H14O
##CAS REGISTRY NO=25982-72-3
##MP= -300
##BP= -300
##MW= 162
##$RETENTION INDEX=0
##$CONDENSED SPECTRUM=NO
##NPOINTS= 80
##XYDATA=(XY..XY) 1 
    27         14
    28          3
    29         10
    31         45
    38          2
    39         28
    40          2
    41         55
    42          3
    43        126
    44          4
    45          2
    50         18
    51         62
    52         15
    53          7
    55         13
    56          2
    57          3
    58          8
    59        485
    60         17
    62          5
    63         19
    64          8
    65         13
    66          5
    67          4
    69          4
    71          2
    72          3
    74         12
    75         11
    76         17
    77        115
    78         76
    79         23
    80          2
    82          8
    83         39
    84          2
    87          2
    89          6
    91        105
    92          8
    94          2
    98          4
    99          2
   101          7
   102         38
   103        138
   104        999
   105        117
   106          5
   107          5
   115         18
   116          5
   117          9
   118          4
   119         77
   120          7
   121          2
   127         12
   128         30
   129         32
   130          5
   131          7
   132          7
   135          2
   141          3
   143          3
   144          5
   145         16
   146          4
   147        136
   148         13
   149          2
   161          2
   162         67
   163          8