##TITLE=Library Entry 62877
##JCAMP-DX=Revision 4.10 
##DATA TYPE=MASS SPECTRUM
##SAMPLE DESCRIPTION=V.G.Zaikin,TIPS,Russian Acad.Sci.Moscow
##NAMES=HP
##CAS NAME=Dimethyl(isopropyl)silyloxymethylbenzene
##MOLFORM=C12H20OSi
##CAS REGISTRY NO=259862-62-9
##MP= -300
##BP= -300
##MW= 208
##$RETENTION INDEX=0
##$CONDENSED SPECTRUM=NO
##NPOINTS= 66
##XYDATA=(XY..XY) 1 
    29         25
    31         25
    33          3
    38         18
    39        130
    40         18
    41         99
    42         29
    43        152
    44         39
    45        118
    46          9
    47         39
    50         15
    51         59
    52         12
    53         12
    55          6
    57          6
    58         39
    59        115
    60         16
    61         25
    62         16
    63         39
    64          8
    65        199
    66          9
    67          9
    73         59
    74         17
    75         75
    76          9
    77         35
    78          7
    79         29
    80          3
    82         19
    87          6
    89         29
    90         18
    91        999
    92         79
    93          7
   101          8
   105         18
   107          7
   108          7
   110          9
   121         11
   133          3
   134          7
   135        299
   136         45
   137          9
   149         25
   151          6
   163         15
   164         15
   165        491
   166         68
   167         22
   193         16
   194          2
   195          1
   208          2