##TITLE=Library Entry 15425
##JCAMP-DX=Revision 4.10 
##DATA TYPE=MASS SPECTRUM
##SAMPLE DESCRIPTION=P.A. Leclercq, Lab. Instrum. Anal., Eindhoven Univ. Tec
hnol., Netherlands
##NAMES=HP
##CAS NAME=1,3,5-Triazin-2(1H)-one, 4,6-bis(ethylamino)-
##MOLFORM=C7H13N5O
##CAS REGISTRY NO=2599-11-3
##MP= -300
##BP= -300
##MW= 183
##$RETENTION INDEX=0
##$CONDENSED SPECTRUM=NO
##NPOINTS= 85
##XYDATA=(XY..XY) 1 
    41         77
    42        196
    43        759
    44        999
    45         42
    46         17
    53         28
    54         27
    55        225
    56         45
    57         26
    58         47
    59         42
    60         18
    61          6
    62          5
    66          8
    67         30
    68        163
    69        436
    70        189
    71        280
    72         30
    73         19
    76          1
    77         17
    78          3
    79          5
    80          7
    81         10
    82         11
    83         30
    84         91
    85        101
    86         68
    87         12
    91          5
    93          6
    94         28
    95         28
    96         41
    97        247
    98        280
    99         33
   100          6
   109         11
   110         16
   111         85
   112        218
   113         62
   114         99
   115          8
   123         15
   124          8
   125         59
   126         73
   127        225
   128         14
   129          4
   137         10
   138         11
   139        105
   140        283
   141         34
   142          4
   151          5
   152         10
   153          6
   154         66
   155        379
   156         30
   157          3
   164          4
   166          7
   167          6
   168        274
   169         27
   170          2
   180         22
   181         14
   182         91
   183        745
   184         74
   185          6
   186          3