##TITLE=Library Entry 17111
##JCAMP-DX=Revision 4.10 
##DATA TYPE=MASS SPECTRUM
##SAMPLE DESCRIPTION=NIST Mass Spectrometry Data Center, 2007
##NAMES=HP
##CAS NAME=2-[2-[2-[2-[2-[2-[2-(2-Methoxyethoxy)ethoxy]ethoxy]ethoxy]ethoxy]
ethoxy]ethoxy]ethanol
##MOLFORM=C17H36O9
##CAS REGISTRY NO=25990-96-9
##MP= -300
##BP= -300
##MW= 384
##$RETENTION INDEX=2615
##$CONDENSED SPECTRUM=NO
##NPOINTS= 123
##XYDATA=(XY..XY) 1 
    14          1
    15         12
    16          1
    19          7
    25          1
    26          4
    27         22
    28         59
    29        102
    30         13
    31         97
    32          2
    33          3
    39          1
    40          1
    41         26
    42         31
    43        170
    44        116
    45        999
    46         24
    47          3
    54          1
    55          3
    56          6
    57         34
    58        241
    59        885
    60         34
    61         11
    62          1
    68          1
    69          6
    70         30
    71         37
    72        102
    73        148
    74         10
    75         31
    76          2
    77          9
    78          1
    80          3
    83          2
    84          2
    85          4
    86         32
    87        298
    88        100
    89        555
    90         27
    91          7
    96          1
    97          1
    99          6
   100          6
   101         62
   102         48
   103        409
   104         27
   105         11
   106          1
   107          3
   112          1
   113          7
   114          7
   115         15
   116         10
   117         44
   118          7
   119         10
   120          1
   121         16
   122          1
   128          1
   129          2
   130          1
   131         86
   132          9
   133        225
   134         15
   135          4
   141          1
   145          6
   146          2
   147         75
   148          6
   149          2
   151          3
   157          2
   158          1
   159          9
   160          1
   161          3
   162          1
   163          9
   164          1
   165          5
   174          1
   175         30
   176          3
   177         36
   178          3
   179          1
   189          2
   191          4
   192          1
   195          1
   201          2
   202          1
   203          2
   207          6
   209          3
   219          5
   220          1
   221          5
   251          2
   253          1
   265          1
   295          1
   297          1
   309          1
   341          1