##TITLE=Library Entry 107219
##JCAMP-DX=Revision 4.10 
##DATA TYPE=MASS SPECTRUM
##SAMPLE DESCRIPTION=NIST Mass Spectrometry Data Center, 1990.
##NAMES=HP
##CAS NAME=Phenothrin
##MOLFORM=C23H26O3
##CAS REGISTRY NO=26002-80-2
##MP= -300
##BP= -300
##MW= 350
##$RETENTION INDEX=2524
##$CONDENSED SPECTRUM=NO
##NPOINTS= 166
##XYDATA=(XY..XY) 1 
    14          1
    15          2
    17          1
    18          2
    25          0
    27         32
    28         34
    29         25
    30          1
    31          1
    32          2
    37          0
    38          5
    39         49
    40         13
    41        128
    42         11
    43        140
    44          6
    45          1
    50         12
    51         49
    52         11
    53         41
    54          0
    55         69
    56          5
    57         28
    58          1
    59          2
    61          0
    62          2
    63         17
    64         10
    65         35
    66          9
    67         51
    68          6
    69         38
    70          3
    71          4
    73          0
    74          2
    75          3
    76         10
    77        103
    78         26
    79         60
    80          0
    81        239
    82         20
    83         20
    84          2
    85          5
    86          0
    87          1
    88          0
    89         60
    90         35
    91         51
    92          8
    93         38
    94         10
    95         42
    96          6
    97          6
    98          1
    99          0
   101          1
   102          1
   103          3
   105         14
   106          5
   107         38
   108         13
   109         19
   110          2
   111          4
   113          0
   115         42
   116          7
   117          1
   118          1
   119          2
   121         44
   123        999
   124        106
   125         14
   126          3
   127         22
   128         31
   129         27
   130          3
   131          2
   135          1
   136          1
   137          1
   139         21
   140          4
   141         16
   142          4
   143          1
   144          2
   145          0
   146          0
   147          0
   149         10
   150          2
   151         11
   152         27
   153         52
   154         30
   155         27
   156          6
   157          3
   158          1
   165         37
   166         10
   167         22
   168         55
   169         13
   170          3
   171          2
   181         41
   183        554
   184        119
   185         13
   186          1
   195          1
   196          1
   197          4
   198          4
   199          1
   200          2
   209          0
   221          1
   223          2
   224          1
   235          2
   236          1
   237          0
   240          0
   248          0
   249          3
   250         10
   251          9
   252          1
   253          0
   261          0
   262          0
   263          1
   264          0
   265          1
   289          1
   291          0
   294          4
   295          2
   305          0
   306          1
   307          5
   308          1
   333          0
   335          3
   350         86
   351         21
   352          3