##TITLE=Library Entry 14128
##JCAMP-DX=Revision 4.10 
##DATA TYPE=MASS SPECTRUM
##SAMPLE DESCRIPTION=Chemical Concepts
##NAMES=HP
##CAS NAME=Pregn-16-en-20-one, 3-(acetyloxy)-, (3.beta.,5.beta.)-
##MOLFORM=C23H34O3
##CAS REGISTRY NO=2601-07-2
##MP= -300
##BP= -300
##MW= 358
##$RETENTION INDEX=0
##$CONDENSED SPECTRUM=NO
##NPOINTS= 214
##XYDATA=(XY..XY) 1 
    26          1
    27         17
    29         43
    31          2
    39         15
    41        114
    42          5
    43        999
    44         24
    45          9
    51          4
    52          2
    53         34
    54         11
    55        109
    56          4
    57         12
    59          1
    60          1
    61         15
    65         19
    66          7
    67        112
    68         10
    69         31
    70          3
    71          7
    77         68
    78         18
    79        130
    80         21
    81        137
    82         12
    83         17
    84          2
    85          9
    86          2
    91        138
    92         30
    93        193
    94         39
    95         87
    96         11
    97         13
    98          2
    99          5
   100          4
   103          9
   104          5
   105        118
   106         42
   107        155
   108         57
   109         76
   110         10
   111         35
   112          4
   113          3
   114          3
   115         14
   116          8
   117         38
   118         14
   119         80
   120         19
   121        108
   122         33
   123         31
   124          8
   125          4
   127          6
   128         10
   129         21
   130         10
   131         60
   132         13
   133         70
   134         29
   135         99
   136         32
   137         35
   138          7
   139          2
   141          6
   142          6
   143         23
   144          8
   145         68
   146         22
   147        117
   148         23
   149         53
   150         13
   151          8
   152          3
   153          2
   154          2
   155          8
   156          3
   157         20
   158          7
   159         62
   160         18
   161        132
   162         27
   163         23
   164          4
   165          4
   167          1
   169          7
   170          3
   171         15
   172          4
   173         54
   174         13
   175         45
   176          8
   177          8
   178          2
   179          1
   181          3
   183          8
   184          3
   185         16
   186          5
   187         38
   188         36
   189         24
   190         10
   191          5
   192          1
   195          3
   197          6
   198          2
   199         20
   200         14
   201         38
   202         13
   203          9
   204          2
   205          1
   209          6
   210          1
   211          3
   212          2
   213         15
   214          5
   215         11
   216          4
   217          5
   218          1
   223          3
   225          4
   226          2
   227          9
   228          4
   229         12
   230          4
   231          1
   237          1
   239         11
   240          3
   241          8
   242          4
   243          6
   244          6
   245          2
   247          1
   251          1
   253          6
   254          3
   255        200
   256         42
   257          9
   258          1
   259          1
   260          2
   261          1
   265         24
   266          6
   267          2
   269          8
   270          3
   271          7
   272          2
   273          4
   274          1
   280          1
   281          4
   282          2
   283        186
   284         42
   285          5
   286          1
   296          2
   297          3
   298        136
   299         37
   300          5
   301          4
   312          1
   313          1
   314         10
   315         85
   316         21
   317          3
   329          1
   330          2
   331          1
   343         17
   344          5
   358         83
   359         22
   360          3