##TITLE=Library Entry 80527
##JCAMP-DX=Revision 4.10 
##DATA TYPE=MASS SPECTRUM
##SAMPLE DESCRIPTION=Exported from NIST MS Search
##NAMES=HP
##CAS NAME=2-Oxazoline, 4,5-dioctyl-2-phenyl-, cis-
##MOLFORM=C25H41NO
##CAS REGISTRY NO=26015-58-7
##MP= -300
##BP= -300
##MW= 371
##$RETENTION INDEX=0
##$CONDENSED SPECTRUM=NO
##NPOINTS= 20
##XYDATA=(XY..XY) 1 
    67        120
    68         10
    69        200
    70         10
    71         80
    77        350
    78         20
    81        100
    82         10
   104        450
   105        999
   106         70
   122        200
   123         20
   130        220
   131         20
   258        300
   259         70
   260         10
   371         30