##TITLE=Library Entry 6495
##JCAMP-DX=Revision 4.10 
##DATA TYPE=MASS SPECTRUM
##SAMPLE DESCRIPTION=Humboldt-Universitat zu Berlin, Department of Chemistry
, Analytical Group
##NAMES=HP
##CAS NAME=1-Benzyl-pyrrolidin-3,4-diol
##MOLFORM=C11H15NO2
##CAS REGISTRY NO=260389-82-0
##MP= -300
##BP= -300
##MW= 193
##$RETENTION INDEX=0
##$CONDENSED SPECTRUM=NO
##NPOINTS= 113
##XYDATA=(XY..XY) 1 
    12          5
    13         15
    14         59
    15        310
    16         10
    17         22
    18         82
    19         29
    24          0
    25          4
    26         46
    27        189
    28        131
    29        378
    30         73
    31        100
    32          2
    33          2
    37          2
    38         10
    39         98
    40         13
    41         81
    42        953
    43        999
    44        102
    45        159
    46          5
    47          3
    50         16
    51         43
    52          9
    53          4
    54          4
    55         13
    56         12
    57         17
    58         56
    59        108
    60         21
    61         75
    62          8
    63         25
    65         87
    66          5
    67          0
    68          2
    70         83
    71          5
    72          4
    73         24
    74          5
    75          3
    76          3
    77         16
    78          6
    79          4
    80          1
    81          0
    82          0
    83          1
    84          4
    85          0
    86          1
    87          4
    88         29
    89         31
    91        333
    92         43
    93          2
    95          0
    97          0
    98          2
    99          0
   100          0
   102         47
   103          6
   104         17
   105         10
   106          2
   107          0
   111          0
   112          0
   116         63
   117          9
   118         17
   120         73
   121          7
   122          0
   128          0
   129          0
   130          4
   132        108
   133        130
   134         18
   135          1
   144          0
   146          1
   147          0
   148          1
   149          0
   156          0
   158          1
   162          0
   171          0
   174          2
   175          1
   176          3
   177          0
   192         27
   193        109
   194         13
   195          1