##TITLE=Library Entry 7482
##JCAMP-DX=Revision 4.10 
##DATA TYPE=MASS SPECTRUM
##SAMPLE DESCRIPTION=G. W. A. MILNE
##NAMES=HP
##CAS NAME=Ergost-7-en-3-ol, (3.beta.)-
##MOLFORM=C28H48O
##CAS REGISTRY NO=26047-31-4
##MP= -300
##BP= -300
##MW= 400
##$RETENTION INDEX=0
##$CONDENSED SPECTRUM=NO
##NPOINTS= 236
##XYDATA=(XY..XY) 1 
    15         10
    17         20
    18         80
    26         10
    27         90
    28         84
    29        190
    30         10
    31         10
    39         60
    40         20
    41        559
    42         60
    43        999
    44         50
    45         10
    51         10
    52         10
    53        100
    54         20
    55        719
    56         50
    57        350
    58         20
    59         10
    63         10
    65         50
    66         20
    67        320
    68         80
    69        360
    70         40
    71        230
    72         20
    73         20
    75         20
    77        150
    78         40
    79        360
    80         50
    81        490
    82         70
    83        210
    84         20
    85         80
    91        470
    92        110
    93        370
    94        160
    95        460
    96         80
    97        190
    98         20
    99         20
   103         30
   104         30
   105        539
   106        150
   107        499
   108        120
   109        200
   110         50
   111         80
   112         10
   113         10
   115         60
   116         30
   117        160
   118         80
   119        380
   120        150
   121        270
   122        110
   123        160
   124         50
   125         40
   126         10
   127         20
   128         50
   129         90
   130         40
   131        220
   132         70
   133        290
   134        140
   135        260
   136         80
   137         60
   138         20
   139         10
   141         40
   142         40
   143        120
   144         50
   145        270
   146         70
   147        300
   148         70
   149        120
   150         20
   151         40
   152         10
   153         40
   154         10
   155         40
   156         20
   157        110
   158         50
   159        200
   160         80
   161        250
   162         50
   163         70
   164         10
   165         20
   166         20
   167         10
   168         10
   169         30
   170         10
   171        100
   172         40
   173        130
   174         50
   175         70
   176         30
   177         40
   178         40
   179         20
   180         10
   181         10
   182         10
   183         20
   184         10
   185         80
   186         30
   187         90
   188         20
   189         50
   190         10
   191         10
   193         10
   195         10
   197         30
   198         20
   199         70
   200         40
   201        110
   202         30
   203         20
   204         10
   205         10
   207         10
   211         30
   212         20
   213        330
   214         80
   215         70
   216         30
   217         50
   218         30
   219         30
   220         20
   221         10
   225         10
   226         10
   227         50
   228         80
   229        340
   230         80
   231        200
   232         50
   233         20
   234         10
   239         20
   240         10
   241         20
   242         10
   243         10
   244         50
   245         50
   246         80
   247         40
   248         10
   254         30
   255        639
   256        150
   257         40
   258         20
   259         40
   260         20
   261         40
   269         30
   270         20
   271        210
   272         70
   273        150
   274         50
   275         20
   276         10
   277         10
   283         20
   284         10
   285         10
   287         10
   288         10
   289         10
   299         10
   300         10
   301         10
   314         10
   315         10
   325         10
   326         10
   327         10
   328         10
   339         10
   340         10
   341         10
   342         10
   343         10
   365         10
   367        120
   368         40
   369         10
   382        230
   383        140
   384         40
   385        180
   386         50
   387         10
   398        200
   399         80
   400        599
   401        200
   402         40