##TITLE=Library Entry 67774
##JCAMP-DX=Revision 4.10 
##DATA TYPE=MASS SPECTRUM
##SAMPLE DESCRIPTION=A.Pleshkova, Nesmeyanov Inst.Org.Elem.Cpds, Moscow
##NAMES=HP
##CAS NAME=Hept-3-yn-2-one
##MOLFORM=C7H10O
##CAS REGISTRY NO=26059-43-8
##MP= -300
##BP= -300
##MW= 110
##$RETENTION INDEX=0
##$CONDENSED SPECTRUM=NO
##NPOINTS= 36
##XYDATA=(XY..XY) 1 
    15        130
    16          2
    26         60
    27        270
    28         40
    29        140
    30          3
    37         70
    38        130
    39        390
    40         50
    41        390
    42         70
    43        490
    44         17
    49         30
    50        110
    51        120
    52         50
    53        350
    54         20
    61         40
    62         50
    63         60
    65        170
    66        110
    67        310
    68         30
    77         30
    79         50
    82         30
    95        999
    96         90
    97          1
   109         40
   110         10