##TITLE=Library Entry 24421
##JCAMP-DX=Revision 4.10 
##DATA TYPE=MASS SPECTRUM
##SAMPLE DESCRIPTION=Exported from NIST MS Search
##NAMES=HP
##CAS NAME=Phosphine, acetylbis(1,1-dimethylethyl)-
##MOLFORM=C10H21OP
##CAS REGISTRY NO=26058-95-7
##MP= -300
##BP= -300
##MW= 188
##$RETENTION INDEX=0
##$CONDENSED SPECTRUM=NO
##NPOINTS= 19
##XYDATA=(XY..XY) 1 
    39         17
    41        146
    43        284
    55         25
    56         25
    57        999
    58         69
    61         51
    76        150
    89         64
    90         34
    91         25
    92         25
   132        120
   133         30
   146         38
   147          8
   188         43
   189          8