##TITLE=Library Entry 34045
##JCAMP-DX=Revision 4.10 
##DATA TYPE=MASS SPECTRUM
##SAMPLE DESCRIPTION=V.Zaikin,Inst.Petrochem.Synth.,RAS,Moscow
##NAMES=HP
##CAS NAME=Cyclopropanecarboxylic acid, 2-methylphenyl ester
##MOLFORM=C11H12O2
##CAS REGISTRY NO=26065-44-1
##MP= -300
##BP= -300
##MW= 176
##$RETENTION INDEX=0
##$CONDENSED SPECTRUM=NO
##NPOINTS= 47
##XYDATA=(XY..XY) 1 
    26         21
    27         59
    28          1
    29         10
    39        237
    40         37
    41        561
    42         30
    43          3
    50         22
    51         39
    52         27
    53         24
    54          6
    55         28
    57          3
    62         10
    63         24
    64         11
    65         41
    66          7
    68         19
    69        999
    70         89
    71          7
    73          3
    74          6
    75          8
    77        122
    78         56
    81          5
    83         38
    89         12
    90         18
    91         45
    92          5
    93          7
    94         10
   105         11
   106          3
   107         72
   108         93
   109          7
   175          4
   176        193
   177         25
   178          1