##TITLE=Library Entry 29108
##JCAMP-DX=Revision 4.10 
##DATA TYPE=MASS SPECTRUM
##SAMPLE DESCRIPTION=J. CLARK
##NAMES=HP
##CAS NAME=4(3H)-Pteridinone, 3-methoxy-
##MOLFORM=C7H6N4O2
##CAS REGISTRY NO=26070-05-3
##MP= -300
##BP= -300
##MW= 178
##$RETENTION INDEX=0
##$CONDENSED SPECTRUM=NO
##NPOINTS= 38
##XYDATA=(XY..XY) 1 
    40        340
    41         70
    42        120
    43         60
    44         40
    45         40
    51        140
    52        190
    53        200
    54         40
    55         40
    56        160
    57         80
    58        999
    64         40
    65        130
    66        290
    67         80
    68        120
    69         90
    71         50
    73         30
    77         60
    78        160
    79         40
    85         40
    92         80
    93        360
    94         40
   105         80
   108        210
   119         90
   120        750
   121        160
   148        920
   149         80
   178        340
   179         50