##TITLE=Library Entry 24122
##JCAMP-DX=Revision 4.10 
##DATA TYPE=MASS SPECTRUM
##SAMPLE DESCRIPTION=Zaikin V.G., TIPS RAS, Moscow, Russia
##NAMES=HP
##CAS NAME=2- Bromopropionic acid, decyl ester
##MOLFORM=C13H25BrO2
##CAS REGISTRY NO=26072-74-2
##MP= -300
##BP= -300
##MW= 292
##$RETENTION INDEX=1722
##$CONDENSED SPECTRUM=NO
##NPOINTS= 88
##XYDATA=(XY..XY) 1 
    25          3
    26         31
    27        221
    28          2
    29        258
    30          6
    31         14
    35          4
    36         27
    37          3
    38         13
    39        108
    40         28
    41        622
    42        268
    43        972
    44         46
    45         16
    50          3
    51          6
    52          5
    53         50
    54         99
    55        880
    56        849
    57        999
    58         44
    65          6
    66          9
    67        117
    68        224
    69        636
    70        745
    71        404
    72         25
    73         37
    74        156
    75         47
    77          6
    79         13
    80         17
    81         53
    82        279
    83        764
    84        448
    85        343
    86         25
    87          3
    95         25
    96         98
    97        525
    98        278
    99         48
   100          6
   101          3
   106          6
   107        293
   108         20
   109        295
   110         46
   111        296
   112        473
   113         45
   125          9
   134          9
   135        158
   136         14
   137        155
   138         21
   139         36
   140        385
   141         47
   150          3
   152         20
   153        319
   154         30
   155        309
   156         10
   157         12
   165          5
   167          3
   179          4
   185         63
   186          7
   193          8
   195          6
   219          4
   221          4