##TITLE=Library Entry 45221
##JCAMP-DX=Revision 4.10 
##DATA TYPE=MASS SPECTRUM
##SAMPLE DESCRIPTION=J.FIKAR INST. OF ORGANIC TECH., PRAGUE, CZECHOSLOVAKIA
##NAMES=HP
##CAS NAME=Propane, 1-chloro-1,2,2-trifluoro-3,3-dimethoxy-
##MOLFORM=C5H8ClF3O2
##CAS REGISTRY NO=26073-31-4
##MP= -300
##BP= -300
##MW= 192
##$RETENTION INDEX=0
##$CONDENSED SPECTRUM=NO
##NPOINTS= 120
##XYDATA=(XY..XY) 1 
    20          4
    24          0
    25          0
    26          3
    27         11
    28         56
    29        250
    30         12
    31        264
    32         29
    33         32
    34          0
    35         55
    36         10
    37          1
    38          3
    39          2
    40          1
    41          0
    42          1
    43         20
    44         15
    45         57
    46          4
    47        278
    48          9
    49         16
    50          3
    51         63
    52          0
    53          3
    54          0
    55          0
    56          1
    57          5
    58          0
    59         27
    60          4
    61         23
    62          2
    63        548
    64         18
    65          6
    66          1
    67        118
    68          1
    69         43
    70          0
    71          1
    72          0
    73          2
    74          1
    75        999
    76         42
    77         27
    78          2
    79         36
    80          3
    81        132
    82         26
    83         24
    84          0
    85          3
    87          1
    89          0
    90          0
    91         13
    92          2
    93          8
    94         24
    95         16
    96          0
    97          2
    98          8
    99         33
   100          3
   101         11
   102          0
   103          0
   105          0
   106          3
   107         13
   108          0
   109          1
   110          1
   111         29
   112          1
   113          7
   114          0
   116          1
   117         15
   118          0
   119          4
   120          0
   123          0
   124          0
   125         12
   126          0
   127          3
   128          0
   129          3
   130          0
   131          1
   132          0
   133          0
   135          0
   137          0
   141          0
   143          0
   145          0
   147          0
   160          0
   161         90
   162          3
   163         30
   164          1
   165          0
   192          2
   193          0
   194          0