##TITLE=Library Entry 42847
##JCAMP-DX=Revision 4.10 
##DATA TYPE=MASS SPECTRUM
##SAMPLE DESCRIPTION=Exported from NIST MS Search
##NAMES=HP
##CAS NAME=8-Pentadecanone, oxime
##MOLFORM=C15H31NO
##CAS REGISTRY NO=26077-65-6
##MP= -300
##BP= -300
##MW= 241
##$RETENTION INDEX=0
##$CONDENSED SPECTRUM=NO
##NPOINTS= 28
##XYDATA=(XY..XY) 1 
    54         20
    55        180
    56         20
    57        140
    67         20
    69        100
    73        999
    74         30
    81         10
    82         10
    83         40
    86        250
    87         50
   114         10
   115         10
   124         60
   125        200
   126         10
   140         50
   142        200
   157        300
   158         20
   170        130
   184         20
   224         20
   240         10
   241         50
   242         10