##TITLE=Library Entry 17281
##JCAMP-DX=Revision 4.10 
##DATA TYPE=MASS SPECTRUM
##SAMPLE DESCRIPTION=J.FIKAR INST. OF ORGANIC TECH., PRAGUE, CZECHOSLOVAKIA
##NAMES=HP
##CAS NAME=Propane, 1-chloro-1,2,2-trifluoro-3-(methoxymethoxy)-
##MOLFORM=C5H8ClF3O2
##CAS REGISTRY NO=26073-32-5
##MP= -300
##BP= -300
##MW= 192
##$RETENTION INDEX=0
##$CONDENSED SPECTRUM=NO
##NPOINTS= 117
##XYDATA=(XY..XY) 1 
    20          0
    25          0
    26          2
    27          8
    28         15
    29         90
    30          6
    31         47
    32          7
    33         20
    34          0
    35          0
    36          0
    37          0
    38          0
    39          0
    40          0
    41          0
    42          1
    43          4
    44         12
    45        999
    46         33
    47          3
    48          1
    49         10
    50          1
    51         78
    52          0
    53          1
    54          0
    55          0
    56          0
    57          2
    58          0
    59          0
    60          0
    61         21
    62          1
    63         28
    64         15
    65          4
    66          0
    67        118
    68          1
    69         45
    70          0
    71          0
    72          0
    73          0
    74          0
    75        182
    76          6
    77          8
    78          0
    79          1
    80          1
    81         30
    82          7
    83          3
    84          0
    85         12
    86          0
    87          4
    88          0
    91          0
    92          0
    93          3
    94          0
    95         13
    96          1
    97          0
    98          2
    99          0
   100          0
   101          0
   105          0
   107          0
   108          0
   109          2
   110          0
   111          7
   112          0
   113          2
   114          0
   115          0
   116          0
   117          1
   118          0
   119          0
   125          2
   126          0
   127          0
   128          0
   129          0
   130          0
   131         57
   132          1
   133         19
   134          0
   137          0
   141          0
   142          1
   143          0
   144          0
   145          0
   160          0
   161         20
   162          1
   163          6
   164          0
   172          0
   191          0
   192         39
   193          2
   194         14
   195          0