##TITLE=Library Entry 52543
##JCAMP-DX=Revision 4.10 
##DATA TYPE=MASS SPECTRUM
##SAMPLE DESCRIPTION=NIST Mass Spectrometry Data Center, 2010
##NAMES=HP
##CAS NAME=(Z)-2-((8S,9R)-9-(((Z)-2-Methylbut-2-enoyl)oxy)-2-oxo-8,9-dihydro
-2H-furo[2,3-h]chromen-8-yl)propan-2-yl 2-methylbut-2-enoate
##MOLFORM=C24H26O7
##CAS REGISTRY NO=2607-56-9
##MP= -300
##BP= -300
##MW= 426
##$RETENTION INDEX=0
##$CONDENSED SPECTRUM=NO
##NPOINTS= 123
##XYDATA=(XY..XY) 1 
    27          8
    29         22
    31          1
    38          1
    39         23
    40          3
    41         11
    42          1
    43         20
    45          2
    50          4
    51          8
    52          3
    53         25
    54         23
    55        420
    56         20
    57          3
    62          2
    63          9
    64          5
    65          4
    66          1
    69          5
    71          3
    72          2
    74          2
    75          5
    76          7
    77          9
    78          3
    79          4
    81          4
    82         36
    83        999
    84         57
    85         10
    88          1
    89          8
    90          2
    91          5
    92          3
    93          3
    99          2
   100          7
   102         15
   103          4
   104          1
   105          3
   107          2
   115         10
   116          2
   117          2
   118          2
   127          6
   128         18
   129          7
   130          4
   131         11
   132          3
   134          2
   139          2
   141          6
   142          1
   143          3
   146          2
   152          2
   153          2
   155          4
   156          2
   157          2
   158         31
   159          8
   160          8
   161          2
   169          1
   170          1
   171          6
   172          1
   175          2
   181          1
   183          3
   184          4
   186         20
   187         16
   188          6
   189          6
   190          1
   197          3
   198         12
   199         14
   200          2
   203          4
   212          1
   213         19
   214          2
   215          4
   216          1
   226         28
   227        198
   228         32
   229         89
   230         13
   231          2
   242          3
   243        158
   244         48
   245         10
   246          1
   261          3
   273          1
   285          1
   311         57
   312         11
   313          2
   326         12
   327         37
   328          8
   329          1
   343          1
   426         17
   427          5
   428          1