##TITLE=Library Entry 70311
##JCAMP-DX=Revision 4.10 
##DATA TYPE=MASS SPECTRUM
##SAMPLE DESCRIPTION=Exported from NIST MS Search
##NAMES=HP
##CAS NAME=Propanoyl chloride, 2,2-dichloro-
##MOLFORM=C3H3Cl3O
##CAS REGISTRY NO=26073-26-7
##MP= -300
##BP= -300
##MW= 160
##$RETENTION INDEX=0
##$CONDENSED SPECTRUM=NO
##NPOINTS= 34
##XYDATA=(XY..XY) 1 
    25         17
    26         59
    27         98
    28         10
    29         13
    35         28
    36         55
    37         14
    38         22
    43         19
    44         13
    47         16
    48          8
    49         11
    60         20
    61        281
    62         75
    63        225
    64         28
    65         45
    77         11
    82         11
    83         28
    85         18
    89         10
    90         10
    91         32
    93         10
    97        999
    98         29
    99        653
   100         16
   101        102
   125         10