##TITLE=Library Entry 300
##JCAMP-DX=Revision 4.10 
##DATA TYPE=MASS SPECTRUM
##SAMPLE DESCRIPTION=A.Pleshkova, Nesmeyanov Inst.Org.Elem.Cpds, Moscow
##NAMES=HP
##CAS NAME=N-Methyl-2,2-bis(trifluoromethyl)aziridine
##MOLFORM=C5H5F6N
##CAS REGISTRY NO=26071-19-2
##MP= -300
##BP= -300
##MW= 193
##$RETENTION INDEX=0
##$CONDENSED SPECTRUM=NO
##NPOINTS= 34
##XYDATA=(XY..XY) 1 
    28        999
    29        202
    30         22
    32         80
    33        214
    34          2
    42        131
    43         10
    45         42
    55         42
    69        240
    70          3
    78         35
    79         11
    90         42
    91          9
    95         80
    96         11
   109         35
   110         99
   111         12
   124         48
   125          8
   128        640
   129         24
   158         42
   159        125
   160         19
   174         96
   175         21
   178        669
   179         33
   193        416
   194         25