##TITLE=Library Entry 63552
##JCAMP-DX=Revision 4.10 
##DATA TYPE=MASS SPECTRUM
##SAMPLE DESCRIPTION=Richard Turcotte. Direction des laboratoires d'expertis
es et d'analyses alimentaires, Quebec, Canada.
##NAMES=HP
##CAS NAME=Iprobenfos
##MOLFORM=C13H21O3PS
##CAS REGISTRY NO=26087-47-8
##MP= -300
##BP= -300
##MW= 288
##$RETENTION INDEX=1838
##$CONDENSED SPECTRUM=NO
##NPOINTS= 77
##XYDATA=(XY..XY) 1 
    41        114
    42         40
    43        131
    44          2
    45         83
    46          3
    47          8
    50          6
    51         18
    52          5
    53          2
    58          3
    59         38
    60          3
    61          2
    62          4
    63         19
    64          5
    65         96
    66          5
    69          4
    71          2
    74          2
    75          3
    76          2
    77         36
    78         13
    79         22
    81          6
    82         12
    83          4
    89         27
    90         12
    91        999
    92         87
    93          5
    97         12
   105          6
   106          3
   107         92
   108         10
   109          6
   113          9
   114          5
   115         22
   117         11
   121         53
   122        144
   123        159
   124         37
   125          8
   131          4
   132          9
   133          7
   139          2
   149          2
   151          3
   155         13
   165          4
   166          4
   171          4
   186          3
   187         20
   188          4
   203         85
   204        533
   205         47
   206         28
   207          3
   231          7
   245         15
   246         68
   247          9
   248          4
   288         53
   289          8
   290          4