##TITLE=Library Entry 109254
##JCAMP-DX=Revision 4.10 
##DATA TYPE=MASS SPECTRUM
##SAMPLE DESCRIPTION=A.A.Kutin, Moscow, Russia
##NAMES=HP
##CAS NAME=Furan-2-carboxylic acid, 5-(4-morpholylmethyl)-
##MOLFORM=C10H13NO4
##CAS REGISTRY NO=26095-36-3
##MP= -300
##BP= -300
##MW= 211
##$RETENTION INDEX=0
##$CONDENSED SPECTRUM=NO
##NPOINTS= 147
##XYDATA=(XY..XY) 1 
    33          2
    34          1
    35          2
    36         13
    37         18
    38         47
    39         94
    40         45
    41        172
    42        237
    43         73
    44         47
    45         99
    46          2
    47          1
    50         67
    51        190
    52        214
    53        133
    54         80
    55        104
    56        463
    57         41
    58         19
    59         10
    60          2
    61          1
    62          2
    63          4
    64          7
    65         18
    66         15
    67         21
    68         20
    69         56
    70         16
    71         22
    72         20
    73          2
    74          1
    75          1
    76          3
    77         10
    79        328
    80         67
    81         66
    82         11
    83          5
    84         13
    86        533
    87         25
    88          1
    89          0
    90          0
    91          3
    92          5
    93         11
    94         12
    95         10
    97         86
    98         11
    99         22
   100         58
   101          3
   102          0
   103          0
   104          2
   106         68
   107        162
   108         67
   109          9
   110          2
   111          1
   112          1
   113          1
   114          0
   115          0
   116          0
   117          0
   118          1
   119          1
   120          5
   121          6
   122          6
   125        999
   126         66
   127          9
   128          1
   129          0
   130          0
   131          0
   132          1
   135        282
   136         53
   137          9
   138         54
   139         12
   140          3
   141          0
   142          0
   143          0
   145          0
   146          0
   147          0
   148          0
   149          0
   150          1
   152         74
   153         88
   154         11
   155          1
   156          0
   157          0
   158          0
   159          0
   160          0
   161          0
   162          1
   163          1
   164          7
   165         45
   166         81
   167         15
   168          4
   169          0
   171          0
   178          0
   180          4
   181          5
   182         11
   183          2
   184          0
   185          0
   193          0
   194          3
   195          0
   196          2
   197          0
   199          0
   206          0
   208         13
   209         14
   210         57
   211        312
   212         36
   213          4
   214          0