##TITLE=Library Entry 4700
##JCAMP-DX=Revision 4.10 
##DATA TYPE=MASS SPECTRUM
##SAMPLE DESCRIPTION=Japan AIST/NIMC Database- Spectrum MS-NW-8500
##NAMES=HP
##CAS NAME=2H-Pyran, tetrahydro-3-methyl-
##MOLFORM=C6H12O
##CAS REGISTRY NO=26093-63-0
##MP= -300
##BP= -300
##MW= 100
##$RETENTION INDEX=774
##$CONDENSED SPECTRUM=NO
##NPOINTS= 61
##XYDATA=(XY..XY) 1 
    14          1
    15         16
    16          1
    17          1
    18          5
    19          1
    26         15
    27        144
    28         47
    29        164
    30          8
    31         38
    32          1
    36          1
    37          5
    38         12
    39        184
    40         43
    41        323
    42        999
    43        160
    44         38
    45        452
    46         10
    47          1
    50          7
    51         10
    52          4
    53         36
    54         34
    55        556
    56         38
    57         60
    58         30
    59          7
    60          1
    61          1
    62          1
    63          2
    65          4
    66          2
    67         31
    68        390
    69         49
    70        135
    71         30
    72         13
    73         10
    74          1
    79          3
    81         21
    82          6
    83          5
    84          2
    85         16
    86          2
    87          2
    99         57
   100        247
   101         23
   102          2