##TITLE=Library Entry 13878
##JCAMP-DX=Revision 4.10 
##DATA TYPE=MASS SPECTRUM
##SAMPLE DESCRIPTION=Chemical Sci. & Tec. Lab., NIST, Gaithersburg, MD 20899
##NAMES=HP
##CAS NAME=Amiloride
##MOLFORM=C6H8ClN7O
##CAS REGISTRY NO=2609-46-3
##MP= -300
##BP= -300
##MW= 229
##$RETENTION INDEX=0
##$CONDENSED SPECTRUM=NO
##NPOINTS= 125
##XYDATA=(XY..XY) 1 
    41         31
    42         89
    43        999
    44        103
    45          9
    47         21
    48          9
    49          5
    50          6
    51          3
    52          1
    53         70
    54         33
    55         50
    56          8
    57          8
    59         45
    60         51
    62         28
    63         16
    64         32
    65         22
    66         89
    67         47
    68         55
    69         67
    70         20
    71         13
    73         26
    74         44
    75         34
    76         15
    77         16
    79          9
    80         18
    81          5
    82         16
    83          9
    85         34
    86        489
    87         17
    88          9
    89         63
    90         18
    91         22
    92          9
    93         19
    94          7
    95          7
    96          6
    97         15
    98          6
    99          2
   100         36
   101        123
   102          4
   103         53
   106          8
   107         11
   108         27
   109         24
   110         10
   113          1
   115         11
   116        209
   117        102
   118         84
   119         27
   122          6
   123          9
   124         16
   125         16
   129          3
   130        104
   131         18
   132         18
   133          6
   134          8
   135          9
   142        107
   143        188
   144        410
   145         77
   146        101
   147          4
   150          7
   151          7
   152         20
   158         14
   159         90
   160          7
   161         33
   165          1
   168          3
   170         94
   171        260
   172         36
   173         66
   174          2
   183          2
   184        137
   185         10
   186         59
   187         71
   188          8
   189         24
   193         22
   194         39
   196          4
   198          1
   200          1
   201         79
   202          2
   203         28
   204         10
   212        100
   213         41
   214         30
   215         15
   226          6
   228          5
   229        572
   230         95
   231        192
   232         33