##TITLE=Library Entry 5822
##JCAMP-DX=Revision 4.10 
##DATA TYPE=MASS SPECTRUM
##SAMPLE DESCRIPTION=Exported from NIST MS Search
##NAMES=HP
##CAS NAME=2H-Pyran-2-one, tetrahydro-6,6-dimethyl-
##MOLFORM=C7H12O2
##CAS REGISTRY NO=2610-95-9
##MP= -300
##BP= -300
##MW= 128
##$RETENTION INDEX=848
##$CONDENSED SPECTRUM=NO
##NPOINTS= 25
##XYDATA=(XY..XY) 1 
    37         51
    38        102
    39        746
    41        902
    42        688
    43        999
    45         93
    50         31
    51         40
    52         17
    53         60
    54         22
    55        171
    56        577
    57         44
    59         22
    60         20
    67         31
    68         20
    69         40
    70         35
    84         13
    85         44
   113          5
   128         13