##TITLE=Library Entry 71891
##JCAMP-DX=Revision 4.10 
##DATA TYPE=MASS SPECTRUM
##SAMPLE DESCRIPTION=P. VAINIOTALO, DEPT. CHEM., UNIV. JOENSUU, JOENSUU, FIN
LAND
##NAMES=HP
##CAS NAME=2(3H)-Furanone, 5-ethyldihydro-3-methyl-
##MOLFORM=C7H12O2
##CAS REGISTRY NO=2610-98-2
##MP= -300
##BP= -300
##MW= 128
##$RETENTION INDEX=0
##$CONDENSED SPECTRUM=NO
##NPOINTS= 27
##XYDATA=(XY..XY) 1 
    15         26
    16         45
    17        150
    20         30
    26         23
    27        149
    39         73
    40        144
    41        152
    42         48
    43        591
    44         42
    53         28
    55        182
    56        235
    57        158
    67         38
    69        109
    71        172
    73        237
    81         31
    84         44
    85         34
    95         43
    99        999
   100         58
   113        144