##TITLE=Library Entry 9823
##JCAMP-DX=Revision 4.10 
##DATA TYPE=MASS SPECTRUM
##SAMPLE DESCRIPTION=CONTINENTAL OIL CO., PONCA CITY, OKLA, USA
##NAMES=HP
##CAS NAME=2-Hexanone, 3,3-dimethyl-
##MOLFORM=C8H16O
##CAS REGISTRY NO=26118-38-7
##MP= -300
##BP= -300
##MW= 128
##$RETENTION INDEX=0
##$CONDENSED SPECTRUM=NO
##NPOINTS= 68
##XYDATA=(XY..XY) 1 
    13          2
    14         14
    15        100
    16          2
    17          1
    18          5
    19          0
    20          0
    25          0
    26          9
    27        122
    28         25
    29         86
    30          2
    31          2
    36          0
    37          3
    38          7
    39         98
    40         17
    41        185
    42         27
    43        999
    44         31
    45          4
    49          0
    50          3
    51          7
    52          2
    53         16
    54          3
    55         42
    56         25
    57         97
    58          6
    59          2
    62          1
    63          1
    64          0
    65          2
    66          1
    67          6
    68          1
    69         38
    70          4
    71         27
    72          2
    73          0
    77          1
    78          0
    79          1
    81          2
    82          1
    83         10
    84         30
    85        240
    86        141
    87          7
    88          0
    91          0
    95          1
    96          0
    97          0
    99          4
   100          0
   111          0
   113          1
   128          0