##TITLE=Library Entry 71106
##JCAMP-DX=Revision 4.10 
##DATA TYPE=MASS SPECTRUM
##SAMPLE DESCRIPTION=Japan AIST/NIMC Database- Spectrum MS-NW-5728
##NAMES=HP
##CAS NAME=2-Pyrrolidinemethanamine, 1-ethyl-
##MOLFORM=C7H16N2
##CAS REGISTRY NO=26116-12-1
##MP= -300
##BP= -300
##MW= 128
##$RETENTION INDEX=0
##$CONDENSED SPECTRUM=NO
##NPOINTS= 58
##XYDATA=(XY..XY) 1 
    15          8
    26          3
    27         28
    28        106
    29         33
    30         56
    31          1
    38          1
    39         15
    40          5
    41         47
    42         28
    43         61
    44         12
    50          1
    51          2
    52          2
    53          7
    54         14
    55         17
    56         43
    57          5
    58          9
    65          2
    66          1
    67          6
    68         37
    69         14
    70        178
    71         14
    72          2
    78          1
    79          1
    80          6
    81          2
    82         14
    83          8
    84          7
    85          2
    92          1
    93          2
    94          2
    95          3
    96         23
    97         10
    98        999
    99         70
   100          2
   105          1
   107          3
   108          2
   109          1
   110          5
   111          2
   112          1
   113          2
   127          1
   128          2