##TITLE=Library Entry 61442
##JCAMP-DX=Revision 4.10 
##DATA TYPE=MASS SPECTRUM
##SAMPLE DESCRIPTION=Chemical Concepts
##NAMES=HP
##CAS NAME=1,3-Propanediol, 2-(phenylmethyl)-
##MOLFORM=C10H14O2
##CAS REGISTRY NO=2612-30-8
##MP= -300
##BP= -300
##MW= 166
##$RETENTION INDEX=0
##$CONDENSED SPECTRUM=NO
##NPOINTS= 99
##XYDATA=(XY..XY) 1 
    26          8
    27         58
    28         99
    29         73
    30         24
    31        140
    35          2
    37          2
    38          9
    39         83
    40         13
    41         38
    42         14
    43         39
    44         13
    45         43
    46         17
    47          9
    48          2
    49         21
    50         26
    51         80
    52         21
    53         13
    54          2
    55         30
    56         15
    57        136
    58        115
    59          8
    60          3
    61          3
    62         11
    63         41
    64         11
    65        140
    66         12
    67          3
    69          8
    70         11
    71          6
    72          2
    73          5
    74         11
    75         14
    76         11
    77        107
    78        102
    79         75
    80          7
    81          3
    82          2
    83          3
    84         29
    85          5
    86         20
    87          5
    88          4
    89         32
    90         25
    91        999
    92        491
    93         39
    94          5
    95          3
    97          3
   101          4
   102         15
   103         65
   104        209
   105        154
   106         15
   107        111
   108         23
   115        115
   116         60
   117        698
   118        294
   119         37
   120          4
   121          5
   127          5
   128         12
   129         61
   130        176
   131         36
   132          7
   133         38
   134         55
   135          8
   136         35
   137          4
   141          2
   145          7
   146          8
   147          9
   148        479
   149         59
   150          7