##TITLE=Library Entry 43198
##JCAMP-DX=Revision 4.10 
##DATA TYPE=MASS SPECTRUM
##SAMPLE DESCRIPTION=D.HENNEBERG, MAX-PLANCK INSTITUTE, MULHEIM, WEST GERMAN
Y
##NAMES=HP
##CAS NAME=Silane, (dibromomethyl)trimethyl-
##MOLFORM=C4H10Br2Si
##CAS REGISTRY NO=2612-42-2
##MP= -300
##BP= -300
##MW= 244
##$RETENTION INDEX=0
##$CONDENSED SPECTRUM=NO
##NPOINTS= 124
##XYDATA=(XY..XY) 1 
    24          0
    25          1
    26          5
    27         20
    28         27
    29         30
    30          3
    31         10
    32          1
    33          0
    36          0
    38          0
    39          3
    40          1
    41          9
    42         24
    43         96
    44         25
    45        136
    46          9
    47          5
    51          0
    52          1
    53         20
    54          5
    55         17
    56          2
    57          8
    58          8
    59         12
    60          1
    61          0
    65          1
    66          2
    67          1
    68          0
    69          1
    70          2
    71          3
    72          8
    73        999
    74         76
    75         33
    76          1
    77          1
    79          1
    80          1
    81          1
    82          1
    84          0
    85          0
    87          0
    91          1
    92          1
    93          2
    94          2
    95          0
   102          2
   103          0
   105          0
   106          0
   107         41
   108          4
   109         52
   110          4
   111         11
   112          0
   119          0
   120          3
   121          3
   122         13
   123         15
   124         11
   125         12
   126          1
   127          0
   131          0
   134          0
   135          0
   136          0
   137         20
   138          2
   139         21
   140          1
   141          1
   147          0
   149          2
   150          3
   151          4
   152          3
   153          2
   155          0
   171          1
   172          0
   173          2
   174          0
   175          1
   177          0
   186          1
   187          2
   188          4
   189          3
   190          2
   191          1
   194          0
   195          0
   198          0
   201         71
   202          8
   203        140
   204         10
   205         70
   206          4
   207          2
   215          0
   216          0
   217          0
   231          0
   233          0
   244          2
   246          5
   247          0
   248          2
   249          0