##TITLE=Library Entry 48881
##JCAMP-DX=Revision 4.10 
##DATA TYPE=MASS SPECTRUM
##SAMPLE DESCRIPTION=D.HENNEBERG, MAX-PLANCK INSTITUTE, MULHEIM, WEST GERMAN
Y
##NAMES=HP
##CAS NAME=1,3,5-Hexatriene, (Z)-
##MOLFORM=C6H8
##CAS REGISTRY NO=2612-46-6
##MP= -300
##BP= -300
##MW= 80
##$RETENTION INDEX=0
##$CONDENSED SPECTRUM=NO
##NPOINTS= 55
##XYDATA=(XY..XY) 1 
    24          0
    25          2
    26         31
    27        168
    28         84
    29          4
    30          0
    31          3
    32         12
    34          0
    36          2
    37         23
    38         43
    39        232
    40         60
    41         61
    42          2
    43          2
    44          2
    45          1
    48          1
    49         12
    50         90
    51        140
    52        128
    53         74
    54         27
    55          2
    56          0
    57          0
    59          1
    60          1
    61          5
    62          8
    63         19
    64          3
    65         75
    66          5
    67          1
    68          0
    69          1
    70          0
    71          0
    72          0
    73          6
    74         20
    75         24
    76          7
    77        428
    78        102
    79        999
    80        528
    81         33
    82          1
    83          0