##TITLE=Library Entry 40770
##JCAMP-DX=Revision 4.10 
##DATA TYPE=MASS SPECTRUM
##SAMPLE DESCRIPTION=Exported from NIST MS Search
##NAMES=HP
##CAS NAME=1,3-Dioxolane, 2-(dichloromethyl)-
##MOLFORM=C4H6Cl2O2
##CAS REGISTRY NO=2612-35-3
##MP= -300
##BP= -300
##MW= 156
##$RETENTION INDEX=0
##$CONDENSED SPECTRUM=NO
##NPOINTS= 74
##XYDATA=(XY..XY) 1 
    13          2
    14          6
    15         24
    16          1
    19         29
    25          1
    26         16
    27         78
    28         28
    29         85
    30          5
    31         17
    32          6
    35          3
    36          2
    37          1
    38          1
    39          1
    40          1
    41          2
    42         13
    43         59
    44          9
    45        246
    46          6
    47         12
    48         22
    49         91
    50          9
    51         28
    57          1
    60          7
    61         47
    62         14
    63         37
    64          5
    65          9
    71          1
    73        999
    74         35
    75          5
    76         19
    77         14
    78          7
    79          8
    81          1
    82          2
    83         33
    84          3
    85         22
    86          1
    87          4
    91         15
    92          1
    93          7
    95          4
    96         16
    97          5
    98         11
    99          3
   100          2
   111          3
   112          1
   113          2
   126         13
   127          1
   128         17
   129          1
   130          5
   155          8
   156          3
   157          6
   158          1
   159          1