##TITLE=Library Entry 37103
##JCAMP-DX=Revision 4.10 
##DATA TYPE=MASS SPECTRUM
##SAMPLE DESCRIPTION=LDDRD, NCI, NIH-FCRDC, Frederick, MD 21702
##NAMES=HP
##CAS NAME=Actinomycin C2
##MOLFORM=C63H88N12O16
##CAS REGISTRY NO=2612-14-8
##MP= -300
##BP= -300
##MW= 1268
##$RETENTION INDEX=0
##$CONDENSED SPECTRUM=NO
##NPOINTS= 232
##XYDATA=(XY..XY) 1 
    41        520
    42        992
    43        324
    44        814
    45         47
    46         10
    49          9
    50         10
    51         22
    52         24
    53         47
    54         68
    55        259
    56        143
    57        124
    58         34
    59          9
    60         13
    63          5
    64          6
    65         12
    66         17
    67         42
    68        166
    69        202
    70        999
    71        170
    72        170
    73         21
    74         31
    75          4
    77         11
    78         10
    79         10
    80         17
    81         25
    82         62
    83        214
    84        124
    85         74
    86        421
    87         38
    88        205
    89         17
    90          5
    91          9
    92          7
    93         12
    94         18
    95         23
    96         37
    97         40
    98         63
    99         34
   100         15
   101          9
   103          5
   105          8
   106         12
   107         15
   108         19
   109         16
   110         34
   111         65
   112         93
   113        214
   114         26
   115          7
   116          5
   117          4
   118          5
   119          7
   120          9
   121         14
   122         18
   123         80
   124         34
   125        172
   126         50
   127         22
   128          8
   129         13
   130          6
   131          7
   132         13
   133          7
   134         21
   135         13
   136         16
   137         40
   138         47
   139         42
   140         71
   141        126
   142        243
   143         21
   144          5
   145          4
   147          5
   148         17
   149         28
   150         20
   151         23
   152         39
   153         59
   154        491
   155         59
   156         11
   157          6
   158          5
   159          8
   160          6
   161         10
   162          8
   163         11
   164         18
   165         12
   166         23
   167         23
   168        172
   169         37
   170          9
   173          5
   174          8
   175          9
   176          9
   177         10
   178         29
   179         17
   180         14
   181         19
   182         12
   183         11
   184         27
   185         15
   186          5
   187         11
   188          5
   189          6
   190          7
   191          7
   192         14
   193         14
   194         10
   195         16
   196         36
   197         16
   198          8
   201          5
   202         10
   203         15
   204         10
   205          6
   206         11
   207          7
   208          6
   209         17
   210          9
   211          9
   212          5
   213          5
   214          5
   215          5
   216          5
   217          7
   218          5
   219         12
   220         13
   221         69
   222         14
   223         10
   224          8
   225          7
   229          9
   231          5
   233          5
   234          8
   235          7
   236          5
   237         10
   238          9
   239          8
   240          8
   248          5
   249         12
   250          9
   251          7
   252          6
   253          5
   254          6
   259          5
   261         13
   262          6
   263         61
   264         15
   265          6
   266         11
   267         13
   268          6
   277          4
   278          5
   279          5
   280          8
   281          7
   282          6
   292          7
   293          9
   294          5
   298          5
   299          4
   300          9
   305          7
   306          5
   307          4
   309          4
   319          6
   320          7
   321         23
   322         15
   323          5
   333          5
   334          5
   335          5
   347          9
   348         12
   349         12
   350         16
   351          5
   361          4
   388          4
   432         10
   501          5