##TITLE=Library Entry 90902
##JCAMP-DX=Revision 4.10 
##DATA TYPE=MASS SPECTRUM
##SAMPLE DESCRIPTION=A.A.Kutin, Moscow, Russia
##NAMES=HP
##CAS NAME=Formamide, 4-morpholyl-N-[3-(2,6-dichlorophenyl)-5-methyl-4-isoxa
zolyl]-
##MOLFORM=C15H15Cl2N3O3
##CAS REGISTRY NO=261363-92-2
##MP= -300
##BP= -300
##MW= 355
##$RETENTION INDEX=0
##$CONDENSED SPECTRUM=NO
##NPOINTS= 100
##XYDATA=(XY..XY) 1 
    36          4
    39         13
    40         18
    41         19
    42        221
    43        267
    44         37
    45         56
    50          6
    51          5
    53          4
    54         15
    55         32
    56         58
    57         70
    58         13
    60          8
    61          5
    65          6
    67          5
    68          8
    70        634
    71         41
    72         10
    73          7
    74          8
    75         11
    81          9
    82          6
    83         14
    84         14
    85         17
    86         48
    87         61
    88         18
    91         24
    92         16
    95          7
    96          5
    97         11
    98          5
    99          5
   100         16
   109         14
   110         10
   111         24
   112         17
   114        999
   115         87
   116         10
   123          5
   124          6
   125          4
   126          9
   130          5
   135          5
   136         22
   137         10
   138         10
   139          4
   141         10
   145          5
   147          4
   149         13
   152          4
   154         27
   155          5
   163          5
   166         18
   167          5
   171         29
   172         43
   173         27
   174         28
   175          8
   176          4
   182          4
   184         75
   185          7
   195          9
   199          5
   226          4
   235          9
   236          4
   242         22
   243         11
   244          8
   268         19
   269         19
   270         16
   271         10
   312         59
   314         42
   315          8
   316          6
   320         23
   322          7
   355         37
   356          7
   357         19