##TITLE=Library Entry 20707
##JCAMP-DX=Revision 4.10 
##DATA TYPE=MASS SPECTRUM
##SAMPLE DESCRIPTION=Exported from NIST MS Search
##NAMES=HP
##CAS NAME=Cyclopentane, 1-ethyl-3-methyl-, cis-
##MOLFORM=C8H16
##CAS REGISTRY NO=2613-66-3
##MP= -300
##BP= -300
##MW= 112
##$RETENTION INDEX=792
##$CONDENSED SPECTRUM=NO
##NPOINTS= 65
##XYDATA=(XY..XY) 1 
     2          3
    12          1
    13          1
    14          3
    15         46
    16          1
    26         22
    27        307
    28         72
    29        260
    30          6
    37          3
    38         13
    39        260
    40         50
    41        660
    42        354
    43        130
    44          7
    45          2
    46          1
    49          1
    50         11
    51         25
    52         11
    53         69
    54         50
    55        999
    56        488
    57        141
    58          8
    61          1
    62          2
    63          4
    64          1
    65         12
    66          7
    67        137
    68         28
    69        160
    70        290
    71         45
    72          3
    74          1
    75          1
    77         10
    78          3
    79         10
    80          2
    81         21
    82        326
    83        870
    84        297
    85         18
    86          1
    91          3
    92          1
    93          1
    95          3
    96          3
    97         57
    98          5
   111          5
   112         64
   113          6