##TITLE=Library Entry 37318
##JCAMP-DX=Revision 4.10 
##DATA TYPE=MASS SPECTRUM
##SAMPLE DESCRIPTION=Exported from NIST MS Search
##NAMES=HP
##CAS NAME=Cyclopentane, 1,2,3-trimethyl-, (1.alpha.,2.alpha.,3.alpha.)-
##MOLFORM=C8H16
##CAS REGISTRY NO=2613-69-6
##MP= -300
##BP= -300
##MW= 112
##$RETENTION INDEX=802
##$CONDENSED SPECTRUM=NO
##NPOINTS= 65
##XYDATA=(XY..XY) 1 
    12          1
    13          1
    14          1
    15         28
    16          1
    26         10
    27        195
    28         62
    29        165
    30          5
    37          2
    38          5
    39        157
    40         31
    41        385
    42        187
    43         56
    44          2
    45          1
    46          1
    47          1
    50          3
    51         14
    52          7
    53         56
    54         29
    55        621
    56        363
    57         71
    58          3
    62          1
    63          4
    64          1
    65          8
    66          4
    67         21
    68         12
    69        173
    70        999
    71        112
    72          5
    75          1
    77          8
    78          2
    79          6
    80          2
    81          6
    82          6
    83         58
    84        129
    85          8
    86          1
    89          1
    91          2
    92          1
    93          2
    94          1
    95          5
    96          1
    97         21
    98          2
   111          3
   112         69
   113          6
   114          1