##TITLE=Library Entry 87102
##JCAMP-DX=Revision 4.10 
##DATA TYPE=MASS SPECTRUM
##SAMPLE DESCRIPTION=Exported from NIST MS Search
##NAMES=HP
##CAS NAME=2-Propenamide, N-(4-aminobutyl)-3-(3,4-dihydroxyphenyl)-, (E)-
##MOLFORM=C13H18N2O3
##CAS REGISTRY NO=26148-06-1
##MP= -300
##BP= -300
##MW= 250
##$RETENTION INDEX=0
##$CONDENSED SPECTRUM=NO
##NPOINTS= 30
##XYDATA=(XY..XY) 1 
    54         96
    55         50
    56        202
    57         86
    58         68
    59        703
    60         70
    63        101
    64        202
    70        653
    71        501
    72        101
    73         32
    81         65
    82         30
    92         75
    99         38
   110        999
   111         58
   112         43
   134         48
   135         32
   136         17
   163        278
   164         63
   178         25
   221         12
   233         17
   250        197
   251         20