##TITLE=Library Entry 66729
##JCAMP-DX=Revision 4.10 
##DATA TYPE=MASS SPECTRUM
##SAMPLE DESCRIPTION=Div. of Experiment Therapeutics WRAIR, WRAMC, Washingto
n DC 20307
##NAMES=HP
##CAS NAME=Methyl 3-[1-[6-methyl-2-pyridyl]ethylidene]hydrazinecarbodithioat
e
##MOLFORM=C10H13N3S2
##CAS REGISTRY NO=26155-39-5
##MP= -300
##BP= -300
##MW= 239
##$RETENTION INDEX=0
##$CONDENSED SPECTRUM=NO
##NPOINTS= 138
##XYDATA=(XY..XY) 1 
    41          9
    42         96
    43          9
    44          4
    45         63
    46         26
    47         66
    48         24
    49          7
    50          2
    51         74
    52         37
    53         23
    54         12
    55          6
    56          3
    57          7
    58          8
    59         31
    60         12
    61          4
    62          7
    63         34
    64         47
    65        290
    66        108
    67         19
    68          2
    69          5
    70          3
    71          4
    72          2
    73          5
    74         16
    75          1
    76         35
    77         65
    78         37
    79         32
    80          7
    81          5
    82          2
    83          4
    84          6
    86          3
    88          9
    89          5
    90         10
    91        175
    92        322
    93        999
    94         65
    95          3
    96          0
    97          5
    99          7
   101          0
   102          3
   103          8
   104         13
   105         11
   106         16
   107         14
   108          1
   109          1
   111          2
   112          1
   113          0
   115          0
   116          5
   117         12
   118         80
   119        149
   120        124
   121         12
   122          1
   123          0
   124          3
   125          3
   126          0
   127          1
   129          1
   130          7
   131          7
   132          3
   133         17
   134        203
   135         24
   136          2
   137          0
   138          4
   139          1
   145          2
   146          3
   147         58
   148         16
   149          9
   150          9
   151          5
   152         23
   153          1
   154          0
   157          0
   158          3
   160         13
   162          8
   163          4
   164         92
   165         28
   166         11
   167          2
   174          0
   176          2
   177          1
   178          2
   180          3
   187          0
   190          8
   192        739
   193         71
   194         36
   195          4
   196          1
   201          1
   205          0
   206          7
   207          1
   210          4
   223          0
   224         23
   225          2
   226          2
   236          0
   237          1
   239        223
   240         28
   241         21
   242          3