##TITLE=Library Entry 53990
##JCAMP-DX=Revision 4.10 
##DATA TYPE=MASS SPECTRUM
##SAMPLE DESCRIPTION=Exported from NIST MS Search
##NAMES=HP
##CAS NAME=Pyrrolidine, 2-ethyl-1-methyl-
##MOLFORM=C7H15N
##CAS REGISTRY NO=26158-82-7
##MP= -300
##BP= -300
##MW= 113
##$RETENTION INDEX=828
##$CONDENSED SPECTRUM=NO
##NPOINTS= 15
##XYDATA=(XY..XY) 1 
    55         40
    57         25
    70         85
    82        100
    83         10
    84        999
    85         80
    94          5
    95          5
    98         12
   109         14
   110         25
   111         15
   112         24
   113         20