##TITLE=Library Entry 45220
##JCAMP-DX=Revision 4.10 
##DATA TYPE=MASS SPECTRUM
##SAMPLE DESCRIPTION=CARL DJERASSI DEPT OF CHEM STANFORD UNIV STANFORD CALIF
 94305
##NAMES=HP
##CAS NAME=Pentane, 1-(ethylthio)-
##MOLFORM=C7H16S
##CAS REGISTRY NO=26158-99-6
##MP= -300
##BP= -300
##MW= 132
##$RETENTION INDEX=992
##$CONDENSED SPECTRUM=NO
##NPOINTS= 42
##XYDATA=(XY..XY) 1 
    29        460
    35         90
    39        170
    40         20
    41        510
    42        610
    43        330
    44         10
    45        130
    46        130
    47        460
    48         60
    49         20
    53         20
    54         10
    55        410
    56         20
    57         10
    58         20
    59         50
    60         60
    61        320
    62        630
    63        190
    64         30
    65         10
    67         10
    69        230
    70        500
    71         50
    73         10
    75        999
    76         90
    77         40
    89         90
    90         10
   103        390
   104         20
   105         10
   132        500
   133         40
   134         20