##TITLE=Library Entry 17391
##JCAMP-DX=Revision 4.10 
##DATA TYPE=MASS SPECTRUM
##SAMPLE DESCRIPTION=NIST Mass Spectrometry Data Center, 2007
##NAMES=HP
##CAS NAME=Hexaethylene glycol
##MOLFORM=C12H26O7
##CAS REGISTRY NO=2615-15-8
##MP= -300
##BP= -300
##MW= 282
##$RETENTION INDEX=2080
##$CONDENSED SPECTRUM=NO
##NPOINTS= 91
##XYDATA=(XY..XY) 1 
    14          1
    15         13
    16          1
    19         17
    25          1
    26          4
    27         38
    28         61
    29         64
    30         11
    31         61
    32          3
    33          1
    39          1
    40          1
    41         12
    42         18
    43        113
    44        103
    45        999
    46         23
    47          3
    55          1
    56          2
    57         17
    58         67
    59         80
    60          6
    61          8
    62          1
    63          1
    69          2
    70         11
    71         13
    72         37
    73         54
    74          5
    75         36
    76          3
    77         12
    78          1
    80          1
    83          1
    85          1
    86         13
    87        138
    88         76
    89        393
    90         21
    91          3
    99          1
   100          2
   101         29
   102         15
   103         35
   104          5
   105          3
   107          4
   113          1
   114          1
   115          2
   116          2
   117         10
   118          2
   119         13
   120          1
   121         18
   122          1
   131         25
   132          5
   133         96
   134          6
   135          2
   145          1
   147          2
   148          1
   149          2
   151          5
   161          1
   163         10
   164          4
   165          3
   175          6
   176          1
   177          7
   179          2
   195         10
   196          1
   207          3
   239          2
   252          1