##TITLE=Library Entry 10670
##JCAMP-DX=Revision 4.10 
##DATA TYPE=MASS SPECTRUM
##SAMPLE DESCRIPTION=R.T.HOLMAN,UNIVERSITY OF MINNESOTA
##NAMES=HP
##CAS NAME=Octadecanoic acid, 2-[(1-oxohexadecyl)oxy]ethyl ester
##MOLFORM=C36H70O4
##CAS REGISTRY NO=26158-81-6
##MP= -300
##BP= -300
##MW= 566
##$RETENTION INDEX=0
##$CONDENSED SPECTRUM=NO
##NPOINTS= 316
##XYDATA=(XY..XY) 1 
    25          4
    26         22
    27        120
    28         80
    29        260
    30         12
    31         14
    33          4
    36         10
    37          4
    38          8
    39         70
    40         32
    41        500
    42        150
    43        999
    44         76
    45         50
    46          3
    47          2
    50          7
    51         10
    52          6
    53         30
    54         66
    55        640
    56        180
    57        790
    58         61
    59         24
    60         79
    61         34
    62          4
    63          6
    64          3
    65         10
    66         10
    67        120
    68         78
    69        350
    70        120
    71        390
    72         30
    73        110
    74         27
    75         13
    76          6
    77         15
    78         12
    79         30
    80         21
    81        120
    82         63
    83        270
    84        430
    85        240
    86        370
    87        320
    88         26
    89          8
    90          2
    91         16
    92          8
    93         24
    94         16
    95        120
    96         57
    97        200
    98        540
    99        910
   100         76
   101         21
   102          7
   103          5
   104         35
   105         19
   106          5
   107         17
   108         12
   109         64
   110         26
   111        110
   112        220
   113         77
   114         15
   115         23
   116          7
   117         23
   118          6
   119          8
   120          6
   121         25
   122          9
   123         32
   124         17
   125         41
   126         56
   127         35
   128         15
   129         25
   130          6
   131          6
   132          4
   133          7
   134          4
   135         24
   136          7
   137         17
   138         11
   139         19
   140         22
   141         69
   142         20
   143         10
   144          4
   145          6
   146          7
   147          6
   148          4
   149         34
   150          6
   151         10
   152         10
   153         13
   154         24
   155        140
   156         29
   157         10
   158          2
   159          5
   160          6
   161          3
   162          3
   163          7
   164          4
   165         10
   166          8
   167         14
   168         19
   169         32
   170         11
   171          8
   172          3
   173          6
   174         34
   175          7
   176          5
   177         10
   178          6
   179          8
   180          7
   181         10
   182         18
   183         34
   184          8
   185         12
   186          3
   187          7
   188         13
   189          5
   190          3
   191          7
   192          5
   193          6
   194          9
   195         12
   196         17
   197         48
   198         10
   199          6
   200          3
   201          6
   202          8
   203          4
   204          2
   205          4
   206          3
   207         21
   208          7
   209          9
   210         19
   211         40
   212          9
   213          8
   214          3
   215          5
   216          7
   217         10
   218         10
   219         30
   220          9
   221          6
   222          8
   223          8
   224         11
   225         25
   226          7
   227          7
   228          2
   229          4
   230          5
   236          8
   237         16
   238         70
   239        320
   240         59
   241         16
   242          4
   243          4
   244          5
   245          2
   246          2
   247          3
   248          4
   249          4
   250          3
   251          3
   252          4
   253         23
   254         15
   255          8
   256         12
   257          8
   258          5
   259          5
   260          3
   261          2
   262          2
   263          2
   264         10
   265         15
   266         69
   267        280
   268         58
   269          9
   270          4
   271          4
   272          4
   279          5
   280         10
   281         45
   282        240
   283        890
   284        200
   285         30
   286          6
   295          6
   296          6
   297          6
   298          5
   299          6
   300         15
   301        150
   302         30
   303          5
   308         11
   309         36
   310        240
   311        740
   312        160
   313         25
   314          5
   315          4
   324         11
   325          5
   326          3
   327         13
   328         17
   329        130
   330         29
   331          5
   338          5
   342         29
   343          8
   351          3
   352         15
   353          5
   355         13
   356          5
   366          5
   370         31
   371         10
   380          6
   381          3
   384          6
   385          2
   391          3
   392          2
   393          2
   394          4
   398          6
   399          2
   407          4
   408          4
   412          5
   413          2
   422          3
   426          3
   436          3
   440          3
   450          3
   454          3
   464          3
   468          4
   478          2
   482          3
   492          2
   496          3
   504          2
   506          1
   510          2
   548          4
   565          5
   566         17
   567          8
   568          4