##TITLE=Library Entry 40901
##JCAMP-DX=Revision 4.10 
##DATA TYPE=MASS SPECTRUM
##SAMPLE DESCRIPTION=Humboldt-Universitat zu Berlin, Department of Chemistry
, Analytical Group
##NAMES=HP
##CAS NAME=4-(Tris(trimethylsilyl))brombenzen
##MOLFORM=C16H31BrSi3
##CAS REGISTRY NO=26167-15-7
##MP= -300
##BP= -300
##MW= 386
##$RETENTION INDEX=0
##$CONDENSED SPECTRUM=NO
##NPOINTS= 248
##XYDATA=(XY..XY) 1 
    14          4
    15          6
    16          2
    17         10
    18         32
    27          3
    28         26
    29         16
    30          2
    31         18
    32          8
    36          1
    39          2
    41          5
    42          3
    43         74
    44         29
    45        245
    46         16
    47          8
    51          2
    53          7
    54          1
    55         10
    56          2
    57         10
    58         11
    59        101
    60          8
    61          4
    63          1
    65          2
    66          1
    67          4
    68          1
    69          7
    70          4
    71          6
    73        999
    74         89
    75         37
    76          2
    77          4
    78          1
    79          4
    80          2
    81          4
    82          2
    83         16
    84          3
    85         14
    86          2
    87          4
    89          2
    90          1
    91         13
    92          1
    93          6
    94          1
    95          4
    96          1
    97          7
    98          1
    99          6
   100          1
   101          4
   102          3
   103          7
   104          2
   105         16
   107         13
   108          1
   109         13
   110          1
   111          3
   113          4
   114          1
   115          8
   116          2
   117         16
   118          3
   119         15
   120          3
   121         10
   122          1
   123          3
   125          3
   127          2
   128          1
   129          9
   130          6
   131         42
   132          7
   133         12
   134         37
   135         64
   136         10
   137         11
   138          1
   139          9
   140          1
   141          2
   142          1
   143         20
   144          6
   145         80
   146         24
   147          9
   148          2
   149         11
   150          1
   151          1
   155          1
   157          8
   158          2
   159         19
   160          6
   161         12
   162          2
   163          5
   164          0
   165          1
   169          1
   171          1
   172          0
   173          2
   174          1
   175         12
   176          4
   177          9
   178          2
   179          1
   181          0
   183          3
   184          0
   185          4
   186          1
   187          2
   189         15
   190          3
   191         15
   192          4
   193          3
   194          0
   195          1
   197          1
   199          4
   200          1
   201          5
   202          1
   203         10
   204          9
   205          9
   206          2
   207          8
   208          2
   209          2
   210          0
   211          2
   213         19
   214          3
   215         19
   216          3
   217          7
   218          2
   219         15
   220         10
   221          4
   223         10
   224          2
   225         11
   226          2
   227          2
   228          0
   229          0
   231          0
   233          0
   234         11
   235          3
   236          1
   237          0
   239          2
   240          0
   241          2
   242          0
   243          1
   247          0
   249          0
   251          0
   253          2
   254          0
   255          6
   256          1
   257          5
   258          0
   259          0
   261          0
   267          3
   268          0
   269          4
   270          1
   271          3
   272          0
   273          3
   274          0
   275          0
   277          0
   281          1
   283         93
   284         23
   285        103
   286         22
   287          8
   288          1
   289          0
   292          0
   293          1
   294          0
   295          0
   298        181
   299         43
   300        197
   301         44
   302         16
   303          2
   304          0
   307          2
   308          1
   309          0
   310          0
   313          0
   341          0
   343          0
   355          0
   357          0
   371         32
   372         10
   373         36
   374         11
   375          4
   376          1
   377          0
   386         16
   387          5
   388         18
   389          5
   390          2
   391          0