##TITLE=Library Entry 7343
##JCAMP-DX=Revision 4.10 
##DATA TYPE=MASS SPECTRUM
##SAMPLE DESCRIPTION=LAC, NIDDK, NIH, Bethesda, MD 20892
##NAMES=HP
##CAS NAME=Cholan-24-oic acid, 3,7-bis(acetyloxy)-, methyl ester, (3.alpha.,
5.beta.,7.alpha.)-
##MOLFORM=C29H46O6
##CAS REGISTRY NO=2616-71-9
##MP= -300
##BP= -300
##MW= 490
##$RETENTION INDEX=3316
##$CONDENSED SPECTRUM=NO
##NPOINTS= 123
##XYDATA=(XY..XY) 1 
    41        117
    43        999
    44         33
    45         14
    53         25
    54         12
    55        230
    56         12
    57         38
    59         46
    60         14
    61         58
    65          6
    66          2
    67        108
    68         27
    69         64
    70         19
    71         12
    73         37
    74         30
    77         30
    79        121
    80         13
    81        160
    82          6
    83         61
    85         25
    87         20
    88         25
    91         86
    92         17
    93        108
    94         42
    95        109
    96         15
    97         18
    99         14
   101         24
   105        109
   106         33
   107         97
   108         30
   109         56
   110          9
   111          2
   115         25
   117         33
   118         23
   119         57
   120         29
   121         48
   122         21
   123         22
   127         12
   129         22
   130          2
   131         55
   132         26
   133         56
   134         22
   135         33
   137         12
   141         12
   143         24
   144         12
   145         58
   146         16
   147         43
   148          8
   149         20
   154         12
   155         15
   157         29
   158         14
   159         52
   160         25
   161         27
   162         11
   163          9
   168         11
   169         11
   171         31
   172         14
   173         23
   174         15
   175         13
   177          6
   185         24
   186          7
   187         17
   197          7
   199         29
   200         14
   201         23
   202          2
   208          4
   211          5
   213         74
   214         29
   215         25
   216         14
   222          7
   227         11
   228         40
   229         32
   241         11
   253          6
   254          6
   255        136
   256         32
   288          2
   297          3
   315         48
   316         14
   339          9
   355         29
   356          9
   369         26
   370         81
   371         26
   430         61
   431         22