##TITLE=Library Entry 4984
##JCAMP-DX=Revision 4.10 
##DATA TYPE=MASS SPECTRUM
##SAMPLE DESCRIPTION=Div. of Experiment Therapeutics WRAIR, WRAMC, Washingto
n DC 20307
##NAMES=HP
##CAS NAME=1-p-Toluenesulfonyl-4-[1-pyrrolidinyl]-1,2,5,6-tetrahydropyridine
##MOLFORM=C16H22N2O2S
##CAS REGISTRY NO=26176-63-6
##MP= -300
##BP= -300
##MW= 306
##$RETENTION INDEX=0
##$CONDENSED SPECTRUM=NO
##NPOINTS= 159
##XYDATA=(XY..XY) 1 
    42        999
    43        538
    44         62
    45         24
    47         35
    48         23
    49         14
    50         30
    51        102
    52         28
    53        122
    54        202
    55        184
    56        179
    57         11
    58          5
    60          8
    62         45
    63        168
    65        373
    67         65
    68         70
    70        417
    71        161
    72         33
    74          9
    75          7
    76         12
    77         47
    78         28
    79         28
    80        107
    82         75
    84         10
    86          7
    88         57
    89        146
    91        903
    92        121
    94        102
    95         86
    96        107
    98        749
    99         44
   100          4
   102          0
   103          3
   104          1
   105         31
   107         66
   108         56
   109          4
   110         45
   111         10
   112          6
   113         11
   114          3
   115          2
   116          2
   117          6
   118         29
   119         24
   121         36
   122        111
   123         53
   124         28
   125          3
   126          6
   127          2
   128          1
   129          2
   130          2
   131          0
   132         21
   133          8
   135         18
   136          1
   137         10
   139         39
   141         33
   142          3
   143          1
   144          1
   145          3
   146         20
   147          9
   149         47
   150        209
   151        335
   153         21
   155        126
   156         15
   157         10
   158          2
   159          0
   160          7
   161          2
   162          1
   163          8
   164         12
   165         14
   166          1
   167          1
   168          0
   169          2
   171         16
   172          2
   173          1
   174          2
   176          1
   177          1
   178          0
   179          0
   181          0
   183          0
   184         15
   185          2
   186          0
   187          3
   188         10
   189          5
   190          0
   194          2
   195          0
   196          2
   197          2
   198          1
   199          2
   200          2
   203          1
   205          0
   207          0
   210          4
   211          0
   212          2
   213          0
   214          1
   216          0
   217          3
   224          3
   225          6
   226          1
   236          1
   241          5
   242         12
   243          2
   250          0
   252          9
   267          1
   269          0
   274          0
   296          0
   297          0
   304          0
   305         36
   306         57
   307         11
   308          3
   309          0