##TITLE=Library Entry 80665
##JCAMP-DX=Revision 4.10 
##DATA TYPE=MASS SPECTRUM
##SAMPLE DESCRIPTION=Chemical Concepts
##NAMES=HP
##CAS NAME=(1H)Pyrrole-2-carbonitrile, 5-methyl-
##MOLFORM=C6H6N2
##CAS REGISTRY NO=26173-92-2
##MP= -300
##BP= -300
##MW= 106
##$RETENTION INDEX=0
##$CONDENSED SPECTRUM=NO
##NPOINTS= 34
##XYDATA=(XY..XY) 1 
    25          3
    26         26
    27         82
    28         40
    29          3
    36          3
    37         36
    38         29
    39         29
    40         16
    41         24
    42         28
    43          3
    49         12
    50         53
    51        118
    52         92
    53         98
    54         14
    62          7
    63         21
    64         31
    65          8
    66          4
    75          9
    76         15
    77         19
    78        213
    79         27
    80         26
   104         13
   105        999
   106        609
   107         42