##TITLE=Library Entry 80663
##JCAMP-DX=Revision 4.10 
##DATA TYPE=MASS SPECTRUM
##SAMPLE DESCRIPTION=Chemical Concepts
##NAMES=HP
##CAS NAME=(1H)Pyrrole-3-carbonitrile, 2-methyl-
##MOLFORM=C6H6N2
##CAS REGISTRY NO=26187-27-9
##MP= -300
##BP= -300
##MW= 106
##$RETENTION INDEX=0
##$CONDENSED SPECTRUM=NO
##NPOINTS= 38
##XYDATA=(XY..XY) 1 
    26         16
    27         33
    28         56
    29          3
    36          2
    37         28
    38         22
    39         15
    40         13
    41         24
    42         21
    43          4
    49          8
    50         32
    51         85
    52         77
    53         34
    54          4
    55          5
    57          4
    62          5
    63         18
    64         37
    65         13
    66          3
    71          2
    75         14
    76         22
    77         23
    78        112
    79         37
    80         27
    81          2
   103          6
   104         20
   105        999
   106        622
   107         42