##TITLE=Library Entry 12369
##JCAMP-DX=Revision 4.10 
##DATA TYPE=MASS SPECTRUM
##SAMPLE DESCRIPTION=N.W. DAVIES, UNIVERSITY OF TASMANIA, TASMANIA, AUSTRALI
A
##NAMES=HP
##CAS NAME=2-Furanmethanol, tetrahydro-.alpha.,.alpha.,5-trimethyl-5-(4-meth
yl-3-cyclohexen-1-yl)-, [2S-[2.alpha.,5.beta.(R*)]]-
##MOLFORM=C15H26O2
##CAS REGISTRY NO=26184-88-3
##MP= -300
##BP= -300
##MW= 238
##$RETENTION INDEX=1655
##$CONDENSED SPECTRUM=NO
##NPOINTS= 97
##XYDATA=(XY..XY) 1 
    27        103
    29        177
    31         68
    36         12
    39        113
    40         37
    41        412
    42         43
    43        999
    44         78
    45         50
    51         25
    52         12
    53        131
    54         20
    55        319
    56         17
    57         83
    58         33
    59        531
    60         20
    65         48
    66         23
    67        233
    68        197
    69        147
    70         20
    71        481
    72         63
    73        111
    77        121
    78         30
    79        179
    80         63
    81        600
    82         73
    83        111
    84         48
    85        673
    86         63
    91        141
    92        101
    93        455
    94        154
    95        265
    96         23
    97         68
    98         12
    99         25
   102         58
   105        620
   106         71
   107        175
   108         35
   109         68
   110         15
   111         43
   117         12
   119        286
   120         63
   121        351
   122         91
   123         48
   125        326
   126         37
   127         40
   129         17
   131         30
   132        319
   133         93
   134        493
   135        185
   136         58
   137         37
   138         35
   139         27
   142         12
   143        833
   144         73
   145         50
   147         23
   148         15
   149         30
   151         15
   159         40
   161        412
   162         61
   177         12
   179        233
   180         73
   187         17
   202         20
   205         17
   220         55
   221         12
   223         23
   238         12