##TITLE=Library Entry 49833
##JCAMP-DX=Revision 4.10 
##DATA TYPE=MASS SPECTRUM
##SAMPLE DESCRIPTION=S.A. Rang et al., IR & MS of Unsatd. Hydrocarbons, 1977
##NAMES=HP
##CAS NAME=1-Tridecyne
##MOLFORM=C13H24
##CAS REGISTRY NO=26186-02-7
##MP= -300
##BP= -300
##MW= 180
##$RETENTION INDEX=1297
##$CONDENSED SPECTRUM=NO
##NPOINTS= 101
##XYDATA=(XY..XY) 1 
    15          1
    24          0
    25          2
    26         17
    27        278
    28         25
    29        455
    30         11
    31          3
    37          2
    38          8
    39        222
    40         56
    41        810
    42        174
    43        924
    44         27
    45          3
    46          1
    49          0
    50          6
    51         23
    52         21
    53        154
    54        405
    55        708
    56        212
    57        405
    58         90
    59          3
    60          1
    61          0
    62          0
    63          2
    64          2
    65         35
    66         56
    67        721
    68        316
    69        316
    70        109
    71         71
    72          4
    73          1
    74          0
    75          0
    76          1
    77         32
    78          8
    79         97
    80         51
    81        999
    82        506
    83        222
    84         44
    85         27
    86          2
    91         13
    92          2
    93         23
    94         16
    95        430
    96        260
    97         99
    98         20
    99          2
   103          0
   105          2
   106          0
   107          4
   108          3
   109        133
   110         41
   111         12
   112          6
   113          0
   115          1
   116          0
   117          1
   118          0
   119          0
   120          0
   121          1
   122          1
   123         20
   124          7
   125          2
   126          2
   135          0
   137          5
   138          3
   139          0
   140          3
   141          0
   149          0
   151          2
   152          2
   154          0
   165          1
   179          0
   180          0