##TITLE=Library Entry 47354
##JCAMP-DX=Revision 4.10 
##DATA TYPE=MASS SPECTRUM
##SAMPLE DESCRIPTION=MASS SPECTROMETRY CENTER, UNIV. OF UTAH ALDRICH 10192-3
##NAMES=HP
##CAS NAME=Benzenesulfonamide, N-(phenylsulfonyl)-
##MOLFORM=C12H11NO4S2
##CAS REGISTRY NO=2618-96-4
##MP= -300
##BP= -300
##MW= 297
##$RETENTION INDEX=0
##$CONDENSED SPECTRUM=NO
##NPOINTS= 67
##XYDATA=(XY..XY) 1 
    26         15
    27         56
    35          8
    36         23
    37         14
    38         39
    39        119
    41          2
    45          7
    46          9
    48         23
    49         11
    50        173
    51        649
    52         45
    53         20
    57          0
    59          1
    62          4
    63         26
    64         56
    65        137
    66         32
    67          9
    68         16
    69         21
    71          2
    74         35
    75         33
    76         59
    77        999
    78        179
    79         11
    81          9
    89          2
    91         14
    92        177
    93         41
    94        185
    95         16
    97         29
   100          6
   108         40
   109         17
   110         30
   112          4
   115          8
   125         50
   126         18
   127          6
   140        680
   141        593
   142         90
   143         33
   152         14
   153         11
   154         11
   157         19
   167         16
   168         55
   169         17
   173         25
   233        213
   234         20
   235          6
   297         53
   298          9