##TITLE=Library Entry 16539
##JCAMP-DX=Revision 4.10 
##DATA TYPE=MASS SPECTRUM
##SAMPLE DESCRIPTION=Japan AIST/NIMC Database- Spectrum MS-IW-3804
##NAMES=HP
##CAS NAME=N,N-Dimethyl-m-nitrobenzenesulfonamide
##MOLFORM=C8H10N2O4S
##CAS REGISTRY NO=26199-83-7
##MP= -300
##BP= -300
##MW= 230
##$RETENTION INDEX=0
##$CONDENSED SPECTRUM=NO
##NPOINTS= 125
##XYDATA=(XY..XY) 1 
    14          1
    15         53
    17          4
    18          1
    26          2
    27         20
    28         86
    29          9
    30         21
    32          2
    34          1
    37          5
    38         16
    39         36
    40          9
    41         20
    42        467
    43        950
    44        999
    45         58
    46          7
    48          4
    49          4
    50        255
    51         65
    52         15
    53          7
    54          2
    55          4
    56          1
    57          2
    58          3
    60         31
    61          5
    62         11
    63         53
    64         59
    65         46
    66          8
    67          6
    68          3
    69         15
    70         23
    71          2
    72          1
    73          7
    74         71
    75        276
    76        372
    77        113
    78         21
    79          9
    80          3
    81          5
    82          5
    83          3
    84          1
    85          2
    88          1
    89          1
    90          4
    91         12
    92        252
    93         36
    94          7
    95         14
    96         13
    97          3
   103          1
   104         12
   105          9
   106         11
   107         10
   108         50
   109          4
   110          3
   112          1
   113          1
   117          2
   118          9
   119         12
   120         10
   121          2
   122        655
   123        117
   124         19
   125          3
   126          1
   134          1
   135          2
   136         14
   137          1
   139         11
   140          3
   141         12
   142          4
   149          3
   150          1
   154          1
   157          1
   165          9
   166         11
   167          1
   170         25
   171         34
   172          7
   173          2
   183          4
   184         20
   185          2
   186        340
   187         39
   188         43
   189          4
   190          1
   200          2
   213         29
   214          6
   215          2
   216          1
   229        212
   230        992
   231        116
   232         56
   233          5