##TITLE=Library Entry 30060
##JCAMP-DX=Revision 4.10 
##DATA TYPE=MASS SPECTRUM
##SAMPLE DESCRIPTION=Japan AIST/NIMC Database- Spectrum MS-IW- 657
##NAMES=HP
##CAS NAME=3-Methoxy-2,2-dimethyloxirane
##MOLFORM=C5H10O2
##CAS REGISTRY NO=26196-04-3
##MP= -300
##BP= -300
##MW= 102
##$RETENTION INDEX=0
##$CONDENSED SPECTRUM=NO
##NPOINTS= 56
##XYDATA=(XY..XY) 1 
    13          1
    14          7
    15        111
    16          4
    18          2
    25          1
    26         12
    27        108
    28         40
    29        251
    30          8
    31        404
    32         20
    33        196
    34          2
    36          1
    37          5
    38         12
    39        130
    40         72
    41        510
    42        410
    43        318
    44         24
    45         80
    46          2
    47          9
    50          3
    51          2
    52          1
    53          7
    54          2
    55         26
    56         18
    57         11
    58          6
    59        999
    60         53
    61        973
    62         22
    63          4
    69         15
    70         28
    71         32
    72         14
    73         73
    74          4
    75         42
    76          1
    85          5
    86          7
    87         66
    88          3
   101          2
   102         14
   103          7