##TITLE=Library Entry 5336
##JCAMP-DX=Revision 4.10 
##DATA TYPE=MASS SPECTRUM
##SAMPLE DESCRIPTION=A.A.Kutin, Moscow, Russia
##NAMES=HP
##CAS NAME=Ethanimidamide, 2-(3-chlorophenoxy)-N2-hydroxy-
##MOLFORM=C8H9ClN2O2
##CAS REGISTRY NO=261959-19-7
##MP= -300
##BP= -300
##MW= 200
##$RETENTION INDEX=0
##$CONDENSED SPECTRUM=NO
##NPOINTS= 145
##XYDATA=(XY..XY) 1 
    33          2
    34          1
    35          3
    36         11
    37         15
    38         48
    39         53
    40         29
    41         83
    42        999
    43        143
    44         24
    45          4
    46          4
    47          2
    48          1
    49         11
    50         50
    51         32
    52          5
    53         11
    54          3
    55         33
    56         64
    57          8
    58         10
    59         14
    60          7
    61         17
    62         32
    63        102
    64         54
    65         48
    66          9
    67          2
    68          1
    69          1
    70          1
    71          3
    72          9
    73        146
    74         54
    75        126
    76         24
    77         30
    78          7
    79          4
    80          2
    81          1
    82          3
    83          1
    84          4
    85         13
    86          2
    87          5
    88          1
    89          9
    90          3
    91          6
    92         18
    93         15
    94          8
    95          2
    96          2
    97          2
    98          4
    99         70
   100         17
   101         23
   102          6
   103          1
   104          3
   105          2
   106          6
   107          3
   108          2
   109          2
   111        111
   112         14
   113         45
   114          8
   115          5
   116          1
   117          1
   118          2
   119          6
   120          6
   121          2
   122          1
   123          1
   124          1
   125          5
   126          5
   127         19
   128        172
   129         31
   130         51
   131          9
   132          6
   133          2
   134          1
   135          0
   136          1
   137          2
   138          6
   139          3
   140          6
   141         20
   142          7
   143          8
   144          2
   145          2
   147         73
   148         45
   149          8
   150          1
   151          1
   152          3
   153         15
   154          5
   155          6
   156          4
   157          0
   158          1
   164          0
   165          3
   166         10
   167          8
   168          8
   169          3
   170          2
   171          0
   179          0
   180          0
   181          2
   183        245
   184         26
   185         74
   186          7
   187          1
   199          2
   200         54
   201          6
   202         18
   203          1