##TITLE=Library Entry 8773
##JCAMP-DX=Revision 4.10 
##DATA TYPE=MASS SPECTRUM
##SAMPLE DESCRIPTION=H.J. MOECKEL & J. WEISS, HAHN-MEITNER-INST. BERLIN
##NAMES=HP
##CAS NAME=Isopentyl n-pentyl disulfide
##MOLFORM=C10H22S2
##CAS REGISTRY NO=261958-42-3
##MP= -300
##BP= -300
##MW= 206
##$RETENTION INDEX=0
##$CONDENSED SPECTRUM=NO
##NPOINTS= 85
##XYDATA=(XY..XY) 1 
    15         11
    25          0
    26         10
    27        236
    29        260
    30         24
    35          4
    37          0
    38          3
    39        106
    40         10
    41        343
    42         64
    43        999
    44        106
    45         50
    46         25
    47         45
    48          3
    49          2
    50          0
    51          2
    52          1
    53         12
    54          4
    55         60
    56         16
    58          5
    59         25
    60         14
    61         12
    62          1
    63          0
    64          8
    65          3
    66          4
    67         19
    68         11
    69         64
    70         58
    71        582
    72         34
    73          7
    74          6
    75          0
    77          0
    78          4
    79         25
    80          1
    81          2
    85          0
    86          1
    87         24
    88          1
    89          1
    91          0
    92          0
    93          5
    94          0
    95          0
    99          0
   100          0
   101         25
   102         32
   103         44
   104          3
   105          1
   106          0
   107          0
   120          0
   121          0
   134          0
   135          4
   136         71
   137          6
   138          6
   139          0
   140          0
   163          0
   205          4
   206         92
   207         14
   208          8
   209          1
   210          0