##TITLE=Library Entry 40389
##JCAMP-DX=Revision 4.10 
##DATA TYPE=MASS SPECTRUM
##SAMPLE DESCRIPTION=Exported from NIST MS Search
##NAMES=HP
##CAS NAME=Carbamic acid, dimethyl-, 1-naphthalenyl ester
##MOLFORM=C13H13NO2
##CAS REGISTRY NO=2619-00-3
##MP= -300
##BP= -300
##MW= 215
##$RETENTION INDEX=0
##$CONDENSED SPECTRUM=NO
##NPOINTS= 9
##XYDATA=(XY..XY) 1 
    15         70
    28         20
    39         20
    42         30
    51         10
    72        999
   115         90
   127         20
   215        100