##TITLE=Library Entry 79552
##JCAMP-DX=Revision 4.10 
##DATA TYPE=MASS SPECTRUM
##SAMPLE DESCRIPTION=Japan AIST/NIMC Database- Spectrum MS-IW-1884
##NAMES=HP
##CAS NAME=trans-N-(2-Penten-4-ynyl)benzamide
##MOLFORM=C12H11NO
##CAS REGISTRY NO=26195-97-1
##MP= -300
##BP= -300
##MW= 185
##$RETENTION INDEX=0
##$CONDENSED SPECTRUM=NO
##NPOINTS= 76
##XYDATA=(XY..XY) 1 
    26          1
    27          8
    28          9
    30          1
    37          2
    38          5
    39         28
    40          1
    41          1
    44          2
    49          2
    50         29
    51         92
    52         14
    53         18
    54          2
    61          1
    62          3
    63         10
    64          3
    65         15
    66          1
    73          2
    74          7
    75          7
    76         15
    77        446
    78         40
    79          9
    80        112
    81          7
    82          1
    83          1
    89          1
    90          1
    91          4
    92          2
   102          1
   103          2
   104          9
   105        999
   106         82
   107         14
   108         13
   109          1
   115          4
   116          1
   117          1
   121          1
   127          2
   128          5
   129          3
   130          1
   134          5
   139          2
   140          1
   141          6
   142          2
   143          2
   146         56
   147          5
   154          2
   155          1
   156         11
   157          5
   158          1
   160          5
   166          3
   167          3
   168          6
   169          1
   170          1
   184         44
   185        287
   186         38
   187          3