##TITLE=Library Entry 1597
##JCAMP-DX=Revision 4.10 
##DATA TYPE=MASS SPECTRUM
##SAMPLE DESCRIPTION=Japan AIST/NIMC Database- Spectrum MS-NW-6090
##NAMES=HP
##CAS NAME=16-Hexadecanoyl hydrazide
##MOLFORM=C16H34N2O
##CAS REGISTRY NO=2619-88-7
##MP= -300
##BP= -300
##MW= 270
##$RETENTION INDEX=0
##$CONDENSED SPECTRUM=NO
##NPOINTS= 109
##XYDATA=(XY..XY) 1 
    15          1
    26          1
    27         22
    28          9
    29         57
    30          4
    31         19
    32        999
    33         20
    39         13
    40          4
    41        114
    42         24
    43        175
    44          7
    45          3
    51          1
    53          7
    54          8
    55         97
    56         18
    57        179
    58         10
    59         33
    60          3
    65          1
    66          1
    67         16
    68          6
    69         49
    70         10
    71         89
    72          9
    73          3
    74        130
    75          7
    77          1
    79          3
    80          2
    81         20
    82          6
    83         38
    84          9
    85         53
    86          6
    87         19
    88          2
    91          1
    93          2
    94          1
    95         26
    96          6
    97         23
    98          9
    99         10
   100          1
   101          5
   105          1
   107          1
   108          1
   109         16
   110          5
   111          9
   112          3
   113          6
   114          2
   115          5
   121          2
   123          8
   124          3
   125          5
   126          1
   127          3
   128          2
   129          3
   135          1
   137          4
   138          2
   139          2
   141          2
   143          3
   149          1
   151          1
   152          1
   153          1
   155          1
   157          1
   165          1
   166          1
   171          1
   180          1
   185          1
   194          2
   199          1
   208          1
   212          1
   213          1
   221          3
   222          1
   227          2
   238          3
   239         70
   240         11
   241          3
   250          1
   255          3
   269          4
   270         21
   271          4