##TITLE=Library Entry 40513
##JCAMP-DX=Revision 4.10 
##DATA TYPE=MASS SPECTRUM
##SAMPLE DESCRIPTION=Japan AIST/NIMC Database- Spectrum MS-IW- 32
##NAMES=HP
##CAS NAME=N-.alpha.-Acetylglycinamide
##MOLFORM=C4H8N2O2
##CAS REGISTRY NO=2620-63-5
##MP= -300
##BP= -300
##MW= 116
##$RETENTION INDEX=0
##$CONDENSED SPECTRUM=NO
##NPOINTS= 45
##XYDATA=(XY..XY) 1 
    13          1
    14         11
    15         71
    16          8
    17          2
    18          9
    26          3
    27          9
    28        116
    29         33
    30        816
    31         98
    32         12
    38          1
    39          2
    40          6
    41         11
    42         65
    43        687
    44        136
    45         28
    46          3
    51          1
    52          1
    53          1
    54          7
    55          8
    56         36
    57         16
    58         49
    59          5
    71          3
    72        419
    73        999
    74         51
    75          5
    83          1
    87          1
    98          2
    99          4
   100          9
   101          4
   116          4
   117         11
   118          2