##TITLE=Library Entry 20426
##JCAMP-DX=Revision 4.10 
##DATA TYPE=MASS SPECTRUM
##SAMPLE DESCRIPTION=NIST Mass Spectrometry Data Center, 1990.
##NAMES=HP
##CAS NAME=4-Tridecanol
##MOLFORM=C13H28O
##CAS REGISTRY NO=26215-92-9
##MP= -300
##BP= -300
##MW= 200
##$RETENTION INDEX=1582
##$CONDENSED SPECTRUM=NO
##NPOINTS= 36
##XYDATA=(XY..XY) 1 
    27        154
    28         85
    29        247
    31         74
    39         90
    41        446
    42        105
    43        467
    44         66
    45         33
    53         33
    55        999
    56        113
    57        335
    58         57
    67         49
    69        342
    70         74
    71        128
    72        122
    73        789
    74         35
    81         45
    83        572
    84         60
    85         29
    86         37
    95         19
    97        251
    98         30
    99         15
   111         29
   155         21
   157        164
   158         20
   182         32