##TITLE=Library Entry 83116
##JCAMP-DX=Revision 4.10 
##DATA TYPE=MASS SPECTRUM
##SAMPLE DESCRIPTION=Chuck Anderson, Aldrich Chemical Co.
##NAMES=HP
##CAS NAME=Carbamic acid, methylphenyl-, ethyl ester
##MOLFORM=C10H13NO2
##CAS REGISTRY NO=2621-79-6
##MP= -300
##BP= -300
##MW= 179
##$RETENTION INDEX=0
##$CONDENSED SPECTRUM=NO
##NPOINTS= 65
##XYDATA=(XY..XY) 1 
    15         18
    26         12
    27        127
    28         37
    29        595
    30         48
    36          2
    37         10
    38         38
    39        168
    40         14
    41         15
    42         59
    43         13
    44         13
    45          4
    50         54
    51        209
    52         39
    53         14
    54          7
    55          5
    56          4
    58          9
    61          3
    62         11
    63         57
    64         51
    65         73
    66        115
    67          8
    74         14
    75         11
    76         16
    77        646
    78        131
    79        349
    80         26
    81          4
    86          5
    90         16
    91         64
    92         19
    93         23
    94         60
    95          4
   103         13
   104        123
   105         87
   106        999
   107        327
   108         25
   118         19
   119         28
   120        496
   121         41
   122          5
   134        135
   135         15
   150         15
   151         86
   152          7
   179        727
   180         79
   181          7