##TITLE=Library Entry 76635
##JCAMP-DX=Revision 4.10 
##DATA TYPE=MASS SPECTRUM
##SAMPLE DESCRIPTION=Exported from NIST MS Search
##NAMES=HP
##CAS NAME=Benzene, 1-chloro-4-(1-methylethyl)-
##MOLFORM=C9H11Cl
##CAS REGISTRY NO=2621-46-7
##MP= -300
##BP= -300
##MW= 154
##$RETENTION INDEX=1080
##$CONDENSED SPECTRUM=NO
##NPOINTS= 105
##XYDATA=(XY..XY) 1 
    14          1
    15          7
    17          1
    18          3
    26          3
    27         57
    28          5
    32          1
    37          6
    38         16
    39         83
    40          6
    41         90
    42          5
    47          1
    49          8
    50         86
    51        250
    52         30
    53         13
    54          1
    55          3
    56          3
    57         18
    58         32
    59          4
    60          2
    61         12
    62         23
    63         56
    64          7
    65         21
    66          2
    67          1
    68         14
    69         27
    70         10
    71          1
    72          2
    73         26
    74         43
    75        117
    76         48
    77        334
    78         55
    79         20
    80          1
    84          5
    85         14
    86         10
    87         14
    88          4
    89         33
    90          8
    91        109
    92          9
    93          1
    94          1
    96          1
    97          5
    98          5
    99         19
   100          5
   101         67
   102         86
   103        999
   104        144
   105         10
   108          1
   109          1
   110          2
   111         20
   112         27
   113         26
   114         13
   115         44
   116         11
   117         16
   118          4
   119        198
   120         24
   121          2
   123          4
   124          1
   125         69
   126          6
   127         22
   128          2
   136          8
   137         22
   138         39
   139        773
   140        100
   141        273
   142         69
   143          3
   149          2
   151          1
   152          3
   153         14
   154        720
   155         78
   156        235
   157         24
   158          1