##TITLE=Library Entry 38541
##JCAMP-DX=Revision 4.10 
##DATA TYPE=MASS SPECTRUM
##SAMPLE DESCRIPTION=NIST Mass Spectrometry Data Center, 1990.
##NAMES=HP
##CAS NAME=4-Tridecanone
##MOLFORM=C13H26O
##CAS REGISTRY NO=26215-90-7
##MP= -300
##BP= -300
##MW= 198
##$RETENTION INDEX=0
##$CONDENSED SPECTRUM=NO
##NPOINTS= 46
##XYDATA=(XY..XY) 1 
    14         12
    27        126
    28        127
    29        129
    32         30
    39        110
    41        478
    42        155
    43        807
    44         30
    45         12
    53         43
    55        269
    56         72
    57        282
    58        524
    59         26
    67         56
    68         28
    69         96
    70         26
    71        999
    72         47
    79         11
    81         77
    82         18
    83         36
    84         25
    85        189
    86        710
    87        238
    88         14
    95         87
    96         16
    97         14
    98         14
    99        188
   100         18
   110         31
   112          9
   113         33
   128         12
   137         13
   155        289
   156         31
   198         15