##TITLE=Library Entry 29488
##JCAMP-DX=Revision 4.10 
##DATA TYPE=MASS SPECTRUM
##SAMPLE DESCRIPTION=Finnigan MAT: Toxicological Library (LIBR-TX)
##NAMES=HP
##CAS NAME=Trifluomeprazine
##MOLFORM=C19H21F3N2S
##CAS REGISTRY NO=2622-37-9
##MP= -300
##BP= -300
##MW= 366
##$RETENTION INDEX=2250
##$CONDENSED SPECTRUM=NO
##NPOINTS= 16
##XYDATA=(XY..XY) 1 
    42         19
    44         18
    54          8
    58        999
    59         37
    69          9
    84         20
    86          9
   100         28
   248         19
   266         19
   280         10
   320         10
   321         10
   366         50
   367          9