##TITLE=Library Entry 49375
##JCAMP-DX=Revision 4.10 
##DATA TYPE=MASS SPECTRUM
##SAMPLE DESCRIPTION=A.A.Kutin, Moscow, Russia
##NAMES=HP
##CAS NAME=Pyridine, 2-(4-trifluoromethylbenzylthio)-
##MOLFORM=C13H10F3NS
##CAS REGISTRY NO=262296-78-6
##MP= -300
##BP= -300
##MW= 269
##$RETENTION INDEX=0
##$CONDENSED SPECTRUM=NO
##NPOINTS= 140
##XYDATA=(XY..XY) 1 
    36          1
    37         11
    38         47
    39        345
    40         24
    41          8
    43          5
    45        181
    46          7
    47         11
    48          1
    50         92
    51        271
    52        262
    53         32
    54          3
    55          1
    57         89
    58         19
    59         17
    60         11
    61          6
    62         31
    63         98
    64         32
    65         15
    66         19
    67         40
    69         74
    70         19
    71         11
    74         10
    75         40
    76         19
    77         33
    78        184
    79        999
    80        117
    81         36
    82         53
    83        164
    84         31
    85         14
    86          8
    87         17
    88         22
    89         90
    90         36
    91          7
    92         21
    93          9
    94          7
    95         24
    96         10
    97          2
    99         25
   100          6
   101          8
   107         29
   108         30
   109        414
   110        118
   111         17
   112          9
   113         25
   114         24
   115          3
   117          3
   118          6
   119        113
   120         24
   121         22
   122         16
   123         33
   124        354
   125         39
   126         25
   127         43
   128          4
   132          8
   133         10
   134         29
   135          3
   137          8
   138         20
   139         51
   140         55
   141          7
   145         22
   146         10
   154         10
   156          3
   157         10
   158         24
   159        334
   160         29
   165          2
   166         12
   167        199
   168         26
   169          2
   170          2
   171         11
   172          3
   183          1
   184          1
   185          4
   189         56
   190         11
   191          7
   198          5
   199         10
   200         12
   201          1
   202          2
   203          3
   215          1
   216         11
   217          4
   222          3
   223          5
   224          1
   234         11
   235         90
   236        498
   237         74
   238          5
   248          1
   250         64
   251         10
   252          3
   254         39
   255          4
   266          3
   267         10
   268         77
   269        670
   270        101
   271         35
   272          3