##TITLE=Library Entry 97730
##JCAMP-DX=Revision 4.10 
##DATA TYPE=MASS SPECTRUM
##SAMPLE DESCRIPTION=Japan AIST/NIMC Database- Spectrum MS-IW-4761
##NAMES=HP
##CAS NAME=Phosphine, tricyclohexyl-
##MOLFORM=C18H33P
##CAS REGISTRY NO=2622-14-2
##MP= -300
##BP= -300
##MW= 280
##$RETENTION INDEX=0
##$CONDENSED SPECTRUM=NO
##NPOINTS= 130
##XYDATA=(XY..XY) 1 
    26          1
    27         10
    28         10
    29         31
    35          8
    39         22
    40          2
    41        191
    42          8
    43         14
    45          3
    47          6
    48          2
    49         10
    51          1
    52          1
    53         30
    54         19
    55        339
    56         15
    57          9
    58          3
    59         13
    60          2
    61         24
    62          3
    63          3
    65          3
    66          5
    67         64
    68          6
    69          9
    71         15
    72          3
    73         45
    74         12
    75          9
    76          4
    77         14
    78          5
    79         47
    80         15
    81        204
    82        105
    83        343
    84         22
    85         15
    86          6
    87         41
    88         26
    89          7
    90          3
    93          2
    94          1
    95          6
    97          4
    99          8
   100          7
   101         11
   102          7
   103          2
   104          5
   109          2
   111          2
   113         17
   114         28
   115        237
   116        323
   117        999
   118         68
   119          3
   127          4
   128          9
   129         10
   130         16
   131          7
   132         61
   133         54
   134          3
   141          9
   142         14
   143         97
   144         14
   145          2
   148         22
   149         15
   155         13
   156         36
   157         34
   158          4
   159         19
   160          2
   164          2
   165          3
   169         18
   170          9
   171          3
   172          2
   173          4
   183         86
   184          9
   185          2
   196          6
   197         71
   198        797
   199        281
   200         29
   201          1
   213          6
   214         36
   215         30
   216          3
   223          3
   224          2
   225         87
   226         14
   229          2
   230          9
   231         10
   237         18
   238          4
   239          8
   251          9
   252          2
   265         24
   266          4
   279         40
   280        170
   281         31
   282          3