##TITLE=Library Entry 22074
##JCAMP-DX=Revision 4.10 
##DATA TYPE=MASS SPECTRUM
##SAMPLE DESCRIPTION=Div. of Experiment Therapeutics WRAIR, WRAMC, Washingto
n DC 20307
##NAMES=HP
##CAS NAME=2(1H)-Azocinone, 3,3-dichlorohexahydro-
##MOLFORM=C7H11Cl2NO
##CAS REGISTRY NO=26228-96-6
##MP= -300
##BP= -300
##MW= 195
##$RETENTION INDEX=0
##$CONDENSED SPECTRUM=NO
##NPOINTS= 120
##XYDATA=(XY..XY) 1 
    41        594
    42        203
    43        188
    44         39
    45          1
    46         16
    47         12
    48          4
    49         53
    50         18
    51         65
    52         22
    53         91
    54        125
    55        287
    56        999
    57         45
    58         12
    59          5
    60         13
    61        155
    62         23
    63         68
    64         11
    65         38
    66         12
    67         75
    68         37
    69        186
    70         42
    71        185
    72          5
    73         49
    74         14
    75        115
    76         29
    77         53
    78         18
    79         32
    80         56
    81        501
    82         54
    83         13
    84        116
    85         17
    86         13
    87         20
    88         17
    89         92
    90         62
    91         30
    92         19
    93          2
    94          5
    95          5
    96         87
    97         18
    98        100
    99        433
   100         29
   101         10
   102         14
   103         15
   104          8
   105          4
   106          3
   107          0
   109         44
   110         50
   111         31
   112         35
   113         10
   114         19
   115         15
   116         27
   117         37
   118         18
   119         11
   120          3
   122         20
   123          7
   124         34
   125          7
   126          5
   127          6
   128          1
   129          3
   130          5
   131          7
   132         67
   133          6
   134         20
   135          1
   137          0
   138          2
   139         10
   140          5
   141          6
   142          4
   143          1
   144          1
   150          2
   152          1
   158          0
   160         50
   161          4
   162         16
   163          1
   166          5
   167          1
   168          3
   178          1
   180          0
   193          1
   194          8
   195         73
   196         11
   197         24
   198          3
   199          0