##TITLE=Library Entry 90816
##JCAMP-DX=Revision 4.10 
##DATA TYPE=MASS SPECTRUM
##SAMPLE DESCRIPTION=AAFS Toxicology Section MS DB Committee, U. Alberta, Ca
nada
##NAMES=HP
##CAS NAME=Periciazine
##MOLFORM=C21H23N3OS
##CAS REGISTRY NO=2622-26-6
##MP= -300
##BP= -300
##MW= 365
##$RETENTION INDEX=3230
##$CONDENSED SPECTRUM=NO
##NPOINTS= 154
##XYDATA=(XY..XY) 1 
    40          5
    41         82
    42        214
    43        156
    44        299
    45         45
    46          4
    50         13
    51         29
    52          9
    53         27
    54         27
    55         83
    56        154
    57         69
    58         20
    59          8
    60         18
    61          4
    62          6
    63         15
    64          7
    65         18
    67         20
    68         32
    69         80
    70         98
    71        220
    72         27
    73         20
    74          6
    75         10
    76         10
    77         60
    78         17
    79         15
    80          9
    81         19
    82         41
    83         33
    84         34
    85         15
    86         14
    87         11
    88          5
    89         18
    90         11
    91         35
    92          5
    93          9
    94          9
    95         17
    96         45
    97         29
    98         26
    99         22
   100        110
   101         17
   102         13
   103         13
   104          9
   105         38
   107          6
   108         13
   109         10
   110         11
   111          7
   112         40
   113         26
   114        999
   115        103
   116         13
   117         29
   118         16
   119          6
   121          7
   122          8
   123          4
   124         12
   125          9
   126         38
   127         13
   128         71
   129         14
   130          6
   131          4
   133          9
   135          4
   136          5
   138          6
   139         10
   140         25
   141         23
   142        203
   143         19
   144          5
   145         21
   147          5
   149         19
   151         19
   153         14
   160          7
   163          4
   164         15
   165         13
   166          5
   169          4
   170          4
   173          6
   176          7
   177         28
   178         14
   179         42
   180          8
   182          5
   189          6
   190         18
   191         19
   192         14
   193          4
   194          4
   196         29
   197          4
   203         12
   204         16
   205         97
   206         18
   208          9
   210          7
   216          4
   218         13
   219          5
   220          9
   221         26
   222        174
   224         50
   225         14
   229          7
   231          6
   234          9
   236         43
   237         21
   239          6
   248         15
   249         29
   250         26
   251         19
   252          4
   263        116
   264         55
   266          4
   365        222
   366         55
   367         16