##TITLE=Library Entry 40557
##JCAMP-DX=Revision 4.10 
##DATA TYPE=MASS SPECTRUM
##SAMPLE DESCRIPTION=Japan AIST/NIMC Database- Spectrum MS-NW-1100
##NAMES=HP
##CAS NAME=2-Bromocaprylic acid
##MOLFORM=C8H15BrO2
##CAS REGISTRY NO=2623-82-7
##MP= -300
##BP= -300
##MW= 222
##$RETENTION INDEX=0
##$CONDENSED SPECTRUM=NO
##NPOINTS= 172
##XYDATA=(XY..XY) 1 
    12          2
    14         16
    15         26
    16         10
    17          2
    18          7
    25          1
    26         43
    27        548
    28         74
    29        620
    30         17
    31         33
    32          3
    36          7
    37          7
    38         20
    39        387
    40         75
    41        979
    42        320
    43        769
    44        140
    45        117
    46          4
    47          8
    48          1
    49          2
    50         13
    51         32
    52         15
    53        108
    54         58
    55        718
    56        157
    57        207
    58         50
    59         48
    60        229
    61         30
    62          6
    63          7
    64          2
    65         16
    66         10
    67        144
    68         55
    69        139
    70        188
    71         88
    72         12
    73        999
    74         56
    75         16
    76          4
    77         14
    78          5
    79         23
    80         56
    81         77
    82        134
    83        153
    84         64
    85        196
    86         55
    87         75
    88         27
    89          4
    91          7
    92          2
    93          7
    94         71
    95         63
    96         56
    97        177
    98         66
    99        192
   100         43
   101        343
   102         24
   103          6
   104          2
   105          4
   106         13
   107         20
   108         13
   109         14
   110          3
   111          6
   112          3
   113         70
   114         14
   115        222
   116         23
   117          5
   118          2
   119          9
   120         14
   121         12
   122         13
   123          8
   124         36
   125         94
   126         13
   127         15
   128          5
   129          6
   130          1
   131          5
   132          2
   133         11
   134          2
   135         15
   136          2
   137          9
   138        771
   139         23
   140        772
   141         20
   142         21
   143        319
   144         30
   145          5
   146          1
   147          8
   148          1
   149         22
   150          2
   151         68
   152          4
   153         69
   154          4
   155          3
   157          2
   158          3
   161          2
   162          3
   163          2
   164          3
   165         11
   166          1
   167         10
   168          2
   170          3
   172          4
   173          7
   175          8
   176          1
   177          5
   178          1
   179         16
   180         13
   181         14
   182         11
   185          1
   190          4
   191          1
   192          3
   193        146
   194         10
   195        145
   196         10
   197          1
   205          2
   207          9
   208          1
   209          5
   210          1
   222         10
   223          2
   224          9
   225          1