##TITLE=Library Entry 5200
##JCAMP-DX=Revision 4.10 
##DATA TYPE=MASS SPECTRUM
##SAMPLE DESCRIPTION=Japan AIST/NIMC Database- Spectrum MS-NW-1926
##NAMES=HP
##CAS NAME=N-(2-Acetamido)iminodiacetic acid
##MOLFORM=C6H10N2O5
##CAS REGISTRY NO=26239-55-4
##MP= -300
##BP= -300
##MW= 190
##$RETENTION INDEX=0
##$CONDENSED SPECTRUM=NO
##NPOINTS= 150
##XYDATA=(XY..XY) 1 
     8          1
     9          1
    12          8
    13          6
    14         29
    15        103
    16         20
    17         33
    18        132
    20          2
    25          3
    26         22
    27         66
    28        142
    29         29
    30         90
    31         31
    32          2
    34          1
    35          2
    36         11
    37          1
    38          9
    39         21
    40         65
    41        171
    42        999
    43         98
    44        389
    45         47
    46          3
    50          5
    51          5
    52          8
    53          8
    54         25
    55         33
    56        123
    57         60
    58         28
    59         36
    60         41
    61          2
    64          1
    65          2
    66          4
    67         11
    68         11
    69         30
    70         27
    71        133
    72         15
    73         13
    74          6
    75          1
    76          1
    77          2
    78          2
    79          3
    80          3
    81          9
    82         10
    83         10
    84         17
    85         17
    86          9
    87          5
    88         71
    89          4
    91          3
    92          1
    93          4
    94          3
    95          7
    96          5
    97          8
    98         15
    99         78
   100         41
   101        145
   102         23
   103          2
   104          9
   105          2
   106          1
   107          3
   108          2
   109          4
   110          5
   111          5
   112          9
   113         35
   114          8
   115          4
   116          1
   117          2
   118          3
   119          6
   120          1
   121          2
   122          1
   123          2
   124          4
   125          3
   126         43
   127        603
   128        119
   129          9
   130          2
   131          7
   132          2
   133          2
   134          1
   135          2
   136          2
   137          2
   138          2
   139          2
   140          4
   141          4
   142          1
   143          4
   144          9
   145          9
   146         31
   147          3
   148          1
   149          2
   150          1
   151          2
   152          2
   153          1
   154          2
   155          2
   156          1
   157          2
   158          1
   162          1
   163          1
   164          1
   165          1
   166          2
   167          1
   168          1
   169          2
   171          4
   172         87
   173         11
   174          2
   190          1