##TITLE=Library Entry 86481
##JCAMP-DX=Revision 4.10 
##DATA TYPE=MASS SPECTRUM
##SAMPLE DESCRIPTION=Japan AIST/NIMC Database- Spectrum MS-NW-4224
##NAMES=HP
##CAS NAME=Diacetamate
##MOLFORM=C10H11NO3
##CAS REGISTRY NO=2623-33-8
##MP= -300
##BP= -300
##MW= 193
##$RETENTION INDEX=1765
##$CONDENSED SPECTRUM=NO
##NPOINTS= 80
##XYDATA=(XY..XY) 1 
    13          1
    14          9
    15         52
    16          3
    17          2
    18          7
    26          8
    27         12
    28          6
    29          5
    30          1
    31          3
    37          3
    38          9
    39         17
    40          3
    41          5
    42         19
    43        333
    44          9
    45          1
    49          1
    50          9
    51         16
    52         48
    53         55
    54         10
    55          5
    61          3
    62          6
    63         16
    64          9
    65         15
    66          3
    67          1
    68          2
    74          3
    75          2
    76          3
    77          7
    78          7
    79         11
    80         77
    81         45
    82          6
    89          1
    90          2
    91          6
    92          4
    93          3
    94          2
   102          5
   103          4
   104          9
   105          9
   106          2
   107          8
   108        105
   109        999
   110         80
   111          5
   120          3
   121          1
   122          6
   128          2
   129         11
   130          1
   132          7
   133          4
   134          4
   135          8
   149          1
   150         15
   151        499
   152         48
   153          4
   178          3
   193         78
   194          8
   195          1