##TITLE=Library Entry 20701
##JCAMP-DX=Revision 4.10 
##DATA TYPE=MASS SPECTRUM
##SAMPLE DESCRIPTION=CARL DJERASSI DEPT OF CHEM STANFORD UNIV STANFORD CALIF
 94305
##NAMES=HP
##CAS NAME=2-Pentene, 4,4-dimethyl-
##MOLFORM=C7H14
##CAS REGISTRY NO=26232-98-4
##MP= -300
##BP= -300
##MW= 98
##$RETENTION INDEX=640
##$CONDENSED SPECTRUM=NO
##NPOINTS= 27
##XYDATA=(XY..XY) 1 
    41        580
    42         50
    43        190
    44         10
    50         20
    51         50
    52         20
    53         80
    54         10
    55        999
    56        100
    57         60
    62         10
    65         40
    66         20
    67        100
    68         20
    69         90
    70         50
    77         10
    79         10
    81         20
    82         10
    83        900
    84         70
    98        240
    99         20