##TITLE=Library Entry 11723
##JCAMP-DX=Revision 4.10 
##DATA TYPE=MASS SPECTRUM
##SAMPLE DESCRIPTION=MYCOTOXINS MASS SPECTRAL DATA BANK, L.R. DUSOLD ET AL,
 FDA, USA
##NAMES=HP
##CAS NAME=Desacetylanguidine
##MOLFORM=C17H24O6
##CAS REGISTRY NO=2623-22-5
##MP= -300
##BP= -300
##MW= 324
##$RETENTION INDEX=2317
##$CONDENSED SPECTRUM=NO
##NPOINTS= 177
##XYDATA=(XY..XY) 1 
    38         10
    39        165
    41        297
    42         19
    43        999
    45         10
    50         10
    51         46
    52         19
    53        388
    54         87
    55        594
    56         64
    57         74
    58         23
    59         14
    60         28
    61         14
    62         10
    63         19
    64         10
    65        105
    66         23
    67        142
    68         23
    69         83
    70         14
    71         42
    72         10
    73         28
    74         14
    75         10
    76         10
    77        238
    78         60
    79        279
    80         51
    81        215
    82         51
    83        101
    84         83
    85         32
    86         10
    87         10
    89         14
    90         10
    91        584
    92        128
    93        302
    94         87
    95        270
    96        101
    97         87
    98         14
   103         37
   104         19
   105        484
   106        384
   107        242
   108         60
   109        233
   110         55
   111         83
   112         14
   113         78
   114         10
   115         64
   116         28
   117         96
   118         19
   119        142
   120         37
   121        201
   122        238
   123        288
   124        771
   125        251
   126         28
   127         23
   128         55
   129         96
   130         37
   131        119
   132         28
   133         87
   134         19
   135         51
   136         19
   137         69
   138         10
   139         37
   140         19
   141         55
   142         55
   143        105
   144         51
   145        133
   146         32
   147         87
   148         14
   149         51
   150         14
   151         23
   152         14
   153         19
   154         14
   155         23
   156         23
   157        101
   158         42
   159        311
   160         60
   161        101
   162         28
   163         74
   164         37
   165         23
   166         14
   167         14
   168          5
   169        110
   170         19
   171         55
   172         51
   173         92
   174         32
   175        115
   176         37
   177        174
   178         28
   179         14
   180         10
   181         14
   182         10
   183         10
   185         28
   186         14
   187        229
   188         46
   189         92
   190         19
   191         55
   192         32
   193         19
   197         46
   198          5
   199         19
   200         46
   201         19
   202         37
   203         74
   205        470
   206         74
   207         10
   213         10
   215         23
   216          5
   217         14
   218         28
   219         10
   221          5
   223         28
   229          5
   233         14
   235         10
   236         19
   246          5
   247         37
   248          5
   249         10
   251         23
   253          1
   264        147
   265         55
   266          1
   281         10
   306          1