##TITLE=Library Entry 30848
##JCAMP-DX=Revision 4.10 
##DATA TYPE=MASS SPECTRUM
##SAMPLE DESCRIPTION=Japan AIST/NIMC Database- Spectrum MS-NW-9336
##NAMES=HP
##CAS NAME=4-Bromobutyric acid
##MOLFORM=C4H7BrO2
##CAS REGISTRY NO=2623-87-2
##MP= -300
##BP= -300
##MW= 166
##$RETENTION INDEX=0
##$CONDENSED SPECTRUM=NO
##NPOINTS= 75
##XYDATA=(XY..XY) 1 
    13          1
    14         10
    15         51
    16          1
    17          1
    18          3
    25          3
    26         33
    27        148
    28        231
    29        108
    30          5
    31         18
    32          1
    34          1
    35          1
    36          1
    37          7
    38         14
    39         85
    40         28
    41        215
    42        254
    43        337
    44         13
    45        172
    46          3
    53          4
    54          2
    55         31
    56         72
    57         20
    58         99
    59          9
    60        999
    61         22
    62          4
    68          5
    69         11
    71          2
    73          7
    79         14
    80         45
    81         15
    82         44
    85         32
    86         82
    87        174
    88          8
    89          1
    93          9
    94          1
    95          9
    96          1
    99          7
   100          1
   105          1
   106          2
   107          8
   108          2
   109          7
   119          1
   121          4
   122          1
   123          3
   127          1
   128          2
   148          4
   149          6
   150          4
   151          6
   166          1
   167          2
   168          1
   169          2