##TITLE=Library Entry 27739
##JCAMP-DX=Revision 4.10 
##DATA TYPE=MASS SPECTRUM
##SAMPLE DESCRIPTION=H. Fales, LC, NHLBI, NIH, Bethesda, MD 20892
##NAMES=HP
##CAS NAME=Butanoic acid, 2-amino-, (R)-
##MOLFORM=C4H9NO2
##CAS REGISTRY NO=2623-91-8
##MP= -300
##BP= -300
##MW= 103
##$RETENTION INDEX=0
##$CONDENSED SPECTRUM=NO
##NPOINTS= 34
##XYDATA=(XY..XY) 1 
    41        262
    42         99
    43        124
    44         44
    45        167
    46         73
    47         31
    52          4
    53          4
    54         25
    55         79
    56         82
    58        999
    59         34
    60         26
    67         18
    68         14
    69         37
    70         10
    71         20
    73         14
    74        182
    77          1
    81         17
    82         16
    83         15
    85         13
    86         84
    88         12
   101          4
   102         10
   103         18
   104          4
   105          1