##TITLE=Library Entry 25116
##JCAMP-DX=Revision 4.10 
##DATA TYPE=MASS SPECTRUM
##SAMPLE DESCRIPTION=ESSO RESEARCH & ENGINEERING CO., LINDEN, NEW JERSEY, US
A
##NAMES=HP
##CAS NAME=1,3-Dioxane, 2-ethenyl-4,6-dimethyl-, (2.alpha.,4.alpha.,6.alpha.
)-
##MOLFORM=C8H14O2
##CAS REGISTRY NO=26243-72-1
##MP= -300
##BP= -300
##MW= 142
##$RETENTION INDEX=0
##$CONDENSED SPECTRUM=NO
##NPOINTS= 57
##XYDATA=(XY..XY) 1 
    26         81
    27        417
    28          9
    29        227
    30          7
    31         51
    32          1
    37          8
    38         24
    39        226
    40         51
    41        383
    42        421
    43        476
    44         41
    45        271
    46          6
    48          2
    50          2
    51          4
    53         18
    54          9
    55        330
    56        392
    57        999
    58         42
    59          4
    65          2
    66          2
    67         13
    68         11
    69        537
    70         41
    71         67
    72          4
    73         29
    74         62
    75          2
    80          8
    81          2
    82          3
    83         10
    84          3
    85         12
    86          3
    87         16
    97          2
    98         42
    99         35
   100         61
   101         11
   115        164
   116         11
   127          9
   141         75
   142         15
   143          1