##TITLE=Library Entry 114490
##JCAMP-DX=Revision 4.10 
##DATA TYPE=MASS SPECTRUM
##SAMPLE DESCRIPTION=John Halket,Royal Holloway, University of London, UK
##NAMES=HP
##CAS NAME=.beta.-Sitosterol, TMS derivative
##MOLFORM=C32H58OSi
##CAS REGISTRY NO=2625-46-9
##MP= -300
##BP= -300
##MW= 486
##$RETENTION INDEX=3344
##$CONDENSED SPECTRUM=NO
##NPOINTS= 294
##XYDATA=(XY..XY) 1 
    27         20
    29         47
    39         19
    41        218
    42         47
    43        637
    44         26
    45         36
    47         14
    51          3
    53         26
    55        335
    56         42
    57        426
    58         23
    59         25
    60          8
    61         28
    62          2
    65         14
    67        151
    68         28
    69        234
    70         24
    71        186
    73        642
    74         64
    75        414
    76         31
    77         66
    78         17
    79        173
    80         24
    81        284
    82         26
    83        109
    84         16
    85        194
    86         15
    87          5
    88          2
    89         18
    91        215
    92         45
    93        206
    94         47
    95        312
    96         25
    97         90
    98          9
    99         37
   100          5
   101         33
   102          5
   103         28
   104         19
   105        270
   106         64
   107        265
   108         51
   109        163
   110         25
   111         70
   112          6
   113         18
   115         46
   116         28
   117        105
   118         42
   119        283
   120        155
   121        244
   122         37
   123         75
   124         10
   125         30
   126          4
   127         14
   129        999
   130        157
   131        189
   132         58
   133        198
   134         51
   135        113
   136         25
   137         38
   138          7
   139         15
   141         25
   142         26
   143        144
   144         53
   145        257
   146         73
   147        154
   148         48
   149         76
   150         13
   151         25
   152          6
   153         10
   154          7
   155         65
   156         24
   157         76
   158         46
   159        198
   160        111
   161        148
   162         36
   163         99
   164         16
   165         23
   166          5
   167         11
   168         12
   169         32
   170         12
   171         50
   172         21
   173        123
   174         40
   175         60
   176         10
   177         48
   178         12
   179         22
   180          7
   181         26
   182         16
   183         23
   184          9
   185         47
   186         18
   187         37
   188         13
   189         48
   190          9
   191         26
   192          6
   193         16
   194          7
   195         17
   196         22
   197         32
   198         10
   199         54
   200         20
   201         44
   202          9
   203         57
   204         10
   205         18
   207         16
   208          7
   209          8
   210          4
   211         11
   212          7
   213        105
   214         38
   215         71
   216         19
   217         73
   218         11
   219         18
   220          5
   221         20
   222          6
   223          5
   225          7
   226          5
   227         25
   228         24
   229         34
   230          7
   231         16
   232          5
   233         18
   234         13
   235         19
   236          4
   237          3
   238          2
   239         15
   240          5
   241         21
   242          7
   243          8
   244          5
   245         28
   246          7
   247         27
   248          8
   249          7
   250          8
   251          4
   253         19
   254         11
   255        154
   256         38
   257         10
   258          2
   259         28
   260          7
   261         33
   262          7
   263          3
   267          5
   268          2
   269          8
   270          2
   271          5
   272          2
   273         23
   274         23
   275        118
   276         28
   277          5
   283         20
   284          7
   285          6
   287         27
   288         16
   289         15
   290          4
   296          3
   297          7
   299          5
   301         13
   302         30
   303         62
   304         14
   311          5
   313          6
   314          8
   315         13
   316          5
   325          5
   326          2
   327          8
   328         10
   329         56
   330         18
   339         14
   340          5
   341         12
   342         12
   343         10
   344          7
   345          9
   346          4
   353         15
   354         50
   355         57
   356        231
   357        907
   358        245
   359         34
   360          4
   367         22
   368         35
   369         10
   370          5
   371          4
   379          3
   381        370
   382        109
   383         19
   386          5
   387          4
   394          4
   396        880
   397        282
   398         44
   399          6
   429          3
   444          7
   445          3
   453          4
   457          7
   458          9
   469          4
   470         54
   471        161
   472         62
   473         15
   474          4
   484          7
   486        477
   487        189
   488         54
   489         10