##TITLE=Library Entry 17422
##JCAMP-DX=Revision 4.10 
##DATA TYPE=MASS SPECTRUM
##SAMPLE DESCRIPTION=Japan AIST/NIMC Database- Spectrum MS-NW-9098
##NAMES=HP
##CAS NAME=3,6,9,12-Tetraoxatetradecan-1-ol, 14-(nonylphenoxy)-
##MOLFORM=C25H44O6
##CAS REGISTRY NO=26264-02-8
##MP= -300
##BP= -300
##MW= 440
##$RETENTION INDEX=0
##$CONDENSED SPECTRUM=NO
##NPOINTS= 323
##XYDATA=(XY..XY) 1 
    15          4
    17          3
    18         15
    19         12
    26          2
    27         25
    28         20
    29         44
    30          3
    31         19
    32          1
    39         10
    40          1
    41         78
    42          8
    43        147
    44         17
    45        999
    46         22
    47          2
    50          1
    51          3
    52          2
    53          7
    54          1
    55         61
    56          6
    57        114
    58          9
    59         29
    60          2
    61          2
    63          2
    64          1
    65          9
    66          3
    67         27
    68          1
    69         39
    70          5
    71        109
    72          9
    73         15
    74          8
    75          6
    76          2
    77         30
    78         14
    79         17
    80          4
    81         15
    82          1
    83         14
    84          2
    85         46
    86          4
    87        130
    88          9
    89        650
    90         48
    91        101
    92         14
    93         11
    94          5
    95         18
    96         21
    97         11
    98          1
    99          2
   101          2
   102          4
   103         55
   104         18
   105         52
   106         23
   107        170
   108         13
   109          5
   110          5
   111          6
   113          2
   115         24
   116          9
   117         29
   118         29
   119         72
   120         36
   121        171
   122         16
   123          5
   124          1
   125          6
   126          1
   127         16
   128          8
   129          9
   130          4
   131         38
   132         13
   133        433
   134         90
   135        347
   136         35
   137          6
   138          1
   139          2
   140          1
   141          3
   142          1
   143          4
   144          2
   145         14
   146          9
   147        138
   148         41
   149        109
   150         12
   151         10
   152          1
   153          5
   154          1
   157          2
   158          2
   159         13
   160          8
   161        191
   162         31
   163         43
   164          6
   165         17
   166          2
   167         12
   168          1
   171          1
   172          1
   173         10
   174          4
   175         90
   176         14
   177        111
   178         13
   179         26
   180          3
   181          5
   182          1
   183          7
   184          1
   185          1
   187         10
   188          2
   189         30
   190          7
   191         37
   192          7
   193         19
   194          3
   195         13
   196          2
   197          5
   198          1
   199          1
   201          6
   202          1
   203         19
   204          5
   205         51
   206          9
   207         10
   208          2
   209         60
   210          9
   211         10
   212          1
   215          3
   216          1
   217         22
   218          5
   219         33
   220          9
   221         16
   222          4
   223        297
   224         43
   225          8
   226          1
   227          9
   228          1
   229          1
   231          7
   232          2
   233         13
   234          3
   235         11
   236          3
   237        124
   238         19
   239         11
   240          2
   241          1
   243          1
   245          4
   246         11
   247         15
   248          3
   249         11
   250          3
   251         52
   252          9
   253         81
   254         13
   255          5
   259          4
   260          2
   261         12
   262          3
   263          6
   264          6
   265         37
   266          9
   267        605
   268        101
   269         14
   270          1
   271          7
   272          1
   273          1
   275          4
   276          1
   277          4
   278          2
   279         48
   280          9
   281        247
   282         45
   283          7
   284          1
   289          1
   290          1
   291          4
   292          1
   293         13
   294          7
   295        110
   296         21
   297         49
   298          9
   299          2
   303          1
   305          2
   306          2
   307          4
   308         52
   309         89
   310         18
   311        571
   312        108
   313         15
   314          2
   315          1
   321          3
   322          9
   323        108
   324         23
   325        225
   326         45
   327          7
   328          1
   334          1
   335          2
   336          1
   337         21
   338         12
   339        106
   340         23
   341         10
   342          2
   349          2
   350          3
   351          4
   352        117
   353        105
   354         22
   355        120
   356         25
   357          4
   364          2
   365          3
   366         18
   367        114
   368         26
   369         47
   370         10
   371          2
   378          1
   379          1
   380          2
   381         16
   382         14
   383         24
   384          6
   385          2
   393          1
   394          3
   395          2
   396        123
   397         49
   398          9
   399         11
   400          3
   408          1
   409          1
   410         14
   411         26
   412          6
   413          5
   414          1
   424          1
   425          3
   426          4
   427          3
   440         30
   441         10
   442          2