##TITLE=Library Entry 47273
##JCAMP-DX=Revision 4.10 
##DATA TYPE=MASS SPECTRUM
##SAMPLE DESCRIPTION=A.A.Kutin, Moscow, Russia
##NAMES=HP
##CAS NAME=4H-Furazano[3,4-b][1,4]-diazepine, 5,7-diphenyl-
##MOLFORM=C17H12N4O
##CAS REGISTRY NO=26261-74-5
##MP= -300
##BP= -300
##MW= 288
##$RETENTION INDEX=0
##$CONDENSED SPECTRUM=NO
##NPOINTS= 227
##XYDATA=(XY..XY) 1 
    33          2
    34          1
    35          7
    36         10
    37         12
    38         38
    39        152
    40         24
    41         23
    42         13
    43         15
    44         22
    45          6
    46          0
    48          3
    50        233
    51        580
    52        125
    53         61
    54          6
    55          9
    56          3
    57          7
    58          4
    60          4
    61         11
    62         51
    63        132
    64         34
    65         30
    66          8
    67         13
    68          5
    69         11
    71          3
    72          0
    74         88
    75        127
    76        292
    77        999
    78        104
    79         15
    80         11
    81         11
    82         27
    83          9
    85          7
    86         13
    87         31
    88         35
    89         49
    90         15
    91         23
    92          7
    93          7
    94          8
    95          8
    96          4
    97          5
    98         10
    99         15
   100         25
   101         68
   102        255
   103        449
   104        222
   105         59
   106          5
   107          4
   108          5
   109          4
   110          4
   111          6
   112          5
   113         14
   114         17
   115         28
   116         11
   117          4
   118          1
   119          3
   120          2
   121          2
   122          2
   123          8
   124          3
   125          6
   126         35
   127         45
   128        139
   129        588
   130         56
   131          4
   132          1
   133          1
   134          3
   135         11
   136          2
   137          5
   138          4
   139         12
   140         13
   141          4
   142          2
   143          1
   144          3
   145          6
   146          1
   147          1
   149          4
   150         10
   151         12
   152         14
   153         43
   154         13
   155         19
   156         39
   157          4
   158          0
   159          0
   160          0
   161          1
   162          3
   163         13
   164         10
   165         19
   166          5
   167          2
   168          1
   169          1
   171          2
   172          0
   173          0
   174          2
   175          6
   176         16
   177         16
   178         17
   179          7
   180         23
   181          4
   182          1
   183          3
   185         15
   186          2
   187          7
   188         10
   189         40
   190         26
   191         18
   192          3
   193          1
   194          0
   195          1
   196          0
   197          0
   198          0
   199          1
   200          1
   201          5
   202          7
   203         19
   204         40
   205         14
   206          7
   207          1
   208          0
   209          0
   210          4
   211          2
   212          0
   213          2
   214         17
   215         10
   216         37
   217         18
   218          3
   219          1
   220          0
   221          0
   223          0
   224          1
   225          0
   226          0
   227          1
   228          2
   229         15
   231        174
   232         40
   233          5
   234          0
   235          0
   236          0
   238          2
   239          1
   240          3
   241          2
   242          1
   243          1
   244          0
   246          3
   247          4
   248         20
   249          3
   250          0
   254          2
   255          3
   256         15
   257         15
   258        149
   259         28
   260          3
   261          0
   270          0
   271          0
   272          0
   273          0
   275          1
   280          0
   283          0
   284          1
   285          4
   287         11
   288        185
   289         34
   290          4
   291          0