##TITLE=Library Entry 35416
##JCAMP-DX=Revision 4.10 
##DATA TYPE=MASS SPECTRUM
##SAMPLE DESCRIPTION=Chemical Concepts
##NAMES=HP
##CAS NAME=Tetracosapentaene, 2,6,10,15,19,23-hexamethyl-
##MOLFORM=C30H52
##CAS REGISTRY NO=26266-08-0
##MP= -300
##BP= -300
##MW= 412
##$RETENTION INDEX=0
##$CONDENSED SPECTRUM=NO
##NPOINTS= 237
##XYDATA=(XY..XY) 1 
    25          2
    26          1
    27         26
    28          3
    29         66
    30          1
    37          2
    38          1
    39         34
    40         16
    41        399
    42         26
    43        179
    44          7
    45          1
    48          3
    50          1
    51          4
    52          3
    53         76
    54         13
    55        370
    56         32
    57        196
    58         14
    59          1
    60          1
    63          1
    65         16
    66         13
    67        170
    68        245
    69        999
    70         78
    71         72
    72          5
    73          1
    74          1
    75          1
    77         41
    78         11
    79        117
    80         64
    81        832
    82        175
    83        591
    84         45
    85         21
    86          1
    89          1
    91         52
    92         50
    93        199
    94        176
    95        481
    96         63
    97        134
    98         15
    99          5
   101          1
   102          1
   103          4
   104          2
   105         51
   106         31
   107        149
   108         73
   109        249
   110         47
   111         70
   112          8
   113         10
   114          1
   115          3
   116          1
   117          5
   118          3
   119         67
   120         30
   121        216
   122         71
   123        280
   124         55
   125         76
   126         13
   127          4
   128          1
   129          2
   130          1
   131          6
   132          4
   133         46
   134         54
   135        182
   136        271
   137        419
   138         92
   139         45
   140          6
   141          2
   142          1
   143          2
   144          1
   145         11
   146          5
   147         71
   148         36
   149        226
   150         76
   151         59
   152         24
   153          5
   154          1
   155          1
   157          1
   159          9
   160          5
   161         67
   162         30
   163         91
   164         29
   165         27
   166          7
   167          2
   171          1
   173         10
   174          3
   175         66
   176         26
   177         70
   178         24
   179         37
   180         10
   181          4
   187          7
   188          3
   189         62
   190         28
   191         91
   192         81
   193         61
   194         19
   195          3
   196          0
   197          1
   201         10
   202          5
   203         54
   204         30
   205        113
   206         42
   207         53
   208          8
   209          1
   215          8
   216          6
   217         52
   218         42
   219         29
   220         56
   221         14
   222          2
   229         11
   230          6
   231         56
   232         17
   233         30
   234          7
   235          3
   236          0
   243          9
   244          3
   245          9
   246          4
   247          7
   248          2
   249          1
   257          8
   258          3
   259         20
   260         12
   261         14
   262          8
   263          2
   270          1
   271          7
   272          5
   273         32
   274         25
   275         25
   276          8
   277          1
   285          3
   286         31
   287         18
   288          9
   289          4
   290          0
   299         29
   300          8
   301         29
   302          8
   303          4
   304          0
   310          0
   313          2
   314          1
   315          3
   316          4
   317          1
   320          1
   327         22
   328         13
   329         18
   330         25
   331          7
   332          1
   341          7
   342          5
   343         84
   344         24
   345          3
   355          5
   356          3
   357          1
   361          0
   369         32
   370          9
   371          1
   383          1
   384          1
   397          7
   398          1
   411          1
   412         89
   413         29
   414          5