##TITLE=Library Entry 107874
##JCAMP-DX=Revision 4.10 
##DATA TYPE=MASS SPECTRUM
##SAMPLE DESCRIPTION=A.A.Kutin, Moscow, Russia
##NAMES=HP
##CAS NAME=Benzoic acid, 2,2,6,6-tetramethyl-4-piperidinyl ester
##MOLFORM=C16H23NO2
##CAS REGISTRY NO=26275-88-7
##MP= -300
##BP= -300
##MW= 261
##$RETENTION INDEX=0
##$CONDENSED SPECTRUM=NO
##NPOINTS= 77
##XYDATA=(XY..XY) 1 
    33          3
    34          0
    39         24
    41         78
    42         96
    43         15
    44         11
    45          1
    46          0
    49          0
    50         14
    51         46
    53         13
    55         53
    56         23
    58        203
    59          3
    62          0
    63          0
    65          6
    67         18
    68          6
    69          3
    70          9
    71          4
    72          4
    74          3
    75          3
    77        169
    79         19
    80          3
    81         10
    82         29
    83         19
    84          8
    85          2
    86          3
    87          0
    91          8
    92          1
    93          5
    94          7
    95          5
    96         10
    98         19
    99         20
   100          3
   105        128
   107         47
   108         21
   109          7
   110          9
   112          9
   113          0
   116          0
   119          0
   120          0
   122         12
   124        999
   125         62
   126          3
   127          0
   136          0
   138          5
   140         40
   141          3
   142          0
   156          1
   157          0
   162          0
   202          0
   246         71
   247         11
   248          0
   260          0
   261          5
   262          1