##TITLE=Library Entry 61467
##JCAMP-DX=Revision 4.10 
##DATA TYPE=MASS SPECTRUM
##SAMPLE DESCRIPTION=NIST Mass Spectrometry Data Center, 1994
##NAMES=HP
##CAS NAME=Benzene, (3-isothiocyanatopropyl)-
##MOLFORM=C10H11NS
##CAS REGISTRY NO=2627-27-2
##MP= -300
##BP= -300
##MW= 177
##$RETENTION INDEX=1580
##$CONDENSED SPECTRUM=NO
##NPOINTS= 84
##XYDATA=(XY..XY) 1 
     4          1
    14          4
    15         10
    26         21
    27        133
    28         64
    29          5
    30          5
    32         22
    37          7
    38         32
    39        280
    40         34
    41        150
    42          9
    44         20
    45         44
    46          4
    47          4
    50         89
    51        221
    52         58
    53         22
    54          5
    58         33
    59         49
    60         31
    61         12
    62         36
    63        125
    64         34
    65        339
    66         22
    67          4
    68          4
    70          9
    72        161
    73         30
    74         34
    75         28
    76         26
    77        202
    78         95
    79        105
    80          8
    84          5
    85         10
    86         55
    87         11
    88          5
    89         69
    90          5
    91        999
    92        230
    93         14
    98          7
    99          7
   100          7
   101          5
   102         20
   103         96
   104         43
   105         86
   106         17
   110          3
   115         94
   117        889
   118        307
   119         24
   121          7
   134         26
   135          5
   136          4
   143         10
   144         45
   145          6
   147          5
   148          8
   149          7
   176        135
   177        604
   178         78
   179         33
   180          3