##TITLE=Library Entry 70
##JCAMP-DX=Revision 4.10 
##DATA TYPE=MASS SPECTRUM
##SAMPLE DESCRIPTION=Chemical Concepts
##NAMES=HP
##CAS NAME=4-Hydroxyadamantan-2-one
##MOLFORM=C10H14O2
##CAS REGISTRY NO=26278-43-3
##MP= -300
##BP= -300
##MW= 166
##$RETENTION INDEX=0
##$CONDENSED SPECTRUM=NO
##NPOINTS= 102
##XYDATA=(XY..XY) 1 
    26         86
    27        999
    28        143
    29        610
    30         25
    31        236
    35          6
    36         10
    37         18
    38         70
    39        925
    40        171
    41        798
    42        164
    43        254
    44         42
    45         16
    47          6
    49          8
    50         87
    51        234
    52        122
    53        400
    54        156
    55        590
    56         59
    57        300
    58         25
    59          9
    60          8
    61          7
    62         19
    63         65
    64         17
    65        164
    66        187
    67        318
    68        109
    69        102
    70        194
    71         87
    72         11
    73         28
    74         15
    75         20
    77        327
    78        357
    79        866
    80        257
    81        308
    82         60
    83        116
    84         25
    85          6
    86         13
    87          7
    88          2
    89         11
    90          5
    91        246
    92        162
    93         96
    94         95
    95        218
    96        666
    97        115
    98         13
    99          5
   102          5
   103         16
   104         18
   105         74
   106         29
   107         45
   108         14
   109        118
   110         37
   111          6
   115         13
   116          7
   117         17
   118          8
   119         30
   120         61
   121         23
   122          5
   123         22
   124         12
   125          9
   129         12
   130         12
   131         36
   132          7
   133         10
   137         17
   138        303
   139         31
   147          4
   148         63
   149         10
   166        116
   167         13