##TITLE=Library Entry 12479
##JCAMP-DX=Revision 4.10 
##DATA TYPE=MASS SPECTRUM
##SAMPLE DESCRIPTION=L. FONZES
##NAMES=HP
##CAS NAME=Androst-4-en-3-one, 17-(acetyloxy)-6-fluoro-, (6.beta.,17.beta.)-
##MOLFORM=C21H29FO3
##CAS REGISTRY NO=2627-94-3
##MP= -300
##BP= -300
##MW= 348
##$RETENTION INDEX=0
##$CONDENSED SPECTRUM=NO
##NPOINTS= 87
##XYDATA=(XY..XY) 1 
    41        182
    43        999
    53         91
    55        191
    65         66
    67        132
    77        182
    79         77
    81        182
    91        364
    92         57
    93        364
    94        114
    95        145
    97        150
   105        295
   106         77
   107        182
   108         59
   109        136
   110         59
   111         91
   115         59
   117        100
   118         55
   119        155
   120         68
   121        118
   122         64
   123        118
   124         57
   125         57
   128         61
   129         82
   131        182
   133        318
   134        114
   135        123
   136        114
   137         77
   139         55
   140         86
   141        250
   142        636
   143        132
   144        105
   145        182
   146        195
   147        999
   148        150
   149         73
   151         77
   152         68
   155         73
   157         64
   159         80
   161         55
   165         91
   166         55
   167         73
   173         53
   183         59
   185         95
   192         61
   203        136
   211         61
   226         82
   227         86
   231        114
   244        125
   245         64
   246        932
   247        100
   253         55
   263         55
   264        127
   268         73
   273        114
   286        118
   288        682
   289        141
   291        123
   306        795
   307        159
   328        114
   348        909
   349        209