##TITLE=Library Entry 82682
##JCAMP-DX=Revision 4.10 
##DATA TYPE=MASS SPECTRUM
##SAMPLE DESCRIPTION=Japan AIST/NIMC Database- Spectrum MS-NW-1486
##NAMES=HP
##CAS NAME=Benzenemethanamine, .alpha.-methyl-, (S)-
##MOLFORM=C8H11N
##CAS REGISTRY NO=2627-86-3
##MP= -300
##BP= -300
##MW= 121
##$RETENTION INDEX=0
##$CONDENSED SPECTRUM=NO
##NPOINTS= 64
##XYDATA=(XY..XY) 1 
    15         12
    16          1
    26          3
    27         21
    28          2
    29          4
    30          3
    37          4
    38          8
    39         32
    40          5
    41         10
    42        121
    43         68
    44        166
    45          4
    46          1
    49          3
    50         35
    51         84
    52         27
    53         61
    54          4
    55          1
    58          4
    59          7
    60          1
    61          2
    62          6
    63         15
    64          3
    65         12
    66          3
    67          2
    73          2
    74         11
    75          8
    76         10
    77        139
    78         52
    79        242
    80         17
    81          1
    86          1
    87          1
    89          5
    90          2
    91         12
    92          4
    93          3
    94          1
   101          1
   102          6
   103         29
   104         57
   105         37
   106        999
   107         78
   108          3
   117          2
   118          5
   119          5
   120         60
   121         10