##TITLE=Library Entry 10207
##JCAMP-DX=Revision 4.10 
##DATA TYPE=MASS SPECTRUM
##SAMPLE DESCRIPTION=NIST Mass Spectrometry Data Center, 1994
##NAMES=HP
##CAS NAME=Phenol, 4-ethenyl-, acetate
##MOLFORM=C10H10O2
##CAS REGISTRY NO=2628-16-2
##MP= -300
##BP= -300
##MW= 162
##$RETENTION INDEX=1313
##$CONDENSED SPECTRUM=NO
##NPOINTS= 64
##XYDATA=(XY..XY) 1 
     4          3
     5          3
     9          2
    12          4
    13          7
    14         25
    15        132
    16          6
    18          3
    25          6
    26         35
    27         53
    28          6
    29         22
    30          2
    31          3
    36          2
    37         11
    38         48
    39        169
    40         17
    41         48
    42        174
    43        999
    44         23
    45          7
    50         50
    51         65
    52         19
    53         17
    55          7
    56          1
    60          1
    61         20
    62         58
    63        141
    64         38
    65        187
    66         23
    67          2
    68          1
    73          2
    74         18
    75         13
    76         11
    77         17
    78          5
    79          2
    86          6
    87          3
    89         55
    90         19
    91        200
    92         25
    93          3
    94         17
    95          2
   102          9
   103          4
   105          4
   119         56
   120        173
   121         15
   162         10