##TITLE=Library Entry 98493
##JCAMP-DX=Revision 4.10 
##DATA TYPE=MASS SPECTRUM
##SAMPLE DESCRIPTION=D.V. RAMANA, DEP. CHEM., IND. INST. TECH., MADRAS, INDI
A
##NAMES=HP
##CAS NAME=N-Methyl-N-phenylbenzenecarbothioamide
##MOLFORM=C14H13NS
##CAS REGISTRY NO=2628-58-2
##MP= -300
##BP= -300
##MW= 227
##$RETENTION INDEX=0
##$CONDENSED SPECTRUM=NO
##NPOINTS= 11
##XYDATA=(XY..XY) 1 
    51        130
    77        370
    91         70
   118        999
   119         90
   121        670
   122         60
   226        240
   227        130
   228         60
   229         20