##TITLE=Library Entry 18609
##JCAMP-DX=Revision 4.10 
##DATA TYPE=MASS SPECTRUM
##SAMPLE DESCRIPTION=NIST Mass Spectrometry Data Center, 1994
##NAMES=HP
##CAS NAME=(E)-2-Pentenenitrile
##MOLFORM=C5H7N
##CAS REGISTRY NO=26294-98-4
##MP= -300
##BP= -300
##MW= 81
##$RETENTION INDEX=0
##$CONDENSED SPECTRUM=NO
##NPOINTS= 46
##XYDATA=(XY..XY) 1 
    12          5
    13          7
    14         20
    15         87
    16          0
    24          3
    25         21
    26        156
    27        300
    28        291
    29         35
    30          1
    31          2
    37         95
    38        152
    39        463
    40         80
    41        461
    42         22
    43          1
    48          5
    49         32
    50         97
    51        137
    52        161
    53        214
    54        999
    55         53
    56          1
    60          2
    61          4
    62          8
    63         21
    64         68
    65         23
    66        138
    67          6
    74          4
    75         23
    76         18
    77          3
    78          9
    79          3
    80        222
    81        328
    82         21