##TITLE=Library Entry 35768
##JCAMP-DX=Revision 4.10 
##DATA TYPE=MASS SPECTRUM
##SAMPLE DESCRIPTION=NIST Mass Spectrometry Data Center, 2010
##NAMES=HP
##CAS NAME=Xylitol, pentakis(trifluoroacetate)
##MOLFORM=C15H7F15O10
##CAS REGISTRY NO=26293-29-8
##MP= -300
##BP= -300
##MW= 632
##$RETENTION INDEX=1077
##$CONDENSED SPECTRUM=NO
##NPOINTS= 173
##XYDATA=(XY..XY) 1 
    15          4
    26          1
    27         26
    28         12
    29         36
    30          3
    31         10
    33         12
    38          1
    39         24
    40          6
    41         28
    42         14
    43        237
    44         11
    45          6
    46          2
    47         18
    49          1
    50         22
    51         15
    52          4
    53         98
    54         13
    55        119
    56         11
    57         16
    58          4
    59         57
    60          2
    61          1
    63          2
    64          2
    65         72
    66          3
    67          9
    68          9
    69        999
    70         12
    71         13
    72          1
    73         15
    74          1
    75          3
    77          8
    78         50
    79          2
    80          8
    81        201
    82         13
    83         35
    84          2
    85          4
    87         10
    88          1
    89         30
    90          2
    91         10
    93         14
    94          1
    95          9
    97        254
    98          6
    99        158
   100          4
   101          2
   103         20
   104          1
   105          2
   107          2
   108          1
   109          8
   111          2
   112         12
   113         14
   114          1
   115         17
   116          1
   117         11
   119          1
   121          5
   123          3
   124          1
   125         38
   126          2
   127         88
   128          3
   129          1
   130          1
   131          4
   133          1
   135         11
   136          2
   137          6
   138          1
   139         63
   140         21
   141         11
   142          1
   143          3
   147          2
   149         86
   150          6
   151          2
   152         10
   153        111
   154          7
   155         16
   156          1
   157          1
   159          9
   163          1
   164          1
   165         12
   166          6
   167         27
   168          2
   169         31
   170          2
   171          2
   173          1
   177        172
   178         16
   179          2
   180          1
   181         29
   182          2
   183         11
   189          1
   193          9
   194          2
   195         44
   196          7
   197          1
   205          1
   209          6
   221         14
   222          1
   225          1
   235          3
   237         16
   238          1
   243          1
   248          2
   249          1
   252          2
   253        132
   254          9
   255          1
   263          2
   265         73
   266          7
   267          1
   277          9
   278         23
   279          3
   289          2
   290          8
   291         19
   292          2
   295          1
   309          1
   379         43
   380          4
   381          1
   391          3
   404          3
   405          4
   406          1
   505         10
   506          1
   519         21
   520          3