##TITLE=Library Entry 72736
##JCAMP-DX=Revision 4.10 
##DATA TYPE=MASS SPECTRUM
##SAMPLE DESCRIPTION=R.T.HOLMAN,UNIVERSITY OF MINNESOTA
##NAMES=HP
##CAS NAME=Oleic acid, 2-hydroxyethyl ester stearate
##MOLFORM=C38H72O4
##CAS REGISTRY NO=26291-64-5
##MP= -300
##BP= -300
##MW= 592
##$RETENTION INDEX=0
##$CONDENSED SPECTRUM=NO
##NPOINTS= 240
##XYDATA=(XY..XY) 1 
    29        280
    30         19
    32        230
    36         22
    37          9
    38         15
    39        110
    40         56
    41        560
    42        140
    43        750
    44        160
    45         50
    46          6
    47          6
    50          9
    51         18
    52         11
    53         50
    54        120
    55        780
    56        190
    57        570
    58         47
    59         23
    60        100
    61         37
    63         10
    65         18
    66         20
    67        210
    68        120
    69        420
    70        150
    71        270
    72         24
    73        140
    74         27
    75         19
    76         10
    77         29
    78         21
    79         58
    80         42
    81        190
    82        130
    83        300
    84        200
    85        150
    86        160
    87         87
    88         19
    89         10
    91         38
    92         13
    93         39
    94         30
    95        160
    96        100
    97        220
    98        340
    99        999
   100         80
   101         36
   102         12
   103         10
   104         24
   105         30
   106         11
   107         27
   108         25
   109         85
   110         54
   111         93
   112        110
   113         69
   114         18
   115         30
   116         12
   117         20
   118          9
   119         22
   120         11
   121         36
   122         20
   123         54
   124         32
   125         54
   126         31
   127         27
   128         21
   129         40
   130         10
   131         11
   132          7
   133         25
   134         13
   135         43
   136         14
   137         53
   138         30
   139         25
   140         14
   141         76
   142         41
   143         17
   144          7
   145         10
   146          7
   147         20
   148         17
   149         48
   150         15
   151         35
   152         33
   153         22
   154         14
   155        180
   156         30
   157         15
   161          9
   162          9
   163         12
   164         10
   165         24
   166         30
   167         27
   168         13
   169         36
   170          9
   171         14
   175          9
   176          9
   177         29
   178         13
   179         20
   180         21
   181         15
   182          9
   183         23
   184         11
   185         20
   188         10
   189          9
   191         13
   192          8
   193         15
   194         11
   195         19
   196         10
   197         54
   198         18
   199         43
   200         11
   207         74
   208         18
   209         28
   210         14
   211         38
   212         24
   213          9
   217         16
   218         11
   219         30
   220         18
   221         19
   222         18
   223         18
   224          9
   225         21
   226         19
   227         11
   229          8
   235         10
   236          9
   237         13
   238          7
   239         14
   240         11
   241         17
   245          8
   246         13
   247         12
   251          9
   253         16
   259         12
   262         14
   263         23
   264        340
   265        140
   266         38
   267        170
   268         32
   269          7
   279         10
   281         22
   282         10
   283          8
   284         48
   285         17
   293          6
   295          8
   296          6
   297          7
   308        240
   309        300
   310        140
   311        850
   312        190
   313         36
   324         12
   325         10
   326         17
   327         17
   329         29
   330         10
   339          6
   341          4
   350          7
   351         10
   352          8
   355          8
   370          5
   375          5
   376          2
   378          2
   380          5
   383          2
   391         10
   401          2
   407          7
   425          5
   431          2
   448          2
   493          2
   530          6
   531          4
   539          2
   574          7
   592          8