##TITLE=Library Entry 25319
##JCAMP-DX=Revision 4.10 
##DATA TYPE=MASS SPECTRUM
##SAMPLE DESCRIPTION=NIST Mass Spectrometry Data Center, 2009
##NAMES=HP
##CAS NAME=Acetic acid, (2,4,5-trichlorophenoxy)-, octyl ester
##MOLFORM=C16H21Cl3O3
##CAS REGISTRY NO=2630-15-1
##MP= -300
##BP= -300
##MW= 366
##$RETENTION INDEX=2511
##$CONDENSED SPECTRUM=NO
##NPOINTS= 213
##XYDATA=(XY..XY) 1 
    15          1
    26          3
    27         54
    28         12
    29        152
    30          5
    31          7
    35          1
    37          3
    38          3
    39         64
    40         16
    41        517
    42        161
    43        708
    44         29
    45          3
    47          1
    49          3
    50          7
    51          6
    52          2
    53         37
    54         22
    55        377
    56        121
    57        999
    58         47
    59          4
    60          4
    61         15
    62         31
    63         14
    64          1
    65          8
    66          3
    67         42
    68         32
    69        228
    70        100
    71        748
    72         51
    73         22
    74         51
    75         19
    76          2
    77          4
    78          1
    79          7
    80          1
    81         15
    82         19
    83         90
    84         75
    85         29
    86         18
    87          6
    88          1
    89          1
    90          1
    91          2
    93          1
    94          1
    95          6
    96         13
    97         97
    98         11
    99         30
   100          7
   101          3
   102          1
   103          1
   104          3
   105          4
   107         31
   108         34
   109        103
   110         23
   111         81
   112         14
   113         29
   114          4
   115          3
   117          2
   118          4
   119          7
   120          3
   121          4
   122          1
   123          2
   124          1
   125          3
   126          2
   127          3
   128          2
   129          2
   130          1
   131          9
   132         21
   133         17
   134         15
   135          8
   136          3
   137          2
   139          6
   140          1
   141          5
   143        100
   144         75
   145        192
   146        157
   147        104
   148         79
   149         22
   150         12
   151          2
   153          3
   154          1
   155          1
   157         90
   158          9
   159          2
   160         12
   161          5
   162         19
   163          4
   164          9
   165          2
   167         80
   168          6
   169         76
   170          5
   171         24
   172          3
   173         17
   174         10
   175         28
   176          8
   177         15
   179        179
   180         21
   181        198
   182         20
   183         84
   184          7
   185         16
   186          1
   187          2
   188          1
   189          4
   190         17
   191          4
   192         11
   193          2
   194          3
   195         33
   196        205
   197         41
   198        182
   199         21
   200         59
   201          7
   202          7
   203          2
   204          1
   205          1
   207         10
   209        230
   210         41
   211        217
   212         36
   213         69
   214         11
   215          9
   216          1
   218         56
   219         99
   220         46
   221         64
   222         13
   223         11
   224          2
   225          1
   227          4
   228          1
   229          4
   231          1
   233          2
   235          2
   237          1
   238          1
   240          1
   241          1
   246          1
   253         15
   254        516
   255         55
   256        492
   257         51
   258        158
   259         16
   260         18
   261          2
   295          1
   365         13
   366        421
   367         76
   368        412
   369         72
   370        138
   371         24
   372         16
   373          3