##TITLE=Library Entry 52310
##JCAMP-DX=Revision 4.10 
##DATA TYPE=MASS SPECTRUM
##SAMPLE DESCRIPTION=Exported from NIST MS Search
##NAMES=HP
##CAS NAME=6-Bromo-1-hexanol, TMS derivative
##MOLFORM=C9H21BrOSi
##CAS REGISTRY NO=26306-00-3
##MP= -300
##BP= -300
##MW= 252
##$RETENTION INDEX=0
##$CONDENSED SPECTRUM=NO
##NPOINTS= 40
##XYDATA=(XY..XY) 1 
    41        146
    42         13
    43         37
    44         19
    45         69
    47         35
    53         10
    54         10
    55        724
    56         35
    57         18
    58         22
    59         39
    61         27
    67         13
    72         15
    73        297
    74         30
    75        126
    76         10
    79         17
    81         12
    83        999
    84         67
    87         12
    99         16
   101         24
   103        184
   104         17
   115         10
   137        104
   138         11
   139        112
   140         10
   167        109
   169        107
   237         13
   238          2
   239         13
   240          2