##TITLE=Library Entry 52311
##JCAMP-DX=Revision 4.10 
##DATA TYPE=MASS SPECTRUM
##SAMPLE DESCRIPTION=Exported from NIST MS Search
##NAMES=HP
##CAS NAME=Silane, [(6-iodohexyl)oxy]trimethyl-
##MOLFORM=C9H21IOSi
##CAS REGISTRY NO=26306-01-4
##MP= -300
##BP= -300
##MW= 300
##$RETENTION INDEX=0
##$CONDENSED SPECTRUM=NO
##NPOINTS= 54
##XYDATA=(XY..XY) 1 
    41        158
    42         16
    43         41
    44         18
    45         75
    47         41
    53         11
    54         10
    55        784
    56         40
    57         21
    58         29
    59         56
    60         10
    61         43
    67         10
    72         20
    73        415
    74         41
    75        252
    76         18
    77         11
    79         37
    81         15
    83        999
    84         68
    85         12
    87         19
    89         20
    91         37
    99         28
   101         50
   103        250
   104         23
   105         10
   115         21
   127         11
   129         14
   155         15
   157         47
   171         10
   173         96
   174         15
   185        212
   186         15
   187         14
   210         10
   215        190
   216         16
   285        254
   286         36
   287         11
   299          2
   300          1