##TITLE=Library Entry 42168
##JCAMP-DX=Revision 4.10 
##DATA TYPE=MASS SPECTRUM
##SAMPLE DESCRIPTION=Exported from NIST MS Search
##NAMES=HP
##CAS NAME=Undecanoic acid, 11-fluoro-, trimethylsilyl ester
##MOLFORM=C14H29FO2Si
##CAS REGISTRY NO=26305-97-5
##MP= -300
##BP= -300
##MW= 276
##$RETENTION INDEX=0
##$CONDENSED SPECTRUM=NO
##NPOINTS= 82
##XYDATA=(XY..XY) 1 
    41        228
    42         61
    43        209
    44         22
    45         86
    47         71
    53         18
    54         19
    55        503
    56         95
    57        118
    58         24
    59         37
    60         12
    61         60
    67         58
    68         25
    69        453
    70         82
    71         53
    72         40
    73        999
    74         96
    75        531
    76         39
    77        323
    78         25
    79         30
    81         68
    82         17
    83        376
    84         58
    85         25
    91         13
    93         30
    95         36
    97        130
    98         33
    99         15
   101         12
   107         27
   109         22
   111         37
   112         10
   116         44
   117        783
   118         76
   119         34
   121         32
   123         12
   125         50
   129        171
   130         28
   131         19
   132        364
   133         57
   134         17
   143         12
   145        179
   146         23
   147         13
   149        104
   150         12
   159         19
   167         29
   187         10
   201         13
   233         10
   234          2
   235          1
   241          4
   242          1
   243          2
   247          3
   248          1
   256          1
   261          2
   262          1
   275          1
   276         12
   277          3
   278          1