##TITLE=Library Entry 41200
##JCAMP-DX=Revision 4.10 
##DATA TYPE=MASS SPECTRUM
##SAMPLE DESCRIPTION=Exported from NIST MS Search
##NAMES=HP
##CAS NAME=6-Chlorohexanoic acid, TMS derivative
##MOLFORM=C9H19ClO2Si
##CAS REGISTRY NO=26305-94-2
##MP= -300
##BP= -300
##MW= 222
##$RETENTION INDEX=0
##$CONDENSED SPECTRUM=NO
##NPOINTS= 57
##XYDATA=(XY..XY) 1 
    41        191
    42        142
    43         62
    44         26
    45        140
    46         10
    47         82
    49         15
    53         14
    55        245
    56         12
    57         14
    58         30
    59         27
    60         17
    61         68
    63         13
    67         13
    68         10
    69        697
    70         67
    72         39
    73        999
    74        103
    75        598
    76         42
    77         27
    93        520
    94         38
    95        197
    96         14
    97        250
    98         18
    99         19
   101         14
   108         12
   116         26
   117        321
   118         31
   119         15
   123         14
   129         48
   132        148
   133         19
   137         16
   145         38
   165         20
   171         18
   187         39
   207         80
   208         11
   209         21
   221          1
   222          3
   223          1
   224          1
   225          1