##TITLE=Library Entry 52650
##JCAMP-DX=Revision 4.10 
##DATA TYPE=MASS SPECTRUM
##SAMPLE DESCRIPTION=Exported from NIST MS Search
##NAMES=HP
##CAS NAME=Silane, [(10-iododecyl)oxy]trimethyl-
##MOLFORM=C13H29IOSi
##CAS REGISTRY NO=26305-80-6
##MP= -300
##BP= -300
##MW= 356
##$RETENTION INDEX=0
##$CONDENSED SPECTRUM=NO
##NPOINTS= 59
##XYDATA=(XY..XY) 1 
    41        272
    42         38
    43        146
    44         20
    45         79
    47         52
    53         20
    54         18
    55        572
    56         39
    57        223
    58         40
    59         83
    60         12
    61         84
    67         47
    68         11
    69        625
    70         40
    71         76
    72         28
    73        493
    74         50
    75        565
    76         41
    77         23
    81         56
    83        999
    84         68
    85         21
    87         26
    88         11
    89         52
    91         22
    95         37
    97        426
    98         34
    99         28
   101         61
   103        281
   104         28
   105         11
   111         12
   113         11
   115         36
   129         22
   139         20
   143         11
   155         31
   185         74
   187         10
   213         21
   215        102
   341        198
   342         35
   343          9
   355          2
   356          4
   357          1