##TITLE=Library Entry 41165
##JCAMP-DX=Revision 4.10 
##DATA TYPE=MASS SPECTRUM
##SAMPLE DESCRIPTION=Japan AIST/NIMC Database- Spectrum MS-IW- 835
##NAMES=HP
##CAS NAME=D-Mannonic acid, .gamma.-lactone
##MOLFORM=C6H10O6
##CAS REGISTRY NO=26301-79-1
##MP= -300
##BP= -300
##MW= 178
##$RETENTION INDEX=0
##$CONDENSED SPECTRUM=NO
##NPOINTS= 121
##XYDATA=(XY..XY) 1 
    14          4
    15         33
    17          8
    18         50
    19          9
    26         11
    27         41
    28         53
    29        103
    30         35
    31        135
    32          9
    33          1
    37          2
    38          3
    39         30
    40          8
    41         41
    42         71
    43        274
    44        159
    45        107
    46          4
    47          9
    49          2
    50          2
    51          3
    52          3
    53          6
    54         33
    55         67
    56         56
    57        124
    58         70
    59         23
    60        232
    61        560
    62         18
    63          4
    65          2
    66          2
    67          2
    68         12
    69         47
    70         25
    71        345
    72        311
    73        999
    74         73
    75         10
    76         97
    77          5
    78          1
    79          7
    80          3
    81          4
    82          4
    83         49
    84         17
    85        230
    86         45
    87         19
    88          5
    89         53
    90         20
    91         47
    92          3
    93          2
    94          2
    95          4
    96          6
    97         12
    98          8
    99          4
   100        314
   101         68
   102         13
   103        151
   104          9
   105          2
   107          1
   108          1
   109          2
   110          2
   111          3
   112          5
   113          8
   114         77
   115          8
   116          2
   117          2
   118         22
   119        106
   120          6
   121          7
   123          1
   124          1
   125          3
   126          1
   127          1
   129          3
   131          3
   132         12
   133         17
   134          1
   136          1
   137          1
   138          1
   139          1
   141          2
   142         56
   143          4
   147         68
   148         11
   149          5
   160         63
   161          5
   162          1
   178         21
   179          9
   180          1