##TITLE=Library Entry 42155
##JCAMP-DX=Revision 4.10 
##DATA TYPE=MASS SPECTRUM
##SAMPLE DESCRIPTION=Exported from NIST MS Search
##NAMES=HP
##CAS NAME=Decanoic acid, 10-fluoro-, trimethylsilyl ester
##MOLFORM=C13H27FO2Si
##CAS REGISTRY NO=26305-85-1
##MP= -300
##BP= -300
##MW= 262
##$RETENTION INDEX=0
##$CONDENSED SPECTRUM=NO
##NPOINTS= 80
##XYDATA=(XY..XY) 1 
    41        227
    42         60
    43        173
    44         22
    45         95
    47         71
    53         17
    54         17
    55        449
    56        114
    57        108
    58         25
    59         35
    60         13
    61         59
    63         10
    67         55
    68         22
    69        628
    70         88
    71         34
    72         39
    73        999
    74         98
    75        504
    76         40
    77        374
    78         27
    79         36
    81         45
    82         10
    83        190
    84         37
    85         17
    91         13
    93         28
    95         38
    97         93
    98         35
    99         13
   101         11
   107         23
   109         33
   111        104
   112         11
   116         42
   117        715
   118         67
   119         31
   121         28
   129        157
   130         22
   131         15
   132        301
   133         44
   134         14
   135        102
   136         12
   145        156
   146         21
   153         41
   159         17
   201         10
   213          1
   215          1
   219         11
   220          2
   221          1
   227          2
   228          1
   229          2
   233          2
   242          1
   243          1
   247          2
   248          1
   261          1
   262         13
   263          4
   264          1