##TITLE=Library Entry 70150
##JCAMP-DX=Revision 4.10 
##DATA TYPE=MASS SPECTRUM
##SAMPLE DESCRIPTION=Exported from NIST MS Search
##NAMES=HP
##CAS NAME=11-Bromo-1-undecanol,  TMS derivative
##MOLFORM=C14H31BrOSi
##CAS REGISTRY NO=26305-83-9
##MP= -300
##BP= -300
##MW= 322
##$RETENTION INDEX=0
##$CONDENSED SPECTRUM=NO
##NPOINTS= 65
##XYDATA=(XY..XY) 1 
    41        221
    42         29
    43        185
    44         13
    45         58
    47         40
    53         18
    54         24
    55        648
    56         44
    57        214
    58         29
    59         60
    60         10
    61         64
    67         52
    68         23
    69        716
    70         46
    71        207
    72         23
    73        444
    74         41
    75        413
    76         31
    77         17
    81         42
    82         18
    83        899
    84         60
    85         58
    87         21
    88         10
    89         36
    91         34
    95         40
    97        999
    98         79
    99         22
   101         47
   103        319
   104         29
   105         12
   109         13
   111        271
   112         24
   115         26
   129         14
   137         57
   139         64
   141         11
   150         10
   153         17
   167         93
   169         94
   307         17
   308          3
   309         17
   310          3
   311          1
   321          1
   322          1
   323          2
   324          1
   325          2