##TITLE=Library Entry 42191
##JCAMP-DX=Revision 4.10 
##DATA TYPE=MASS SPECTRUM
##SAMPLE DESCRIPTION=Exported from NIST MS Search
##NAMES=HP
##CAS NAME=Undecanoic acid, 11-chloro-, trimethylsilyl ester
##MOLFORM=C14H29ClO2Si
##CAS REGISTRY NO=26305-98-6
##MP= -300
##BP= -300
##MW= 292
##$RETENTION INDEX=0
##$CONDENSED SPECTRUM=NO
##NPOINTS= 79
##XYDATA=(XY..XY) 1 
    41        220
    42         52
    43        158
    44         21
    45         87
    47         52
    53         17
    54         18
    55        378
    56         82
    57        104
    58         23
    59         26
    60         11
    61         54
    63         11
    67         52
    68         28
    69        363
    70         78
    71         53
    72         39
    73        999
    74         98
    75        560
    76         39
    77         30
    79         17
    81         58
    82         22
    83        346
    84         59
    85         26
    89         11
    91         10
    93        165
    94         12
    95         62
    96         10
    97        147
    98         43
    99         17
   101         10
   107         24
   109         27
   111         41
   112         20
   116         45
   117        820
   118         81
   119         36
   123         14
   125         62
   129        197
   130         29
   131         23
   132        611
   133         79
   134         27
   137         11
   143         13
   145        236
   146         32
   147         13
   149        133
   150         16
   159         25
   167         70
   187         12
   201         18
   241         14
   249         12
   257         50
   258         10
   277         70
   278         15
   279         28
   292         26
   294         10