##TITLE=Library Entry 69616
##JCAMP-DX=Revision 4.10 
##DATA TYPE=MASS SPECTRUM
##SAMPLE DESCRIPTION=J. Daly, M. Garraffo, T. Spande, LBC, NIDDK, NIH, Bethe
sda, MD 20892
##NAMES=HP
##CAS NAME=(2S,6R,7S,8S)-2-Allyl-7-((Z)-buta-1,3-dien-1-yl)-1-azaspiro[5.5]u
ndecan-8-ol
##MOLFORM=C17H27NO
##CAS REGISTRY NO=263009-09-2
##MP= -300
##BP= -300
##MW= 261
##$RETENTION INDEX=0
##$CONDENSED SPECTRUM=NO
##NPOINTS= 44
##XYDATA=(XY..XY) 1 
    53         41
    55         60
    56         47
    66         24
    67        109
    68         23
    69         25
    77         34
    78         23
    79        101
    80         51
    81         54
    82         35
    83         33
    91         90
    93         43
    95         40
    96        999
    97         92
   105         38
   108         74
   109         43
   110         36
   119         30
   123         16
   126         19
   131         24
   136         20
   137         97
   138         35
   149         16
   150        101
   152         20
   162         36
   174         22
   176         88
   192         33
   202        140
   220        477
   221         76
   228         23
   246         26
   260          8
   261         91