##TITLE=Library Entry 52939
##JCAMP-DX=Revision 4.10 
##DATA TYPE=MASS SPECTRUM
##SAMPLE DESCRIPTION=Exported from NIST MS Search
##NAMES=HP
##CAS NAME=Silane, [(11-chloroundecyl)oxy]trimethyl-
##MOLFORM=C14H31ClOSi
##CAS REGISTRY NO=26305-82-8
##MP= -300
##BP= -300
##MW= 278
##$RETENTION INDEX=0
##$CONDENSED SPECTRUM=NO
##NPOINTS= 61
##XYDATA=(XY..XY) 1 
    41        272
    42         40
    43        260
    44         21
    45         79
    47         49
    53         18
    54         25
    55        844
    56         56
    57        243
    58         33
    59         66
    60         11
    61         71
    63         10
    67         54
    68         29
    69        885
    70         60
    71        220
    72         29
    73        506
    74         49
    75        343
    76         25
    77         17
    79         10
    81         42
    82         20
    83        999
    84         70
    85         70
    87         18
    88         10
    89         27
    91         42
    93         96
    95         61
    96         10
    97        999
    98         80
    99         22
   101         39
   103        347
   104         42
   105         16
   109         14
   111        258
   112         23
   115         22
   123        187
   124         16
   125         64
   129         14
   263         17
   264          3
   265          6
   266          2
   277          2
   279          4