##TITLE=Library Entry 12982
##JCAMP-DX=Revision 4.10 
##DATA TYPE=MASS SPECTRUM
##SAMPLE DESCRIPTION=J.N.C.WHYTE FISHERIES RES. BOARD, VANCOUVER, CANADA
##NAMES=HP
##CAS NAME=.beta.-D-Glucopyranosylamine, N-(4-nitrophenyl)-, 2,3,4,6-tetraac
etate
##MOLFORM=C20H24N2O11
##CAS REGISTRY NO=26302-39-6
##MP= -300
##BP= -300
##MW= 468
##$RETENTION INDEX=0
##$CONDENSED SPECTRUM=NO
##NPOINTS= 53
##XYDATA=(XY..XY) 1 
    43        999
    55         35
    56         23
    57         50
    70         50
    71         45
    72         26
    73         28
    74         26
    81         47
    82         52
    97         40
    98         64
    99         47
   103         47
   109        112
   112         28
   115         83
   117         47
   118         83
   119         47
   120         73
   122         26
   127         47
   139         33
   140         26
   141         76
   145         35
   149         38
   157         42
   167         54
   169        227
   180        109
   193         21
   200         17
   205         16
   209         16
   211         26
   222         31
   229         16
   233         31
   243         23
   271         21
   275         33
   289         16
   331         98
   348         16
   349         16
   438          7
   452          5
   468        110
   469         26
   470          7