##TITLE=Library Entry 52828
##JCAMP-DX=Revision 4.10 
##DATA TYPE=MASS SPECTRUM
##SAMPLE DESCRIPTION=C.Lageot ET AL.J.Organomet Chem. 66.49.(1974)
##NAMES=HP
##CAS NAME=1-Bromo-3,4-dimethyl-1-phenyl-1-germacyclopent-3-ene
##MOLFORM=C12H15BrGe
##CAS REGISTRY NO=26311-82-0
##MP= -300
##BP= -300
##MW= 312
##$RETENTION INDEX=0
##$CONDENSED SPECTRUM=NO
##NPOINTS= 53
##XYDATA=(XY..XY) 1 
    39        185
    41        340
    43         70
    51        130
    53        100
    54        100
    55        260
    67        330
    77        155
    78        100
    81         60
    82        585
    83        999
    84         70
    95         30
    97         55
    99         60
   101         20
   121         30
   123         35
   125         40
   147        250
   148         30
   149        360
   150        115
   151        570
   152         60
   153        440
   154         60
   155        260
   157         40
   158         55
   159        370
   160         70
   239        170
   240         30
   241        410
   242        100
   243        580
   244        120
   245        350
   246         40
   247         70
   307         20
   308        160
   309         50
   310        380
   311        120
   312        500
   313        120
   314        360
   315         55
   316         60