##TITLE=Library Entry 86100
##JCAMP-DX=Revision 4.10 
##DATA TYPE=MASS SPECTRUM
##SAMPLE DESCRIPTION=C.Lageot ET AL.J.Organomet Chem. 66.49.(1974)
##NAMES=HP
##CAS NAME=1-Chloro-1-ethyl-3-methyl-1-germacyclopent-3-ene
##MOLFORM=C7H13ClGe
##CAS REGISTRY NO=26311-76-2
##MP= -300
##BP= -300
##MW= 206
##$RETENTION INDEX=0
##$CONDENSED SPECTRUM=NO
##NPOINTS= 71
##XYDATA=(XY..XY) 1 
    31         40
    36         30
    39        245
    40         60
    41        345
    42         65
    43         65
    51         40
    52         30
    53        200
    55         60
    56         85
    57         50
    67        195
    68        340
    69        205
    70         35
    71         40
    72         40
    73         50
    74         45
    75         40
    77         45
    79         60
    80         40
    81         45
    91         45
    92         95
    93        250
    94         70
    97         40
    99         60
   101         65
   103         40
   105        410
   107        620
   108        140
   109        999
   110         55
   111        370
   112         40
   122         20
   123         65
   134         60
   136        115
   137         35
   138        145
   139         40
   140         65
   141         35
   142         25
   143         25
   167         40
   168         20
   169         65
   170         35
   171         75
   173        210
   175        335
   176         95
   177        435
   178         50
   179        200
   181         25
   202        140
   204        230
   205         70
   206        285
   207         40
   208        125
   210         20