##TITLE=Library Entry 1437
##JCAMP-DX=Revision 4.10 
##DATA TYPE=MASS SPECTRUM
##SAMPLE DESCRIPTION=C.Lageot ET AL.J.Organomet Chem. 66.49.(1974)
##NAMES=HP
##CAS NAME=1-Ethyl-1-methoxy-3,4-dimethyl-1-germacyclopent-3-ene
##MOLFORM=C9H18GeO
##CAS REGISTRY NO=26311-79-5
##MP= -300
##BP= -300
##MW= 216
##$RETENTION INDEX=0
##$CONDENSED SPECTRUM=NO
##NPOINTS= 39
##XYDATA=(XY..XY) 1 
    29        805
    30        150
    31        999
    32        600
    39        105
    41        155
    42         50
    43         40
    54         60
    65         40
    67        100
    78         50
    79         70
    98        115
   100        140
   101         45
   102        220
   104        200
   105         45
   106        240
   107         30
   108        106
   110         40
   159         60
   180         30
   181         35
   182         40
   184        105
   186        110
   187         32
   188        140
   189         25
   190         60
   212         60
   214         65
   215         20
   216         85
   217         10
   218         30