##TITLE=Library Entry 32479
##JCAMP-DX=Revision 4.10 
##DATA TYPE=MASS SPECTRUM
##SAMPLE DESCRIPTION=C.Lageot ET AL.J.Organomet Chem. 66.49.(1974)
##NAMES=HP
##CAS NAME=1-Chloro-3,4-dimethyl-1-phenyl-1-germacyclopent-3-ene
##MOLFORM=C12H15ClGe
##CAS REGISTRY NO=26311-81-9
##MP= -300
##BP= -300
##MW= 268
##$RETENTION INDEX=0
##$CONDENSED SPECTRUM=NO
##NPOINTS= 87
##XYDATA=(XY..XY) 1 
    38         80
    39        690
    40        160
    41        930
    42        180
    43        820
    44        165
    45        130
    50         70
    51        120
    52        160
    53        220
    54        300
    55        430
    56         80
    57        170
    58        180
    59        260
    60         20
    63         40
    65        120
    66         45
    67        999
    68        130
    69        140
    70         40
    71         50
    72         90
    73        190
    74         30
    75        110
    77         90
    78         30
    79         90
    81        200
    82        920
    83        490
    84         90
    85        160
    86         35
    87         30
    89         40
    91         50
    93         40
    94         35
    95         55
    96        100
    97         60
    98         80
    99        120
   104         70
   106         50
   107        110
   108         30
   109        140
   111         70
   115         90
   121         70
   122         30
   123         40
   141         30
   147         25
   149         25
   151         30
   159         60
   163         30
   165         30
   182         40
   184         60
   185         20
   186         80
   187         20
   188         50
   228         20
   229         20
   230         25
   231         35
   232         40
   233         37
   234         27
   235         15
   264         40
   266         50
   267         20
   268         60
   269         15
   270         30