##TITLE=Library Entry 51320
##JCAMP-DX=Revision 4.10 
##DATA TYPE=MASS SPECTRUM
##SAMPLE DESCRIPTION=C.Lageot ET AL.J.Organomet Chem. 66.49.(1974)
##NAMES=HP
##CAS NAME=1-Fluoro-3,4-dimethyl-1-phenyl-1-germacyclopent-3-ene
##MOLFORM=C12H15FGe
##CAS REGISTRY NO=26311-80-8
##MP= -300
##BP= -300
##MW= 252
##$RETENTION INDEX=0
##$CONDENSED SPECTRUM=NO
##NPOINTS= 68
##XYDATA=(XY..XY) 1 
    27        100
    28         40
    29        120
    39        178
    40         87
    41        156
    42        120
    43        136
    50         78
    52        146
    53        126
    54        117
    55        133
    56         82
    57        121
    67        640
    68         60
    69         89
    77        216
    78         70
    79         65
    81        130
    82        999
    83        210
    84         30
    85        348
    86         42
    87         40
    89        230
    91        296
    92         92
    93        368
    96         30
    97         26
   104         79
   106        138
   108         32
   109        177
   111         79
   149         79
   150         27
   151         92
   153         26
   159        216
   166         92
   168        112
   169         53
   170        157
   171         41
   172         40
   173         39
   175         46
   230         31
   231         42
   232         40
   233         52
   234         30
   235         13
   244         30
   246         82
   247         30
   248        150
   249         47
   250        234
   251         92
   252        282
   253         39
   254         65