##TITLE=Library Entry 27703
##JCAMP-DX=Revision 4.10 
##DATA TYPE=MASS SPECTRUM
##SAMPLE DESCRIPTION=G. ECKHARDT, INST. ORG. CHEM. BIOCHEM., UNIV. BONN, W.
 GERMA
##NAMES=HP
##CAS NAME=N,N-Dimethyl-2-ethoxyethylamine
##MOLFORM=C6H15NO
##CAS REGISTRY NO=26311-17-1
##MP= -300
##BP= -300
##MW= 117
##$RETENTION INDEX=0
##$CONDENSED SPECTRUM=NO
##NPOINTS= 19
##XYDATA=(XY..XY) 1 
    30         38
    31         91
    32         20
    42         61
    43         24
    44         27
    45         63
    46         28
    56         14
    57         20
    58        999
    59         41
    70          5
    71          5
    72         33
    73         20
   116          2
   117         64
   118          6