##TITLE=Library Entry 40888
##JCAMP-DX=Revision 4.10 
##DATA TYPE=MASS SPECTRUM
##SAMPLE DESCRIPTION=F. TURECEK,HEYROVSKY INST PHYS CHEM & ELECTROCHEM,PRAGU
E,CZECH
##NAMES=HP
##CAS NAME=1,2-Ethenediol, 2TMS derivative
##MOLFORM=C8H20O2Si2
##CAS REGISTRY NO=26327-98-0
##MP= -300
##BP= -300
##MW= 204
##$RETENTION INDEX=0
##$CONDENSED SPECTRUM=NO
##NPOINTS= 25
##XYDATA=(XY..XY) 1 
    28         22
    29         11
    43         43
    44         23
    45        177
    46         10
    47         10
    52         10
    59         26
    66         26
    72         11
    73        999
    74        125
    75         61
   101         20
   116          8
   131          8
   133         14
   144         23
   189         50
   190          9
   191          7
   204        132
   205         26
   206         11