##TITLE=Library Entry 89702
##JCAMP-DX=Revision 4.10 
##DATA TYPE=MASS SPECTRUM
##SAMPLE DESCRIPTION=A.A.Kutin, Moscow, Russia
##NAMES=HP
##CAS NAME=2,4,6,8-Tetraazabicyclo[3.3.0]octane-3,7-dione, 2,4,6-triethyl-
##MOLFORM=C10H18N4O2
##CAS REGISTRY NO=263403-93-6
##MP= -300
##BP= -300
##MW= 226
##$RETENTION INDEX=0
##$CONDENSED SPECTRUM=NO
##NPOINTS= 95
##XYDATA=(XY..XY) 1 
    33          2
    39          3
    40         28
    41         63
    42        197
    43         56
    44        270
    46         13
    52          1
    54         25
    55         51
    56        420
    57         54
    58         43
    59          1
    66          0
    67          5
    68         32
    69        221
    70         85
    71         98
    72         51
    73          7
    74          1
    78          1
    80          1
    81          7
    82         13
    83        113
    84        151
    85         71
    86         10
    87          2
    89          1
    95          7
    96          7
    97        192
    98         59
    99        199
   100         26
   101         17
   102          1
   105          0
   110        132
   111        141
   112        999
   113        211
   114         14
   115         28
   116          4
   117         26
   118          2
   123          1
   124          5
   125         36
   126        205
   127        196
   128         15
   129          1
   137          0
   138         14
   140        985
   141        121
   142         36
   143          5
   152          2
   153         16
   154        104
   155        235
   156         31
   157          3
   166          3
   168        429
   169         43
   170          7
   171          2
   180          2
   181         11
   182        193
   183        107
   184         13
   187          0
   196          3
   197          6
   198          6
   199          0
   209          2
   211        177
   212         20
   213          2
   223          1
   224          3
   226        766
   227         96
   228          7