##TITLE=Library Entry 26387
##JCAMP-DX=Revision 4.10 
##DATA TYPE=MASS SPECTRUM
##SAMPLE DESCRIPTION=Leung Pu, NIH, Bethesda, Maryland, U.S.
##NAMES=HP
##CAS NAME=Diazene, bis[4-(heptyloxy)phenyl]-, 1-oxide
##MOLFORM=C26H38N2O3
##CAS REGISTRY NO=2635-26-9
##MP= -300
##BP= -300
##MW= 426
##$RETENTION INDEX=0
##$CONDENSED SPECTRUM=NO
##NPOINTS= 202
##XYDATA=(XY..XY) 1 
    41        408
    42         22
    43        608
    44         17
    45          2
    47          2
    49         10
    50          6
    51         10
    52         27
    53         23
    55        604
    57        999
    58         20
    60          3
    61          0
    62          2
    63         15
    64         20
    65        103
    66          6
    67         20
    68          5
    69         95
    70         11
    71         17
    73          3
    74          2
    75          4
    76         32
    77         20
    78         16
    79         68
    80         32
    81         40
    82          7
    83          9
    84         10
    85          3
    86          7
    87          2
    88          1
    89          2
    90          9
    91         18
    92          6
    93        271
    94         50
    95         63
    96          9
    97         22
    98          5
    99          3
   101          2
   102          1
   103          3
   104          3
   105         11
   106         33
   107        746
   108        168
   109         70
   110         10
   111          3
   112          1
   113          3
   114          1
   115          7
   116          1
   117          6
   118          2
   119         10
   120         11
   121         62
   122         11
   123        324
   124        134
   125          9
   126          1
   127          8
   128          6
   129          4
   130          1
   131         11
   132          5
   133         19
   134          8
   135          8
   136          6
   137         12
   138          1
   139         12
   140          8
   141          4
   142          1
   143          1
   144          3
   145          6
   146          4
   147          7
   148          4
   149          5
   150          2
   151          0
   153          0
   154          1
   155          3
   156          2
   157          6
   158          2
   159          1
   160          2
   161          5
   162          4
   163          1
   164          2
   165          1
   166         23
   167         36
   168          6
   169          1
   170          1
   171          2
   172          1
   173          9
   174          5
   175          1
   176          3
   177          1
   182          1
   183          2
   184          6
   185         14
   186          8
   187          4
   188          1
   189          5
   190          2
   191         15
   192          2
   193          0
   195          0
   196          1
   197          1
   198          1
   199          4
   200          5
   201         64
   202         37
   203          4
   204          1
   205         31
   206          7
   207          4
   208          1
   211          0
   212          5
   213         35
   214          7
   215          1
   218          4
   219         16
   220          6
   221         28
   222         11
   223          1
   225          0
   227          0
   229         39
   230         37
   231          5
   241          1
   242          1
   259          1
   271          1
   283          2
   284          1
   297          0
   298          0
   299          5
   300         24
   301          4
   311          7
   312         11
   313          3
   327         33
   328         65
   329         18
   330          2
   341          2
   342          1
   381          0
   398          0
   408          3
   410         39
   411         11
   412          2
   424          1
   426        700
   427        186
   428         31
   429          3