##TITLE=Library Entry 99056
##JCAMP-DX=Revision 4.10 
##DATA TYPE=MASS SPECTRUM
##SAMPLE DESCRIPTION=Exported from NIST MS Search
##NAMES=HP
##CAS NAME=Benzene, (1,1,2-trimethylpropyl)-
##MOLFORM=C12H18
##CAS REGISTRY NO=26356-11-6
##MP= -300
##BP= -300
##MW= 162
##$RETENTION INDEX=1364
##$CONDENSED SPECTRUM=NO
##NPOINTS= 113
##XYDATA=(XY..XY) 1 
    26         11
    27        132
    28         17
    29         34
    30          1
    32          1
    37          2
    38         10
    39        121
    40        127
    41        244
    42         15
    43         52
    44          2
    45          1
    49          1
    50         23
    51         69
    52         17
    53         20
    54          2
    55         10
    56          2
    57         38
    58          4
    59          1
    60          1
    61          1
    62          6
    63         22
    64          9
    65         28
    66          3
    67          2
    68          1
    69         11
    70          1
    71          1
    72          1
    73          1
    74          6
    75          9
    76          8
    77         86
    78         40
    79         71
    80          4
    81          1
    83          1
    84          1
    85          1
    86          1
    87          2
    88          1
    89          8
    90          3
    91        365
    92         29
    93          2
    94          1
    95          1
    97          1
    98          1
    99          1
   100          1
   101          2
   102         12
   103         53
   104         23
   105         87
   106         35
   107          3
   108          1
   109          1
   110          1
   111          1
   112          1
   113          1
   114          1
   115         31
   116         12
   117         29
   118        106
   119        999
   120        104
   121          4
   125          1
   126          1
   127          3
   128          6
   129          4
   130          1
   131          6
   132          1
   133          7
   134          6
   135          1
   139          1
   140          1
   141          1
   142          1
   143          1
   144          1
   145          1
   146          1
   147          6
   148          1
   159          1
   160          1
   161          1
   162         39
   163          5
   164          1