##TITLE=Library Entry 86351
##JCAMP-DX=Revision 4.10 
##DATA TYPE=MASS SPECTRUM
##SAMPLE DESCRIPTION=NIST Mass Spectrometry Data Center, 1998.
##NAMES=HP
##CAS NAME=Cyanophos
##MOLFORM=C9H10NO3PS
##CAS REGISTRY NO=2636-26-2
##MP= -300
##BP= -300
##MW= 243
##$RETENTION INDEX=1772
##$CONDENSED SPECTRUM=NO
##NPOINTS= 137
##XYDATA=(XY..XY) 1 
    14          2
    15         36
    26          3
    27          6
    28          3
    29         16
    30          3
    31         18
    32          3
    33          2
    37         22
    38         20
    39         48
    40          3
    41          3
    42          1
    45         26
    46          8
    47        229
    48          7
    49         12
    50         32
    51         38
    52         11
    53          6
    54          1
    55          1
    57          2
    58          1
    60          1
    61         10
    62         81
    63        214
    64        106
    65         14
    66          3
    68          1
    69          5
    70          2
    71          1
    73          3
    74         13
    75         54
    76         35
    77         21
    78          1
    79        266
    80         17
    81          4
    82          3
    83          1
    84          1
    86          1
    87          4
    88          8
    89         10
    90         93
    91         13
    92          1
    93        150
    94         18
    95         29
    96         26
    97          4
    98          1
    99          4
   100          3
   102         82
   103         11
   104          4
   105          3
   106          2
   107          6
   108          1
   109        999
   110         24
   111         14
   112          8
   113          1
   114          1
   115         10
   116         89
   117         12
   118          6
   119         60
   120          8
   121         11
   122         18
   123          3
   124          1
   125        579
   126         18
   127         29
   128          1
   129          2
   130          1
   132          8
   133         15
   134         56
   135         28
   136          6
   137          2
   141          1
   142          1
   146          1
   147          7
   148         29
   149         24
   150         16
   151          2
   152          3
   162          1
   164          5
   165          9
   166          5
   178          1
   180         72
   181          8
   182          2
   196         23
   197          8
   198          3
   199          1
   210          4
   211          5
   212         28
   213         19
   214          3
   215          1
   227          2
   228         16
   229          2
   230          1
   243        544
   244         61
   245         31
   246          3