##TITLE=Library Entry 88105
##JCAMP-DX=Revision 4.10 
##DATA TYPE=MASS SPECTRUM
##SAMPLE DESCRIPTION=NIST Mass Spectrometry Data Center, 1994
##NAMES=HP
##CAS NAME=2(1H)-Pyridinethione
##MOLFORM=C5H5NS
##CAS REGISTRY NO=2637-34-5
##MP= -300
##BP= -300
##MW= 111
##$RETENTION INDEX=0
##$CONDENSED SPECTRUM=NO
##NPOINTS= 70
##XYDATA=(XY..XY) 1 
    12          3
    14          7
    15          3
    16          2
    17          3
    25         13
    26         41
    27         59
    28          2
    29          1
    32         19
    33         24
    34          3
    36          8
    37         44
    38         69
    39        172
    40         33
    41         46
    42          3
    44         18
    45         64
    46          4
    47          4
    48          6
    49         31
    50        105
    51        242
    52         81
    53         12
    54          8
    55         32
    56          3
    57         75
    58         71
    59         22
    60         14
    61          2
    62          4
    63          5
    64         10
    67        890
    68         47
    69         45
    70         21
    71          8
    72          2
    74          2
    75         18
    76         20
    77          2
    78        225
    79         19
    80          5
    81         33
    82         46
    83         95
    84         62
    85         10
    86          4
    94          2
    95          0
   106          2
   107          1
   108          2
   110        161
   111        999
   112         73
   113         44
   114          2