##TITLE=Library Entry 34060
##JCAMP-DX=Revision 4.10 
##DATA TYPE=MASS SPECTRUM
##SAMPLE DESCRIPTION=Vladimir Zaikin, TIPS RAS, Moscow,Russia
##NAMES=HP
##CAS NAME=Cyclopropanecarboxamide, N-n-propyl
##MOLFORM=C7H13NO
##CAS REGISTRY NO=26389-59-3
##MP= -300
##BP= -300
##MW= 127
##$RETENTION INDEX=1197
##$CONDENSED SPECTRUM=NO
##NPOINTS= 49
##XYDATA=(XY..XY) 1 
    30         95
    31         10
    35          9
    36         60
    37        105
    38        205
    39        930
    40        410
    41        970
    42        300
    43        210
    44        285
    45         38
    50          8
    51          8
    52         10
    53         25
    54         28
    55        110
    56         50
    57         35
    58        105
    59         50
    60          8
    67         18
    68        140
    69        999
    70        300
    71         33
    72         12
    77         10
    79          8
    83         15
    84         60
    85         50
    86         40
    87          8
    97         15
    98        400
    99        170
   100         20
   105          8
   110          8
   112        120
   113         12
   126         80
   127        220
   128        195
   129         15