##TITLE=Library Entry 99076
##JCAMP-DX=Revision 4.10 
##DATA TYPE=MASS SPECTRUM
##SAMPLE DESCRIPTION=A.A.Kutin, Moscow, Russia
##NAMES=HP
##CAS NAME=Isoxazole-3-carboximidamide, N'-(3-methylbenzoyloxy)-
##MOLFORM=C13H13N3O3
##CAS REGISTRY NO=263869-49-4
##MP= -300
##BP= -300
##MW= 259
##$RETENTION INDEX=0
##$CONDENSED SPECTRUM=NO
##NPOINTS= 130
##XYDATA=(XY..XY) 1 
    34          0
    36          0
    37          3
    38         10
    39         64
    40         21
    41         29
    42         26
    43        158
    44         12
    45          4
    46          0
    48          0
    49          1
    50         15
    51         27
    52         16
    53         12
    54         10
    55          9
    56          2
    57          1
    58          1
    59          1
    60          1
    61          2
    62         10
    63         34
    64         17
    65        139
    66         11
    67         18
    68         65
    69          8
    70          1
    71          0
    72          0
    73          1
    74          2
    75          3
    76          4
    77         11
    78          4
    79          3
    80          1
    81          1
    82          3
    83         23
    84          1
    85          1
    86          1
    87          2
    88          3
    89         36
    90         41
    91        370
    92         34
    93          2
    95          4
    96          0
    97          0
    98          0
    99          0
   101          0
   102          0
   103          0
   104          1
   105          7
   106          1
   107          2
   108          3
   109          8
   110          9
   111          1
   112          0
   114          1
   115          1
   116          4
   117         12
   119        999
   120         94
   121          6
   122          0
   123          0
   124          1
   125          4
   126          0
   127          0
   128          0
   129          0
   130          0
   131          0
   132          0
   133          2
   134          0
   135          2
   136         18
   137          1
   139          0
   140          2
   141          0
   142          0
   143          0
   144          0
   145          0
   146          0
   149          1
   150          0
   151          0
   153          0
   154          0
   155          0
   158          0
   159          0
   160          0
   169          0
   170          0
   171          0
   184          0
   188          3
   189          0
   199          0
   200          0
   226          0
   241          3
   242          0
   257          0
   259         40
   260          6
   261          0