##TITLE=Library Entry 36061
##JCAMP-DX=Revision 4.10 
##DATA TYPE=MASS SPECTRUM
##SAMPLE DESCRIPTION=Japan AIST/NIMC Database- Spectrum MS-NW-8830
##NAMES=HP
##CAS NAME=N-Isopropylcyclopropanecarboxamide
##MOLFORM=C7H13NO
##CAS REGISTRY NO=26389-62-8
##MP= -300
##BP= -300
##MW= 127
##$RETENTION INDEX=1107
##$CONDENSED SPECTRUM=NO
##NPOINTS= 62
##XYDATA=(XY..XY) 1 
    14          1
    15         16
    17          1
    18         15
    26          3
    27         55
    28         32
    29          6
    30         10
    37          1
    38          7
    39        129
    40         26
    41        392
    42         78
    43        178
    44        368
    45          9
    48          5
    52          1
    53          2
    54          8
    55         36
    56         17
    57         15
    58        212
    59         48
    60          3
    66          1
    67          4
    68         33
    69        999
    70         57
    71         16
    72         34
    73          2
    81          1
    82          2
    83          7
    84         83
    85         10
    86         23
    87          1
    91          2
    94          1
    95          1
    96          1
    97          1
    98         45
    99         32
   100          2
   106          1
   109          1
   110          3
   111          1
   112        480
   113         33
   114          2
   126         34
   127         90
   128         14
   129          1