##TITLE=Library Entry 10169
##JCAMP-DX=Revision 4.10 
##DATA TYPE=MASS SPECTRUM
##SAMPLE DESCRIPTION=Insect Chem. Ecol. Lab., USDA, Beltsville, MD 20705
##NAMES=HP
##CAS NAME=Butanoic acid, nonyl ester
##MOLFORM=C13H26O2
##CAS REGISTRY NO=2639-64-7
##MP= -300
##BP= -300
##MW= 214
##$RETENTION INDEX=1468
##$CONDENSED SPECTRUM=NO
##NPOINTS= 89
##XYDATA=(XY..XY) 1 
    41        536
    42        233
    43        999
    44         41
    45         16
    47          1
    49          0
    51          2
    52          1
    53         23
    54         54
    55        414
    56        531
    57        291
    58         19
    59          0
    60         62
    61         58
    62          1
    65          3
    66          4
    67         47
    68        106
    69        336
    70        472
    71        903
    72         44
    73         37
    74          1
    77          1
    78          0
    79          3
    80          0
    81         14
    82        126
    83        279
    84        302
    85        100
    86         19
    87         13
    88        104
    89        993
    90         45
    91          5
    95          5
    96         57
    97        320
    98        247
    99         24
   100          4
   101         19
   102          3
   103          1
   109          0
   110          1
   111         17
   112          4
   113          3
   114          1
   115          8
   116          5
   117          1
   123          0
   124          4
   125          8
   126        366
   127         40
   128          3
   129         12
   130          3
   131          0
   139          2
   140          5
   141          9
   142          3
   143          5
   144         40
   145          3
   153          1
   155          0
   157          1
   158          1
   171         29
   172          3
   186          0
   213          2
   214         63
   215          9
   216          0