##TITLE=Library Entry 21859
##JCAMP-DX=Revision 4.10 
##DATA TYPE=MASS SPECTRUM
##SAMPLE DESCRIPTION=NIST Mass Spectrometry Data Center, 1995
##NAMES=HP
##CAS NAME=Profluralin
##MOLFORM=C14H16F3N3O4
##CAS REGISTRY NO=26399-36-0
##MP= -300
##BP= -300
##MW= 347
##$RETENTION INDEX=1773
##$CONDENSED SPECTRUM=NO
##NPOINTS= 264
##XYDATA=(XY..XY) 1 
    10          0
    14          1
    15          5
    16          1
    17          0
    18          1
    20          0
    27        144
    28         34
    29        197
    30         37
    31          3
    32          0
    37          1
    39         99
    40         13
    41        141
    42         19
    43        109
    44          6
    45          1
    46          1
    50          5
    51          9
    52          9
    53         44
    54          1
    55        999
    56         51
    57         24
    58          2
    59          0
    61          0
    62          3
    63          7
    64          8
    65          5
    66          1
    67          3
    68          6
    69         62
    70          6
    71          3
    72          1
    73          0
    74          5
    75         16
    76          7
    77          6
    78          3
    79          1
    80          2
    81          6
    82          5
    83          4
    84          1
    85          0
    87          2
    88          5
    89          7
    90          3
    91          2
    92          1
    93          2
    94          3
    95          5
    96          2
    97          1
    98          1
    99          2
   100          2
   101          3
   102          5
   103          4
   104          2
   105          9
   106          2
   107          4
   108          4
   109          3
   110          0
   111          0
   112          2
   113          4
   114          4
   115          7
   116          3
   117          3
   118          3
   119          3
   120          4
   121          2
   122          1
   123          6
   124          1
   125         10
   126         11
   127          6
   128          4
   129          2
   130          3
   131         11
   132          6
   133          6
   134          3
   135          2
   136          1
   137          2
   138          5
   139          5
   140          7
   141          4
   143         17
   144         11
   145         22
   146          6
   147          4
   148          2
   149          1
   150          0
   151          6
   152          5
   153         10
   154          2
   155          1
   156          1
   157          3
   158         11
   159         15
   160         10
   161          3
   162          1
   163          1
   164          3
   165          2
   166          5
   167          2
   168          1
   169          2
   170          2
   171          6
   172         10
   173          6
   174          6
   175          2
   176          2
   177          1
   178          2
   179          0
   180          0
   181          0
   182          1
   183          2
   184          6
   185         10
   186         12
   187         10
   188          4
   189          3
   190          2
   191          0
   192          1
   193          0
   195          1
   196          2
   197          5
   198         10
   199         10
   200          4
   201          5
   202          8
   203          1
   204          0
   205          0
   206          3
   210          1
   211          5
   212          7
   213          6
   214          5
   215          4
   216          1
   217          3
   218          2
   219          2
   220          0
   222          0
   223          1
   224          5
   225          4
   226          8
   227          3
   228          3
   229          1
   230          1
   231          2
   232          8
   233          1
   234          2
   235          1
   236          0
   237          1
   238          2
   239          2
   240          2
   241          3
   242          2
   243          2
   244          2
   245          1
   246          0
   248         21
   249          2
   252          2
   253          2
   254          5
   255          2
   256          0
   257          1
   258          7
   259          2
   260          2
   264         45
   265          5
   266          1
   267          1
   268          0
   270          0
   271          1
   272          5
   273          1
   274          8
   275          1
   276          4
   277          1
   282          0
   283          3
   284          3
   285          1
   286          1
   287          1
   288          2
   289          1
   290          4
   291          0
   300          1
   302         23
   303          3
   304          1
   306         14
   307          1
   313          1
   314          0
   315          1
   318        298
   319         44
   320          5
   328          5
   330        156
   331         27
   332          3
   347         44
   348          8
   349          1