##TITLE=Library Entry 8982
##JCAMP-DX=Revision 4.10 
##DATA TYPE=MASS SPECTRUM
##SAMPLE DESCRIPTION=V.G.Zaikin, Petrochem. Synth. Inst., Moscow
##NAMES=HP
##CAS NAME=Butanoic acid, hexyl ester
##MOLFORM=C10H20O2
##CAS REGISTRY NO=2639-63-6
##MP= -300
##BP= -300
##MW= 172
##$RETENTION INDEX=1192
##$CONDENSED SPECTRUM=NO
##NPOINTS= 51
##XYDATA=(XY..XY) 1 
    26         15
    27        187
    28         94
    29        143
    30          6
    31         11
    39         97
    40         29
    41        306
    42        251
    43        999
    44         41
    45         15
    51         15
    52         12
    53         15
    54         19
    55        248
    56        465
    57         76
    58          9
    60         97
    61         42
    67          7
    68          7
    69        152
    70         31
    71        909
    72         39
    73         45
    78          7
    79         13
    82          8
    83         39
    84        359
    85         58
    86         18
    87          8
    88         59
    89        604
    90         34
    91          3
    92          3
    93         11
    99         17
   100          5
   101         39
   102          7
   115          7
   129         19
   130          5