##TITLE=Library Entry 90986
##JCAMP-DX=Revision 4.10 
##DATA TYPE=MASS SPECTRUM
##SAMPLE DESCRIPTION=Exported from NIST MS Search
##NAMES=HP
##CAS NAME=2-Propenoic acid, 3,3-bis(dimethylamino)-, methyl ester
##MOLFORM=C8H16N2O2
##CAS REGISTRY NO=26394-95-6
##MP= -300
##BP= -300
##MW= 172
##$RETENTION INDEX=0
##$CONDENSED SPECTRUM=NO
##NPOINTS= 28
##XYDATA=(XY..XY) 1 
    41         60
    42        310
    43         60
    44        250
    45         60
    52         30
    53         30
    54         60
    55        200
    56         90
    57         30
    59         40
    68        160
    69        160
    70        250
    71         90
    72        669
    82        220
    83         30
    85         30
    98        370
   114        999
   115         60
   128        190
   129        230
   141        200
   157         30
   172        480