##TITLE=Library Entry 69501
##JCAMP-DX=Revision 4.10 
##DATA TYPE=MASS SPECTRUM
##SAMPLE DESCRIPTION=P. Vainiotalo, Dep. Chem., Joensuu Univ., Joensuu, Finl
and
##NAMES=HP
##CAS NAME=2-Azabicyclo[3.2.1]octan-3-one
##MOLFORM=C7H11NO
##CAS REGISTRY NO=26396-67-8
##MP= -300
##BP= -300
##MW= 125
##$RETENTION INDEX=0
##$CONDENSED SPECTRUM=NO
##NPOINTS= 39
##XYDATA=(XY..XY) 1 
    15         26
    26         18
    27        127
    29         56
    30         38
    38         18
    39        197
    40         43
    41        248
    42        101
    43        303
    44         31
    50         12
    51         23
    52         18
    53         73
    54        173
    55         87
    56        166
    57         21
    65         15
    66         15
    67        114
    68        201
    69        144
    70         28
    77         12
    78         37
    79         25
    80         27
    81         37
    82         81
    83         19
    84         18
    95         18
    96        999
    97         99
   125        309
   126         28