##TITLE=Library Entry 33787
##JCAMP-DX=Revision 4.10 
##DATA TYPE=MASS SPECTRUM
##SAMPLE DESCRIPTION=Div. of Experiment Therapeutics WRAIR, WRAMC, Washingto
n DC 20307
##NAMES=HP
##CAS NAME=Orotyl hydrazide
##MOLFORM=C5H6N4O3
##CAS REGISTRY NO=26409-12-1
##MP= -300
##BP= -300
##MW= 170
##$RETENTION INDEX=0
##$CONDENSED SPECTRUM=NO
##NPOINTS= 34
##XYDATA=(XY..XY) 1 
    41        276
    42        141
    43        208
    44        261
    45         11
    51         15
    52         21
    53        100
    54         27
    55         31
    56         22
    58         14
    59          9
    65         12
    67        109
    68        999
    69         80
    70         59
    71         17
    84        129
    85          8
    97          8
    99         41
   111         17
   112        115
   113          9
   127        437
   128         12
   139         31
   140         34
   141         19
   155          7
   170        190
   171         16