##TITLE=Library Entry 44616
##JCAMP-DX=Revision 4.10 
##DATA TYPE=MASS SPECTRUM
##SAMPLE DESCRIPTION=Chemical Concepts
##NAMES=HP
##CAS NAME=10-Hydroxydecanoic acid, methyl ester
##MOLFORM=C11H22O3
##CAS REGISTRY NO=2640-94-0
##MP= -300
##BP= -300
##MW= 202
##$RETENTION INDEX=1567
##$CONDENSED SPECTRUM=NO
##NPOINTS= 140
##XYDATA=(XY..XY) 1 
    25          2
    26          6
    27         62
    29        123
    30          6
    31         92
    33          3
    38          2
    39         67
    40         16
    41        317
    42         81
    43        250
    44         24
    45         39
    46          3
    50          2
    51          5
    52          3
    53         31
    54         56
    55        451
    56         84
    57         74
    58         11
    59        160
    60          9
    61          8
    63          2
    65          7
    66         11
    67         96
    68        113
    69        342
    70         47
    71         36
    72         12
    73         50
    74        999
    75        187
    76         15
    77          9
    78          4
    79         26
    80         21
    81        118
    82        105
    83        136
    84        247
    85         53
    86          6
    87        423
    88         71
    89          8
    91         11
    92          7
    93         22
    94         23
    95         54
    96        103
    97         88
    98        240
    99         29
   100          9
   101         59
   102         11
   103          3
   104          2
   105         10
   106          6
   107         11
   108         65
   109         49
   110        106
   111         76
   112         22
   113         28
   114         33
   115         48
   116         14
   117          5
   118          2
   119          7
   120          4
   121          9
   122          5
   123         44
   124         64
   125         28
   126         14
   127         25
   128         19
   129         77
   130         15
   131          3
   133          5
   134         24
   135         33
   136          7
   137         16
   138         11
   139         10
   140          4
   141         26
   142          7
   143         54
   144         11
   145          3
   147          2
   149         13
   150          3
   151          5
   152         79
   153         68
   154         12
   155         10
   156          4
   157         10
   158          7
   159          5
   160          2
   165          2
   166          2
   167          2
   168          2
   169         11
   170         13
   171         26
   172        123
   173         23
   174          2
   181          2
   183          2
   184          3
   185          2
   186          2
   202          1
   203          3
   204          1
   205          1