##TITLE=Library Entry 66361
##JCAMP-DX=Revision 4.10 
##DATA TYPE=MASS SPECTRUM
##SAMPLE DESCRIPTION=V.A.KOPTYUG, ATLAS OF MASS SPECTRA OF ORGANIC COMPOUNDS
##NAMES=HP
##CAS NAME=Picolinic acid, 5-octyl-
##MOLFORM=C14H21NO2
##CAS REGISTRY NO=26405-30-1
##MP= -300
##BP= -300
##MW= 235
##$RETENTION INDEX=0
##$CONDENSED SPECTRUM=NO
##NPOINTS= 58
##XYDATA=(XY..XY) 1 
    50        161
    51        267
    52        200
    53        141
    54         23
    55        270
    56         51
    57        705
    58         42
    63         71
    64        100
    65        553
    66         91
    76         23
    77        184
    78        173
    79        210
    80         98
    91        301
    92        613
    93        999
    94        108
   104         87
   105        133
   106        883
   117         35
   118         50
   119        414
   120         33
   132        120
   133         61
   134         62
   135        111
   136        120
   137        573
   138         49
   146         45
   148        142
   149         50
   150        833
   151        121
   162         67
   163         75
   164         80
   174         21
   175         30
   176         30
   178         30
   179         10
   190         70
   191         75
   192         90
   206         50
   207         21
   217         40
   234         62
   235        100
   236         11