##TITLE=Library Entry 89455
##JCAMP-DX=Revision 4.10 
##DATA TYPE=MASS SPECTRUM
##SAMPLE DESCRIPTION=J. Daly, M. Garraffo, T. Spande, LBC, NIDDK, NIH, Bethe
sda, MD 20892
##NAMES=HP
##CAS NAME=(2S,6R)-2-Methyl-6-nonylpiperidin-4-one
##MOLFORM=C15H29NO
##CAS REGISTRY NO=264149-06-6
##MP= -300
##BP= -300
##MW= 239
##$RETENTION INDEX=0
##$CONDENSED SPECTRUM=NO
##NPOINTS= 42
##XYDATA=(XY..XY) 1 
    53          3
    54          8
    55         27
    56         23
    57         11
    58          6
    67          9
    68         14
    69         26
    70        282
    71         24
    72          3
    80          2
    82         16
    83         11
    84         21
    85          5
    86          3
    95          7
    98         16
    99          5
   100          5
   112        999
   113        100
   114         10
   125          2
   126          5
   127          9
   140         35
   141          4
   154          9
   166          3
   168          4
   182         47
   183          8
   196         25
   197          5
   210          3
   224         15
   225          2
   238          5
   239          9