##TITLE=Library Entry 36510
##JCAMP-DX=Revision 4.10 
##DATA TYPE=MASS SPECTRUM
##SAMPLE DESCRIPTION=ASES Database, Dalian Institute, P.R. China
##NAMES=HP
##CAS NAME=Propanoyl fluoride, 2,3,3,3-tetrafluoro-2-[1,1,2,3,3,3-hexafluoro
-2-(heptafluoropropoxy)propoxy]-
##MOLFORM=C9F18O3
##CAS REGISTRY NO=2641-34-1
##MP= -300
##BP= -300
##MW= 498
##$RETENTION INDEX=0
##$CONDENSED SPECTRUM=NO
##NPOINTS= 15
##XYDATA=(XY..XY) 1 
    31        147
    47        120
    50         68
    59         40
    69        999
    97        267
   100        208
   119        656
   131         39
   147        219
   150         79
   169        906
   213         60
   313        110
   335        169