##TITLE=Library Entry 55790
##JCAMP-DX=Revision 4.10 
##DATA TYPE=MASS SPECTRUM
##SAMPLE DESCRIPTION=A.A.Kutin, Moscow, Russia
##NAMES=HP
##CAS NAME=Acetamide, N-[4-(4,7,10,13-tetraoxa-1-azacyclopentadec-1-yl)-4-ox
obutyl]-
##MOLFORM=C16H30N2O6
##CAS REGISTRY NO=264132-05-0
##MP= -300
##BP= -300
##MW= 346
##$RETENTION INDEX=0
##$CONDENSED SPECTRUM=NO
##NPOINTS= 230
##XYDATA=(XY..XY) 1 
    33          1
    34          1
    36          1
    38          2
    39         14
    40         18
    41        123
    42        165
    43        534
    44        217
    45        293
    46         13
    47          1
    50          1
    51          3
    52          1
    53          3
    54         21
    55         68
    56        235
    57         97
    58         95
    59         56
    60         11
    61          4
    62          2
    63          1
    64          1
    65          2
    66          1
    67          4
    68         22
    69         67
    70        122
    71         56
    72        125
    73         91
    74        107
    75         10
    76          1
    77          2
    78          1
    79          1
    80          1
    81          2
    82          7
    83         10
    84         36
    86        999
    87        176
    88         65
    89         49
    90          3
    91         10
    92          2
    93          1
    94          1
    95          1
    96          4
    97          7
    98         41
    99         46
   100         99
   101         47
   102         24
   103         19
   104          8
   105          4
   106          2
   107          1
   108          1
   109          2
   110          7
   111         15
   112         38
   113         28
   114         50
   115         24
   116        104
   117         30
   118         16
   119          2
   120          3
   121          1
   122          1
   123          1
   124          5
   125          7
   126         26
   127         23
   128        182
   129         48
   130         37
   131         16
   132         50
   133         18
   134          4
   135          1
   136          1
   137          2
   138          1
   139          3
   140          5
   141          5
   142         21
   143         13
   144         24
   145         26
   146         15
   147          3
   148          5
   149          1
   150          1
   151          1
   152          1
   153          4
   154          3
   155          8
   156         17
   157         21
   158         56
   159         13
   160          8
   161          7
   162         21
   163          2
   164          1
   165          0
   167          1
   168          3
   169          5
   170         37
   171         72
   172         43
   173         14
   174         21
   175          5
   176         15
   177          4
   178          2
   179          0
   181          1
   182          1
   183          3
   184         10
   185         10
   186         18
   187         19
   188         30
   189         11
   190         28
   191          3
   192          4
   193          0
   194          0
   195          0
   196          3
   197          5
   198          8
   199          9
   200         13
   201         10
   202          7
   203          5
   204          4
   205          0
   206          1
   211          1
   212          4
   213         12
   214         10
   215         20
   216         19
   217          6
   218         48
   219         14
   220         18
   221          2
   222          1
   226          0
   227          3
   228          3
   229          5
   230          5
   231          5
   232          6
   233          3
   234          4
   240          1
   241          3
   242          1
   243          4
   244          4
   245          2
   246          3
   247          1
   248          1
   255          0
   256          1
   257          4
   258          2
   259         10
   260          3
   261         13
   262          3
   264          1
   271          2
   272          1
   273          4
   274         42
   275          8
   276          1
   278          0
   283          0
   285          2
   286          1
   287          2
   288          3
   289          1
   290          1
   301          2
   302          1
   303         11
   304          2
   322          1
   331          4
   332          0
   345          2
   346          6
   347          2