##TITLE=Library Entry 8895
##JCAMP-DX=Revision 4.10 
##DATA TYPE=MASS SPECTRUM
##SAMPLE DESCRIPTION=Exported from NIST MS Search
##NAMES=HP
##CAS NAME=Heptadecane, 4-methyl-
##MOLFORM=C18H38
##CAS REGISTRY NO=26429-11-8
##MP= -300
##BP= -300
##MW= 254
##$RETENTION INDEX=1758
##$CONDENSED SPECTRUM=NO
##NPOINTS= 56
##XYDATA=(XY..XY) 1 
    41        499
    42        119
    43        999
    44         38
    53         33
    54         33
    55        371
    56        152
    57        666
    58         33
    67         38
    68         23
    69        142
    70        404
    71        723
    72         47
    79          4
    81         14
    82         19
    83         95
    84         57
    85        333
    86         14
    95          4
    96          9
    97         57
    98         23
    99        100
   100          4
   110          4
   111         38
   112         14
   113         71
   114          4
   125         14
   126          9
   127         71
   139          4
   140          4
   141         57
   154          9
   155         38
   169         23
   182         47
   183         38
   196          2
   197          4
   210        142
   211        247
   212         38
   224          9
   225         33
   226          4
   239         33
   240          4
   254         28