##TITLE=Library Entry 13184
##JCAMP-DX=Revision 4.10 
##DATA TYPE=MASS SPECTRUM
##SAMPLE DESCRIPTION=A.A.Kutin, Moscow, Russia
##NAMES=HP
##CAS NAME=Benzoic acid, 2-(acetyloxy)-5-isothiocyanato-
##MOLFORM=C10H7NO4S
##CAS REGISTRY NO=264257-15-0
##MP= -300
##BP= -300
##MW= 237
##$RETENTION INDEX=0
##$CONDENSED SPECTRUM=NO
##NPOINTS= 94
##XYDATA=(XY..XY) 1 
    33        122
    34         17
    36          8
    37         49
    38         95
    39        148
    40        278
    41         51
    43        999
    44        137
    45        162
    46          2
    48          6
    49         13
    50         62
    51        102
    52        101
    53        153
    55         20
    56         10
    57         15
    58         13
    59          7
    60         61
    61         49
    62        105
    63        225
    64         53
    65         21
    66         26
    68         35
    69         36
    70         62
    71         12
    72          7
    73          2
    74         22
    75         32
    76         21
    77         40
    78         56
    79        144
    80         52
    81         10
    82          7
    83         28
    84         10
    85          3
    86          6
    87          4
    88         18
    89         26
    90         11
    91         20
    92          8
    93         11
    94         42
    95         35
    96         21
    97          7
   105          9
   106         43
   107        117
   108         17
   109         12
   110          9
   112          1
   117         12
   121        160
   122         41
   123         15
   124          6
   133         48
   135        222
   136         35
   137          1
   138          3
   145          4
   149        293
   150         30
   151         23
   153        132
   154          7
   175          7
   177        530
   178         91
   179         29
   180          2
   192          2
   195        469
   196         40
   197         21
   237         37
   238          2