##TITLE=Library Entry 45350
##JCAMP-DX=Revision 4.10 
##DATA TYPE=MASS SPECTRUM
##SAMPLE DESCRIPTION=NIST Mass Spectrometry Data Center
##NAMES=HP
##CAS NAME=Pentanoic acid, TMS derivative
##MOLFORM=C8H18O2Si
##CAS REGISTRY NO=26429-16-3
##MP= -300
##BP= -300
##MW= 174
##$RETENTION INDEX=976
##$CONDENSED SPECTRUM=NO
##NPOINTS= 88
##XYDATA=(XY..XY) 1 
    15          3
    26          3
    27         32
    28         12
    29         58
    30          2
    31          4
    38          1
    39         25
    40          3
    41         47
    42         16
    43         55
    44         18
    45        140
    46         10
    47         70
    48          3
    49          3
    50          1
    51          3
    52          1
    53         10
    54          3
    55         59
    56         22
    57         38
    58         38
    59         39
    60         15
    61         63
    62          4
    63          2
    67          5
    68          1
    69          5
    70          3
    71          5
    72         27
    73        649
    74         77
    75        999
    76         73
    77         39
    78          1
    81          1
    83          8
    84          4
    85         10
    86         16
    87          6
    88          5
    89          5
    90          2
    91          2
    93          1
    97          1
    99          5
   100          1
   101         10
   102          2
   103          3
   105          1
   111          1
   113          1
   115         14
   116         13
   117        202
   118         20
   119          8
   129         52
   130         12
   131          5
   132         63
   133          7
   134          3
   141         17
   142          2
   143          3
   145         28
   146          4
   147          1
   157          1
   159        537
   160         69
   161         24
   162          2
   174          3