##TITLE=Library Entry 2186
##JCAMP-DX=Revision 4.10 
##DATA TYPE=MASS SPECTRUM
##SAMPLE DESCRIPTION=D.HENNEBERG, MAX-PLANCK INSTITUTE, MULHEIM, WEST GERMAN
Y
##NAMES=HP
##CAS NAME=3-Buten-1-ol, 3-methyl-2-methylene-
##MOLFORM=C6H10O
##CAS REGISTRY NO=26431-13-0
##MP= -300
##BP= -300
##MW= 98
##$RETENTION INDEX=0
##$CONDENSED SPECTRUM=NO
##NPOINTS= 61
##XYDATA=(XY..XY) 1 
    26         52
    27        246
    28         53
    29        149
    30         13
    31        149
    32          2
    36          1
    37         27
    38         61
    39        542
    40        132
    41        999
    42        120
    43        189
    44         29
    45         19
    47          3
    48          3
    49          8
    50         58
    51         99
    52        107
    53        182
    54         45
    55        313
    56        101
    57        129
    58         45
    59         14
    60          1
    61          9
    62         18
    63         34
    64          8
    65        122
    66         37
    67        150
    68         23
    69        412
    70         80
    71         16
    73          1
    74          3
    75          6
    76          1
    77         77
    78         24
    79        346
    80        192
    81         29
    82         11
    83        195
    84         11
    85          1
    95         11
    96          8
    97         88
    98        374
    99         25
   100          1