##TITLE=Library Entry 56000
##JCAMP-DX=Revision 4.10 
##DATA TYPE=MASS SPECTRUM
##SAMPLE DESCRIPTION=Japan AIST/NIMC Database- Spectrum MS-IW-2884
##NAMES=HP
##CAS NAME=Ethyl N,N-diethylaminoacetate
##MOLFORM=C8H17NO2
##CAS REGISTRY NO=2644-21-5
##MP= -300
##BP= -300
##MW= 159
##$RETENTION INDEX=0
##$CONDENSED SPECTRUM=NO
##NPOINTS= 62
##XYDATA=(XY..XY) 1 
    14          1
    15          5
    26          7
    27         44
    28         45
    29        105
    30         85
    31         41
    39          1
    40          1
    41         10
    42         75
    43         20
    44         13
    45         12
    46          1
    48          1
    49          9
    51          3
    54          4
    55          3
    56         47
    57         11
    58        151
    59         25
    60          7
    61          8
    62          1
    63          1
    64         21
    65          1
    66          7
    70          8
    71          7
    72         28
    73          5
    74          1
    76          1
    77         12
    79          4
    84          9
    85          4
    86        999
    87         64
    88         13
    89          1
    94          1
    95          1
   100          2
   102          1
   107          1
   114          2
   116         18
   117          3
   128          2
   130          8
   131          1
   144         70
   145          6
   158          4
   159         53
   160          5