##TITLE=Library Entry 8021
##JCAMP-DX=Revision 4.10 
##DATA TYPE=MASS SPECTRUM
##SAMPLE DESCRIPTION=R.T.HOLMAN,UNIVERSITY OF MINNESOTA
##NAMES=HP
##CAS NAME=1,2-Dipalmitoylphosphatidylcholine
##MOLFORM=C40H80NO8P
##CAS REGISTRY NO=2644-64-6
##MP= -300
##BP= -300
##MW= 733
##$RETENTION INDEX=0
##$CONDENSED SPECTRUM=NO
##NPOINTS= 425
##XYDATA=(XY..XY) 1 
    25          4
    26         22
    27        128
    28        440
    29        272
    30         48
    31         38
    32         42
    33          4
    35          4
    36         19
    37          6
    38         10
    39         72
    40         28
    41        536
    42        248
    43        999
    44        104
    45         44
    46          5
    47          8
    48          4
    49          4
    50         10
    51          9
    52          8
    53         32
    54         75
    55        824
    56        264
    57        992
    58        352
    59        120
    60        276
    61         72
    62          6
    63          5
    64          5
    65         16
    66         12
    67        144
    68         83
    69        464
    70        168
    71        608
    72         56
    73        352
    74         56
    75         20
    76          4
    77         15
    78         12
    79         52
    80         22
    81        168
    82         76
    83        344
    84        296
    85        328
    86         32
    87         72
    88         24
    89         12
    90          3
    91         16
    92          5
    93         32
    94         24
    95        176
    96         68
    97        272
    98        488
    99        120
   100         39
   101         56
   102         17
   103          8
   104          7
   105         12
   106          6
   107         28
   108         40
   109        100
   110         38
   111        140
   112        168
   113         96
   114         16
   115         61
   116        272
   117        168
   118         16
   119         10
   120          8
   121         33
   122         12
   123         52
   124         20
   125         60
   126         48
   127         45
   128         11
   129        360
   130         45
   131         21
   132          5
   133          8
   134         15
   135         36
   136         14
   137         35
   138         23
   139         32
   140         36
   141         37
   142         11
   143         37
   144          9
   145          7
   146          4
   147         13
   148          5
   149         20
   150         21
   151         28
   152         19
   153         21
   154         48
   155         43
   156         11
   157         48
   158         86
   159         15
   160          4
   161          6
   162          4
   163          9
   164          8
   165         14
   166         12
   167         19
   168         61
   169        320
   170         26
   171        168
   172         29
   173          9
   174          4
   175          4
   176          9
   177          5
   178          5
   179         10
   180          6
   181         12
   182         44
   183        152
   184         17
   185        120
   186         22
   187          6
   188          3
   189          5
   190          8
   191          5
   192          8
   193          5
   194         16
   195         18
   196         24
   197         24
   198          5
   199         28
   200          8
   201          5
   202          4
   203          8
   204          6
   205          4
   206          3
   207         11
   208          5
   209         12
   210         67
   211         18
   212          5
   213         97
   214         17
   215          4
   216          4
   217          8
   218         10
   219         20
   220         13
   221          8
   222          4
   223        176
   224         37
   225         20
   226          5
   227         73
   228         14
   229          4
   230          3
   231          5
   232          5
   233          3
   234          4
   235          5
   236         22
   237         61
   238        100
   239        848
   240        168
   241         36
   242         11
   243          5
   245          4
   246          3
   247          3
   248          2
   249          3
   250          3
   251          6
   252          6
   253         15
   254          7
   255         24
   256        160
   257         49
   258          8
   259          5
   260          4
   261          2
   262          2
   263          2
   264          7
   265         17
   266          5
   267         18
   268          6
   269         52
   270         15
   271          5
   272          2
   273          4
   274          4
   275          3
   277          3
   278          3
   279         36
   280         12
   281         13
   282          6
   283         28
   284         15
   285         11
   286          4
   287          4
   288          3
   289          2
   290          2
   292          2
   293         14
   294          8
   295         11
   296         13
   297         38
   298         13
   299        192
   300         39
   301          8
   302          4
   303          2
   304          3
   307          7
   308          4
   309          7
   310          8
   311         68
   312        168
   313        584
   314        128
   315         20
   316          5
   320          2
   321         10
   322          4
   323          8
   324          5
   325         16
   326          8
   327          7
   328          4
   329          6
   330          7
   331        144
   332         32
   333          6
   334          2
   335          8
   336          4
   337          8
   338          5
   339          9
   340          4
   341         12
   342          4
   343          3
   344          2
   347          6
   350          3
   351          4
   352          5
   353          7
   354        184
   355         64
   356         13
   357         11
   358          4
   360          2
   363         21
   364          5
   365         10
   366          4
   367        720
   368        192
   369         32
   370          7
   371          6
   372         14
   373          4
   374          2
   375          3
   376          2
   377         12
   378          4
   379          4
   380          4
   381         37
   382         16
   383          4
   384          2
   385          2
   386          4
   387          3
   388          1
   389          1
   390          2
   391          4
   392          4
   393          7
   394          4
   395         12
   396          9
   397          4
   398          2
   405          3
   406         20
   407          8
   408          3
   409         73
   410         23
   411          6
   412          2
   413          2
   420         11
   421          7
   422          4
   423        224
   424         56
   425         12
   426          3
   428          3
   429          2
   430          1
   435          3
   436          2
   437         21
   438          8
   439          3
   449          3
   450          3
   451         36
   452         16
   453          4
   454          2
   464         51
   465         19
   466          8
   467          5
   468          5
   469          4
   470          4
   479         33
   480         14
   481          4
   482          2
   493         20
   494         12
   495          5
   496          4
   497          2
   507        144
   508         48
   509         13
   510          4
   521         36
   522         16
   523          5
   524          2
   525          1
   535          6
   536          3
   537         12
   538         10
   539          3
   540          1
   548          5
   549         27
   550        320
   551        144
   552         30
   553          6