##TITLE=Library Entry 77068
##JCAMP-DX=Revision 4.10 
##DATA TYPE=MASS SPECTRUM
##SAMPLE DESCRIPTION=Exported from NIST MS Search
##NAMES=HP
##CAS NAME=Benzene, 5-heptenyl-
##MOLFORM=C13H18
##CAS REGISTRY NO=26447-66-5
##MP= -300
##BP= -300
##MW= 174
##$RETENTION INDEX=0
##$CONDENSED SPECTRUM=NO
##NPOINTS= 48
##XYDATA=(XY..XY) 1 
    41        170
    42         30
    43         30
    45         10
    50         10
    51         60
    52         30
    53         50
    54         30
    55        230
    56         20
    57         20
    58         30
    64         40
    65         10
    66        130
    67         10
    68         60
    69         40
    70         20
    72         10
    77         80
    78         50
    79         60
    81         40
    82         20
    83         30
    89         20
    90         10
    91        900
    92        300
    93         40
   102         10
   103         40
   104        999
   105        200
   106         40
   115         50
   116         10
   117        390
   118        120
   119         10
   129         10
   131         80
   132         30
   145         30
   174        280
   175         50