##TITLE=Library Entry 89439
##JCAMP-DX=Revision 4.10 
##DATA TYPE=MASS SPECTRUM
##SAMPLE DESCRIPTION=Japan AIST/NIMC Database- Spectrum MS-IW-2284
##NAMES=HP
##CAS NAME=1-Piperidinecarboxamide, N-phenyl-
##MOLFORM=C12H16N2O
##CAS REGISTRY NO=2645-36-5
##MP= -300
##BP= -300
##MW= 204
##$RETENTION INDEX=0
##$CONDENSED SPECTRUM=NO
##NPOINTS= 99
##XYDATA=(XY..XY) 1 
    15          5
    26          2
    27         23
    28         44
    29         32
    30         33
    37          3
    38          9
    39         41
    40          7
    41        240
    42         61
    43         38
    44         22
    45          2
    50          8
    51         30
    52          9
    53          9
    54         12
    55         50
    56        100
    57         27
    58          1
    59          3
    61          4
    62          3
    63         13
    64         29
    65         49
    66         18
    67         15
    68          6
    69        626
    70         70
    71          2
    73          1
    74          4
    75          2
    76          3
    77         70
    78          7
    79          2
    80          3
    81          1
    82         11
    83         16
    84        162
    85         36
    86          2
    87          3
    88          2
    90          3
    91         50
    92         31
    93         66
    94          7
    99          1
   100          3
   101          1
   102          4
   104          3
   105          1
   106          9
   107          1
   110          2
   111          3
   112        999
   113         76
   114          4
   117          1
   118          2
   119        104
   120         19
   121          2
   126          1
   127          5
   129          1
   132          7
   133          1
   135          4
   136          3
   144         13
   145          2
   146          1
   147          5
   158          3
   159         21
   160         77
   161         10
   162          2
   175          6
   176          1
   186          1
   187          5
   203         81
   204        570
   205         80
   206          6