##TITLE=Library Entry 79123
##JCAMP-DX=Revision 4.10 
##DATA TYPE=MASS SPECTRUM
##SAMPLE DESCRIPTION=NIST Mass Spectrometry Data Center
##NAMES=HP
##CAS NAME=(4-t-Butylphenyl) benzoate
##MOLFORM=C17H18O2
##CAS REGISTRY NO=26459-51-8
##MP= -300
##BP= -300
##MW= 254
##$RETENTION INDEX=0
##$CONDENSED SPECTRUM=NO
##NPOINTS= 62
##XYDATA=(XY..XY) 1 
    15          1
    27          8
    29          5
    38          2
    39         22
    40          2
    41         24
    42          1
    43          2
    50         21
    51         84
    52          9
    53          9
    54          1
    55          5
    57          5
    62          2
    63         10
    64          3
    65         20
    66          4
    67          1
    74          5
    75          5
    76         19
    77        427
    78         44
    79         17
    80          1
    81          1
    89          4
    90          2
    91         61
    92          5
    93          2
    94          1
    95          2
   102          1
   103          8
   105        999
   106        140
   107         16
   108          1
   109          9
   115          4
   116          1
   117          2
   118          1
   119          5
   120          1
   121          5
   133          1
   134          9
   135          7
   149          2
   150          1
   152          1
   239          9
   240          1
   254         60
   255         11
   256          1