##TITLE=Library Entry 107696
##JCAMP-DX=Revision 4.10 
##DATA TYPE=MASS SPECTRUM
##SAMPLE DESCRIPTION=J. PALECEK,DEP. ORG. CHEM.,INST. CHEM. TECHNOL.,PRAGUE,
CZECH.
##NAMES=HP
##CAS NAME=4-(Bromomethyl)-1-azabicyclo[2.2.2]octane
##MOLFORM=C8H14BrN
##CAS REGISTRY NO=26458-73-1
##MP= -300
##BP= -300
##MW= 203
##$RETENTION INDEX=0
##$CONDENSED SPECTRUM=NO
##NPOINTS= 18
##XYDATA=(XY..XY) 1 
    27        131
    28        105
    39        136
    41        237
    42        559
    44        115
    53         69
    55         62
    56         66
    67         88
    70         76
    81         76
    96        105
   110        125
   124        999
   125         85
   203         80
   205         80