##TITLE=Library Entry 66462
##JCAMP-DX=Revision 4.10 
##DATA TYPE=MASS SPECTRUM
##SAMPLE DESCRIPTION=Chemical Concepts
##NAMES=HP
##CAS NAME=Imidodicarbonic diamide, N,N',2-triphenyl-
##MOLFORM=C20H17N3O2
##CAS REGISTRY NO=2645-39-8
##MP= -300
##BP= -300
##MW= 331
##$RETENTION INDEX=0
##$CONDENSED SPECTRUM=NO
##NPOINTS= 109
##XYDATA=(XY..XY) 1 
    23          0
    25          1
    26          9
    27         16
    28         11
    29          1
    30          1
    31          2
    36          1
    37         23
    38         43
    39         85
    40         18
    41         32
    42          2
    43          1
    44          3
    45          2
    46          1
    48          0
    49          5
    50         27
    51         61
    52         23
    53          3
    54          7
    55          0
    56          0
    57          0
    60          1
    61          9
    62         15
    63         52
    64        132
    65        106
    66        126
    67         12
    68          0
    69          0
    70          0
    71          0
    73          1
    74          6
    75          5
    76          7
    77         97
    78         10
    79          1
    80          1
    81          0
    86          0
    87          1
    88          2
    89          1
    90          9
    91        215
    92         86
    93        999
    94         68
    95          2
    97          0
    99          0
   101          0
   103          1
   104          0
   105          1
   106          3
   108          0
   115          0
   117          0
   118          1
   119        370
   120         41
   121          2
   127          0
   128          0
   129          0
   133          1
   134          0
   135          1
   139          0
   140          0
   141          0
   143          0
   149          0
   152          0
   153          0
   157          0
   166          0
   167          2
   168          2
   169          3
   170          0
   181          0
   182          1
   185          0
   192          0
   193          0
   194          5
   195          1
   210          0
   211         19
   212        216
   213         32
   214          3
   274          0
   331         39
   332         10
   333          1