##TITLE=Library Entry 5092
##JCAMP-DX=Revision 4.10 
##DATA TYPE=MASS SPECTRUM
##SAMPLE DESCRIPTION=J. PALECEK,DEP. ORG. CHEM.,INST. CHEM. TECHNOL.,PRAGUE,
CZECH.
##NAMES=HP
##CAS NAME=1-Azabicyclo[2.2.2]octan-4-ol
##MOLFORM=C7H13NO
##CAS REGISTRY NO=26458-74-2
##MP= -300
##BP= -300
##MW= 127
##$RETENTION INDEX=0
##$CONDENSED SPECTRUM=NO
##NPOINTS= 22
##XYDATA=(XY..XY) 1 
    27        168
    28        200
    29         96
    39         57
    41        200
    42        999
    43        193
    53         58
    55         90
    56        304
    57        520
    58        240
    69         99
    70        160
    84         65
    98        160
    99         96
   110        992
   111         76
   112         66
   126         64
   127        456