##TITLE=Library Entry 87830
##JCAMP-DX=Revision 4.10 
##DATA TYPE=MASS SPECTRUM
##SAMPLE DESCRIPTION=TNO Volatile Compounds in Food - Chemical Concepts
##NAMES=HP
##CAS NAME=Methanone, di-3-thienyl-
##MOLFORM=C9H6OS2
##CAS REGISTRY NO=26453-81-6
##MP= -300
##BP= -300
##MW= 194
##$RETENTION INDEX=0
##$CONDENSED SPECTRUM=NO
##NPOINTS= 69
##XYDATA=(XY..XY) 1 
    25          2
    26          7
    27          1
    29          3
    33          2
    36          2
    37         18
    38         54
    39        603
    44         11
    45         94
    46          3
    47          4
    49          5
    50         21
    51         11
    52          1
    53         16
    57         24
    58         16
    59          2
    60          2
    61          6
    62          5
    63          9
    66          2
    67          1
    68          2
    69         15
    70          3
    71          2
    74          4
    75          6
    76          2
    77          7
    81         21
    82         32
    83        226
    84         26
    85          9
    86          2
    89          3
    90          2
    93          5
    94          2
    95          2
    96          1
    97          8
   108          3
   111        999
   112         59
   113         44
   114          2
   120          2
   121         24
   122          3
   134          5
   150          4
   161          3
   165          4
   166         19
   167          2
   177          2
   192          1
   193         14
   194        380
   195         46
   196         36
   197          2