##TITLE=Library Entry 48731
##JCAMP-DX=Revision 4.10 
##DATA TYPE=MASS SPECTRUM
##SAMPLE DESCRIPTION=D.HENNEBERG, MAX-PLANCK INSTITUTE, MULHEIM, WEST GERMAN
Y
##NAMES=HP
##CAS NAME=1,4-Pentadiene, 3-ethenyl-
##MOLFORM=C7H10
##CAS REGISTRY NO=26456-63-3
##MP= -300
##BP= -300
##MW= 94
##$RETENTION INDEX=0
##$CONDENSED SPECTRUM=NO
##NPOINTS= 66
##XYDATA=(XY..XY) 1 
    22          0
    25          1
    26         24
    27        157
    28         33
    29         18
    30          0
    31          2
    32          0
    33          0
    34          0
    36          0
    37         14
    38         40
    39        339
    40         90
    41        257
    42         25
    43          2
    44          3
    45          8
    46          4
    47          0
    48          0
    49          3
    50         26
    51         56
    52         47
    53        110
    54         41
    55         20
    56          1
    57          0
    59          0
    60          1
    61          9
    62         17
    63         34
    64          8
    65        136
    66        111
    67        107
    68          7
    70          0
    72          1
    73          1
    74          2
    75         15
    76          3
    77        427
    78         60
    79        999
    80         66
    81          2
    83          0
    84          0
    85          0
    86          1
    87          0
    89          5
    90          1
    91        150
    92         14
    93        109
    94          8
    95          1