##TITLE=Library Entry 96655
##JCAMP-DX=Revision 4.10 
##DATA TYPE=MASS SPECTRUM
##SAMPLE DESCRIPTION=G.S. GROENEWOLD, THE BRISTOL-MYERS CO., SYRACUSE, N.Y.,
 USA
##NAMES=HP
##CAS NAME=1-Acetoxyindane
##MOLFORM=C11H12O2
##CAS REGISTRY NO=26452-98-2
##MP= -300
##BP= -300
##MW= 176
##$RETENTION INDEX=0
##$CONDENSED SPECTRUM=NO
##NPOINTS= 26
##XYDATA=(XY..XY) 1 
    74          9
    75         11
    76         15
    77         51
    78         22
    79         20
    89         26
    90         10
    91         68
    92         10
   102         19
   103         32
   104         25
   105         38
   115        240
   116        999
   117        350
   118         35
   130          9
   131         20
   132         29
   133        140
   134        140
   135         19
   176          4
   177          0