##TITLE=Library Entry 48478
##JCAMP-DX=Revision 4.10 
##DATA TYPE=MASS SPECTRUM
##SAMPLE DESCRIPTION=Chemical Concepts
##NAMES=HP
##CAS NAME=7-Methylene-9-oxabicyclo[6.1.0]non-2-ene
##MOLFORM=C9H12O
##CAS REGISTRY NO=264628-23-1
##MP= -300
##BP= -300
##MW= 136
##$RETENTION INDEX=0
##$CONDENSED SPECTRUM=NO
##NPOINTS= 91
##XYDATA=(XY..XY) 1 
    37         11
    38         51
    39        785
    40        160
    41        534
    42         50
    43         55
    44          7
    45          8
    46          0
    47          3
    49          2
    50         60
    51        179
    52        105
    53        343
    54        130
    55        166
    56         16
    57         41
    58         14
    59          4
    60          1
    61          3
    62         13
    63         51
    64         14
    65        248
    66        145
    67        268
    68        216
    69         50
    70         31
    71         10
    72          1
    73          9
    74          7
    75         27
    76          7
    77        469
    78        127
    79        999
    80        282
    81        278
    82         75
    83         23
    84         10
    85          1
    86         12
    87          2
    88          0
    89         12
    90         17
    91        655
    92        401
    93        288
    94        138
    95        113
    96         19
    97         11
    98          1
   100          1
   101          3
   102          6
   103         87
   104         24
   105        152
   106         33
   107        583
   108        388
   109         46
   110          5
   111          1
   115         33
   116         12
   117        143
   118         54
   119         26
   120         12
   121        193
   122         20
   123          4
   124          4
   131          3
   132          5
   133          4
   134          4
   135         79
   136        159
   137         17
   138          2