##TITLE=Library Entry 60627
##JCAMP-DX=Revision 4.10 
##DATA TYPE=MASS SPECTRUM
##SAMPLE DESCRIPTION=Chemical Concepts
##NAMES=HP
##CAS NAME=5-Methylenecycloocta-1,3-diene
##MOLFORM=C9H12
##CAS REGISTRY NO=264628-15-1
##MP= -300
##BP= -300
##MW= 120
##$RETENTION INDEX=0
##$CONDENSED SPECTRUM=NO
##NPOINTS= 80
##XYDATA=(XY..XY) 1 
    25          1
    26         23
    27        199
    28         25
    29         22
    32          1
    37          9
    38         36
    39        338
    40         56
    41        144
    42          8
    43          2
    44          0
    45          3
    46          0
    49          3
    50         64
    51        150
    52         73
    53         90
    54         12
    55         22
    56          1
    57          6
    58         22
    59         16
    60          1
    61          6
    62         24
    63         72
    64         16
    65        142
    66         73
    67         30
    68          4
    69          2
    70          2
    71          0
    73          7
    74         11
    75         13
    76          9
    77        270
    78        183
    79        354
    80         38
    81          9
    82          0
    85          1
    86          3
    87          3
    88          1
    89         22
    90         24
    91        999
    92        743
    93         84
    94          8
    95          1
    98          0
   101          3
   102          7
   103         55
   104         21
   105        299
   106         26
   107          5
   108          0
   109          0
   113          1
   114          0
   115         29
   116          6
   117         25
   118          4
   119         66
   120        409
   121         41
   122          5