##TITLE=Library Entry 84767
##JCAMP-DX=Revision 4.10 
##DATA TYPE=MASS SPECTRUM
##SAMPLE DESCRIPTION=I.Korhonen, Org.Mass Spectrom. 23, 729 (1988)
##NAMES=HP
##CAS NAME=Butanoic acid, 2-chloro-, methyl ester
##MOLFORM=C5H9ClO2
##CAS REGISTRY NO=26464-32-4
##MP= -300
##BP= -300
##MW= 136
##$RETENTION INDEX=864
##$CONDENSED SPECTRUM=NO
##NPOINTS= 57
##XYDATA=(XY..XY) 1 
    36         15
    37         10
    38         39
    39        218
    40         31
    41        796
    42        121
    43         73
    44         13
    45         29
    46          2
    48          7
    49         60
    50         13
    51         21
    53          7
    55        100
    56         26
    57         50
    58          7
    59        934
    60         23
    61         10
    62         18
    63         50
    64         13
    65         21
    68          7
    69        179
    70         31
    71          7
    73         10
    74         15
    75         18
    76        118
    77        416
    78         44
    79        153
    80         21
    81         13
    85          7
    89         10
    91         10
   100         10
   101        150
   102         10
   105         50
   107          7
   108        999
   109         29
   110        324
   111         15
   113         10
   121         10
   123          3
   136         10
   138          3