##TITLE=Library Entry 48104
##JCAMP-DX=Revision 4.10 
##DATA TYPE=MASS SPECTRUM
##SAMPLE DESCRIPTION=A.A.Kutin, Moscow, Russia
##NAMES=HP
##CAS NAME=2-Isoxazoline-5-carboxylic acid, 3-(3-pyridyl)-
##MOLFORM=C9H8N2O3
##CAS REGISTRY NO=264606-31-7
##MP= -300
##BP= -300
##MW= 192
##$RETENTION INDEX=0
##$CONDENSED SPECTRUM=NO
##NPOINTS= 91
##XYDATA=(XY..XY) 1 
    33          6
    37         44
    38         12
    39         95
    40         35
    41         62
    42         73
    43         68
    45        267
    46        246
    47         13
    48          2
    50        142
    51        571
    52         76
    53         21
    54          5
    55         20
    56          6
    57          4
    58         19
    60          1
    61         31
    62         64
    63        134
    64         50
    65         82
    66         16
    67         16
    68          5
    69          3
    70          4
    72          5
    73          6
    74         15
    75         52
    76         77
    78        999
    79         50
    80          6
    81          3
    82          1
    84          2
    85          5
    86         10
    87         11
    88         10
    89         37
    90         21
    92        182
    94         11
    95          4
    98          1
   101          0
   102          7
   103         13
   104         56
   105         45
   106          8
   107          1
   108          2
   110          2
   111          0
   114          1
   116         21
   117         29
   119        543
   120         44
   121          2
   131          3
   132          3
   133          1
   134          1
   136          0
   137          1
   138          0
   145          7
   146          9
   147        564
   148         39
   149          3
   155          0
   160          0
   161          2
   172          1
   176          0
   187          1
   191          1
   192        272
   193         24
   194          3