##TITLE=Library Entry 47180
##JCAMP-DX=Revision 4.10 
##DATA TYPE=MASS SPECTRUM
##SAMPLE DESCRIPTION=A.A.Kutin, Moscow, Russia
##NAMES=HP
##CAS NAME=Pyrazole, 1-(4-chlorophenylsulfonyl)-3,5-dimethyl-4-phenoxy-
##MOLFORM=C17H15ClN2O3S
##CAS REGISTRY NO=264626-29-1
##MP= -300
##BP= -300
##MW= 362
##$RETENTION INDEX=0
##$CONDENSED SPECTRUM=NO
##NPOINTS= 197
##XYDATA=(XY..XY) 1 
    33          0
    34          1
    35          2
    36          9
    37          4
    38         23
    39        161
    40        119
    41         52
    42        195
    43        159
    44         15
    45          6
    47          1
    48          7
    50        127
    51        295
    52         26
    53         80
    54         28
    55         25
    56          4
    57          5
    58          1
    59          1
    60          2
    61          9
    62          9
    63         36
    64         28
    65        260
    66         70
    67         10
    68          3
    69         15
    70          3
    71          3
    72          2
    73         14
    74         47
    75        265
    76        136
    77        999
    78         80
    79          8
    81         15
    82          5
    83          7
    84          6
    85         24
    86          4
    87         10
    88          2
    89          9
    91        254
    92         21
    93          6
    94         36
    95         16
    96          3
    97          2
    99          6
   100          1
   101          4
   102          7
   103         18
   104         13
   105         45
   106          5
   107          5
   108          8
   109         10
   111        463
   112         44
   113        134
   114         16
   115         60
   116         66
   117         29
   118         83
   119         21
   120          2
   121          0
   123          0
   124          0
   125          4
   126          3
   127         11
   128         18
   129         34
   130         11
   131         36
   132          7
   133          5
   134          1
   135          0
   136          0
   137          1
   138          7
   139          6
   140          5
   141         17
   142          6
   143          7
   144         58
   145         15
   146         27
   147          5
   148          0
   149          2
   150          5
   152        228
   153         24
   154         69
   155          7
   156          0
   157          7
   158          7
   159         30
   160          5
   161          6
   162          1
   163          2
   164         12
   165          2
   166          4
   167          1
   168          0
   169          3
   170          7
   171          2
   172          3
   173          2
   175         79
   176          7
   177         26
   178          5
   179          3
   180          5
   181          1
   182          1
   184          1
   185          5
   186          9
   187         91
   188         35
   189          5
   190          1
   191          0
   192          1
   193          2
   194          7
   195          1
   202          0
   203          1
   204          1
   205          5
   206          1
   207          1
   213          0
   214          9
   215          2
   216          3
   217          0
   220          2
   221         31
   222          7
   223          9
   224          1
   228         11
   229          3
   230          3
   231          0
   255          2
   256          2
   257          1
   258          0
   262          0
   263          1
   281          0
   283          0
   295          0
   296          3
   297         35
   298        289
   299         67
   300         92
   301         17
   302          1
   359          2
   360          3
   362        461
   363         97
   364        158
   365         30
   366          9
   367          1