##TITLE=Library Entry 74480
##JCAMP-DX=Revision 4.10 
##DATA TYPE=MASS SPECTRUM
##SAMPLE DESCRIPTION=Chemical Concepts
##NAMES=HP
##CAS NAME=Butanedioic acid, 2,3-diethyl-, dimethyl ester, (R*,S*)-
##MOLFORM=C10H18O4
##CAS REGISTRY NO=26474-32-8
##MP= -300
##BP= -300
##MW= 202
##$RETENTION INDEX=0
##$CONDENSED SPECTRUM=NO
##NPOINTS= 82
##XYDATA=(XY..XY) 1 
    26         20
    27        249
    29        296
    30         16
    31         46
    33         16
    38         11
    39        230
    40         25
    41        549
    42        146
    43        123
    44         10
    45        128
    47          6
    50          6
    51         21
    52         11
    53        132
    54         44
    55        761
    56         99
    57         41
    59        701
    60         21
    61          8
    65         13
    67         76
    68         32
    69        364
    70        181
    71         48
    72         14
    73        526
    74         61
    75         15
    77          8
    79         14
    81         72
    82         68
    83        870
    84        102
    85         41
    86          5
    87        728
    88        113
    89          9
    95         24
    97         17
    99         16
   100         11
   101        999
   102        730
   103         50
   104          5
   109         12
   110         43
   111        127
   112          9
   113        354
   114        130
   115        119
   116         13
   120          5
   127         65
   128          7
   129        196
   130         17
   141         97
   142        255
   143        248
   144         26
   145        180
   146         25
   155          5
   160          5
   170         38
   171        390
   172         41
   173         15
   174         72
   175          9