##TITLE=Library Entry 17886
##JCAMP-DX=Revision 4.10 
##DATA TYPE=MASS SPECTRUM
##SAMPLE DESCRIPTION=MINISTRY OF TECH. E.R.D.E., WALTHAM ABBEY, UK
##NAMES=HP
##CAS NAME=1,3-Propanediol, 2,2-dimethyl-, dinitrate
##MOLFORM=C5H10N2O6
##CAS REGISTRY NO=26482-65-5
##MP= -300
##BP= -300
##MW= 194
##$RETENTION INDEX=0
##$CONDENSED SPECTRUM=NO
##NPOINTS= 27
##XYDATA=(XY..XY) 1 
    15         14
    27        104
    28         56
    29        140
    30        132
    31         38
    39        111
    40         39
    41        176
    42         80
    43        525
    44         40
    45         12
    46        999
    55         42
    56         89
    57         98
    58         62
    71         49
    72        102
    73         12
    76         78
    85          4
    86          4
   118          2
   132          1
   193          1