##TITLE=Library Entry 8419
##JCAMP-DX=Revision 4.10 
##DATA TYPE=MASS SPECTRUM
##SAMPLE DESCRIPTION=Chuck Anderson, Aldrich Chemical Co.
##NAMES=HP
##CAS NAME=trans,trans-2,6-Dimethyl-2,6-octadiene-1,8-diol
##MOLFORM=C10H18O2
##CAS REGISTRY NO=26488-97-1
##MP= -300
##BP= -300
##MW= 170
##$RETENTION INDEX=2635
##$CONDENSED SPECTRUM=NO
##NPOINTS= 93
##XYDATA=(XY..XY) 1 
    15          6
    17          1
    18          8
    19          3
    26          6
    27        164
    28         38
    29        492
    30         14
    31        124
    35          3
    36         22
    37          3
    38         16
    39        262
    40         57
    41        628
    42         52
    43        999
    44         36
    45         27
    50          9
    51         30
    52         15
    53        128
    54         20
    55        189
    56         59
    57        157
    58         16
    59          6
    62          0
    63          7
    64          0
    65         45
    66         20
    67        451
    68        707
    69        157
    70         34
    71        161
    72          8
    73          0
    74          4
    75         74
    76          3
    77         63
    78         13
    79        114
    80         48
    81        179
    82         58
    83        136
    84        388
    85         37
    86          3
    87          4
    88          2
    91         69
    92         35
    93        138
    94        169
    95        116
    96         71
    97         57
    98          6
   101          2
   103          4
   104          0
   105         32
   106         17
   107         59
   108         32
   109         85
   110         20
   111         23
   112          2
   115          0
   117          2
   119         59
   120          7
   121         99
   122         36
   123         42
   124          7
   125          0
   133          0
   134         26
   135          7
   137         49
   138          5
   139         15
   152          2