##TITLE=Library Entry 65751
##JCAMP-DX=Revision 4.10 
##DATA TYPE=MASS SPECTRUM
##SAMPLE DESCRIPTION=Exported from NIST MS Search
##NAMES=HP
##CAS NAME=2-Pyridinamine, N-nitro-
##MOLFORM=C5H5N3O2
##CAS REGISTRY NO=26482-54-2
##MP= -300
##BP= -300
##MW= 139
##$RETENTION INDEX=0
##$CONDENSED SPECTRUM=NO
##NPOINTS= 9
##XYDATA=(XY..XY) 1 
    30         60
    39        520
    40        150
    66        520
    67        180
    93        999
    94        150
   139        180
   140         10