##TITLE=Library Entry 28779
##JCAMP-DX=Revision 4.10 
##DATA TYPE=MASS SPECTRUM
##SAMPLE DESCRIPTION=Japan AIST/NIMC Database- Spectrum MS-NW-5729
##NAMES=HP
##CAS NAME=n-Hexyl trimethylammonium bromide
##MOLFORM=C9H22BrN
##CAS REGISTRY NO=2650-53-5
##MP= -300
##BP= -300
##MW= 223
##$RETENTION INDEX=0
##$CONDENSED SPECTRUM=NO
##NPOINTS= 51
##XYDATA=(XY..XY) 1 
    13          1
    14          4
    15         77
    26          2
    27         20
    28          7
    29         23
    30         17
    39         11
    40          2
    41         27
    42         42
    43         37
    44         24
    45          9
    46          3
    47          1
    51          1
    53          2
    54          1
    55         14
    56         10
    57         14
    58        999
    59         43
    68          1
    69          2
    70          4
    71          5
    72          4
    79          4
    80          1
    81          4
    82          1
    84          5
    85         10
    86          1
    90          1
    91          4
    92          3
    93         13
    94         80
    95          9
    96         77
   100          2
   114          2
   118          1
   126          1
   128          6
   129         71
   130          7