##TITLE=Library Entry 17339
##JCAMP-DX=Revision 4.10 
##DATA TYPE=MASS SPECTRUM
##SAMPLE DESCRIPTION=Pu Leung, NIH, Bethesda, MD
##NAMES=HP
##CAS NAME=Lacthydrazide
##MOLFORM=C3H8N2O2
##CAS REGISTRY NO=2651-42-5
##MP= -300
##BP= -300
##MW= 104
##$RETENTION INDEX=0
##$CONDENSED SPECTRUM=NO
##NPOINTS= 42
##XYDATA=(XY..XY) 1 
    41         20
    42         74
    43        317
    44        163
    45        999
    46         21
    47          5
    48          1
    52          4
    53          7
    54          4
    55         44
    56         31
    57         54
    58         55
    59         31
    60          8
    61          6
    67          1
    68          1
    69          5
    70          2
    71         26
    72          0
    73         12
    74          1
    76         61
    77          2
    78          2
    81          1
    82          1
    83          1
    84         13
    85         19
    86        417
    87         24
    88          7
    89         17
   102          1
   103          0
   104         85
   105          3