##TITLE=Library Entry 47966
##JCAMP-DX=Revision 4.10 
##DATA TYPE=MASS SPECTRUM
##SAMPLE DESCRIPTION=ORMSBG,10(8)606(1975); A. SELVA
##NAMES=HP
##CAS NAME=3,5-Pyrazolidinedione, 4-(2-furanylmethylene)-1,2-diphenyl-
##MOLFORM=C20H14N2O3
##CAS REGISTRY NO=2652-80-4
##MP= -300
##BP= -300
##MW= 330
##$RETENTION INDEX=0
##$CONDENSED SPECTRUM=NO
##NPOINTS= 14
##XYDATA=(XY..XY) 1 
    39         60
    51        180
    63        130
    64        160
    77        999
    92        140
   105        360
   120        810
   121        100
   182         60
   183         60
   261         40
   262         40
   330        820