##TITLE=Library Entry 95745
##JCAMP-DX=Revision 4.10 
##DATA TYPE=MASS SPECTRUM
##SAMPLE DESCRIPTION=ORMSBG,10(12)1084(1975); A. CROISY
##NAMES=HP
##CAS NAME=Benzo[b]selenophene-3-carboxaldehyde, 2-methyl-
##MOLFORM=C10H8OSe
##CAS REGISTRY NO=26526-40-9
##MP= -300
##BP= -300
##MW= 224
##$RETENTION INDEX=0
##$CONDENSED SPECTRUM=NO
##NPOINTS= 34
##XYDATA=(XY..XY) 1 
    50         50
    51         75
    61         25
    62         60
    63        150
    74         50
    75         55
    76         25
    77         50
    87         50
    88         50
    89        125
   113         75
   114         50
   115        999
   116        175
   117         50
   191        110
   192        110
   193        290
   194         95
   195        500
   196        130
   197        100
   198         20
   219        100
   220        270
   221        370
   222        500
   223        500
   224        999
   225        195
   226        195
   227         20