##TITLE=Library Entry 3148
##JCAMP-DX=Revision 4.10 
##DATA TYPE=MASS SPECTRUM
##SAMPLE DESCRIPTION=R.T.HOLMAN,UNIVERSITY OF MINNESOTA
##NAMES=HP
##CAS NAME=9,12-Octadecadienal
##MOLFORM=C18H32O
##CAS REGISTRY NO=26537-70-2
##MP= -300
##BP= -300
##MW= 264
##$RETENTION INDEX=2150
##$CONDENSED SPECTRUM=NO
##NPOINTS= 82
##XYDATA=(XY..XY) 1 
    26         20
    27        380
    28         80
    29        560
    30         10
    31         30
    32          3
    38         10
    39        280
    40         40
    41        999
    42        190
    43        390
    44        180
    45         20
    47         10
    50         10
    51         30
    52         20
    53        140
    54        370
    55        530
    56         80
    57        110
    58         10
    59         10
    63         10
    64         20
    65         50
    66         50
    67        700
    68        240
    69        190
    70         40
    71         40
    77        100
    78         30
    79        220
    80        120
    81        380
    82        180
    83         70
    84         30
    85         10
    86         10
    91         60
    92         20
    93         80
    94         40
    95        210
    96        120
    97         50
    98         70
    99         10
   105         20
   106         10
   107         30
   108         20
   109         80
   110         70
   111         20
   112         20
   119         10
   120         10
   121         20
   122         10
   123         30
   124         30
   125         10
   133         10
   134         10
   135         10
   136         10
   137         20
   138         20
   147         10
   148         10
   149         10
   151         10
   152         10
   264         40
   265         10