##TITLE=Library Entry 85583
##JCAMP-DX=Revision 4.10 
##DATA TYPE=MASS SPECTRUM
##SAMPLE DESCRIPTION=NIST Mass Spectrometry Data Center, 1998.
##NAMES=HP
##CAS NAME=Acetaldehyde, (3,3-dimethylcyclohexylidene)-, (E)-
##MOLFORM=C10H16O
##CAS REGISTRY NO=26532-25-2
##MP= -300
##BP= -300
##MW= 152
##$RETENTION INDEX=1799
##$CONDENSED SPECTRUM=NO
##NPOINTS= 100
##XYDATA=(XY..XY) 1 
    14          1
    15          8
    26          8
    27        133
    28         27
    29        133
    30          3
    31          6
    37          4
    38         19
    39        348
    40         69
    41        648
    42         43
    43        145
    44          7
    45         10
    46          3
    50         31
    51         94
    52         44
    53        238
    54         43
    55        235
    56         86
    57         51
    58          4
    59         29
    60          5
    61          7
    62          9
    63         31
    64          7
    65        110
    66         62
    67        338
    68        109
    69        516
    70         54
    71         14
    72          3
    73          2
    74          5
    75          4
    76          4
    77        175
    78         59
    79        266
    80         54
    81        469
    82         93
    83        119
    84        208
    85         16
    86          2
    87          1
    89          6
    90          3
    91        189
    92         39
    93        219
    94         56
    95        443
    96        193
    97         34
   102          5
   103         22
   104          6
   105         43
   106         20
   107         82
   108        268
   109        999
   110         93
   111         35
   112          2
   115         11
   116          3
   117         14
   118          3
   119        118
   120         13
   121         35
   122          9
   123         80
   124         63
   125          5
   131          1
   133          4
   134         14
   135          7
   136          5
   137        395
   138         39
   139          2
   150          1
   151         26
   152        526
   153         58
   154          4