##TITLE=Library Entry 16242
##JCAMP-DX=Revision 4.10 
##DATA TYPE=MASS SPECTRUM
##SAMPLE DESCRIPTION=Exported from NIST MS Search
##NAMES=HP
##CAS NAME=Sydnone, 3-(carboxymethyl)-
##MOLFORM=C4H4N2O4
##CAS REGISTRY NO=26537-53-1
##MP= -300
##BP= -300
##MW= 144
##$RETENTION INDEX=0
##$CONDENSED SPECTRUM=NO
##NPOINTS= 18
##XYDATA=(XY..XY) 1 
    41        250
    42        110
    43         10
    44        999
    45        180
    46         10
    58        490
    59        470
    60         20
    69         60
    86        430
    87         20
   100        220
   101         10
   114        300
   115         10
   144        830
   145         40