##TITLE=Library Entry 99569
##JCAMP-DX=Revision 4.10 
##DATA TYPE=MASS SPECTRUM
##SAMPLE DESCRIPTION=V.Zaikin,Inst.Petrochem.Synth.,RAS,Moscow
##NAMES=HP
##CAS NAME=p-Toluic acid, allyl ester
##MOLFORM=C11H12O2
##CAS REGISTRY NO=2653-46-5
##MP= -300
##BP= -300
##MW= 176
##$RETENTION INDEX=0
##$CONDENSED SPECTRUM=NO
##NPOINTS= 78
##XYDATA=(XY..XY) 1 
    25          3
    26         15
    27         30
    28          3
    29         20
    39        116
    40         27
    41         73
    42          8
    43         21
    44          2
    49          7
    50         39
    51         56
    52         28
    53         16
    54          2
    55         10
    56          3
    57          8
    59         16
    60          3
    61         14
    62         33
    63         64
    64         21
    65        143
    66         10
    69          4
    70          9
    71          3
    74         11
    75          7
    76          6
    77         27
    78         10
    79         26
    80          5
    81          3
    84          4
    85          6
    86          9
    87          4
    88          3
    89         50
    90         43
    91        631
    92         81
    93         10
    95          4
   103          3
   104          4
   105         14
   106          2
   107         18
   108          7
   109          2
   113          2
   115          5
   116          4
   117         15
   118         18
   119        999
   120        106
   121          7
   131         20
   132          4
   133          3
   134          3
   135         20
   136        331
   137         32
   138          3
   161          5
   164          5
   175          3
   176         54
   177         10