##TITLE=Library Entry 21108
##JCAMP-DX=Revision 4.10 
##DATA TYPE=MASS SPECTRUM
##SAMPLE DESCRIPTION=NIST Mass Spectrometry Data Center, 1990.
##NAMES=HP
##CAS NAME=3-Nonanol, 2-methyl-
##MOLFORM=C10H22O
##CAS REGISTRY NO=26533-33-5
##MP= -300
##BP= -300
##MW= 158
##$RETENTION INDEX=0
##$CONDENSED SPECTRUM=NO
##NPOINTS= 33
##XYDATA=(XY..XY) 1 
    27        178
    28         67
    29        162
    31         45
    39        109
    40         32
    41        331
    42         64
    43        366
    44         85
    45         59
    53         30
    55        999
    56         93
    57        164
    58         18
    59         18
    67         24
    69        218
    70         37
    71         40
    73        437
    74         20
    81         28
    83         18
    85         24
    86         16
    97        733
    98         61
   113         24
   114         51
   115        219
   116         17