##TITLE=Library Entry 38992
##JCAMP-DX=Revision 4.10 
##DATA TYPE=MASS SPECTRUM
##SAMPLE DESCRIPTION=R.T.HOLMAN,UNIVERSITY OF MINNESOTA
##NAMES=HP
##CAS NAME=Ether, methyl 1-octadecenyl
##MOLFORM=C19H38O
##CAS REGISTRY NO=26537-06-4
##MP= -300
##BP= -300
##MW= 282
##$RETENTION INDEX=0
##$CONDENSED SPECTRUM=NO
##NPOINTS= 64
##XYDATA=(XY..XY) 1 
    27         44
    28        100
    29        100
    31          9
    32         18
    39         31
    40          7
    41        300
    42         38
    43        210
    44         19
    45         55
    53         22
    54         38
    55        140
    56         42
    57        100
    58        100
    59         30
    66         28
    67        130
    68        190
    69         77
    70         18
    71        999
    72         85
    73          6
    79         12
    80         15
    81        100
    82        370
    83        110
    84         27
    85        100
    86          7
    93          7
    94         11
    95        110
    96        180
    97         70
    98         11
    99          7
   108          6
   109         54
   110         41
   111         21
   112          5
   113         21
   123         27
   124         21
   125          8
   127         23
   137         16
   138         12
   141          7
   151          5
   152          5
   180          4
   194          5
   222         10
   250         30
   251          6
   282         20
   283          5