##TITLE=Library Entry 16856
##JCAMP-DX=Revision 4.10 
##DATA TYPE=MASS SPECTRUM
##SAMPLE DESCRIPTION=NIST Mass Spectrometry Data Center, 1990.
##NAMES=HP
##CAS NAME=2-Nonadecanol
##MOLFORM=C19H40O
##CAS REGISTRY NO=26533-36-8
##MP= -300
##BP= -300
##MW= 284
##$RETENTION INDEX=0
##$CONDENSED SPECTRUM=NO
##NPOINTS= 49
##XYDATA=(XY..XY) 1 
    27         55
    28         76
    29        151
    32         14
    39         37
    41        342
    42         93
    43        533
    45        999
    46         27
    53         21
    54         38
    55        308
    56        130
    57        368
    58        154
    59        105
    67         61
    68         40
    69        217
    70        114
    71        237
    72         16
    81         40
    82         76
    83        202
    84         67
    85        117
    95         26
    96         69
    97        225
    98         50
    99         32
   110         28
   111        125
   112         33
   113         20
   124         19
   125         73
   126         25
   127         17
   138         16
   139         37
   140         19
   153         19
   154         13
   238         18
   266         24
   269         14