##TITLE=Library Entry 38208
##JCAMP-DX=Revision 4.10 
##DATA TYPE=MASS SPECTRUM
##SAMPLE DESCRIPTION=R.T.HOLMAN,UNIVERSITY OF MINNESOTA
##NAMES=HP
##CAS NAME=Ether, methyl 1-tetradecenyl
##MOLFORM=C15H30O
##CAS REGISTRY NO=26537-05-3
##MP= -300
##BP= -300
##MW= 226
##$RETENTION INDEX=0
##$CONDENSED SPECTRUM=NO
##NPOINTS= 68
##XYDATA=(XY..XY) 1 
    27         57
    28         28
    29        110
    31          8
    39         42
    40         11
    41        300
    42         36
    43        140
    44         15
    45         49
    53         25
    54         37
    55        110
    56         38
    57         65
    58         75
    59         23
    65          6
    66         20
    67        100
    68        130
    69         60
    70         21
    71        999
    72         61
    73          7
    77          7
    79         11
    80         11
    81         75
    82        240
    83         32
    84         15
    85         90
    86          8
    87          5
    91          6
    93          9
    94          9
    95         78
    96        120
    97         39
    98         10
    99          6
   105          6
   109         38
   110         31
   111         12
   112          9
   113         19
   123         19
   124         17
   125          6
   126          7
   127         19
   128          5
   137         15
   138         14
   141          9
   151          6
   152          6
   166         11
   183          5
   194         25
   195          5
   226         26
   227          5