##TITLE=Library Entry 9530
##JCAMP-DX=Revision 4.10 
##DATA TYPE=MASS SPECTRUM
##SAMPLE DESCRIPTION=K.TAKIURA OSAKA UNIV., TOYONAKA, OSAKA-FU, JAPAN
##NAMES=HP
##CAS NAME=2H-Pyran-3-ol, 3,6-dihydro-6-methoxy-, acetate, (3R-cis)-
##MOLFORM=C8H12O4
##CAS REGISTRY NO=26532-19-4
##MP= -300
##BP= -300
##MW= 172
##$RETENTION INDEX=0
##$CONDENSED SPECTRUM=NO
##NPOINTS= 96
##XYDATA=(XY..XY) 1 
    25          1
    26         13
    27        106
    28         83
    29         69
    30          5
    31         22
    32          3
    33          9
    36          1
    37          2
    38          9
    39        113
    40         17
    41        115
    42         32
    43        999
    44         32
    45         60
    46          2
    49          1
    50         11
    51         20
    52         19
    53        120
    54         39
    55         60
    56         11
    57         50
    58          8
    59         39
    60          2
    61          6
    63          1
    65          1
    66          1
    67          2
    68         19
    69         55
    70         83
    71        250
    72         13
    73         20
    74          5
    75          2
    76          1
    77          2
    78          1
    79          2
    80          2
    81        697
    82         78
    83         10
    84         19
    85         69
    86          6
    87         50
    88          2
    89          1
    91          1
    93          1
    94          1
    95          1
    96          1
    97         41
    98         90
    99         17
   100        549
   101         37
   102          4
   103          3
   104          1
   105          1
   107          1
   110          1
   111         57
   112         83
   113         69
   114          5
   115          2
   116          1
   127          1
   128          1
   129         10
   130         22
   131          2
   139          1
   140          2
   141         64
   142         94
   143         10
   144          2
   145          1
   170          1
   171          2
   172          1