##TITLE=Library Entry 34436
##JCAMP-DX=Revision 4.10 
##DATA TYPE=MASS SPECTRUM
##SAMPLE DESCRIPTION=NIST Mass Spectrometry Data Center, 1998.
##NAMES=HP
##CAS NAME=Ethanol, 2-(3,3-dimethylcyclohexylidene)-, (Z)-
##MOLFORM=C10H18O
##CAS REGISTRY NO=26532-23-0
##MP= -300
##BP= -300
##MW= 154
##$RETENTION INDEX=1225
##$CONDENSED SPECTRUM=NO
##NPOINTS= 102
##XYDATA=(XY..XY) 1 
    15          6
    17          1
    18          1
    19          1
    26          5
    27        112
    28         26
    29        135
    30          5
    31         46
    37          2
    38         10
    39        262
    40         57
    41        684
    42         59
    43        188
    44         31
    45         15
    46          1
    50         18
    51         67
    52         35
    53        189
    54         56
    55        354
    56        125
    57        110
    58         10
    59         31
    60          2
    61          2
    62          6
    63         19
    64          5
    65         84
    66         42
    67        303
    68        234
    69        999
    70        153
    71         65
    72          8
    73          2
    74          2
    75          2
    76          2
    77        174
    78         37
    79        320
    80        135
    81        301
    82         72
    83        143
    84         84
    85         28
    86          5
    87          1
    89          4
    90          1
    91        173
    92         57
    93        608
    94         99
    95        326
    96         43
    97         53
    98         19
    99          3
   102          2
   103         11
   104          4
   105         45
   106         12
   107        197
   108         72
   109        160
   110        175
   111        183
   112         16
   113          2
   115          5
   116          1
   117          4
   119         10
   120          6
   121        557
   122         57
   123        117
   124         12
   125          4
   126          2
   135          5
   136        549
   137         73
   138          5
   139         26
   140          2
   152          3
   153          1
   154         73
   155          8