##TITLE=Library Entry 3627
##JCAMP-DX=Revision 4.10 
##DATA TYPE=MASS SPECTRUM
##SAMPLE DESCRIPTION=R.T.HOLMAN,UNIVERSITY OF MINNESOTA
##NAMES=HP
##CAS NAME=9,12,15-Octadecatrienal
##MOLFORM=C18H30O
##CAS REGISTRY NO=26537-71-3
##MP= -300
##BP= -300
##MW= 262
##$RETENTION INDEX=2045
##$CONDENSED SPECTRUM=NO
##NPOINTS= 77
##XYDATA=(XY..XY) 1 
    26         37
    27        370
    28         93
    29        430
    30         14
    31         42
    38         14
    39        320
    40         51
    41        999
    42         84
    43        270
    44        160
    45         28
    46         14
    47          9
    50         14
    51         47
    52         33
    53        180
    54        140
    55        450
    56         42
    57        115
    58         23
    59         19
    63         19
    64         19
    65         88
    66         98
    67        590
    68        130
    69        140
    70         19
    71         23
    77        180
    78         93
    79        630
    80        300
    81        260
    82         84
    83         42
    84         14
    85          9
    91        180
    92         42
    93        270
    94         98
    95        320
    96         51
    97         23
    98         19
   103          9
   104          9
   105         51
   106         19
   107         88
   108        220
   109         56
   110         14
   111          9
   115          9
   117         19
   119         23
   120          9
   121         56
   122         28
   123          9
   131         19
   133         14
   134          9
   135         37
   136         14
   149         19
   193          9
   206         23
   262         37