##TITLE=Library Entry 74770
##JCAMP-DX=Revision 4.10 
##DATA TYPE=MASS SPECTRUM
##SAMPLE DESCRIPTION=NIST Mass Spectrometry Data Center, 1998.
##NAMES=HP
##CAS NAME=3(2H)-Isothiazolone, 2-octyl-
##MOLFORM=C11H19NOS
##CAS REGISTRY NO=26530-20-1
##MP= -300
##BP= -300
##MW= 213
##$RETENTION INDEX=1836
##$CONDENSED SPECTRUM=NO
##NPOINTS= 147
##XYDATA=(XY..XY) 1 
    15          2
    26         12
    27         88
    28         18
    29        145
    30         47
    31          1
    32          3
    33          1
    37          1
    38          3
    39        101
    40         18
    41        426
    42         93
    43        231
    44         30
    45         29
    46         25
    47          9
    48          2
    50          2
    51          6
    52          6
    53         66
    54         37
    55        339
    56        137
    57        152
    58        232
    59         95
    60         48
    61          9
    62          8
    63          2
    64          1
    65          6
    66          3
    67         32
    68         19
    69        152
    70         89
    71         63
    72         10
    73         42
    74         11
    75          4
    76          2
    77          4
    78          1
    79          6
    80          2
    81          8
    82         67
    83         39
    84         36
    85        107
    86        153
    87        283
    88         22
    89         14
    90          1
    91          1
    93          1
    94          1
    95          3
    96         18
    97          9
    98         12
    99          6
   100          1
   101        999
   102        627
   103         76
   104         32
   105          2
   106          1
   107          1
   108          1
   109          2
   110          5
   111          2
   112         10
   113          1
   114        791
   115        533
   116         68
   117         28
   118          2
   120          1
   121          2
   122          1
   123          1
   124         10
   125          5
   126         41
   127          5
   128         56
   129         85
   130          9
   131          5
   135          2
   136          2
   137          2
   138         10
   139          4
   140         28
   141          3
   142         27
   143          7
   144          2
   145          1
   150          1
   151          1
   152          9
   153          4
   154         10
   155          5
   156        123
   157         18
   158          8
   159          1
   162          2
   163          4
   164          1
   166         10
   167          2
   168          2
   169          1
   170         54
   171          7
   172          3
   180        135
   181         17
   182          1
   184         18
   185          2
   186          1
   196        134
   197         17
   198         10
   199          1
   212          3
   213        130
   214         19
   215          7
   216          1