##TITLE=Library Entry 60460
##JCAMP-DX=Revision 4.10 
##DATA TYPE=MASS SPECTRUM
##SAMPLE DESCRIPTION=NIST Mass Spectrometry Data Center, 1994
##NAMES=HP
##CAS NAME=8-Phenyloctanoic acid
##MOLFORM=C14H20O2
##CAS REGISTRY NO=26547-51-3
##MP= -300
##BP= -300
##MW= 220
##$RETENTION INDEX=0
##$CONDENSED SPECTRUM=NO
##NPOINTS= 122
##XYDATA=(XY..XY) 1 
    15          2
    17          3
    18          8
    19          2
    26          4
    27        112
    28         22
    29         79
    30          2
    31          1
    37          2
    38          6
    39        124
    40         18
    41        187
    42         42
    43         57
    44          5
    45        110
    46          4
    47          1
    50         15
    51         58
    52         16
    53         23
    54          8
    55        139
    56         14
    57          9
    58          2
    59          0
    60         59
    61          4
    62          4
    63         29
    64          9
    65        160
    66         10
    67         16
    68         10
    69         59
    70          5
    71          4
    72          0
    73         38
    74          1
    75          7
    76          7
    77         71
    78         73
    79         50
    80          8
    81          8
    82          5
    83         48
    84         42
    85          5
    86          2
    87         11
    88          3
    89         24
    90          1
    91        999
    92        588
    93         51
    94          5
    95          3
    96         13
    97         12
    98        144
    99         12
   100          1
   101          3
   102          7
   103         29
   104         81
   105        120
   106         19
   107          9
   108          1
   110          2
   111         24
   112          2
   114          1
   115         22
   116          7
   117         39
   118         12
   119         25
   120          8
   121          1
   124          1
   127          2
   128          5
   129          9
   130          3
   131          7
   132          1
   133         43
   134         11
   135          1
   141          4
   142          5
   143          2
   145          3
   146          1
   147          6
   148          2
   156          1
   158          4
   159          3
   160          4
   161          2
   169          1
   173          1
   183          1
   184          6
   185          1
   202         11
   203          2
   220         72
   221         11