##TITLE=Library Entry 59016
##JCAMP-DX=Revision 4.10 
##DATA TYPE=MASS SPECTRUM
##SAMPLE DESCRIPTION=T.APPLETON SWEDISH TOBACCO COMPANY, STOCKHOLM, SWEDEN.
##NAMES=HP
##CAS NAME=Phenanthrene, 7-ethenyl-1,2,3,4,4a,4b,5,6,7,8,10,10a-dodecahydro-
4a,7-dimethyl-1-methylene-, [4aS-(4a.alpha.,4a.beta.,7.beta.,10a.beta.)]-
##MOLFORM=C19H28
##CAS REGISTRY NO=26549-04-2
##MP= -300
##BP= -300
##MW= 256
##$RETENTION INDEX=1942
##$CONDENSED SPECTRUM=NO
##NPOINTS= 241
##XYDATA=(XY..XY) 1 
    12          1
    13          1
    14          1
    15          7
    16          1
    17          2
    19          0
    20          0
    24          1
    25          2
    26         13
    27        209
    29        246
    30          5
    31          0
    33          0
    34          0
    35          0
    36          1
    37          3
    38          6
    39        301
    40         71
    41        863
    42         53
    43        117
    44          4
    45          0
    46          0
    47          0
    48          0
    49          2
    50         14
    51         90
    52         54
    53        411
    54         46
    55        520
    56         31
    57         37
    58          3
    59          0
    60          0
    61          0
    62          4
    63         35
    64         17
    65        246
    66         76
    67        438
    68         86
    69        130
    70         10
    71         14
    72          3
    73          2
    74          3
    75         16
    76         12
    77        575
    78        171
    79        726
    80        187
    81        465
    82         42
    83         54
    84          7
    85          9
    86          5
    87          2
    88          2
    89         27
    90         14
    91        999
    92        232
    93        808
    94        108
    95        342
    96         31
    97         26
    98          3
    99          4
   100          3
   101          5
   102         23
   103        105
   104         84
   105        684
   106        179
   107        274
   108        452
   109        178
   110         15
   111          5
   112          1
   113          4
   114          5
   115        219
   116         98
   117        342
   118        130
   119        520
   120        161
   121        287
   122         45
   123         39
   124          4
   125          3
   126          4
   127         53
   128        165
   129        246
   130         89
   131        520
   132        142
   133        383
   134        163
   135         97
   136         16
   137         19
   138          2
   139          7
   140          5
   141         84
   142         68
   143        219
   144         93
   145        438
   146        121
   147        219
   148        142
   149         43
   150          5
   151          6
   152         21
   153         28
   154         16
   155         43
   156         28
   157        301
   158         95
   159        287
   160        113
   161         80
   162         23
   163          6
   164          2
   165         19
   166          7
   167         12
   168          7
   169         24
   170         16
   171        342
   172         89
   173        274
   174         71
   175         32
   176          7
   177          3
   178          5
   179          4
   180          2
   181          4
   182          3
   183         16
   184         11
   185        260
   186        369
   187        165
   188         74
   189         13
   190          2
   191          2
   192          1
   193          1
   194          1
   195          2
   196          1
   197         12
   198         10
   199        274
   200         76
   201         58
   202         12
   203          1
   204          0
   205          0
   206          0
   207          0
   208          0
   209          1
   210          1
   211          9
   212         10
   213        158
   214         78
   215         21
   216          3
   217          0
   218          0
   219          0
   220          0
   221          0
   222          0
   223          0
   224          0
   225          3
   226          8
   227        479
   228        135
   229         23
   230          2
   231          0
   232          0
   233          0
   234          0
   235          0
   236          0
   237          0
   238          0
   239          3
   240          4
   241        712
   242        147
   243         19
   244          1
   245          0
   246          0
   247          0
   250          0
   251          0
   252          0
   253          0
   254          2
   255          9
   256        849
   257        183
   258         23
   259          2
   260          0