##TITLE=Library Entry 3171
##JCAMP-DX=Revision 4.10 
##DATA TYPE=MASS SPECTRUM
##SAMPLE DESCRIPTION=R.T.HOLMAN,UNIVERSITY OF MINNESOTA
##NAMES=HP
##CAS NAME=11-Octadecynoic acid, methyl ester
##MOLFORM=C19H34O2
##CAS REGISTRY NO=26543-37-3
##MP= -300
##BP= -300
##MW= 294
##$RETENTION INDEX=0
##$CONDENSED SPECTRUM=NO
##NPOINTS= 142
##XYDATA=(XY..XY) 1 
    26         16
    27        260
    28         68
    29        440
    30          9
    31         40
    32          5
    33          6
    38          7
    39        210
    40         53
    41        999
    42        140
    43        450
    44         22
    45         53
    50          8
    51         31
    52         65
    53        190
    54        560
    55        910
    56         87
    57         87
    58         16
    59        240
    60          9
    63          9
    65         78
    66         68
    67        920
    68        520
    69        410
    70         47
    71         34
    72          6
    73         50
    74        260
    75         25
    77        110
    78         31
    79        260
    80        140
    81        850
    82        560
    83        200
    84         53
    85         43
    87        120
    88         12
    91         84
    92         19
    93        140
    94         99
    95        630
    96        430
    97        130
    98         47
    99         16
   100          5
   101         25
   103          5
   105         25
   106          9
   107         67
   108         62
   109        270
   110        150
   111         50
   112          9
   113         12
   114          7
   115         37
   116          4
   117          6
   119         19
   120         12
   121         62
   122         43
   123         87
   124        630
   125         81
   126          7
   127          9
   128          7
   129         19
   130          4
   131          8
   133         16
   134          5
   135         53
   136         37
   137         37
   138        130
   139         53
   140         11
   141         10
   143         12
   145          6
   147          8
   148          4
   149         34
   150         59
   151         28
   152         19
   153          8
   154          9
   155          6
   157         16
   159          7
   163         22
   164         47
   165         22
   166         10
   167          7
   168          8
   171         25
   173          9
   177         12
   178         12
   179          7
   181          6
   182          5
   186          5
   191          4
   192         25
   193          5
   195          7
   196          5
   199          7
   206         31
   207          5
   209          6
   213          4
   224         28
   225          4
   238         65
   239         10
   262          4
   263         37
   294         16
   295          4