##TITLE=Library Entry 28949
##JCAMP-DX=Revision 4.10 
##DATA TYPE=MASS SPECTRUM
##SAMPLE DESCRIPTION=Chemical Concepts
##NAMES=HP
##CAS NAME=(R,R)-(-)-2,3-Dimethoxy-1,4-bis(dimethylamino)butane
##MOLFORM=C10H24N2O2
##CAS REGISTRY NO=26549-22-4
##MP= -300
##BP= -300
##MW= 204
##$RETENTION INDEX=0
##$CONDENSED SPECTRUM=NO
##NPOINTS= 97
##XYDATA=(XY..XY) 1 
    27         20
    28         12
    29         20
    30         36
    31         18
    32          2
    33          2
    37          0
    38          1
    39          9
    40          4
    41         33
    42         95
    43         30
    44         22
    45         34
    46          2
    47          1
    49          0
    50          0
    51          0
    52          0
    53          2
    54          2
    55          7
    56         20
    57         24
    58        999
    59         47
    60          1
    61          0
    64          0
    65          0
    66          0
    67          1
    68          2
    69          2
    70          8
    71         31
    72         28
    73          8
    74          1
    75         13
    76          1
    77          5
    78          0
    79          0
    80          0
    81          1
    82          8
    83          1
    84         12
    85          3
    86         17
    87          3
    88          7
    89          0
    91          0
    94          1
    95          0
    96          8
    97          2
    98          9
    99          1
   100          6
   101          5
   102         20
   103          1
   104          0
   105          0
   109          0
   110          0
   111          0
   112         10
   113          5
   114        441
   115         32
   116          3
   117          0
   126          3
   127          2
   128          2
   129          0
   130          0
   131          0
   132          1
   140          1
   141         12
   142          1
   144          0
   146          1
   147          1
   155          0
   160          4
   171          0
   172          0
   173          0