##TITLE=Library Entry 5788
##JCAMP-DX=Revision 4.10 
##DATA TYPE=MASS SPECTRUM
##SAMPLE DESCRIPTION=FOOD RESEARCH REPORT 119, K.E. MURRAY & COLLEAGUES, DIV
. OF FOOD RESEARCH, CSIRO, AUSTRALIA
##NAMES=HP
##CAS NAME=3-Nonyn-2-ol
##MOLFORM=C9H16O
##CAS REGISTRY NO=26547-25-1
##MP= -300
##BP= -300
##MW= 140
##$RETENTION INDEX=0
##$CONDENSED SPECTRUM=NO
##NPOINTS= 77
##XYDATA=(XY..XY) 1 
    26         90
    27        520
    29        980
    30         20
    31         20
    37         20
    38         70
    39        640
    40        170
    41        990
    42        180
    43        999
    44        580
    45        180
    46         10
    49         10
    50         70
    51        140
    52         70
    53        270
    54        270
    55        760
    56        210
    57        260
    58         40
    59         30
    61         30
    62         20
    63         50
    64         20
    65        120
    66        150
    67        510
    68        270
    69        370
    70         50
    71         70
    72         20
    74         10
    75         10
    77        130
    78         30
    79        240
    80         70
    81        800
    82        190
    83        100
    84        190
    85         20
    86         10
    87         10
    88         10
    89         10
    91        100
    92         20
    93         90
    94         30
    95        210
    96         20
    97        270
    98         30
    99         10
   105         20
   107         60
   108         10
   109         10
   111         40
   112         10
   122         10
   123        160
   124         20
   125         90
   126         10
   137          2
   138          9
   139          5
   140          3