##TITLE=Library Entry 86046
##JCAMP-DX=Revision 4.10 
##DATA TYPE=MASS SPECTRUM
##SAMPLE DESCRIPTION=V.A. KOPTYUG, VOL.4, ATLAS OF MASS SPECTRA OF ORGANIC C
OMPOUNDS
##NAMES=HP
##CAS NAME=3,5-Dimethyl-1-dodecylpyrazole
##MOLFORM=C17H32N2
##CAS REGISTRY NO=2655-30-3
##MP= -300
##BP= -300
##MW= 264
##$RETENTION INDEX=0
##$CONDENSED SPECTRUM=NO
##NPOINTS= 61
##XYDATA=(XY..XY) 1 
    26         23
    27         87
    28         62
    29        164
    30         14
    39         89
    40         28
    41        393
    42        146
    43        240
    53         37
    54         41
    55        232
    56         65
    57         66
    65         19
    66         20
    67         37
    68         62
    69         92
    70         23
    71         20
    79         14
    80         19
    81         30
    82         31
    83         29
    94         10
    95        104
    96        495
    97        225
    98         17
   108         33
   109        999
   110        341
   111         85
   123         58
   124        109
   125         11
   137         51
   138         20
   151        214
   152         29
   165        191
   166         27
   179         62
   180         11
   193         31
   194          7
   207         45
   208          8
   221         45
   222          8
   235         24
   236          7
   249         26
   250          5
   263         21
   264         93
   265         19
   266          4