##TITLE=Library Entry 30502
##JCAMP-DX=Revision 4.10 
##DATA TYPE=MASS SPECTRUM
##SAMPLE DESCRIPTION=NIST Mass Spectrometry Data Center, 1994
##NAMES=HP
##CAS NAME=Methoxycarbonylsulfenyl chloride
##MOLFORM=C2H3ClO2S
##CAS REGISTRY NO=26555-40-8
##MP= -300
##BP= -300
##MW= 126
##$RETENTION INDEX=0
##$CONDENSED SPECTRUM=NO
##NPOINTS= 54
##XYDATA=(XY..XY) 1 
    12          7
    13          7
    14         32
    15        306
    16          9
    28         88
    29        195
    30         47
    31         43
    32        203
    33         27
    34         14
    35         45
    36         27
    37         14
    38          8
    44         52
    45         66
    46         39
    47        152
    48         34
    49         15
    50          4
    59        999
    60        198
    61         45
    62         10
    63         30
    64          6
    65          4
    66          4
    67        258
    68         10
    69         97
    71          4
    79          5
    81         50
    82         76
    83         31
    84         27
    85          3
    91         57
    92          5
    93          3
    94          3
    95        131
    96          3
    97         52
    98          3
   126        376
   127         12
   128        141
   129          4
   130          5