##TITLE=Library Entry 22146
##JCAMP-DX=Revision 4.10 
##DATA TYPE=MASS SPECTRUM
##SAMPLE DESCRIPTION=Exported from NIST MS Search
##NAMES=HP
##CAS NAME=1H-1,2,4-Triazole, 3-bromo-5-methyl-
##MOLFORM=C3H4BrN3
##CAS REGISTRY NO=26557-90-4
##MP= -300
##BP= -300
##MW= 161
##$RETENTION INDEX=0
##$CONDENSED SPECTRUM=NO
##NPOINTS= 6
##XYDATA=(XY..XY) 1 
    42        599
    56        999
   120        100
   122        100
   161        240
   163        240