##TITLE=Library Entry 78037
##JCAMP-DX=Revision 4.10 
##DATA TYPE=MASS SPECTRUM
##SAMPLE DESCRIPTION=C.E.A., C.E.N., GRENOBLE, FRANCE
##NAMES=HP
##CAS NAME=Benzene, 1,4-didecyl-
##MOLFORM=C26H46
##CAS REGISTRY NO=2655-95-0
##MP= -300
##BP= -300
##MW= 358
##$RETENTION INDEX=0
##$CONDENSED SPECTRUM=NO
##NPOINTS= 144
##XYDATA=(XY..XY) 1 
    26          5
    27          1
    28         13
    29         48
    30          1
    39          9
    40          1
    41         75
    42          9
    43        164
    44          5
    50          1
    51          2
    52          1
    53          3
    54          2
    55         52
    56          7
    57         73
    58          4
    65          2
    67          5
    68          1
    69         21
    70          4
    71         29
    72          2
    74          0
    75          0
    76          0
    77          5
    78          7
    79          8
    80          3
    81          3
    82          1
    83         13
    84          2
    85         14
    86          1
    89          0
    90          0
    91        123
    92        153
    93          6
    94          2
    95          1
    96          0
    97          5
    98          0
    99          1
   101          0
   102          1
   103          8
   104        101
   105        999
   106        137
   107          9
   108          1
   109          0
   111          0
   113          1
   115          6
   116          4
   117         58
   118         17
   119         56
   120          6
   121          1
   122          0
   125          0
   127          0
   128          2
   129          4
   130          0
   131         17
   132          4
   133         21
   134          4
   135          0
   141          1
   142          0
   143          1
   144          0
   145          5
   146          1
   147         17
   148          3
   149          0
   150          0
   151          0
   159          2
   160          1
   161          7
   162          1
   167          0
   173          1
   175          4
   177          0
   178          0
   179          0
   187          0
   188          0
   189          2
   190          0
   202          0
   216          5
   217          4
   218          1
   219          1
   222          0
   228          1
   229          0
   230         40
   231         35
   232          6
   233          1
   234          0
   243          3
   244          2
   245          1
   246          0
   256          1
   258          3
   259          1
   260          0
   270          0
   271          0
   272          4
   273          1
   274          0
   286          1
   287          0
   301          0
   314          0
   315          2
   320          0
   344          0
   350          0
   356          1
   358        123
   359         34
   360          5
   361          0