##TITLE=Library Entry 11554
##JCAMP-DX=Revision 4.10 
##DATA TYPE=MASS SPECTRUM
##SAMPLE DESCRIPTION=Div. of Experiment Therapeutics WRAIR, WRAMC, Washingto
n DC 20307
##NAMES=HP
##CAS NAME=Carboisopropoxy phenylcarbamoyl disulfide
##MOLFORM=C11H13NO3S2
##CAS REGISTRY NO=26555-44-2
##MP= -300
##BP= -300
##MW= 271
##$RETENTION INDEX=0
##$CONDENSED SPECTRUM=NO
##NPOINTS= 53
##XYDATA=(XY..XY) 1 
    41        174
    43        999
    44         22
    45         50
    47          5
    49         35
    50         19
    51         58
    52         17
    54          2
    59         20
    60         13
    61         16
    62         14
    63         42
    64         82
    65        100
    66         32
    68          3
    75         23
    77        158
    78         14
    80          7
    82          5
    84         25
    86         19
    87         21
    90          2
    91         98
    92        111
    93         51
    97         10
    98         12
   108         86
   110         35
   112          2
   119        220
   120        232
   121         19
   124         28
   137          6
   142         15
   152        202
   153         19
   154         17
   162          2
   179          6
   184         23
   185         40
   186          8
   212         11
   229          2
   271          9