##TITLE=Library Entry 3802
##JCAMP-DX=Revision 4.10 
##DATA TYPE=MASS SPECTRUM
##SAMPLE DESCRIPTION=Mark Whitten, Florida Museum of Natural History, U. of
 Florida
##NAMES=HP
##CAS NAME=1,3,6,10-Dodecatetraene, 3,7,11-trimethyl-, (Z,E)-
##MOLFORM=C15H24
##CAS REGISTRY NO=26560-14-5
##MP= -300
##BP= -300
##MW= 204
##$RETENTION INDEX=1491
##$CONDENSED SPECTRUM=NO
##NPOINTS= 79
##XYDATA=(XY..XY) 1 
    41        999
    42         50
    43        182
    44          6
    50         11
    51         59
    52         31
    53        204
    55        421
    56         73
    57         39
    58          3
    62          2
    63         17
    65         91
    66         30
    67        121
    69        428
    70         42
    71          3
    75          2
    77        266
    78         55
    79        341
    80         85
    81        146
    82         24
    83         14
    84          8
    89          5
    91        347
    92        114
    93        836
    94        100
    95         42
    96          5
    97          8
   102          3
   103         21
   104         12
   105        206
   106         43
   107        336
   108         39
   109         46
   110          6
   111          6
   112          3
   115         18
   116          6
   117         22
   119        614
   120        103
   121         60
   122         17
   123         43
   124          6
   127          1
   128          4
   129          3
   130          1
   131          4
   132          3
   133         40
   134         23
   135         29
   136         14
   141          1
   145          2
   147         16
   148         14
   149          3
   161         41
   162          8
   175          3
   176          2
   189         19
   190          2
   204          9