##TITLE=Library Entry 92658
##JCAMP-DX=Revision 4.10 
##DATA TYPE=MASS SPECTRUM
##SAMPLE DESCRIPTION=Chemical Concepts
##NAMES=HP
##CAS NAME=2-Butenedioic acid, 2-methoxy-, dimethyl ester
##MOLFORM=C7H10O5
##CAS REGISTRY NO=26579-97-5
##MP= -300
##BP= -300
##MW= 174
##$RETENTION INDEX=0
##$CONDENSED SPECTRUM=NO
##NPOINTS= 90
##XYDATA=(XY..XY) 1 
    25         11
    26         44
    27         94
    28         84
    29         96
    30         16
    31         54
    33          6
    37          2
    38          4
    39         30
    40          7
    41        105
    42         44
    43         74
    44         37
    45        150
    46          5
    47        389
    48         11
    52          9
    53        151
    54         23
    55         63
    56         90
    57         39
    58         11
    59        401
    60         14
    61          6
    65          4
    67          5
    68         13
    69        981
    70         47
    71         15
    72          7
    74          9
    75         16
    77          5
    79          7
    81         25
    82         44
    83         45
    84         28
    85         86
    86         16
    87         28
    88          5
    91          6
    95          4
    96          4
    97          7
    98          4
    99         11
   100         17
   101        158
   102         10
   103          5
   105          5
   107          3
   108          3
   109         36
   110        188
   111         18
   112         11
   113        152
   114         55
   115        999
   116         86
   117         11
   127        134
   128         10
   129         24
   131          5
   133          6
   141         18
   142        232
   143        799
   144         61
   145         64
   146          9
   156          6
   157          4
   159        247
   160         19
   161          5
   174         72
   175          6
   176          0