##TITLE=Library Entry 83336
##JCAMP-DX=Revision 4.10 
##DATA TYPE=MASS SPECTRUM
##SAMPLE DESCRIPTION=Chemical Concepts
##NAMES=HP
##CAS NAME=N,N'-Bis(4-aminophenyl)isophthalamide
##MOLFORM=C20H18N4O2
##CAS REGISTRY NO=2658-06-2
##MP= -300
##BP= -300
##MW= 346
##$RETENTION INDEX=0
##$CONDENSED SPECTRUM=NO
##NPOINTS= 105
##XYDATA=(XY..XY) 1 
    36         11
    38         23
    39        659
    41         70
    42         48
    43         98
    44         25
    45         12
    50        107
    51         81
    52        130
    53        196
    54         60
    55         64
    56         26
    57         52
    59         11
    60          8
    61          8
    62         12
    63         43
    65         85
    66         15
    67         19
    68         21
    69         23
    70         18
    71         18
    72          4
    73         11
    76        453
    77         95
    78         41
    80        509
    81         47
    82         11
    83         15
    84         10
    90         22
    91         34
    92         20
    93         16
    94          1
    96          6
    97          8
   102          8
   104        206
   105         97
   107        999
   108        133
   109         74
   110          9
   111          3
   112          6
   115          4
   117          3
   118         11
   119         19
   120         25
   121          8
   123          1
   125          5
   127         10
   128          9
   129          9
   130          7
   133         11
   134         23
   135          9
   139          9
   140          3
   145          1
   149         10
   151          1
   152          3
   153          3
   154         14
   155          4
   156          3
   157          5
   165          5
   166         41
   167         29
   168         18
   170          3
   171         17
   173         20
   181         17
   182         39
   183         40
   185        444
   186         40
   193          5
   194          7
   209          1
   211        188
   212         26
   235          1
   237         16
   239        335
   240         37
   241          4
   346        568
   347        104
   348          9