##TITLE=Library Entry 891
##JCAMP-DX=Revision 4.10 
##DATA TYPE=MASS SPECTRUM
##SAMPLE DESCRIPTION=Exported from NIST MS Search
##NAMES=HP
##CAS NAME=Aziridine, 2,2-dimethyl-
##MOLFORM=C4H9N
##CAS REGISTRY NO=2658-24-4
##MP= -300
##BP= -300
##MW= 71
##$RETENTION INDEX=629
##$CONDENSED SPECTRUM=NO
##NPOINTS= 22
##XYDATA=(XY..XY) 1 
    15        180
    26        100
    27        350
    28        930
    29        180
    30        999
    31         40
    37         70
    38        130
    39        610
    40        150
    41        570
    42        670
    43        130
    44         50
    54        100
    55         50
    56        820
    57         50
    70        300
    71        350
    72         50