##TITLE=Library Entry 68340
##JCAMP-DX=Revision 4.10 
##DATA TYPE=MASS SPECTRUM
##SAMPLE DESCRIPTION=E. Zissis, LC, NIDDK, NIH, Bethesda, MD 20892
##NAMES=HP
##CAS NAME=1,1-Cyclohexanedimethanol
##MOLFORM=C8H16O2
##CAS REGISTRY NO=2658-60-8
##MP= -300
##BP= -300
##MW= 144
##$RETENTION INDEX=0
##$CONDENSED SPECTRUM=NO
##NPOINTS= 94
##XYDATA=(XY..XY) 1 
    41        409
    42         37
    43        115
    44         15
    45         40
    46          1
    47          1
    48          0
    49          0
    50          8
    51         26
    52         13
    53        117
    54         88
    55        352
    56         30
    57        123
    58          8
    59          2
    60          2
    61          4
    62          2
    63          6
    64          2
    65         43
    66         33
    67        532
    68        115
    69        185
    70         37
    71         18
    72          1
    73          3
    74          1
    75          1
    76          1
    77         75
    78         41
    79        154
    80         49
    81        401
    82         54
    83         54
    84         15
    85          4
    86          1
    87          1
    89          1
    90          0
    91         74
    92          9
    93        143
    94        107
    95        999
    96        870
    97        107
    98         10
    99          1
   103          2
   104          1
   105          7
   106         15
   107          7
   108         28
   109         17
   110          3
   111         16
   112         68
   113         79
   114         11
   115          2
   116          1
   117          2
   118          0
   119          2
   120          0
   121          0
   122          0
   123          1
   124          7
   125          2
   126         23
   127          7
   128          1
   129          1
   131          0
   133          0
   135          0
   136          0
   139          0
   141          0
   143          1
   144         10
   145          1