##TITLE=Library Entry 63000
##JCAMP-DX=Revision 4.10 
##DATA TYPE=MASS SPECTRUM
##SAMPLE DESCRIPTION=Japan AIST/NIMC Database- Spectrum MS-IW-1960
##NAMES=HP
##CAS NAME=(3Alpha,3abeta,6abeta)-2,5-diphenyl-3-(2-thienyl)-2,3,3a,6a-tetra
hydropyrrolo(3,4-d)isoxazole-4,6(5H)-dione
##MOLFORM=C21H16N2O3S
##CAS REGISTRY NO=26597-05-7
##MP= -300
##BP= -300
##MW= 376
##$RETENTION INDEX=0
##$CONDENSED SPECTRUM=NO
##NPOINTS= 272
##XYDATA=(XY..XY) 1 
    25          1
    26         39
    27         14
    28         11
    29          1
    32          3
    34          1
    37          9
    38         24
    39         84
    40         11
    41         23
    42          8
    43          3
    44          8
    45         43
    46          2
    47          2
    49          2
    50         31
    51        163
    52         36
    53         18
    54        108
    55         17
    56          1
    57          5
    58         18
    59          3
    60          2
    61          5
    62         10
    63         51
    64        152
    65         71
    66         24
    67          5
    68          1
    69         30
    70         33
    71          9
    72          8
    73          3
    74          9
    75         11
    76         20
    77        522
    78         54
    79          5
    80         15
    81          3
    82         20
    83         15
    84         43
    85          7
    86          6
    87          3
    88          3
    89         13
    90         32
    91        999
    92         89
    93         92
    94         59
    95         26
    96         39
    97         33
    98          5
    99          4
   100          5
   101          7
   102         13
   103         82
   104        110
   105         11
   106          2
   107         14
   108         25
   109         38
   110         68
   111        101
   112         13
   113          7
   114          3
   115         29
   116         17
   117         70
   118          9
   119        148
   120         44
   121         29
   122         48
   123          6
   124          4
   125          2
   126          6
   127          6
   128         40
   129        107
   130         27
   131          9
   132          5
   133          2
   134          6
   135          9
   136         19
   137         52
   138         24
   139         27
   140          8
   141          5
   142          9
   143          5
   144         28
   145         47
   146         11
   147          6
   148          5
   149          5
   150         95
   151         11
   152          9
   153         12
   154         13
   155          2
   156          2
   157          1
   158          5
   159          7
   160         11
   161          4
   162          2
   163          1
   164          4
   165         26
   166          9
   167         14
   168          6
   169          2
   170          4
   171          8
   172         18
   173        576
   174        187
   175        110
   176         17
   177          7
   178          6
   179          4
   180          3
   181          1
   182          1
   183          3
   184          9
   185         13
   186        531
   187        418
   188        188
   189        115
   190         16
   191          8
   192          1
   194          1
   195          1
   196          5
   197          1
   198          5
   199         18
   200         22
   202        134
   203        312
   204         48
   205         17
   206          2
   208          1
   209         12
   210         44
   211         99
   212         69
   213         17
   214          5
   215          1
   219          1
   222          1
   223          2
   224          1
   225          2
   226         80
   227         20
   228         60
   229         11
   230          7
   231          1
   235          1
   236          1
   237          4
   238         54
   239         28
   240         11
   241          5
   242          3
   243          1
   247          9
   248          2
   249          1
   251          1
   252          1
   253          1
   254          4
   255          5
   256         23
   257         20
   258          6
   259          1
   266          5
   267          2
   268          6
   269          4
   270          1
   275          2
   276          1
   278          2
   281          1
   282          4
   283          8
   284          7
   285          3
   286          3
   293          1
   297          5
   298          1
   299          1
   301          4
   302          1
   303          1
   311          2
   312          2
   313          6
   314          2
   315          1
   317          6
   318          2
   319          1
   327          7
   328          3
   329          6
   330          4
   331          3
   332          1
   341          2
   343          1
   344          1
   345          2
   346          3
   347         11
   348          4
   349          1
   355          1
   356         23
   357         19
   358        152
   359         40
   360         48
   361         11
   362          3
   374         16
   375          4
   376        412
   377        101
   378         49
   379          9
   380          2