##TITLE=Library Entry 4981
##JCAMP-DX=Revision 4.10 
##DATA TYPE=MASS SPECTRUM
##SAMPLE DESCRIPTION=Exported from NIST MS Search
##NAMES=HP
##CAS NAME=Propionic acid, 3-[[2-(carboxyamino)ethyl]dithio]-, N-benzyl meth
yl ester
##MOLFORM=C14H19NO4S2
##CAS REGISTRY NO=26599-16-6
##MP= -300
##BP= -300
##MW= 329
##$RETENTION INDEX=0
##$CONDENSED SPECTRUM=NO
##NPOINTS= 36
##XYDATA=(XY..XY) 1 
    42        999
    55        206
    58        303
    59        303
    65        242
    74        103
    77        169
    79        133
    91        412
    92        290
   105         30
   106         42
   107         12
   108         78
   109         72
   118         72
   119        175
   120         72
   121         36
   122         12
   123         42
   124         42
   125         12
   148         36
   149         42
   178        193
   179         24
   209         24
   210         24
   211         12
   222         18
   238         12
   297         24
   329        121
   330         18
   331         12