##TITLE=Library Entry 24426
##JCAMP-DX=Revision 4.10 
##DATA TYPE=MASS SPECTRUM
##SAMPLE DESCRIPTION=NIST Mass Spectrometry Data Center
##NAMES=HP
##CAS NAME=Hexacosanal
##MOLFORM=C26H52O
##CAS REGISTRY NO=26627-85-0
##MP= -300
##BP= -300
##MW= 380
##$RETENTION INDEX=2832
##$CONDENSED SPECTRUM=NO
##NPOINTS= 124
##XYDATA=(XY..XY) 1 
    25          2
    26          5
    27         10
    29        107
    30          3
    31          4
    36          2
    39         36
    40         11
    41        375
    42         93
    43        915
    44        173
    45         68
    46          4
    53         18
    54         73
    55        653
    56        207
    57        999
    58         67
    59          6
    60         12
    61          5
    66         97
    67        364
    68        439
    69        326
    70        197
    71        510
    72         72
    73         14
    79         13
    80         46
    81        197
    82        877
    83        557
    84         98
    85        268
    86         25
    94         14
    95        268
    96        523
    97        371
    98         81
    99         59
   100         14
   102          3
   104          5
   108         10
   109        167
   110        167
   111        159
   112         33
   113         27
   114          7
   116          9
   120          8
   123        102
   124        116
   125         68
   126         23
   127         19
   128         13
   137         45
   138         64
   139         23
   140          7
   141         10
   143          9
   144          6
   146          4
   147          6
   151         23
   152         28
   155          6
   160          3
   166         14
   167          9
   168         10
   169          4
   170          3
   177          5
   179          8
   180         15
   181          5
   182          7
   185          4
   196          5
   199          3
   208         13
   209          9
   210          7
   214          2
   218          6
   221          9
   222         13
   224          3
   226          3
   231          2
   233          3
   235          8
   236          8
   237          3
   249          6
   250         15
   251          3
   264         10
   278          4
   291          5
   292          8
   293          3
   305          8
   306         17
   319          4
   320         12
   321          5
   334         30
   335         12
   336          5
   362         87
   363         20
   364          5
   380          4