##TITLE=Library Entry 69210
##JCAMP-DX=Revision 4.10 
##DATA TYPE=MASS SPECTRUM
##SAMPLE DESCRIPTION=Exported from NIST MS Search
##NAMES=HP
##CAS NAME=cis,syn,cis-Perhydrophenanthrene
##MOLFORM=C14H24
##CAS REGISTRY NO=26634-41-3
##MP= -300
##BP= -300
##MW= 192
##$RETENTION INDEX=0
##$CONDENSED SPECTRUM=NO
##NPOINTS= 37
##XYDATA=(XY..XY) 1 
    53        110
    54        210
    55        470
    56         47
    57         84
    67        900
    68        190
    69        130
    77        120
    79        270
    80         95
    81        840
    82        320
    83        110
    91         95
    93        150
    94        240
    95        260
    96        999
    97        580
   107         83
   108         72
   109        160
   110        200
   111         37
   121        300
   122         63
   123         53
   135        820
   136        110
   149         79
   150         90
   163         95
   164         47
   192        680
   193        105
   194          7