##TITLE=Library Entry 21765
##JCAMP-DX=Revision 4.10 
##DATA TYPE=MASS SPECTRUM
##SAMPLE DESCRIPTION=A.A.Kutin, Moscow, Russia
##NAMES=HP
##CAS NAME=Propanamide, N-(4-chlorophenyl)-3-(1,2-dihydro-5-trifluoromethyl-
2-oxopyridinyl)-
##MOLFORM=C15H12ClF3N2O2
##CAS REGISTRY NO=266303-47-3
##MP= -300
##BP= -300
##MW= 344
##$RETENTION INDEX=0
##$CONDENSED SPECTRUM=NO
##NPOINTS= 180
##XYDATA=(XY..XY) 1 
    33          1
    34          0
    35          1
    36          5
    37          5
    38         17
    39         31
    40          7
    41         16
    42         11
    43          8
    44          8
    45          2
    46          1
    47          1
    49          4
    50         15
    51         26
    52         14
    53          9
    55        999
    56         39
    57         32
    58          2
    59          2
    60          3
    61          3
    62         10
    63         38
    64         25
    65         26
    66          6
    67          4
    68          2
    69         20
    70          5
    71          5
    72          4
    73         23
    74          8
    75         41
    76          8
    77          8
    78         13
    79         11
    80          1
    81          2
    82          2
    83          3
    84          4
    85         10
    86          1
    87          5
    88         16
    89         12
    90         23
    91         19
    92         18
    93          8
    94          2
    95          7
    96          2
    97          3
    98         10
    99         63
   100         13
   101         55
   102          7
   103          1
   104          3
   105          2
   106          2
   107         19
   108          4
   109          2
   111         22
   112          4
   113          9
   114         13
   115         13
   116         24
   117          5
   118          4
   119          6
   120          4
   121          4
   122          2
   123          1
   124          3
   125         17
   126         51
   127        268
   128         53
   129         86
   130          8
   131          1
   132          2
   133          5
   134          7
   135         62
   136          4
   137          1
   138          3
   139          2
   140          7
   141          2
   142          7
   143          2
   144         11
   145          4
   146         65
   147          9
   148         37
   149          6
   150          1
   151          1
   152          3
   153         10
   154          6
   155          4
   156          2
   157          0
   158          0
   159          0
   160          1
   161          6
   162          8
   163         36
   164         51
   165          4
   166          1
   167          0
   168          0
   169          0
   170          0
   171          2
   172          7
   173          1
   174          0
   175          0
   176          2
   177          1
   178          0
   179          1
   180         15
   181        126
   182         25
   183         42
   184          6
   185          0
   187          0
   188         10
   189          3
   190         23
   191          5
   192          0
   197          0
   198          0
   199          0
   200          0
   214          0
   215          1
   216          2
   218        316
   219         31
   220          2
   221          0
   251          0
   252          1
   253          0
   254          0
   325         18
   326          3
   327          6
   328          1
   344         47
   345          8
   346         14
   347          2
   348          0