##TITLE=Library Entry 13977
##JCAMP-DX=Revision 4.10 
##DATA TYPE=MASS SPECTRUM
##SAMPLE DESCRIPTION=LAC, NIDDK, NIH, Bethesda, MD 20892
##NAMES=HP
##CAS NAME=Neopregnenolone
##MOLFORM=C20H26O2
##CAS REGISTRY NO=26634-40-2
##MP= -300
##BP= -300
##MW= 298
##$RETENTION INDEX=0
##$CONDENSED SPECTRUM=NO
##NPOINTS= 96
##XYDATA=(XY..XY) 1 
    41         62
    43        999
    44         36
    47         10
    49          3
    51          2
    53         26
    55         51
    57          9
    63          4
    65         11
    67         12
    69         15
    71         25
    77         25
    78          2
    79         17
    81         13
    84          4
    85         12
    86          7
    89          6
    91         30
    93          5
    95          6
    97          6
    98          3
   103          4
   105         12
   115         61
   116          7
   117         13
   119          4
   127         22
   128         50
   129         28
   130          4
   131         10
   139          7
   141         78
   142         29
   143         47
   144          6
   145          9
   151          7
   152         36
   153         49
   154         27
   155         29
   156          6
   157         13
   159          4
   165         43
   166         22
   167         38
   168         24
   169         33
   170         10
   171          6
   178         23
   179         30
   180         19
   181         38
   182         18
   183         23
   184          7
   189          3
   190          3
   191          6
   192          1
   193         13
   194         13
   195         73
   196         22
   197         12
   201         26
   203          2
   205          2
   207         12
   209         19
   210         30
   211         10
   213         10
   221         10
   222         25
   223          8
   227          1
   228          6
   235          6
   237        157
   238         30
   265         19
   280         60
   281         14
   298         88
   299         16