##TITLE=Library Entry 47642
##JCAMP-DX=Revision 4.10 
##DATA TYPE=MASS SPECTRUM
##SAMPLE DESCRIPTION=NIST Mass Spectrometry Data Center
##NAMES=HP
##CAS NAME=Benzoic acid, 2-(chlorosulfonyl)-, methyl ester
##MOLFORM=C8H7ClO4S
##CAS REGISTRY NO=26638-43-7
##MP= -300
##BP= -300
##MW= 234
##$RETENTION INDEX=0
##$CONDENSED SPECTRUM=NO
##NPOINTS= 98
##XYDATA=(XY..XY) 1 
    12          8
    13         13
    15        257
    16         36
    17         13
    25         10
    26         16
    27         30
    28         41
    29        154
    30         55
    31         21
    32         65
    35         24
    36         37
    37         42
    38         87
    39        107
    44         11
    45         24
    48        270
    50        714
    51        412
    52         54
    53         39
    58         12
    59         57
    61         26
    62         39
    63        125
    64        380
    65         60
    66         22
    68          6
    69         57
    70         44
    71         16
    73         34
    74        265
    75        271
    76        593
    77        999
    78         88
    79         84
    80         11
    81         18
    82         14
    84          9
    85         15
    89          9
    90          8
    91         46
    92        255
    93         25
    95         34
    96         52
    97         17
   104        223
   105        784
   106         73
   107         10
   108         28
   109         18
   111        367
   112         26
   113        127
   114          8
   119         24
   120        144
   121         30
   122         12
   125         10
   127          9
   135        336
   136        284
   137         36
   139         89
   141         33
   147          8
   152         53
   153         14
   168         11
   169         26
   170          9
   183         23
   184          2
   185         23
   199        937
   200         93
   201         51
   203        792
   204         67
   205        261
   206         26
   207         12
   234         60
   235          7
   236         26