##TITLE=Library Entry 59980
##JCAMP-DX=Revision 4.10 
##DATA TYPE=MASS SPECTRUM
##SAMPLE DESCRIPTION=Exported from NIST MS Search
##NAMES=HP
##CAS NAME=Carbamic acid, (thiodiethylene)di-, dibenzyl ester
##MOLFORM=C20H24N2O4S
##CAS REGISTRY NO=26630-73-9
##MP= -300
##BP= -300
##MW= 388
##$RETENTION INDEX=0
##$CONDENSED SPECTRUM=NO
##NPOINTS= 38
##XYDATA=(XY..XY) 1 
    39         75
    40         17
    41         43
    42         46
    43         24
    44         24
    45         24
    46         14
    51         14
    52         43
    53         14
    56         14
    61         17
    63         14
    66         17
    67        101
    71         18
    75         60
    77         66
    80         92
    86         24
    88         14
    89         14
    90         47
    91        999
    92         79
   103         43
   105         29
   106         14
   108         43
   110         53
   117         17
   132         66
   137         17
   145         21
   146         14
   151         17
   237         43