##TITLE=Library Entry 13107
##JCAMP-DX=Revision 4.10 
##DATA TYPE=MASS SPECTRUM
##SAMPLE DESCRIPTION=TNO Volatile Compounds in Food - Chemical Concepts
##NAMES=HP
##CAS NAME=Benzeneacetaldehyde, .alpha.-(2-methylpropylidene)-
##MOLFORM=C12H14O
##CAS REGISTRY NO=26643-91-4
##MP= -300
##BP= -300
##MW= 174
##$RETENTION INDEX=1383
##$CONDENSED SPECTRUM=NO
##NPOINTS= 113
##XYDATA=(XY..XY) 1 
    26         29
    27        514
    29        252
    30          8
    31         70
    34          1
    37         13
    38         36
    39        483
    40         83
    41        571
    42         47
    43        999
    44         30
    45         30
    47          2
    49          3
    50        158
    51        425
    52        106
    53        167
    54         13
    55        154
    56        211
    57         95
    58         30
    59         12
    61         11
    62         59
    63        214
    64         78
    65        186
    66         22
    67         91
    68         22
    69         56
    70         22
    71        474
    72         63
    73         68
    74         81
    75         99
    76        114
    77        451
    78        124
    79         93
    80          5
    81         57
    82          7
    83        192
    84         16
    85         30
    86         19
    87         33
    88         16
    89        188
    90         36
    91        701
    92         67
    93          4
    95         25
    96          6
    97         26
    98        139
    99         15
   100          4
   101         28
   102        164
   103        892
   104        206
   105        227
   106         19
   107          4
   110          2
   111         17
   113         15
   114         11
   115        435
   116        170
   117        331
   118         65
   119         12
   120          6
   126         22
   127        122
   128        329
   129        275
   130        156
   131        514
   132         63
   133         12
   139          9
   140          3
   141        152
   142         28
   143        179
   144         89
   145        222
   146         29
   147          3
   153          2
   154          3
   155         30
   156         57
   157         17
   158         12
   159        274
   160         32
   161          7
   173         49
   174        912
   175        127
   176         11