##TITLE=Library Entry 53950
##JCAMP-DX=Revision 4.10 
##DATA TYPE=MASS SPECTRUM
##SAMPLE DESCRIPTION=NIST Mass Spectrometry Data Center
##NAMES=HP
##CAS NAME=2-Butene, 1,4-dimethoxy-
##MOLFORM=C6H12O2
##CAS REGISTRY NO=26649-86-5
##MP= -300
##BP= -300
##MW= 116
##$RETENTION INDEX=884
##$CONDENSED SPECTRUM=NO
##NPOINTS= 57
##XYDATA=(XY..XY) 1 
    14          2
    15         32
    16          1
    25          1
    26         14
    27         88
    28         48
    29        170
    30         18
    31         28
    32          1
    33         12
    37          7
    38         23
    39        272
    40         33
    41        570
    42         50
    43        110
    45        479
    46         11
    47         22
    48          1
    49          2
    50         23
    51         36
    52         19
    53        217
    54        120
    55        311
    56         69
    57         24
    58        113
    59         13
    60          1
    65          2
    66          1
    67          2
    68         31
    69        514
    70         33
    71        634
    72         32
    73          3
    75         80
    76          3
    81          1
    83         19
    84        999
    85        146
    86          9
    99          4
   100          4
   101          3
   114          1
   115          4
   116          1