##TITLE=Library Entry 78330
##JCAMP-DX=Revision 4.10 
##DATA TYPE=MASS SPECTRUM
##SAMPLE DESCRIPTION=ASES Database, Dalian Institute, P.R. China
##NAMES=HP
##CAS NAME=1,1-Difluoro-2,2,3-trimethyl-cyclopropane
##MOLFORM=C6H10F2
##CAS REGISTRY NO=26650-62-4
##MP= -300
##BP= -300
##MW= 120
##$RETENTION INDEX=0
##$CONDENSED SPECTRUM=NO
##NPOINTS= 50
##XYDATA=(XY..XY) 1 
    38        101
    39        709
    40        160
    41        827
    42        399
    43         60
    45         20
    46         20
    47         79
    50         49
    51        297
    52         29
    53        199
    54         60
    55        732
    56         80
    57         79
    59        665
    60         59
    61        148
    64         79
    65        717
    66         29
    67         20
    69        168
    70        158
    71         50
    72         39
    73        159
    74         19
    75         69
    76         30
    77        863
    78        219
    79         81
    81          9
    83         39
    84         10
    85        438
    89         40
    90         10
    91         99
    92         81
   100         79
   103         30
   104         30
   105        999
   106        170
   120        290
   121         20