##TITLE=Library Entry 46088
##JCAMP-DX=Revision 4.10 
##DATA TYPE=MASS SPECTRUM
##SAMPLE DESCRIPTION=NIST Mass Spectrometry Data Center
##NAMES=HP
##CAS NAME=Cholest-7-en-3-ol, (3.beta.,5.alpha.)-, TMS derivative
##MOLFORM=C30H54OSi
##CAS REGISTRY NO=2665-03-4
##MP= -300
##BP= -300
##MW= 458
##$RETENTION INDEX=3195
##$CONDENSED SPECTRUM=NO
##NPOINTS= 309
##XYDATA=(XY..XY) 1 
    27         19
    29         48
    39         21
    40          6
    41        248
    42         24
    43        372
    44          9
    45         38
    46          2
    47         21
    50          3
    51          4
    53         31
    54          8
    55        397
    56         80
    57        331
    58         20
    59         41
    60         10
    61         42
    62          3
    63          5
    65         18
    66         11
    67        191
    68         30
    69        309
    70         71
    71        168
    72         15
    73        567
    74         69
    75        999
    76         81
    77        108
    78         22
    79        281
    80         35
    81        430
    82         65
    83        227
    84         34
    85         36
    87          4
    88          5
    89         36
    90          6
    91        414
    92         85
    93        328
    94         93
    95        504
    96         67
    97        100
    98          7
    99         10
   100          2
   101         53
   102          7
   103         45
   104         24
   105        536
   106        173
   107        583
   108        115
   109        230
   110         32
   111         54
   112          9
   113         11
   115         56
   116         54
   117        202
   118         76
   119        377
   120        150
   121        257
   122        102
   123        129
   124         21
   125         20
   126          4
   127         21
   128         51
   129        210
   130         73
   131        290
   132         86
   133        352
   134        152
   135        212
   136         77
   137         60
   138         25
   139          8
   140          4
   141         40
   142         41
   143        176
   144        113
   145        363
   146         90
   147        367
   148        101
   149        125
   150         17
   152         67
   153         12
   154         10
   155         56
   156         26
   157        153
   158         66
   159        299
   160         94
   161        249
   162         49
   163         41
   164          8
   165         64
   166         13
   167         18
   168         17
   169         71
   170         29
   171        122
   172         47
   173        146
   174         40
   175         50
   176         12
   177         20
   178          5
   179         14
   180          6
   181         29
   182         30
   183         65
   184         38
   185        107
   186         49
   187         97
   188         24
   189         35
   190         13
   191         13
   192          4
   193         20
   194          9
   195         24
   196         67
   197         47
   198         18
   199        107
   200         56
   201        113
   202         30
   203         17
   204          4
   205         15
   206         17
   208          5
   209         26
   210         10
   211         25
   212         13
   213        439
   214        104
   215         58
   216         18
   217         15
   218          2
   219         14
   220          8
   221          8
   222          7
   223          6
   224          3
   225          8
   226          9
   227         58
   228         85
   229        270
   230         49
   231         14
   232         10
   233         17
   234          7
   235         21
   236          6
   237          4
   238          5
   239         20
   240          7
   241         29
   242         12
   243         15
   244         11
   245         25
   246         11
   247         52
   248         11
   249          6
   250         21
   251          6
   252          5
   253         19
   254         15
   255        926
   256        194
   257         37
   258          6
   259         24
   260         42
   261         23
   262          9
   263          4
   269          5
   270          2
   271         10
   272          6
   273          5
   274         26
   275         14
   276          5
   277          2
   281          4
   283          7
   284          4
   285          7
   286          4
   287          9
   288          3
   289          9
   290         25
   291         11
   292          5
   297          3
   298          3
   299          5
   300          4
   301          3
   302          3
   303         60
   304         35
   305         11
   306          7
   310          2
   311          9
   312          5
   313         19
   314         18
   315         13
   316          6
   317          6
   318         25
   319         13
   320          5
   321          2
   325         12
   326          9
   327         13
   328          8
   329         21
   330         10
   331          6
   332          5
   339          6
   340          6
   342          4
   343         11
   344          8
   345         91
   346         29
   347          9
   349          1
   351          9
   352          3
   353        209
   354         57
   355          8
   366          9
   367         21
   368         85
   369         25
   370          9
   371          2
   373          4
   374          2
   387          2
   400          1
   401         37
   402         12
   403          3
   430          2
   441          9
   443        237
   444         93
   445         22
   446          7
   447          2
   456         14
   458        919
   459        342
   460         90
   461         18
   462          4