##TITLE=Library Entry 24443
##JCAMP-DX=Revision 4.10 
##DATA TYPE=MASS SPECTRUM
##SAMPLE DESCRIPTION=Japan AIST/NIMC Database- Spectrum MS-NW-9237
##NAMES=HP
##CAS NAME=Trihexadecyl borate
##MOLFORM=C48H99BO3
##CAS REGISTRY NO=2665-11-4
##MP= -300
##BP= -300
##MW= 734
##$RETENTION INDEX=0
##$CONDENSED SPECTRUM=NO
##NPOINTS= 157
##XYDATA=(XY..XY) 1 
    14          2
    15          4
    16          4
    17          3
    18         11
    25          1
    26          7
    27         59
    28         84
    29        167
    30          5
    31         38
    32         15
    36          1
    37          1
    38          2
    39         47
    40         10
    41        390
    42        109
    43        667
    44         33
    45         13
    50          1
    51          3
    52          2
    53         19
    54         64
    55        612
    56        345
    57        999
    58         45
    59          3
    63          1
    65          5
    66         18
    67        132
    68        208
    69        594
    70        323
    71        603
    72         34
    73          9
    75          1
    76          1
    77          6
    78          2
    79         12
    80          9
    81        102
    82        285
    83        613
    84        201
    85        382
    86         26
    87          5
    88          1
    89          1
    91          6
    92          2
    93          5
    94          5
    95         57
    96        138
    97        506
    98        121
    99        176
   100         14
   101          5
   103          1
   104          1
   105          3
   106          1
   107          2
   108          2
   109         25
   110         57
   111        263
   112         78
   113        128
   114         10
   115          4
   116          1
   117          2
   118          1
   119          2
   121          2
   122          2
   123         15
   124         37
   125        134
   126         47
   127        106
   128         10
   129          3
   131          1
   133          1
   135          1
   136          1
   137          8
   138         22
   139         60
   140         31
   141         95
   142         10
   143          2
   145          1
   149          1
   151          3
   152         12
   153         33
   154         20
   155         71
   156          9
   157          2
   165          3
   166          9
   167         20
   168         15
   169         42
   170          6
   171          1
   179          1
   180          5
   181          9
   182          6
   183         15
   184          2
   185          1
   193          1
   194          4
   195          5
   196         29
   197          5
   209          1
   222         16
   223         10
   224         66
   225        330
   226         57
   227          5
   238          1
   239          1
   251          1
   268          1
   269          3
   284          1
   285          3
   286          6
   287         22
   288          4
   301          1
   493          2
   509          2
   510          2
   511          3
   512          1