##TITLE=Library Entry 59248
##JCAMP-DX=Revision 4.10 
##DATA TYPE=MASS SPECTRUM
##SAMPLE DESCRIPTION=A.A.Kutin, Moscow, Russia
##NAMES=HP
##CAS NAME=Piperazine, 1-benzyl-4-(2-methoxybenzyl)-
##MOLFORM=C19H24N2O
##CAS REGISTRY NO=266674-65-1
##MP= -300
##BP= -300
##MW= 296
##$RETENTION INDEX=0
##$CONDENSED SPECTRUM=NO
##NPOINTS= 94
##XYDATA=(XY..XY) 1 
    33         61
    34          1
    36          2
    38         30
    39         63
    40         63
    41         76
    42         74
    45        580
    46        139
    51         44
    52         28
    53          9
    54         22
    55         57
    56         38
    57         11
    58          6
    59          2
    62         11
    63         16
    65        158
    66          1
    68          0
    69         10
    70         11
    71         10
    72         25
    74          0
    77         36
    78         54
    79          4
    81          2
    83         14
    84          4
    85          3
    89         27
    91        999
    93         35
    94          3
    97          2
    99         11
   103          4
   104         19
   105         13
   106         10
   107         15
   108          5
   109          7
   110          0
   117          5
   118         34
   119         44
   121        464
   122         30
   123          2
   131          3
   132         53
   134         58
   136         32
   137         29
   138          0
   144          1
   146         56
   148         51
   149         62
   150        142
   151          9
   152          1
   160          7
   161          6
   162         48
   163         31
   164         58
   165         12
   166          2
   173          3
   175        241
   176         28
   177          5
   178         16
   179          0
   189          0
   190          1
   191          0
   205         66
   206          4
   220          5
   221          0
   267          1
   268          5
   296        155
   297         25
   298          1