##TITLE=Library Entry 83089
##JCAMP-DX=Revision 4.10 
##DATA TYPE=MASS SPECTRUM
##SAMPLE DESCRIPTION=R RYHAGE MS-LAB KAROLINSKA INSTITUTET STOCKHOLM SWEDEN
##NAMES=HP
##CAS NAME=Benzeneacetic acid, .alpha.-amino-, methyl ester
##MOLFORM=C9H11NO2
##CAS REGISTRY NO=26682-99-5
##MP= -300
##BP= -300
##MW= 165
##$RETENTION INDEX=0
##$CONDENSED SPECTRUM=NO
##NPOINTS= 23
##XYDATA=(XY..XY) 1 
    17         26
    18        136
    30         24
    39         17
    43         14
    44         15
    50         18
    51         63
    52         16
    65         15
    66         10
    77        149
    78         32
    79         63
    91         11
    93         32
   104        128
   105         24
   106        999
   107         82
   120         12
   165        297
   166         32