##TITLE=Library Entry 79255
##JCAMP-DX=Revision 4.10 
##DATA TYPE=MASS SPECTRUM
##SAMPLE DESCRIPTION=Leung Pu, NIH, Bethesda, Maryland, U.S.
##NAMES=HP
##CAS NAME=(+)-cis-2-Benzamidocyclohexane-carboxylic acid
##MOLFORM=C14H17NO3
##CAS REGISTRY NO=26685-82-5
##MP= -300
##BP= -300
##MW= 247
##$RETENTION INDEX=0
##$CONDENSED SPECTRUM=NO
##NPOINTS= 93
##XYDATA=(XY..XY) 1 
    41         39
    42          6
    43         27
    44         21
    45         16
    46          9
    49          9
    50         19
    51         78
    52          9
    53         14
    54         14
    55         30
    56         20
    57          7
    63          1
    65          7
    66          2
    67         12
    68          8
    69         16
    70          9
    71          4
    73         12
    74          5
    75          7
    76         24
    77        424
    78         36
    79         34
    80         13
    81         29
    82         12
    83          4
    84         10
    86          7
    88          1
    91         11
    95          1
    96         14
    97          9
    98          6
   103          1
   104         20
   105        999
   106         78
   107          8
   108         16
   109          5
   111          2
   115          1
   121         12
   122        402
   123         31
   124         85
   125         10
   126          7
   127          1
   134         10
   135          6
   142        155
   143         13
   146         20
   147          8
   148          4
   158          3
   160         67
   161         16
   162          2
   165          8
   167          4
   172          7
   173         20
   174         14
   175          5
   186          1
   187          3
   188         10
   200          9
   201         92
   202         63
   203         21
   204         17
   205          1
   210          4
   227          2
   228          6
   229          8
   230          5
   246         20
   247        307
   248         48
   249          6