##TITLE=Library Entry 33069
##JCAMP-DX=Revision 4.10 
##DATA TYPE=MASS SPECTRUM
##SAMPLE DESCRIPTION=F.GAYMARD FACULTY OF SCIENCE, NICE UNIV., NICE, FRANCE
##NAMES=HP
##CAS NAME=Cyclopentane, 1,3-dichloro-, cis-
##MOLFORM=C5H8Cl2
##CAS REGISTRY NO=26688-51-7
##MP= -300
##BP= -300
##MW= 138
##$RETENTION INDEX=0
##$CONDENSED SPECTRUM=NO
##NPOINTS= 30
##XYDATA=(XY..XY) 1 
    38         30
    39        235
    40         45
    41        300
    42         20
    49         30
    50         15
    51         30
    53         20
    55         30
    61         15
    62         90
    63         35
    64         30
    65         70
    66         40
    67        999
    68         55
    69         10
    75         85
    76        105
    77         30
    78         30
   101          7
   102        315
   103        110
   104        105
   105         40
   138         50
   140         35