##TITLE=Library Entry 2732
##JCAMP-DX=Revision 4.10 
##DATA TYPE=MASS SPECTRUM
##SAMPLE DESCRIPTION=NIST Mass Spectrometry Data Center, 1990.
##NAMES=HP
##CAS NAME=1-Octenylsuccinic anhydride
##MOLFORM=C12H18O3
##CAS REGISTRY NO=26680-54-6
##MP= -300
##BP= -300
##MW= 210
##$RETENTION INDEX=0
##$CONDENSED SPECTRUM=NO
##NPOINTS= 108
##XYDATA=(XY..XY) 1 
    14          1
    15         20
    17          7
    18         25
    26         44
    27        491
    28        164
    29        473
    30          8
    32          7
    39        485
    40        100
    41        999
    42        173
    43        160
    44         23
    45         17
    50         28
    51         62
    52         55
    53        235
    54        498
    55        671
    56        102
    57        104
    58          7
    60          8
    63         15
    64         10
    65        103
    66         94
    67        436
    68        294
    69        226
    70         95
    71         80
    72         44
    73         16
    77        117
    78         38
    79        335
    80        129
    81        387
    82        229
    83        344
    84         50
    85         19
    86         18
    91         71
    92         20
    93        103
    94         87
    95        225
    96         97
    97        135
    98         29
    99        127
   100        194
   101         12
   105         27
   106         12
   107         82
   108         76
   109         96
   110        101
   111         31
   112         20
   113         10
   117         44
   119         17
   120         15
   121         92
   122         44
   123        118
   124         28
   125         24
   126         16
   127         17
   128         75
   129          9
   131         15
   135         42
   136         35
   137         65
   138         21
   139         17
   140         20
   141         77
   142         14
   145         12
   146         15
   147         82
   148         16
   149         54
   150         25
   153          9
   154         33
   155         14
   163         48
   164         35
   165         44
   166          9
   167        206
   168         29
   181         20
   192         27
   210         95
   211         15