##TITLE=Library Entry 96203
##JCAMP-DX=Revision 4.10 
##DATA TYPE=MASS SPECTRUM
##SAMPLE DESCRIPTION=V.A.Korolev, Moscow, Russia
##NAMES=HP
##CAS NAME=2-Methylpropyl 3-[(carbamothioylamino)imino]butanoate
##MOLFORM=C9H17N3O2S
##CAS REGISTRY NO=26698-01-1
##MP= -300
##BP= -300
##MW= 231
##$RETENTION INDEX=0
##$CONDENSED SPECTRUM=NO
##NPOINTS= 104
##XYDATA=(XY..XY) 1 
    33         20
    34          4
    35          1
    37          5
    38         22
    39        405
    40         91
    41        943
    42        330
    43        650
    44         66
    45         43
    46         11
    47         19
    48         35
    49          1
    50          3
    51          4
    52          6
    53         17
    54         53
    55         90
    56         85
    57        387
    58         42
    59         82
    60        556
    61         25
    62         29
    64          1
    67         10
    68         12
    69         37
    70        116
    71        228
    72         70
    73         14
    74         30
    75         66
    76         12
    77          5
    82          7
    83          8
    84         27
    85          7
    86          4
    87         28
    88          9
    89        138
    90         19
    91         10
    92          3
    96          7
    97         20
    98        155
    99        104
   100         18
   101          9
   102         16
   112         17
   113          5
   114         24
   115         58
   116        999
   117         60
   118         51
   119          1
   122          1
   124          2
   126          1
   129          7
   130         24
   131         13
   132          3
   133         11
   134          4
   140          4
   141          5
   142          7
   147          2
   153          1
   157          3
   158         43
   159          9
   160         71
   161          4
   162          2
   172          1
   174          1
   175         48
   176         10
   177          2
   178          1
   184          1
   189          1
   190          2
   215          2
   216         25
   217          1
   221          3
   227          1
   231        217
   232         31
   233         12