##TITLE=Library Entry 11414
##JCAMP-DX=Revision 4.10 
##DATA TYPE=MASS SPECTRUM
##SAMPLE DESCRIPTION=V.A.Korolev, Moscow, Russia
##NAMES=HP
##CAS NAME=Propan-2-yl 3-[(carbamothioylamino)imino]butanoate
##MOLFORM=C8H15N3O2S
##CAS REGISTRY NO=26697-99-4
##MP= -300
##BP= -300
##MW= 217
##$RETENTION INDEX=0
##$CONDENSED SPECTRUM=NO
##NPOINTS= 59
##XYDATA=(XY..XY) 1 
    33         14
    38         20
    39        315
    40         72
    41        595
    42        269
    43        999
    44         73
    45        191
    46         12
    47         13
    48         22
    50          3
    54         36
    55         28
    56         25
    57         37
    58         18
    59         76
    60        465
    61         17
    62         22
    69         24
    70         87
    71        153
    72         48
    73         10
    74         19
    75         41
    82          7
    83          6
    84         15
    87         21
    88         10
    89         45
    90          6
    97         14
    98        104
    99         45
   100          4
   101          6
   102          5
   114         12
   115         36
   116        650
   117         33
   118         28
   119          8
   129         14
   130         19
   132          3
   133          7
   158         45
   160         44
   175         12
   202         14
   217        166
   218         19
   219          7