##TITLE=Library Entry 40915
##JCAMP-DX=Revision 4.10 
##DATA TYPE=MASS SPECTRUM
##SAMPLE DESCRIPTION=R.T.HOLMAN,UNIVERSITY OF MINNESOTA
##NAMES=HP
##CAS NAME=Hexadecanoic acid, 1,4-butanediyl ester
##MOLFORM=C36H70O4
##CAS REGISTRY NO=26719-63-1
##MP= -300
##BP= -300
##MW= 566
##$RETENTION INDEX=0
##$CONDENSED SPECTRUM=NO
##NPOINTS= 293
##XYDATA=(XY..XY) 1 
    26          8
    27         83
    28         83
    29        208
    30          7
    31         12
    32          4
    35          2
    36          7
    37          2
    38          4
    39         48
    40         14
    41        428
    42        166
    43        928
    44         44
    45         17
    51          4
    52          4
    53         24
    54        220
    55        994
    56        190
    57        827
    58         58
    59         24
    60         89
    61         25
    62          2
    63          3
    64          2
    65          5
    66          7
    67        101
    68         80
    69        357
    70        113
    71        773
    72         52
    73        999
    74         50
    75          6
    76          3
    77          7
    78          3
    79         24
    80         16
    81        125
    82         66
    83        297
    84        434
    85        297
    86         51
    87         36
    88          5
    89         12
    91         26
    92          5
    93         23
    94         17
    95        148
    96         59
    97        238
    98        678
    99        107
   100         20
   101         30
   102          7
   103          5
   104         10
   105          7
   106          3
   107         20
   108         14
   109         83
   110         30
   111        119
   112        255
   113         52
   114        184
   115        232
   116         22
   117          4
   118          2
   119          5
   120          3
   121         30
   122          9
   123         41
   124         18
   125         54
   126         77
   127        220
   128         28
   129         31
   130         14
   131         10
   132         17
   133        125
   134         10
   135         26
   136          8
   137         25
   138         16
   139         30
   140         39
   141         30
   142         11
   143         14
   144          8
   145          5
   146          1
   147          2
   148          2
   149         14
   150          5
   151         10
   152         13
   153         22
   154         64
   155         25
   156         13
   157         14
   158          6
   159          2
   160          1
   161          2
   162          2
   163          8
   164          4
   165          7
   166          7
   167         16
   168         32
   169         25
   170         12
   171         13
   172          5
   173          4
   174         27
   175          5
   176          2
   177          5
   178          3
   179          4
   180          4
   181         13
   182         43
   183         37
   184         10
   185         11
   186          5
   187          8
   188          8
   189          2
   191          4
   192          6
   193          4
   194         11
   195         14
   196         22
   197         14
   198          5
   199          7
   200          5
   201          6
   202         19
   203          4
   204          2
   205          2
   206          2
   207          3
   208          2
   209         10
   210          8
   211         11
   212          5
   213         12
   214          4
   215         10
   216         17
   217          5
   218          4
   219         17
   220          9
   221          5
   222          2
   223          4
   224          3
   225         12
   226          4
   227          5
   228          3
   229          7
   230         13
   231          3
   234          2
   235          2
   236         23
   237         39
   238        214
   239        517
   240         95
   241         12
   242          3
   243          5
   244          5
   245          1
   250          1
   251          2
   252          3
   253          7
   254         17
   255         30
   256         30
   257         83
   258         17
   259          3
   265          3
   266          1
   267         21
   268          5
   269          2
   271          4
   272          5
   273          2
   279          1
   280         27
   281         19
   282          7
   283          8
   284          2
   285          4
   286          5
   287          1
   292          1
   293          3
   294          6
   295          5
   296          4
   297          8
   298         10
   299          5
   300          4
   301          2
   308          7
   309         16
   310        267
   311        339
   312         70
   313         10
   314          4
   328          1
   329         19
   330          3
   331          0
   355          6
   356          2
   367          2
   370         89
   371         22
   372          4
   373          1
   379          2
   381          4
   382          2
   383          1
   398          2
   412          1
   426          1
   427          1
   440          2
   448          1
   454          2
   455          1
   460          1
   468          1
   469          1
   476          3
   477          2
   482          2
   494          1
   496          2
   497          1
   510          1
   511          1
   524          1
   538          1
   548          1
   566         11
   567          5
   568          1