##TITLE=Library Entry 30549
##JCAMP-DX=Revision 4.10 
##DATA TYPE=MASS SPECTRUM
##SAMPLE DESCRIPTION=D.HENNEBERG, MAX-PLANCK INSTITUTE, MULHEIM, WEST GERMAN
Y
##NAMES=HP
##CAS NAME=Propanedioic acid, ethyl-, dimethyl ester
##MOLFORM=C7H12O4
##CAS REGISTRY NO=26717-67-9
##MP= -300
##BP= -300
##MW= 160
##$RETENTION INDEX=1011
##$CONDENSED SPECTRUM=NO
##NPOINTS= 90
##XYDATA=(XY..XY) 1 
    22          0
    23          0
    25          1
    26         16
    27        118
    28         65
    29        117
    30         17
    31         42
    32         14
    33          5
    34          0
    35          1
    36          1
    37          5
    38          8
    39        100
    40         20
    41        164
    42         46
    43         20
    44         25
    45         38
    46          0
    47          4
    48          1
    49          0
    50          0
    51          0
    52          0
    53          9
    54          4
    55        229
    56         14
    57         13
    58          5
    59        999
    60         29
    61          4
    62          0
    66          0
    67          1
    68         20
    69        263
    70         52
    71         13
    72          3
    73          4
    74         21
    75          2
    76          4
    77          0
    78          0
    79          0
    81          0
    82          0
    83          0
    85         27
    86          1
    87          8
    88         12
    89          0
    91          3
    92          0
    94          0
    95          0
    96          0
    97          4
    98          1
    99          6
   100        188
   101        212
   102         14
   103          1
   105          0
   113         10
   114          0
   115          4
   116          0
   117          1
   127          1
   128         14
   129        222
   130         15
   131          3
   132        384
   133         22
   134          2
   135          0
   145          1